<?xml version="1.0"?>
<VTKFile type="UnstructuredGrid" version="0.1" byte_order="LittleEndian">
<UnstructuredGrid>
<Piece NumberOfPoints="31201" NumberOfCells="10970">
<Points>
<DataArray type="Float64" NumberOfComponents="3" format="ascii">
-0.5 -0.5 0 -0.48594492841721121 -0.47918156622522318 0 -0.48039274807335941 -0.500000000000001 0 -0.5 -0.5 0 -0.48594492841721121 -0.47918156622522318 0 -0.49403590438223532 -0.46143847342506161 0 -0.48594492841721121 -0.47918156622522318 0 -0.49403590438223532 -0.46143847342506161 0 -0.48594492841721121 -0.47918156622522318 0 -0.48184521031667649 -0.47113052590544802 0 -0.49403590438223532 -0.46143847342506161 0 -0.48594492841721121 -0.47918156622522318 0 -0.4734796987287464 -0.47535604887102351 0 -0.46805690334455402 -0.48505711588807898 0 -0.48594492841721121 -0.47918156622522318 0 -0.48184521031667649 -0.47113052590544802 0 -0.4734796987287464 -0.47535604887102351 0 -0.48184521031667649 -0.47113052590544802 0 -0.4734796987287464 -0.47535604887102351 0 -0.47256641830566992 -0.46910798373296853 0 -0.48594492841721121 -0.47918156622522318 0 -0.47785395245218842 -0.49692465902538552 0 -0.48594492841721121 -0.47918156622522318 0 -0.47785395245218842 -0.49692465902538552 0 -0.46805690334455402 -0.48505711588807898 0 -0.48594492841721121 -0.47918156622522318 0 -0.47785395245218842 -0.49692465902538552 0 -0.48039274807335941 -0.500000000000001 0 -0.47785395245218842 -0.49692465902538552 0 -0.48039274807335941 -0.500000000000001 0 -0.4764515751896603 -0.49999999999999911 0 -0.47785395245218842 -0.49692465902538552 0 -0.4764515751896603 -0.49999999999999911 0 -0.47785395245218842 -0.49692465902538552 0 -0.48039274807335941 -0.500000000000001 0 -0.47785395245218842 -0.49692465902538552 0 -0.46805690334455402 -0.48505711588807898 0 -0.47785395245218842 -0.49692465902538552 0 -0.4764515751896603 -0.49999999999999911 0 -0.46805690334455402 -0.48505711588807898 0 -0.4764515751896603 -0.49999999999999911 0 -0.46805690334455402 -0.48505711588807898 0 -0.45003705123379872 -0.5 0 -0.45432374989317498 -0.48621036875355939 0 -0.46805690334455402 -0.48505711588807898 0 -0.45003705123379872 -0.5 0 -0.46805690334455402 -0.48505711588807898 0 -0.45825985423691901 -0.473189572750773 0 -0.4734796987287464 -0.47535604887102351 0 -0.46805690334455402 -0.48505711588807898 0 -0.45825985423691901 -0.473189572750773 0 -0.4734796987287464 -0.47535604887102351 0 -0.47256641830566992 -0.46910798373296853 0 -0.45825985423691901 -0.473189572750773 0 -0.45432374989317498 -0.48621036875355939 0 -0.46805690334455402 -0.48505711588807898 0 -0.45825985423691901 -0.473189572750773 0 -0.44470934556457142 -0.47370088391664139 0 -0.44094119075742821 -0.48659478637538578 0 -0.43347681686242129 -0.47035203516950919 0 -0.45825985423691901 -0.473189572750773 0 -0.44470934556457142 -0.47370088391664139 0 -0.44094119075742821 -0.48659478637538578 0 -0.45825985423691901 -0.473189572750773 0 -0.44094119075742821 -0.48659478637538578 0 -0.45432374989317498 -0.48621036875355939 0 -0.45825985423691901 -0.473189572750773 0 -0.44094119075742821 -0.48659478637538578 0 -0.45825985423691901 -0.473189572750773 0 -0.44470934556457142 -0.47370088391664139 0 -0.44904181070851229 -0.46202340138498099 0 -0.44094119075742821 -0.48659478637538578 0 -0.45003705123379872 -0.5 0 -0.42362252727793731 -0.49999999999999839 0 -0.45432374989317498 -0.48621036875355939 0 -0.44094119075742821 -0.48659478637538578 0 -0.45003705123379872 -0.5 0 -0.44125713906480207 -0.44580313054370441 0 -0.45386968818048912 -0.44891929976516531 0 -0.45362577960789141 -0.43003388826833289 0 -0.44125713906480207 -0.44580313054370441 0 -0.44904181070851229 -0.46202340138498099 0 -0.45386968818048912 -0.44891929976516531 0 -0.44125713906480207 -0.44580313054370441 0 -0.44904181070851229 -0.46202340138498099 0 -0.43624783734388928 -0.45721756785154888 0 -0.44904181070851229 -0.46202340138498099 0 -0.43347681686242129 -0.47035203516950919 0 -0.43624783734388928 -0.45721756785154888 0 -0.44470934556457142 -0.47370088391664139 0 -0.44904181070851229 -0.46202340138498099 0 -0.43347681686242129 -0.47035203516950919 0 -0.44904181070851229 -0.46202340138498099 0 -0.46012512809048661 -0.45995757984712649 0 -0.45386968818048912 -0.44891929976516531 0 -0.45825985423691901 -0.473189572750773 0 -0.44904181070851229 -0.46202340138498099 0 -0.45825985423691901 -0.473189572750773 0 -0.44904181070851229 -0.46202340138498099 0 -0.46012512809048661 -0.45995757984712649 0 -0.45825985423691901 -0.473189572750773 0 -0.47227594099239328 -0.46234066184256778 0 -0.47256641830566992 -0.46910798373296853 0 -0.45825985423691901 -0.473189572750773 0 -0.47227594099239328 -0.46234066184256778 0 -0.45825985423691901 -0.473189572750773 0 -0.46012512809048661 -0.45995757984712649 0 -0.47227594099239328 -0.46234066184256778 0 -0.46012512809048661 -0.45995757984712649 0 -0.46529858343075281 -0.44677849878168191 0 -0.47227594099239328 -0.46234066184256778 0 -0.46529858343075281 -0.44677849878168191 0 -0.45386968818048912 -0.44891929976516531 0 -0.45362577960789141 -0.43003388826833289 0 -0.46529858343075281 -0.44677849878168191 0 -0.45362577960789141 -0.43003388826833289 0 -0.46012512809048661 -0.45995757984712649 0 -0.46529858343075281 -0.44677849878168191 0 -0.45386968818048912 -0.44891929976516531 0 -0.46529858343075281 -0.44677849878168191 0 -0.47697138725361449 -0.4635231092950306 0 -0.48489170700021078 -0.44756767576828532 0 -0.5 -0.5 0 -0.49403590438223532 -0.46143847342506161 0 -0.5 -0.43960960594001541 0 -0.46529858343075281 -0.44677849878168191 0 -0.48489170700021078 -0.44756767576828532 0 -0.47556738700340911 -0.43148281500956259 0 -0.47697138725361449 -0.4635231092950306 0 -0.48499657562199322 -0.45921459763594541 0 -0.48489170700021078 -0.44756767576828532 0 -0.46529858343075281 -0.44677849878168191 0 -0.47227594099239328 -0.46234066184256778 0 -0.47697138725361449 -0.4635231092950306 0 -0.46529858343075281 -0.44677849878168191 0 -0.47697138725361449 -0.4635231092950306 0 -0.47256641830566992 -0.46910798373296853 0 -0.47227594099239328 -0.46234066184256778 0 -0.47697138725361449 -0.4635231092950306 0 -0.48184521031667649 -0.47113052590544802 0 -0.47256641830566992 -0.46910798373296853 0 -0.47697138725361449 -0.4635231092950306 0 -0.47697138725361449 -0.4635231092950306 0 -0.48446226939362991 -0.46382667656537141 0 -0.48499657562199322 -0.45921459763594541 0 -0.48184521031667649 -0.47113052590544802 0 -0.47697138725361449 -0.4635231092950306 0 -0.48446226939362991 -0.46382667656537141 0 -0.48446226939362991 -0.46382667656537141 0 -0.48499657562199322 -0.45921459763594541 0 -0.49403590438223532 -0.46143847342506161 0 -0.48184521031667649 -0.47113052590544802 0 -0.48446226939362991 -0.46382667656537141 0 -0.49403590438223532 -0.46143847342506161 0 -0.48499657562199322 -0.45921459763594541 0 -0.49403590438223532 -0.46143847342506161 0 -0.48489170700021078 -0.44756767576828532 0 -0.49403590438223532 -0.46143847342506161 0 -0.48489170700021078 -0.44756767576828532 0 -0.5 -0.43960960594001541 0 -0.48489170700021078 -0.44756767576828532 0 -0.5 -0.43960960594001541 0 -0.49750899439892687 -0.43293174175079258 0 -0.48489170700021078 -0.44756767576828532 0 -0.49750899439892687 -0.43293174175079258 0 -0.47556738700340911 -0.43148281500956259 0 -0.49750899439892687 -0.43293174175079258 0 -0.47556738700340911 -0.43148281500956259 0 -0.49750899439892687 -0.43293174175079258 0 -0.48396688182315478 -0.4193836051022245 0 -0.48739594377842999 -0.40018923498101411 0 -0.49750899439892687 -0.43293174175079258 0 -0.48396688182315478 -0.4193836051022245 0 -0.47556738700340911 -0.43148281500956259 0 -0.5 -0.43960960594001541 0 -0.49750899439892687 -0.43293174175079258 0 -0.49864303034596802 -0.36268297627728929 0 -0.49750899439892687 -0.43293174175079258 0 -0.48739594377842999 -0.40018923498101411 0 -0.49864303034596802 -0.36268297627728929 0 -0.48396688182315478 -0.4193836051022245 0 -0.47532973594779793 -0.41224317531747579 0 -0.48739594377842999 -0.40018923498101411 0 -0.47532973594779793 -0.41224317531747579 0 -0.47556738700340911 -0.43148281500956259 0 -0.46109385203628273 -0.41581452122481272 0 -0.48396688182315478 -0.4193836051022245 0 -0.47532973594779793 -0.41224317531747579 0 -0.47556738700340911 -0.43148281500956259 0 -0.48976947002733012 -0.37768099102207758 0 -0.48739594377842999 -0.40018923498101411 0 -0.49864303034596802 -0.36268297627728929 0 -0.48976947002733012 -0.37768099102207758 0 -0.48739594377842999 -0.40018923498101411 0 -0.47983836113260192 -0.39093953363667261 0 -0.47532973594779793 -0.41224317531747579 0 -0.48739594377842999 -0.40018923498101411 0 -0.47544134773819202 -0.39959779392359379 0 -0.47532973594779793 -0.41224317531747579 0 -0.47544134773819202 -0.39959779392359379 0 -0.46590345811957989 -0.40254498354772611 0 -0.47544134773819202 -0.39959779392359379 0 -0.4687392397125506 -0.39207204213508062 0 -0.46590345811957989 -0.40254498354772611 0 -0.47544134773819202 -0.39959779392359379 0 -0.47983836113260192 -0.39093953363667261 0 -0.4687392397125506 -0.39207204213508062 0 -0.48739594377842999 -0.40018923498101411 0 -0.47544134773819202 -0.39959779392359379 0 -0.47983836113260192 -0.39093953363667261 0 -0.48976947002733012 -0.37768099102207758 0 -0.47983836113260192 -0.39093953363667261 0 -0.47493098173239751 -0.38229208726651409 0 -0.47983836113260192 -0.39093953363667261 0 -0.47493098173239751 -0.38229208726651409 0 -0.4687392397125506 -0.39207204213508062 0 -0.47493098173239751 -0.38229208726651409 0 -0.46184805260929829 -0.37952147175475431 0 -0.47445978518020632 -0.37124639778398588 0 -0.48976947002733012 -0.37768099102207758 0 -0.47493098173239751 -0.38229208726651409 0 -0.47445978518020632 -0.37124639778398588 0 -0.46184805260929829 -0.37952147175475431 0 -0.4687392397125506 -0.39207204213508062 0 -0.44676011096564971 -0.3910334213313631 0 -0.47493098173239751 -0.38229208726651409 0 -0.46184805260929829 -0.37952147175475431 0 -0.4687392397125506 -0.39207204213508062 0 -0.46590345811957989 -0.40254498354772611 0 -0.44676011096564971 -0.3910334213313631 0 -0.46109385203628273 -0.41581452122481272 0 -0.44676011096564971 -0.3910334213313631 0 -0.46109385203628273 -0.41581452122481272 0 -0.4687392397125506 -0.39207204213508062 0 -0.46590345811957989 -0.40254498354772611 0 -0.44676011096564971 -0.3910334213313631 0 -0.44676011096564971 -0.3910334213313631 0 -0.46109385203628273 -0.41581452122481272 0 -0.43908573126845152 -0.40917622202259901 0 -0.46184805260929829 -0.37952147175475431 0 -0.44676011096564971 -0.3910334213313631 0 -0.44897190725203517 -0.37522383123874731 0 -0.44676011096564971 -0.3910334213313631 0 -0.44897190725203517 -0.37522383123874731 0 -0.43242636989501521 -0.36625232143791447 0 -0.44676011096564971 -0.3910334213313631 0 -0.43242636989501521 -0.36625232143791447 0 -0.46529858343075281 -0.44677849878168191 0 -0.47556738700340911 -0.43148281500956259 0 -0.45362577960789141 -0.43003388826833289 0 -0.47556738700340911 -0.43148281500956259 0 -0.45362577960789141 -0.43003388826833289 0 -0.47556738700340911 -0.43148281500956259 0 -0.45362577960789141 -0.43003388826833289 0 -0.46109385203628273 -0.41581452122481272 0 -0.47532973594779793 -0.41224317531747579 0 -0.46590345811957989 -0.40254498354772611 0 -0.46109385203628273 -0.41581452122481272 0 -0.45362577960789141 -0.43003388826833289 0 -0.43908573126845152 -0.40917622202259901 0 -0.45362577960789141 -0.43003388826833289 0 -0.46109385203628273 -0.41581452122481272 0 -0.43908573126845152 -0.40917622202259901 0 -0.45362577960789141 -0.43003388826833289 0 -0.43640774273827643 -0.42889688524015129 0 -0.44125713906480207 -0.44580313054370441 0 -0.45362577960789141 -0.43003388826833289 0 -0.43640774273827643 -0.42889688524015129 0 -0.45362577960789141 -0.43003388826833289 0 -0.43908573126845152 -0.40917622202259901 0 -0.43640774273827643 -0.42889688524015129 0 -0.43640774273827643 -0.42889688524015129 0 -0.4191897058686615 -0.42775988221196998 0 -0.43640774273827643 -0.42889688524015129 0 -0.4191897058686615 -0.42775988221196998 0 -0.42705101124896649 -0.43943471757807201 0 -0.43640774273827643 -0.42889688524015129 0 -0.42849527696393153 -0.41778024173153439 0 -0.4191897058686615 -0.42775988221196998 0 -0.43908573126845152 -0.40917622202259901 0 -0.43640774273827643 -0.42889688524015129 0 -0.42849527696393153 -0.41778024173153439 0 -0.43908573126845152 -0.40917622202259901 0 -0.42849527696393153 -0.41778024173153439 0 -0.41903784938472521 -0.40765493716746432 0 -0.41903784938472521 -0.40765493716746432 0 -0.4098130297921766 -0.41778897722511882 0 -0.39820908339038957 -0.40138788281096532 0 -0.42849527696393153 -0.41778024173153439 0 -0.4098130297921766 -0.41778897722511882 0 -0.4191897058686615 -0.42775988221196998 0 -0.42849527696393153 -0.41778024173153439 0 -0.41903784938472521 -0.40765493716746432 0 -0.4098130297921766 -0.41778897722511882 0 -0.4098130297921766 -0.41778897722511882 0 -0.40729931937060398 -0.42857243912946869 0 -0.4191897058686615 -0.42775988221196998 0 -0.40729931937060398 -0.42857243912946869 0 -0.4032251412089316 -0.43824363541862671 0 -0.41283751151800779 -0.44237041658653042 0 -0.40729931937060398 -0.42857243912946869 0 -0.4191897058686615 -0.42775988221196998 0 -0.41283751151800779 -0.44237041658653042 0 -0.4191897058686615 -0.42775988221196998 0 -0.42705101124896649 -0.43943471757807201 0 -0.41283751151800779 -0.44237041658653042 0 -0.44676011096564971 -0.3910334213313631 0 -0.42454568292901179 -0.38831855577686469 0 -0.43242636989501521 -0.36625232143791447 0 -0.43908573126845152 -0.40917622202259901 0 -0.42454568292901179 -0.38831855577686469 0 -0.44676011096564971 -0.3910334213313631 0 -0.43908573126845152 -0.40917622202259901 0 -0.42454568292901179 -0.38831855577686469 0 -0.43908573126845152 -0.40917622202259901 0 -0.41903784938472521 -0.40765493716746432 0 -0.42454568292901179 -0.38831855577686469 0 -0.41903784938472521 -0.40765493716746432 0 -0.41191307697827001 -0.39538760421322439 0 -0.39820908339038957 -0.40138788281096532 0 -0.41903784938472521 -0.40765493716746432 0 -0.42454568292901179 -0.38831855577686469 0 -0.41191307697827001 -0.39538760421322439 0 -0.42454568292901179 -0.38831855577686469 0 -0.41191307697827001 -0.39538760421322439 0 -0.40385748857429671 -0.38396230100315609 0 -0.42454568292901179 -0.38831855577686469 0 -0.42515147811251452 -0.37041230148769272 0 -0.41000563458957362 -0.36746088953112938 0 -0.42454568292901179 -0.38831855577686469 0 -0.40385748857429671 -0.38396230100315609 0 -0.41000563458957362 -0.36746088953112938 0 -0.42454568292901179 -0.38831855577686469 0 -0.41000563458957362 -0.36746088953112938 0 -0.39198978820438429 -0.3782286394375895 0 -0.40385748857429671 -0.38396230100315609 0 -0.3983026804046228 -0.36809172597924589 0 -0.39198978820438429 -0.3782286394375895 0 -0.40385748857429671 -0.38396230100315609 0 -0.39138660384138962 -0.38838826549050148 0 -0.41191307697827001 -0.39538760421322439 0 -0.40385748857429671 -0.38396230100315609 0 -0.39820908339038957 -0.40138788281096532 0 -0.40385748857429671 -0.38396230100315609 0 -0.39138660384138962 -0.38838826549050148 0 -0.39820908339038957 -0.40138788281096532 0 -0.39820908339038957 -0.40138788281096532 0 -0.38227481028778471 -0.39668980434892143 0 -0.38621286796008791 -0.41032547407724401 0 -0.39138660384138962 -0.38838826549050148 0 -0.39820908339038957 -0.40138788281096532 0 -0.38227481028778471 -0.39668980434892143 0 -0.38227481028778471 -0.39668980434892143 0 -0.38621286796008791 -0.41032547407724401 0 -0.37055771869930237 -0.40335547125939297 0 -0.38227481028778471 -0.39668980434892143 0 -0.37228741197365028 -0.38826728888172068 0 -0.37055771869930237 -0.40335547125939297 0 -0.39138660384138962 -0.38838826549050148 0 -0.38227481028778471 -0.39668980434892143 0 -0.38060184875009262 -0.38167269985187552 0 -0.38227481028778471 -0.39668980434892143 0 -0.38060184875009262 -0.38167269985187552 0 -0.37228741197365028 -0.38826728888172068 0 -0.38060184875009262 -0.38167269985187552 0 -0.37612254132508599 -0.37004492812090112 0 -0.37001583187281317 -0.377892963090108 0 -0.39198978820438429 -0.3782286394375895 0 -0.38060184875009262 -0.38167269985187552 0 -0.38599081191499779 -0.36814457376239201 0 -0.39198978820438429 -0.3782286394375895 0 -0.39138660384138962 -0.38838826549050148 0 -0.38060184875009262 -0.38167269985187552 0 -0.39692420488425278 -0.42460520887136322 0 -0.39563932637811677 -0.44782253493176127 0 -0.39692420488425278 -0.42460520887136322 0 -0.38309852253871002 -0.42558900309557701 0 -0.39563932637811677 -0.44782253493176127 0 -0.39692420488425278 -0.42460520887136322 0 -0.39563932637811677 -0.44782253493176127 0 -0.4032251412089316 -0.43824363541862671 0 -0.40729931937060398 -0.42857243912946869 0 -0.39692420488425278 -0.42460520887136322 0 -0.4032251412089316 -0.43824363541862671 0 -0.4098130297921766 -0.41778897722511882 0 -0.40729931937060398 -0.42857243912946869 0 -0.39692420488425278 -0.42460520887136322 0 -0.39820908339038957 -0.40138788281096532 0 -0.39692420488425278 -0.42460520887136322 0 -0.38621286796008791 -0.41032547407724401 0 -0.4098130297921766 -0.41778897722511882 0 -0.39820908339038957 -0.40138788281096532 0 -0.39692420488425278 -0.42460520887136322 0 -0.39820908339038957 -0.40138788281096532 0 -0.39692420488425278 -0.42460520887136322 0 -0.39692420488425278 -0.42460520887136322 0 -0.38621286796008791 -0.41032547407724401 0 -0.38309852253871002 -0.42558900309557701 0 -0.38621286796008791 -0.41032547407724401 0 -0.38309852253871002 -0.42558900309557701 0 -0.37055771869930237 -0.40335547125939297 0 -0.38309852253871002 -0.42558900309557701 0 -0.37055771869930237 -0.40335547125939297 0 -0.38309852253871002 -0.42558900309557701 0 -0.39563932637811677 -0.44782253493176127 0 -0.38309852253871002 -0.42558900309557701 0 -0.38111389347561608 -0.44136201189070101 0 -0.37058296678970931 -0.43151443823635371 0 -0.38309852253871002 -0.42558900309557701 0 -0.38111389347561608 -0.44136201189070101 0 -0.39563932637811677 -0.44782253493176127 0 -0.38111389347561608 -0.44136201189070101 0 -0.38581548456909981 -0.45021418165404742 0 -0.37756530610104899 -0.45685827229810932 0 -0.38111389347561608 -0.44136201189070101 0 -0.38581548456909981 -0.45021418165404742 0 -0.39563932637811677 -0.44782253493176127 0 -0.38581548456909981 -0.45021418165404742 0 -0.39563932637811677 -0.44782253493176127 0 -0.38775458256958822 -0.45726861399725638 0 -0.39563932637811677 -0.44782253493176127 0 -0.40049925677973652 -0.45643868256390002 0 -0.39563932637811677 -0.44782253493176127 0 -0.40471272904552652 -0.44852513549473672 0 -0.40049925677973652 -0.45643868256390002 0 -0.39563932637811677 -0.44782253493176127 0 -0.40471272904552652 -0.44852513549473672 0 -0.4032251412089316 -0.43824363541862671 0 -0.39563932637811677 -0.44782253493176127 0 -0.39458661263643918 -0.46684472113227399 0 -0.38775458256958822 -0.45726861399725638 0 -0.39563932637811677 -0.44782253493176127 0 -0.40049925677973652 -0.45643868256390002 0 -0.39458661263643918 -0.46684472113227399 0 -0.39563932637811677 -0.44782253493176127 0 -0.39458661263643918 -0.46684472113227399 0 -0.40553363859723962 -0.46590156207340971 0 -0.40049925677973652 -0.45643868256390002 0 -0.39458661263643918 -0.46684472113227399 0 -0.40471272904552652 -0.44852513549473672 0 -0.40049925677973652 -0.45643868256390002 0 -0.41267731808254621 -0.45729223834040528 0 -0.40553363859723962 -0.46590156207340971 0 -0.40049925677973652 -0.45643868256390002 0 -0.41267731808254621 -0.45729223834040528 0 -0.39458661263643918 -0.46684472113227399 0 -0.38442316456821762 -0.46613755153361441 0 -0.38775458256958822 -0.45726861399725638 0 -0.38442316456821762 -0.46613755153361441 0 -0.38775458256958822 -0.45726861399725638 0 -0.37756530610104899 -0.45685827229810932 0 -0.38581548456909981 -0.45021418165404742 0 -0.38775458256958822 -0.45726861399725638 0 -0.37756530610104899 -0.45685827229810932 0 -0.38442316456821762 -0.46613755153361441 0 -0.37756530610104899 -0.45685827229810932 0 -0.37594339666883508 -0.46912028010584561 0 -0.38068681907865431 -0.47561570999711827 0 -0.37578582006703293 -0.4890918617918481 0 -0.39353389889476242 -0.48586690733278692 0 -0.38442316456821762 -0.46613755153361441 0 -0.37594339666883508 -0.46912028010584561 0 -0.38068681907865431 -0.47561570999711827 0 -0.37594339666883508 -0.46912028010584561 0 -0.38068681907865431 -0.47561570999711827 0 -0.37427790409048928 -0.47641171988590741 0 -0.38068681907865431 -0.47561570999711827 0 -0.37578582006703293 -0.4890918617918481 0 -0.37427790409048928 -0.47641171988590741 0 -0.38068681907865431 -0.47561570999711827 0 -0.38830762379451839 -0.47361622249894841 0 -0.39353389889476242 -0.48586690733278692 0 -0.38442316456821762 -0.46613755153361441 0 -0.38068681907865431 -0.47561570999711827 0 -0.38830762379451839 -0.47361622249894841 0 -0.39458661263643918 -0.46684472113227399 0 -0.38442316456821762 -0.46613755153361441 0 -0.38830762379451839 -0.47361622249894841 0 -0.37578582006703293 -0.4890918617918481 0 -0.39505017057465641 -0.5 0 -0.36647781387137562 -0.49999999999999728 0 -0.37578582006703293 -0.4890918617918481 0 -0.39505017057465641 -0.5 0 -0.39353389889476242 -0.48586690733278692 0 -0.39505017057465641 -0.5 0 -0.39353389889476242 -0.48586690733278692 0 -0.40961377038000613 -0.48651189866886291 0 -0.39458661263643918 -0.46684472113227399 0 -0.38830762379451839 -0.47361622249894841 0 -0.39353389889476242 -0.48586690733278692 0 -0.39458661263643918 -0.46684472113227399 0 -0.39353389889476242 -0.48586690733278692 0 -0.39458661263643918 -0.46684472113227399 0 -0.39353389889476242 -0.48586690733278692 0 -0.4034345848576999 -0.47687460239653151 0 -0.39353389889476242 -0.48586690733278692 0 -0.4034345848576999 -0.47687460239653151 0 -0.40961377038000613 -0.48651189866886291 0 -0.40553363859723962 -0.46590156207340971 0 -0.39458661263643918 -0.46684472113227399 0 -0.4034345848576999 -0.47687460239653151 0 -0.40553363859723962 -0.46590156207340971 0 -0.4034345848576999 -0.47687460239653151 0 -0.41647042062977607 -0.47205756593393738 0 -0.4034345848576999 -0.47687460239653151 0 -0.41647042062977607 -0.47205756593393738 0 -0.40961377038000613 -0.48651189866886291 0 -0.41647042062977607 -0.47205756593393738 0 -0.40961377038000613 -0.48651189866886291 0 -0.42482494518151359 -0.48310325722953862 0 -0.39505017057465641 -0.5 0 -0.40961377038000613 -0.48651189866886291 0 -0.42362252727793731 -0.49999999999999839 0 -0.40961377038000613 -0.48651189866886291 0 -0.42362252727793731 -0.49999999999999839 0 -0.42482494518151359 -0.48310325722953862 0 -0.44094119075742821 -0.48659478637538578 0 -0.42362252727793731 -0.49999999999999839 0 -0.44094119075742821 -0.48659478637538578 0 -0.42362252727793731 -0.49999999999999839 0 -0.42482494518151359 -0.48310325722953862 0 -0.44094119075742821 -0.48659478637538578 0 -0.42482494518151359 -0.48310325722953862 0 -0.43347681686242129 -0.47035203516950919 0 -0.41647042062977607 -0.47205756593393738 0 -0.42482494518151359 -0.48310325722953862 0 -0.43347681686242129 -0.47035203516950919 0 -0.41647042062977607 -0.47205756593393738 0 -0.43347681686242129 -0.47035203516950919 0 -0.42398198874808751 -0.46243605762799472 0 -0.43347681686242129 -0.47035203516950919 0 -0.42398198874808751 -0.46243605762799472 0 -0.43624783734388928 -0.45721756785154888 0 -0.42398198874808751 -0.46243605762799472 0 -0.43624783734388928 -0.45721756785154888 0 -0.42556295705508451 -0.45234327330800361 0 -0.44125713906480207 -0.44580313054370441 0 -0.42705101124896649 -0.43943471757807201 0 -0.42556295705508451 -0.45234327330800361 0 -0.44125713906480207 -0.44580313054370441 0 -0.43640774273827643 -0.42889688524015129 0 -0.42705101124896649 -0.43943471757807201 0 -0.44125713906480207 -0.44580313054370441 0 -0.43624783734388928 -0.45721756785154888 0 -0.42556295705508451 -0.45234327330800361 0 -0.42556295705508451 -0.45234327330800361 0 -0.41283751151800779 -0.44237041658653042 0 -0.41267731808254621 -0.45729223834040528 0 -0.42705101124896649 -0.43943471757807201 0 -0.42556295705508451 -0.45234327330800361 0 -0.41283751151800779 -0.44237041658653042 0 -0.40471272904552652 -0.44852513549473672 0 -0.4032251412089316 -0.43824363541862671 0 -0.41283751151800779 -0.44237041658653042 0 -0.40471272904552652 -0.44852513549473672 0 -0.41283751151800779 -0.44237041658653042 0 -0.41267731808254621 -0.45729223834040528 0 -0.40553363859723962 -0.46590156207340971 0 -0.41647042062977607 -0.47205756593393738 0 -0.41267731808254621 -0.45729223834040528 0 -0.41647042062977607 -0.47205756593393738 0 -0.42398198874808751 -0.46243605762799472 0 -0.41267731808254621 -0.45729223834040528 0 -0.42398198874808751 -0.46243605762799472 0 -0.42556295705508451 -0.45234327330800361 0 -0.41267731808254621 -0.45729223834040528 0 -0.44448301460570361 -0.25866310934972042 0 -0.44763376539751609 -0.26915999543055152 0 -0.45598941450222641 -0.2636029943683178 0 -0.44448301460570361 -0.25866310934972042 0 -0.45598941450222641 -0.2636029943683178 0 -0.45388261704758309 -0.25188450484146541 0 -0.44448301460570361 -0.25866310934972042 0 -0.45388261704758309 -0.25188450484146541 0 -0.44092962542926251 -0.24420782110838621 0 -0.44448301460570361 -0.25866310934972042 0 -0.43192748323268432 -0.25712770411644359 0 -0.44092962542926251 -0.24420782110838621 0 -0.44448301460570361 -0.25866310934972042 0 -0.43787874977499203 -0.2653125389199632 0 -0.44763376539751609 -0.26915999543055152 0 -0.44448301460570361 -0.25866310934972042 0 -0.43787874977499203 -0.2653125389199632 0 -0.43192748323268432 -0.25712770411644359 0 -0.43787874977499203 -0.2653125389199632 0 -0.44763376539751609 -0.26915999543055152 0 -0.44195758091034842 -0.2817970973456223 0 -0.44763376539751609 -0.26915999543055152 0 -0.45603529743964549 -0.27521805151496709 0 -0.44195758091034842 -0.2817970973456223 0 -0.45603529743964549 -0.27521805151496709 0 -0.46725934018253501 -0.27204589964257031 0 -0.45598941450222641 -0.2636029943683178 0 -0.44763376539751609 -0.26915999543055152 0 -0.45603529743964549 -0.27521805151496709 0 -0.45598941450222641 -0.2636029943683178 0 -0.45603529743964549 -0.27521805151496709 0 -0.46725934018253501 -0.27204589964257031 0 -0.46368684669627219 -0.28707189947944078 0 -0.46725934018253501 -0.27204589964257031 0 -0.45598941450222641 -0.2636029943683178 0 -0.46507903620523072 -0.25647139281908282 0 -0.45598941450222641 -0.2636029943683178 0 -0.45388261704758309 -0.25188450484146541 0 -0.46507903620523072 -0.25647139281908282 0 -0.45388261704758309 -0.25188450484146541 0 -0.46507903620523072 -0.25647139281908282 0 -0.46280675988418207 -0.24924293530940511 0 -0.46507903620523072 -0.25647139281908282 0 -0.46703257367587808 -0.25037202600514408 0 -0.46280675988418207 -0.24924293530940511 0 -0.46507903620523072 -0.25647139281908282 0 -0.4760503822597833 -0.25136953932998712 0 -0.48008489752347783 -0.26512425974678783 0 -0.46507903620523072 -0.25647139281908282 0 -0.46703257367587808 -0.25037202600514408 0 -0.4760503822597833 -0.25136953932998712 0 -0.46725934018253501 -0.27204589964257031 0 -0.46507903620523072 -0.25647139281908282 0 -0.48008489752347783 -0.26512425974678783 0 -0.4760503822597833 -0.25136953932998712 0 -0.48008489752347783 -0.26512425974678783 0 -0.48849233615110238 -0.25564364008010299 0 -0.48008489752347783 -0.26512425974678783 0 -0.48849233615110238 -0.25564364008010299 0 -0.5 -0.27452052515480951 0 -0.48849233615110238 -0.25564364008010299 0 -0.5 -0.27452052515480951 0 -0.5 -0.24497161889054131 0 -0.48008489752347783 -0.26512425974678783 0 -0.5 -0.27452052515480951 0 -0.48085577897369253 -0.28358061427265918 0 -0.46725934018253501 -0.27204589964257031 0 -0.48008489752347783 -0.26512425974678783 0 -0.48085577897369253 -0.28358061427265918 0 -0.46725934018253501 -0.27204589964257031 0 -0.48085577897369253 -0.28358061427265918 0 -0.46368684669627219 -0.28707189947944078 0 -0.48085577897369253 -0.28358061427265918 0 -0.47500324010879391 -0.30293823269313802 0 -0.46368684669627219 -0.28707189947944078 0 -0.5 -0.27452052515480951 0 -0.48085577897369253 -0.28358061427265918 0 -0.5 -0.3040694314190775 0 -0.48085577897369253 -0.28358061427265918 0 -0.5 -0.3040694314190775 0 -0.47500324010879391 -0.30293823269313802 0 -0.5 -0.3040694314190775 0 -0.47500324010879391 -0.30293823269313802 0 -0.48378198615055329 -0.32134242544521102 0 -0.47500324010879391 -0.30293823269313802 0 -0.45457004421992381 -0.3034270732682719 0 -0.46368684669627219 -0.28707189947944078 0 -0.47500324010879391 -0.30293823269313802 0 -0.45457004421992381 -0.3034270732682719 0 -0.46512252942685361 -0.31798692126662997 0 -0.45457004421992381 -0.3034270732682719 0 -0.46368684669627219 -0.28707189947944078 0 -0.44214087396748031 -0.29493308497296938 0 -0.45603529743964549 -0.27521805151496709 0 -0.46368684669627219 -0.28707189947944078 0 -0.44195758091034842 -0.2817970973456223 0 -0.46368684669627219 -0.28707189947944078 0 -0.44195758091034842 -0.2817970973456223 0 -0.44214087396748031 -0.29493308497296938 0 -0.46368684669627219 -0.28707189947944078 0 -0.44195758091034842 -0.2817970973456223 0 -0.44195758091034842 -0.2817970973456223 0 -0.44214087396748031 -0.29493308497296938 0 -0.42867181636148338 -0.28685490791262119 0 -0.45457004421992381 -0.3034270732682719 0 -0.44934295240770961 -0.31653464827241767 0 -0.43563017987508712 -0.30634354638896422 0 -0.45457004421992381 -0.3034270732682719 0 -0.44214087396748031 -0.29493308497296938 0 -0.43563017987508712 -0.30634354638896422 0 -0.44934295240770961 -0.31653464827241767 0 -0.43758014774501391 -0.32443658140205112 0 -0.43563017987508712 -0.30634354638896422 0 -0.44934295240770961 -0.31653464827241767 0 -0.43758014774501391 -0.32443658140205112 0 -0.45381186077166941 -0.33047911903617122 0 -0.43830734466966809 -0.3411507173554359 0 -0.45381186077166941 -0.33047911903617122 0 -0.45841923989510153 -0.34832813699605358 0 -0.43758014774501391 -0.32443658140205112 0 -0.43830734466966809 -0.3411507173554359 0 -0.45381186077166941 -0.33047911903617122 0 -0.45381186077166941 -0.33047911903617122 0 -0.47264552382973102 -0.33497316501370161 0 -0.45841923989510153 -0.34832813699605358 0 -0.45457004421992381 -0.3034270732682719 0 -0.44934295240770961 -0.31653464827241767 0 -0.46512252942685361 -0.31798692126662997 0 -0.44934295240770961 -0.31653464827241767 0 -0.45381186077166941 -0.33047911903617122 0 -0.46512252942685361 -0.31798692126662997 0 -0.45381186077166941 -0.33047911903617122 0 -0.46512252942685361 -0.31798692126662997 0 -0.47264552382973102 -0.33497316501370161 0 -0.46512252942685361 -0.31798692126662997 0 -0.48378198615055329 -0.32134242544521102 0 -0.47264552382973102 -0.33497316501370161 0 -0.47500324010879391 -0.30293823269313802 0 -0.46512252942685361 -0.31798692126662997 0 -0.48378198615055329 -0.32134242544521102 0 -0.5 -0.3040694314190775 0 -0.48378198615055329 -0.32134242544521102 0 -0.5 -0.33361833768334559 0 -0.48378198615055329 -0.32134242544521102 0 -0.5 -0.33361833768334559 0 -0.48631654644155142 -0.34049530838874997 0 -0.5 -0.33361833768334559 0 -0.48631654644155142 -0.34049530838874997 0 -0.4901946939703119 -0.35458956833677879 0 -0.48378198615055329 -0.32134242544521102 0 -0.48631654644155142 -0.34049530838874997 0 -0.47264552382973102 -0.33497316501370161 0 -0.47264552382973102 -0.33497316501370161 0 -0.47778586185135402 -0.34528038590523152 0 -0.45841923989510153 -0.34832813699605358 0 -0.48631654644155142 -0.34049530838874997 0 -0.47264552382973102 -0.33497316501370161 0 -0.47778586185135402 -0.34528038590523152 0 -0.47853113512053469 -0.35550555663667138 0 -0.47778586185135402 -0.34528038590523152 0 -0.45841923989510153 -0.34832813699605358 0 -0.47853113512053469 -0.35550555663667138 0 -0.47778586185135402 -0.34528038590523152 0 -0.4901946939703119 -0.35458956833677879 0 -0.47853113512053469 -0.35550555663667138 0 -0.4901946939703119 -0.35458956833677879 0 -0.49864303034596802 -0.36268297627728929 0 -0.47853113512053469 -0.35550555663667138 0 -0.49864303034596802 -0.36268297627728929 0 -0.5 -0.33361833768334559 0 -0.4901946939703119 -0.35458956833677879 0 -0.49864303034596802 -0.36268297627728929 0 -0.48631654644155142 -0.34049530838874997 0 -0.47778586185135402 -0.34528038590523152 0 -0.4901946939703119 -0.35458956833677879 0 -0.48976947002733012 -0.37768099102207758 0 -0.49864303034596802 -0.36268297627728929 0 -0.47889656533952552 -0.36374739041159071 0 -0.49864303034596802 -0.36268297627728929 0 -0.47889656533952552 -0.36374739041159071 0 -0.47853113512053469 -0.35550555663667138 0 -0.49864303034596802 -0.36268297627728929 0 -0.47889656533952552 -0.36374739041159071 0 -0.48976947002733012 -0.37768099102207758 0 -0.47889656533952552 -0.36374739041159071 0 -0.47445978518020632 -0.37124639778398588 0 -0.47853113512053469 -0.35550555663667138 0 -0.47889656533952552 -0.36374739041159071 0 -0.45915010033308312 -0.3648118045458929 0 -0.48976947002733012 -0.37768099102207758 0 -0.47445978518020632 -0.37124639778398588 0 -0.47889656533952552 -0.36374739041159071 0 -0.47445978518020632 -0.37124639778398588 0 -0.45915010033308312 -0.3648118045458929 0 -0.47889656533952552 -0.36374739041159071 0 -0.45915010033308312 -0.3648118045458929 0 -0.46184805260929829 -0.37952147175475431 0 -0.47445978518020632 -0.37124639778398588 0 -0.45915010033308312 -0.3648118045458929 0 -0.47445978518020632 -0.37124639778398588 0 -0.45915010033308312 -0.3648118045458929 0 -0.46184805260929829 -0.37952147175475431 0 -0.44897190725203517 -0.37522383123874731 0 -0.45915010033308312 -0.3648118045458929 0 -0.47853113512053469 -0.35550555663667138 0 -0.45841923989510153 -0.34832813699605358 0 -0.47853113512053469 -0.35550555663667138 0 -0.45915010033308312 -0.3648118045458929 0 -0.45841923989510153 -0.34832813699605358 0 -0.45915010033308312 -0.3648118045458929 0 -0.45841923989510153 -0.34832813699605358 0 -0.44094615886498478 -0.35716076797349561 0 -0.43830734466966809 -0.3411507173554359 0 -0.45841923989510153 -0.34832813699605358 0 -0.44094615886498478 -0.35716076797349561 0 -0.43830734466966809 -0.3411507173554359 0 -0.45841923989510153 -0.34832813699605358 0 -0.44897190725203517 -0.37522383123874731 0 -0.45915010033308312 -0.3648118045458929 0 -0.43242636989501521 -0.36625232143791447 0 -0.45915010033308312 -0.3648118045458929 0 -0.44094615886498478 -0.35716076797349561 0 -0.43242636989501521 -0.36625232143791447 0 -0.45915010033308312 -0.3648118045458929 0 -0.44094615886498478 -0.35716076797349561 0 -0.45915010033308312 -0.3648118045458929 0 -0.43242636989501521 -0.36625232143791447 0 -0.42356872020681863 -0.36672978449379551 0 -0.43242636989501521 -0.36625232143791447 0 -0.42274221739688761 -0.34950973140109581 0 -0.42454568292901179 -0.38831855577686469 0 -0.42515147811251452 -0.37041230148769272 0 -0.43242636989501521 -0.36625232143791447 0 -0.42356872020681863 -0.36672978449379551 0 -0.43242636989501521 -0.36625232143791447 0 -0.42356872020681863 -0.36672978449379551 0 -0.42515147811251452 -0.37041230148769272 0 -0.43242636989501521 -0.36625232143791447 0 -0.42356872020681863 -0.36672978449379551 0 -0.42515147811251452 -0.37041230148769272 0 -0.44094615886498478 -0.35716076797349561 0 -0.43242636989501521 -0.36625232143791447 0 -0.42274221739688761 -0.34950973140109581 0 -0.43830734466966809 -0.3411507173554359 0 -0.44094615886498478 -0.35716076797349561 0 -0.42274221739688761 -0.34950973140109581 0 -0.43242636989501521 -0.36625232143791447 0 -0.42274221739688761 -0.34950973140109581 0 -0.44094615886498478 -0.35716076797349561 0 -0.42274221739688761 -0.34950973140109581 0 -0.42356872020681863 -0.36672978449379551 0 -0.41471794459797551 -0.34613716481934881 0 -0.42356872020681863 -0.36672978449379551 0 -0.42274221739688761 -0.34950973140109581 0 -0.41471794459797551 -0.34613716481934881 0 -0.42274221739688761 -0.34950973140109581 0 -0.41471794459797551 -0.34613716481934881 0 -0.42356872020681863 -0.36672978449379551 0 -0.41471794459797551 -0.34613716481934881 0 -0.41000563458957362 -0.36746088953112938 0 -0.42356872020681863 -0.36672978449379551 0 -0.41000563458957362 -0.36746088953112938 0 -0.42356872020681863 -0.36672978449379551 0 -0.42515147811251452 -0.37041230148769272 0 -0.41000563458957362 -0.36746088953112938 0 -0.40385748857429671 -0.38396230100315609 0 -0.41000563458957362 -0.36746088953112938 0 -0.3983026804046228 -0.36809172597924589 0 -0.41000563458957362 -0.36746088953112938 0 -0.3983026804046228 -0.36809172597924589 0 -0.41000563458957362 -0.36746088953112938 0 -0.3983026804046228 -0.36809172597924589 0 -0.39296575050608368 -0.35923920552736621 0 -0.3983026804046228 -0.36809172597924589 0 -0.38599081191499779 -0.36814457376239201 0 -0.39296575050608368 -0.35923920552736621 0 -0.39198978820438429 -0.3782286394375895 0 -0.3983026804046228 -0.36809172597924589 0 -0.38599081191499779 -0.36814457376239201 0 -0.38599081191499779 -0.36814457376239201 0 -0.37901138746526941 -0.35520790336737601 0 -0.39296575050608368 -0.35923920552736621 0 -0.38599081191499779 -0.36814457376239201 0 -0.37612254132508599 -0.37004492812090112 0 -0.37901138746526941 -0.35520790336737601 0 -0.38060184875009262 -0.38167269985187552 0 -0.38599081191499779 -0.36814457376239201 0 -0.37612254132508599 -0.37004492812090112 0 -0.37901138746526941 -0.35520790336737601 0 -0.39296575050608368 -0.35923920552736621 0 -0.39302994830828147 -0.34310930620199809 0 -0.3790750482196874 -0.34437424490918439 0 -0.37901138746526941 -0.35520790336737601 0 -0.36978010004777728 -0.34588423666751678 0 -0.37901138746526941 -0.35520790336737601 0 -0.39302994830828147 -0.34310930620199809 0 -0.3790750482196874 -0.34437424490918439 0 -0.37901138746526941 -0.35520790336737601 0 -0.39302994830828147 -0.34310930620199809 0 -0.41471794459797551 -0.34613716481934881 0 -0.41000563458957362 -0.36746088953112938 0 -0.39302994830828147 -0.34310930620199809 0 -0.41000563458957362 -0.36746088953112938 0 -0.39296575050608368 -0.35923920552736621 0 -0.39302994830828147 -0.34310930620199809 0 -0.41000563458957362 -0.36746088953112938 0 -0.39302994830828147 -0.34310930620199809 0 -0.41471794459797551 -0.34613716481934881 0 -0.39777345003187398 -0.33901546824318712 0 -0.39302994830828147 -0.34310930620199809 0 -0.41471794459797551 -0.34613716481934881 0 -0.39777345003187398 -0.33901546824318712 0 -0.39777345003187398 -0.33901546824318712 0 -0.39217253746658542 -0.32301673046030632 0 -0.40790050614014439 -0.33027540043614051 0 -0.39777345003187398 -0.33901546824318712 0 -0.38702768232877072 -0.33449906931721668 0 -0.39217253746658542 -0.32301673046030632 0 -0.39777345003187398 -0.33901546824318712 0 -0.40790050614014439 -0.33027540043614051 0 -0.39777345003187398 -0.33901546824318712 0 -0.38702768232877072 -0.33449906931721668 0 -0.39777345003187398 -0.33901546824318712 0 -0.39302994830828147 -0.34310930620199809 0 -0.38702768232877072 -0.33449906931721668 0 -0.39777345003187398 -0.33901546824318712 0 -0.39302994830828147 -0.34310930620199809 0 -0.39302994830828147 -0.34310930620199809 0 -0.38702768232877072 -0.33449906931721668 0 -0.3790750482196874 -0.34437424490918439 0 -0.39302994830828147 -0.34310930620199809 0 -0.38134015603205151 -0.33609540557659878 0 -0.39302994830828147 -0.34310930620199809 0 -0.38702768232877072 -0.33449906931721668 0 -0.38134015603205151 -0.33609540557659878 0 -0.38702768232877072 -0.33449906931721668 0 -0.37992975112049571 -0.33151584003370649 0 -0.37595800937222618 -0.31861964865870751 0 -0.38702768232877072 -0.33449906931721668 0 -0.37992975112049571 -0.33151584003370649 0 -0.38702768232877072 -0.33449906931721668 0 -0.37992975112049571 -0.33151584003370649 0 -0.38134015603205151 -0.33609540557659878 0 -0.37992975112049571 -0.33151584003370649 0 -0.38134015603205151 -0.33609540557659878 0 -0.37122354459229701 -0.33596593369906907 0 -0.37992975112049571 -0.33151584003370649 0 -0.38134015603205151 -0.33609540557659878 0 -0.3790750482196874 -0.34437424490918439 0 -0.38134015603205151 -0.33609540557659878 0 -0.37122354459229701 -0.33596593369906907 0 -0.38702768232877072 -0.33449906931721668 0 -0.37595800937222618 -0.31861964865870751 0 -0.39217253746658542 -0.32301673046030632 0 -0.38702768232877072 -0.33449906931721668 0 -0.37595800937222618 -0.31861964865870751 0 -0.37595800937222618 -0.31861964865870751 0 -0.39217253746658542 -0.32301673046030632 0 -0.38722312163378481 -0.31042230276248511 0 -0.37992975112049571 -0.33151584003370649 0 -0.37595800937222618 -0.31861964865870751 0 -0.41037936937406633 -0.32813603905438821 0 -0.39715245529271231 -0.30526849334410061 0 -0.40790050614014439 -0.33027540043614051 0 -0.41037936937406633 -0.32813603905438821 0 -0.39715245529271231 -0.30526849334410061 0 -0.40895270599785011 -0.31950223664657879 0 -0.41037936937406633 -0.32813603905438821 0 -0.39715245529271231 -0.30526849334410061 0 -0.39217253746658542 -0.32301673046030632 0 -0.40790050614014439 -0.33027540043614051 0 -0.39715245529271231 -0.30526849334410061 0 -0.40790050614014439 -0.33027540043614051 0 -0.39715245529271231 -0.30526849334410061 0 -0.39217253746658542 -0.32301673046030632 0 -0.39715245529271231 -0.30526849334410061 0 -0.38722312163378481 -0.31042230276248511 0 -0.41037936937406633 -0.32813603905438821 0 -0.42640277076204292 -0.33209457238692919 0 -0.4230047746245767 -0.31723979272167607 0 -0.40895270599785011 -0.31950223664657879 0 -0.4230047746245767 -0.31723979272167607 0 -0.41668271438536769 -0.30755592441287338 0 -0.41037936937406633 -0.32813603905438821 0 -0.4230047746245767 -0.31723979272167607 0 -0.40895270599785011 -0.31950223664657879 0 -0.41037936937406633 -0.32813603905438821 0 -0.4230047746245767 -0.31723979272167607 0 -0.41471794459797551 -0.34613716481934881 0 -0.39777345003187398 -0.33901546824318712 0 -0.40790050614014439 -0.33027540043614051 0 -0.42274221739688761 -0.34950973140109581 0 -0.41471794459797551 -0.34613716481934881 0 -0.41037936937406633 -0.32813603905438821 0 -0.41471794459797551 -0.34613716481934881 0 -0.40790050614014439 -0.33027540043614051 0 -0.41037936937406633 -0.32813603905438821 0 -0.41471794459797551 -0.34613716481934881 0 -0.40790050614014439 -0.33027540043614051 0 -0.42274221739688761 -0.34950973140109581 0 -0.41037936937406633 -0.32813603905438821 0 -0.42640277076204292 -0.33209457238692919 0 -0.42274221739688761 -0.34950973140109581 0 -0.41037936937406633 -0.32813603905438821 0 -0.40790050614014439 -0.33027540043614051 0 -0.41037936937406633 -0.32813603905438821 0 -0.43758014774501391 -0.32443658140205112 0 -0.43830734466966809 -0.3411507173554359 0 -0.42640277076204292 -0.33209457238692919 0 -0.43830734466966809 -0.3411507173554359 0 -0.42274221739688761 -0.34950973140109581 0 -0.42640277076204292 -0.33209457238692919 0 -0.43758014774501391 -0.32443658140205112 0 -0.4230047746245767 -0.31723979272167607 0 -0.43563017987508712 -0.30634354638896422 0 -0.43758014774501391 -0.32443658140205112 0 -0.42640277076204292 -0.33209457238692919 0 -0.4230047746245767 -0.31723979272167607 0 -0.44214087396748031 -0.29493308497296938 0 -0.42354516819009858 -0.29693799690279921 0 -0.43563017987508712 -0.30634354638896422 0 -0.42354516819009858 -0.29693799690279921 0 -0.42471570926878249 -0.30701931510657821 0 -0.43563017987508712 -0.30634354638896422 0 -0.4230047746245767 -0.31723979272167607 0 -0.42471570926878249 -0.30701931510657821 0 -0.43563017987508712 -0.30634354638896422 0 -0.4230047746245767 -0.31723979272167607 0 -0.43563017987508712 -0.30634354638896422 0 -0.44214087396748031 -0.29493308497296938 0 -0.42354516819009858 -0.29693799690279921 0 -0.42867181636148338 -0.28685490791262119 0 -0.44195758091034842 -0.2817970973456223 0 -0.42867181636148338 -0.28685490791262119 0 -0.42022831512442471 -0.27652229521180299 0 -0.42867181636148338 -0.28685490791262119 0 -0.42227847779946859 -0.28869701682167032 0 -0.42050534183852889 -0.28192895548386432 0 -0.42867181636148338 -0.28685490791262119 0 -0.42050534183852889 -0.28192895548386432 0 -0.42022831512442471 -0.27652229521180299 0 -0.42354516819009858 -0.29693799690279921 0 -0.42867181636148338 -0.28685490791262119 0 -0.42227847779946859 -0.28869701682167032 0 -0.40823853095913049 -0.29647031619703168 0 -0.40752435592041181 -0.27343839574748457 0 -0.42354516819009858 -0.29693799690279921 0 -0.42227847779946859 -0.28869701682167032 0 -0.41639158480776378 -0.28906620698739638 0 -0.42354516819009858 -0.29693799690279921 0 -0.41639158480776378 -0.28906620698739638 0 -0.40823853095913049 -0.29647031619703168 0 -0.41639158480776378 -0.28906620698739638 0 -0.42050534183852889 -0.28192895548386432 0 -0.40752435592041181 -0.27343839574748457 0 -0.41639158480776378 -0.28906620698739638 0 -0.40823853095913049 -0.29647031619703168 0 -0.40752435592041181 -0.27343839574748457 0 -0.42227847779946859 -0.28869701682167032 0 -0.41639158480776378 -0.28906620698739638 0 -0.42050534183852889 -0.28192895548386432 0 -0.40895270599785011 -0.31950223664657879 0 -0.40823853095913049 -0.29647031619703168 0 -0.41668271438536769 -0.30755592441287338 0 -0.40895270599785011 -0.31950223664657879 0 -0.40823853095913049 -0.29647031619703168 0 -0.42354516819009858 -0.29693799690279921 0 -0.40823853095913049 -0.29647031619703168 0 -0.41668271438536769 -0.30755592441287338 0 -0.42354516819009858 -0.29693799690279921 0 -0.42471570926878249 -0.30701931510657821 0 -0.41668271438536769 -0.30755592441287338 0 -0.4230047746245767 -0.31723979272167607 0 -0.42471570926878249 -0.30701931510657821 0 -0.41668271438536769 -0.30755592441287338 0 -0.40895270599785011 -0.31950223664657879 0 -0.40823853095913049 -0.29647031619703168 0 -0.39715245529271231 -0.30526849334410061 0 -0.40823853095913049 -0.29647031619703168 0 -0.39715245529271231 -0.30526849334410061 0 -0.39821212874389023 -0.29343796338865852 0 -0.39371898029673907 -0.29728001325167053 0 -0.39715245529271231 -0.30526849334410061 0 -0.39371898029673907 -0.29728001325167053 0 -0.39715245529271231 -0.30526849334410061 0 -0.39821212874389023 -0.29343796338865852 0 -0.39371898029673907 -0.29728001325167053 0 -0.39715245529271231 -0.30526849334410061 0 -0.38875588400241212 -0.30343353500989623 0 -0.39715245529271231 -0.30526849334410061 0 -0.38722312163378481 -0.31042230276248511 0 -0.38875588400241212 -0.30343353500989623 0 -0.37595800937222618 -0.31861964865870751 0 -0.38722312163378481 -0.31042230276248511 0 -0.38078592709073239 -0.30128195795161739 0 -0.37595800937222618 -0.31861964865870751 0 -0.38078592709073239 -0.30128195795161739 0 -0.36853581232338523 -0.29451987590623768 0 -0.38722312163378481 -0.31042230276248511 0 -0.38875588400241212 -0.30343353500989623 0 -0.38078592709073239 -0.30128195795161739 0 -0.39371898029673907 -0.29728001325167053 0 -0.38875588400241212 -0.30343353500989623 0 -0.3869556512085755 -0.2955367813193388 0 -0.38875588400241212 -0.30343353500989623 0 -0.38078592709073239 -0.30128195795161739 0 -0.3869556512085755 -0.2955367813193388 0 -0.37820167961627338 -0.2884179115180292 0 -0.38489158479391339 -0.28869948905610399 0 -0.38325984827466869 -0.28331377244016381 0 -0.37566018977046323 -0.28187046198094712 0 -0.37820167961627338 -0.2884179115180292 0 -0.38325984827466869 -0.28331377244016381 0 -0.37566018977046323 -0.28187046198094712 0 -0.37820167961627338 -0.2884179115180292 0 -0.37242813600476132 -0.28711279977369553 0 -0.38078592709073239 -0.30128195795161739 0 -0.37631713988394022 -0.29376566820567412 0 -0.38186238474124268 -0.29212500427003141 0 -0.37820167961627338 -0.2884179115180292 0 -0.37631713988394022 -0.29376566820567412 0 -0.3721998956480676 -0.29248359138245489 0 -0.38078592709073239 -0.30128195795161739 0 -0.37631713988394022 -0.29376566820567412 0 -0.36853581232338523 -0.29451987590623768 0 -0.37820167961627338 -0.2884179115180292 0 -0.37631713988394022 -0.29376566820567412 0 -0.38186238474124268 -0.29212500427003141 0 -0.37820167961627338 -0.2884179115180292 0 -0.38186238474124268 -0.29212500427003141 0 -0.38489158479391339 -0.28869948905610399 0 -0.38186238474124268 -0.29212500427003141 0 -0.3869556512085755 -0.2955367813193388 0 -0.38489158479391339 -0.28869948905610399 0 -0.38078592709073239 -0.30128195795161739 0 -0.38186238474124268 -0.29212500427003141 0 -0.3869556512085755 -0.2955367813193388 0 -0.3869556512085755 -0.2955367813193388 0 -0.38489158479391339 -0.28869948905610399 0 -0.39171914632641353 -0.29040068837671351 0 -0.38928525784559947 -0.28560024899905068 0 -0.38489158479391339 -0.28869948905610399 0 -0.39171914632641353 -0.29040068837671351 0 -0.38928525784559947 -0.28560024899905068 0 -0.38489158479391339 -0.28869948905610399 0 -0.38325984827466869 -0.28331377244016381 0 -0.38928525784559947 -0.28560024899905068 0 -0.38325984827466869 -0.28331377244016381 0 -0.38938483540843222 -0.28079791094391549 0 -0.38928525784559947 -0.28560024899905068 0 -0.39717087442456989 -0.28478938417835697 0 -0.39171914632641353 -0.29040068837671351 0 -0.40823853095913049 -0.29647031619703168 0 -0.39717087442456989 -0.28478938417835697 0 -0.40752435592041181 -0.27343839574748457 0 -0.38928525784559947 -0.28560024899905068 0 -0.39717087442456989 -0.28478938417835697 0 -0.38938483540843222 -0.28079791094391549 0 -0.39717087442456989 -0.28478938417835697 0 -0.39171914632641353 -0.29040068837671351 0 -0.39821212874389023 -0.29343796338865852 0 -0.39371898029673907 -0.29728001325167053 0 -0.3869556512085755 -0.2955367813193388 0 -0.39171914632641353 -0.29040068837671351 0 -0.39371898029673907 -0.29728001325167053 0 -0.39171914632641353 -0.29040068837671351 0 -0.39821212874389023 -0.29343796338865852 0 -0.40823853095913049 -0.29647031619703168 0 -0.39717087442456989 -0.28478938417835697 0 -0.39821212874389023 -0.29343796338865852 0 -0.40134163203468781 -0.27193753301854889 0 -0.38217022443024218 -0.27472121207517269 0 -0.39076873500087411 -0.26329940226581139 0 -0.39772809278443599 -0.26136585107294152 0 -0.40752435592041181 -0.27343839574748457 0 -0.40134163203468781 -0.27193753301854889 0 -0.39076873500087411 -0.26329940226581139 0 -0.40752435592041181 -0.27343839574748457 0 -0.40134163203468781 -0.27193753301854889 0 -0.38348705559938878 -0.26760331580167662 0 -0.39076873500087411 -0.26329940226581139 0 -0.39717087442456989 -0.28478938417835697 0 -0.39619529719243352 -0.27765002560473873 0 -0.40752435592041181 -0.27343839574748457 0 -0.40134163203468781 -0.27193753301854889 0 -0.38348705559938878 -0.26760331580167662 0 -0.40134163203468781 -0.27193753301854889 0 -0.39619529719243352 -0.27765002560473873 0 -0.38217022443024218 -0.27472121207517269 0 -0.40134163203468781 -0.27193753301854889 0 -0.39619529719243352 -0.27765002560473873 0 -0.40752435592041181 -0.27343839574748457 0 -0.40134163203468781 -0.27193753301854889 0 -0.40752435592041181 -0.27343839574748457 0 -0.39717087442456989 -0.28478938417835697 0 -0.39619529719243352 -0.27765002560473873 0 -0.38938483540843222 -0.28079791094391549 0 -0.38325984827466869 -0.28331377244016381 0 -0.38938483540843222 -0.28079791094391549 0 -0.38217022443024218 -0.27472121207517269 0 -0.39619529719243352 -0.27765002560473873 0 -0.38938483540843222 -0.28079791094391549 0 -0.38217022443024218 -0.27472121207517269 0 -0.40134163203468781 -0.27193753301854889 0 -0.38348705559938878 -0.26760331580167662 0 -0.38217022443024218 -0.27472121207517269 0 -0.38348705559938878 -0.26760331580167662 0 -0.38217022443024218 -0.27472121207517269 0 -0.37205916421363922 -0.27026470295014138 0 -0.37566018977046323 -0.28187046198094712 0 -0.38325984827466869 -0.28331377244016381 0 -0.38217022443024218 -0.27472121207517269 0 -0.38751535390280561 -0.25554780474423161 0 -0.39411142420351142 -0.24624524213269491 0 -0.37764468782704042 -0.24899062017314161 0 -0.37758881679732798 -0.25854164396272328 0 -0.38751535390280561 -0.25554780474423161 0 -0.37764468782704042 -0.24899062017314161 0 -0.37758881679732798 -0.25854164396272328 0 -0.38751535390280561 -0.25554780474423161 0 -0.39076873500087411 -0.26329940226581139 0 -0.38348705559938878 -0.26760331580167662 0 -0.37758881679732798 -0.25854164396272328 0 -0.39076873500087411 -0.26329940226581139 0 -0.40016623746553048 -0.25365426733689111 0 -0.40752435592041181 -0.27343839574748457 0 -0.40666421041337558 -0.24569897359037501 0 -0.39772809278443599 -0.26136585107294152 0 -0.40016623746553048 -0.25365426733689111 0 -0.40752435592041181 -0.27343839574748457 0 -0.38751535390280561 -0.25554780474423161 0 -0.40016623746553048 -0.25365426733689111 0 -0.39411142420351142 -0.24624524213269491 0 -0.38751535390280561 -0.25554780474423161 0 -0.39772809278443599 -0.26136585107294152 0 -0.40016623746553048 -0.25365426733689111 0 -0.38751535390280561 -0.25554780474423161 0 -0.39076873500087411 -0.26329940226581139 0 -0.39772809278443599 -0.26136585107294152 0 -0.40752435592041181 -0.27343839574748457 0 -0.40666421041337558 -0.24569897359037501 0 -0.41305905268443521 -0.25629159816691388 0 -0.41942531984279369 -0.26085043951386627 0 -0.41862232456115961 -0.2451785838159298 0 -0.41942531984279369 -0.26085043951386627 0 -0.41862232456115961 -0.2451785838159298 0 -0.41305905268443521 -0.25629159816691388 0 -0.40752435592041181 -0.27343839574748457 0 -0.40666421041337558 -0.24569897359037501 0 -0.41305905268443521 -0.25629159816691388 0 -0.41942531984279369 -0.26085043951386627 0 -0.40752435592041181 -0.27343839574748457 0 -0.41942531984279369 -0.26085043951386627 0 -0.42022831512442471 -0.27652229521180299 0 -0.41942531984279369 -0.26085043951386627 0 -0.40752435592041181 -0.27343839574748457 0 -0.42022831512442471 -0.27652229521180299 0 -0.40752435592041181 -0.27343839574748457 0 -0.42022831512442471 -0.27652229521180299 0 -0.42050534183852889 -0.28192895548386432 0 -0.40752435592041181 -0.27343839574748457 0 -0.42022831512442471 -0.27652229521180299 0 -0.42050534183852889 -0.28192895548386432 0 -0.42022831512442471 -0.27652229521180299 0 -0.43787874977499203 -0.2653125389199632 0 -0.44195758091034842 -0.2817970973456223 0 -0.42824400038274879 -0.26798143984673922 0 -0.41942531984279369 -0.26085043951386627 0 -0.42022831512442471 -0.27652229521180299 0 -0.42824400038274879 -0.26798143984673922 0 -0.44195758091034842 -0.2817970973456223 0 -0.42022831512442471 -0.27652229521180299 0 -0.44195758091034842 -0.2817970973456223 0 -0.42022831512442471 -0.27652229521180299 0 -0.42824400038274879 -0.26798143984673922 0 -0.41942531984279369 -0.26085043951386627 0 -0.43192748323268432 -0.25712770411644359 0 -0.41862232456115961 -0.2451785838159298 0 -0.43787874977499203 -0.2653125389199632 0 -0.42824400038274879 -0.26798143984673922 0 -0.43192748323268432 -0.25712770411644359 0 -0.41942531984279369 -0.26085043951386627 0 -0.42824400038274879 -0.26798143984673922 0 -0.43192748323268432 -0.25712770411644359 0 -0.33361653275719072 -0.25803995610263991 0 -0.31722060212611358 -0.24934470963434141 0 -0.32735349430960708 -0.24262562400034121 0 -0.32198076444521551 -0.26738502071963288 0 -0.33361653275719072 -0.25803995610263991 0 -0.31722060212611358 -0.24934470963434141 0 -0.32198076444521551 -0.26738502071963288 0 -0.30847369976589017 -0.26668749321815682 0 -0.31722060212611358 -0.24934470963434141 0 -0.32198076444521551 -0.26738502071963288 0 -0.33341321138096652 -0.2804695330950942 0 -0.31717977619591659 -0.28238341154793239 0 -0.32198076444521551 -0.26738502071963288 0 -0.31717977619591659 -0.28238341154793239 0 -0.30847369976589017 -0.26668749321815682 0 -0.33341321138096652 -0.2804695330950942 0 -0.33361653275719072 -0.25803995610263991 0 -0.32198076444521551 -0.26738502071963288 0 -0.33341321138096652 -0.2804695330950942 0 -0.33361653275719072 -0.25803995610263991 0 -0.33341321138096652 -0.2804695330950942 0 -0.33361653275719072 -0.25803995610263991 0 -0.34595542429398468 -0.26530634715793128 0 -0.33361653275719072 -0.25803995610263991 0 -0.34595542429398468 -0.26530634715793128 0 -0.34239593143502273 -0.2469038302415234 0 -0.34595542429398468 -0.26530634715793128 0 -0.35668027886030312 -0.25602512018371798 0 -0.34239593143502273 -0.2469038302415234 0 -0.38348705559938878 -0.26760331580167662 0 -0.37758881679732798 -0.25854164396272328 0 -0.35944975527836581 -0.26176823585586911 0 -0.35668027886030312 -0.25602512018371798 0 -0.36757427284176208 -0.25455807078907677 0 -0.36574197782918022 -0.24588091879952639 0 -0.35668027886030312 -0.25602512018371798 0 -0.35944975527836581 -0.26176823585586911 0 -0.36312962154655998 -0.27696604806784703 0 -0.35668027886030312 -0.25602512018371798 0 -0.35944975527836581 -0.26176823585586911 0 -0.36757427284176208 -0.25455807078907677 0 -0.38348705559938878 -0.26760331580167662 0 -0.35944975527836581 -0.26176823585586911 0 -0.37758881679732798 -0.25854164396272328 0 -0.35944975527836581 -0.26176823585586911 0 -0.36757427284176208 -0.25455807078907677 0 -0.37758881679732798 -0.25854164396272328 0 -0.36757427284176208 -0.25455807078907677 0 -0.37764468782704042 -0.24899062017314161 0 -0.38348705559938878 -0.26760331580167662 0 -0.35944975527836581 -0.26176823585586911 0 -0.37205916421363922 -0.27026470295014138 0 -0.38217022443024218 -0.27472121207517269 0 -0.36312962154655998 -0.27696604806784703 0 -0.35668027886030312 -0.25602512018371798 0 -0.36312962154655998 -0.27696604806784703 0 -0.38217022443024218 -0.27472121207517269 0 -0.37205916421363922 -0.27026470295014138 0 -0.36312962154655998 -0.27696604806784703 0 -0.37566018977046323 -0.28187046198094712 0 -0.38217022443024218 -0.27472121207517269 0 -0.36312962154655998 -0.27696604806784703 0 -0.35944975527836581 -0.26176823585586911 0 -0.37205916421363922 -0.27026470295014138 0 -0.36312962154655998 -0.27696604806784703 0 -0.34595542429398468 -0.26530634715793128 0 -0.35668027886030312 -0.25602512018371798 0 -0.36312962154655998 -0.27696604806784703 0 -0.33341321138096652 -0.2804695330950942 0 -0.34595542429398468 -0.26530634715793128 0 -0.36312962154655998 -0.27696604806784703 0 -0.33341321138096652 -0.2804695330950942 0 -0.36312962154655998 -0.27696604806784703 0 -0.33341321138096652 -0.2804695330950942 0 -0.36312962154655998 -0.27696604806784703 0 -0.35258848165876461 -0.28509611434928839 0 -0.34499092004637838 -0.29620165199787363 0 -0.35258848165876461 -0.28509611434928839 0 -0.36177650152787599 -0.29827630793703869 0 -0.34499092004637838 -0.29620165199787363 0 -0.35258848165876461 -0.28509611434928839 0 -0.34106590358732791 -0.28948121678478228 0 -0.35258848165876461 -0.28509611434928839 0 -0.36177650152787599 -0.29827630793703869 0 -0.36312962154655998 -0.27696604806784703 0 -0.35258848165876461 -0.28509611434928839 0 -0.36853581232338523 -0.29451987590623768 0 -0.35258848165876461 -0.28509611434928839 0 -0.36853581232338523 -0.29451987590623768 0 -0.36177650152787599 -0.29827630793703869 0 -0.36312962154655998 -0.27696604806784703 0 -0.36853581232338523 -0.29451987590623768 0 -0.37242813600476132 -0.28711279977369553 0 -0.36312962154655998 -0.27696604806784703 0 -0.36853581232338523 -0.29451987590623768 0 -0.36853581232338523 -0.29451987590623768 0 -0.36177650152787599 -0.29827630793703869 0 -0.36853581232338523 -0.29451987590623768 0 -0.3721998956480676 -0.29248359138245489 0 -0.37242813600476132 -0.28711279977369553 0 -0.36853581232338523 -0.29451987590623768 0 -0.3721998956480676 -0.29248359138245489 0 -0.37631713988394022 -0.29376566820567412 0 -0.36853581232338523 -0.29451987590623768 0 -0.3721998956480676 -0.29248359138245489 0 -0.37820167961627338 -0.2884179115180292 0 -0.3721998956480676 -0.29248359138245489 0 -0.37242813600476132 -0.28711279977369553 0 -0.37566018977046323 -0.28187046198094712 0 -0.36312962154655998 -0.27696604806784703 0 -0.37242813600476132 -0.28711279977369553 0 -0.37595800937222618 -0.31861964865870751 0 -0.36853581232338523 -0.29451987590623768 0 -0.36177650152787599 -0.29827630793703869 0 -0.37595800937222618 -0.31861964865870751 0 -0.36177650152787599 -0.29827630793703869 0 -0.37595800937222618 -0.31861964865870751 0 -0.36853581232338523 -0.29451987590623768 0 -0.36177650152787599 -0.29827630793703869 0 -0.33553795869987108 -0.31285816483080142 0 -0.35773385491018328 -0.32218700243225429 0 -0.34499092004637838 -0.29620165199787363 0 -0.36177650152787599 -0.29827630793703869 0 -0.33553795869987108 -0.31285816483080142 0 -0.36177650152787599 -0.29827630793703869 0 -0.33553795869987108 -0.31285816483080142 0 -0.33312879114543842 -0.31184560229865183 0 -0.33327100126320242 -0.29615756769687301 0 -0.34499092004637838 -0.29620165199787363 0 -0.33327100126320242 -0.29615756769687301 0 -0.33553795869987108 -0.31285816483080142 0 -0.33312879114543842 -0.31184560229865183 0 -0.33327100126320242 -0.29615756769687301 0 -0.33553795869987108 -0.31285816483080142 0 -0.33312879114543842 -0.31184560229865183 0 -0.33327100126320242 -0.29615756769687301 0 -0.32584019490081162 -0.3015414341136341 0 -0.33312879114543842 -0.31184560229865183 0 -0.33553795869987108 -0.31285816483080142 0 -0.33341321138096652 -0.2804695330950942 0 -0.33327100126320242 -0.29615756769687301 0 -0.32149715398273759 -0.29374146832262987 0 -0.33341321138096652 -0.2804695330950942 0 -0.34106590358732791 -0.28948121678478228 0 -0.33327100126320242 -0.29615756769687301 0 -0.34499092004637838 -0.29620165199787363 0 -0.34106590358732791 -0.28948121678478228 0 -0.33327100126320242 -0.29615756769687301 0 -0.33341321138096652 -0.2804695330950942 0 -0.35258848165876461 -0.28509611434928839 0 -0.34106590358732791 -0.28948121678478228 0 -0.33341321138096652 -0.2804695330950942 0 -0.33327100126320242 -0.29615756769687301 0 -0.33341321138096652 -0.2804695330950942 0 -0.32149715398273759 -0.29374146832262987 0 -0.31717977619591659 -0.28238341154793239 0 -0.33341321138096652 -0.2804695330950942 0 -0.31717977619591659 -0.28238341154793239 0 -0.32149715398273759 -0.29374146832262987 0 -0.31717977619591659 -0.28238341154793239 0 -0.30911446578735041 -0.29442301866462228 0 -0.32149715398273759 -0.29374146832262987 0 -0.31492523074182138 -0.30472489638013528 0 -0.30911446578735041 -0.29442301866462228 0 -0.33312879114543842 -0.31184560229865183 0 -0.31492523074182138 -0.30472489638013528 0 -0.32584019490081162 -0.3015414341136341 0 -0.31492523074182138 -0.30472489638013528 0 -0.32333728605693551 -0.31963858947759199 0 -0.30608314329765079 -0.31210168917786868 0 -0.33312879114543842 -0.31184560229865183 0 -0.31492523074182138 -0.30472489638013528 0 -0.33312879114543842 -0.31184560229865183 0 -0.31492523074182138 -0.30472489638013528 0 -0.32333728605693551 -0.31963858947759199 0 -0.31492523074182138 -0.30472489638013528 0 -0.32333728605693551 -0.31963858947759199 0 -0.32149715398273759 -0.29374146832262987 0 -0.31492523074182138 -0.30472489638013528 0 -0.32584019490081162 -0.3015414341136341 0 -0.33327100126320242 -0.29615756769687301 0 -0.32149715398273759 -0.29374146832262987 0 -0.32584019490081162 -0.3015414341136341 0 -0.32333728605693551 -0.31963858947759199 0 -0.33290439490506157 -0.33660007152283761 0 -0.32333728605693551 -0.31963858947759199 0 -0.31787674772730012 -0.33374662552332018 0 -0.29895296916946063 -0.33318997537719069 0 -0.32333728605693551 -0.31963858947759199 0 -0.31787674772730012 -0.33374662552332018 0 -0.33290439490506157 -0.33660007152283761 0 -0.31787674772730012 -0.33374662552332018 0 -0.33290439490506157 -0.33660007152283761 0 -0.3163123407777424 -0.34555786571566072 0 -0.33290439490506157 -0.33660007152283761 0 -0.34152660310720118 -0.32424881873517353 0 -0.34850868564350213 -0.33272041770390459 0 -0.33290439490506157 -0.33660007152283761 0 -0.34152660310720118 -0.32424881873517353 0 -0.33310736772332972 -0.31420894600868787 0 -0.32333728605693551 -0.31963858947759199 0 -0.33290439490506157 -0.33660007152283761 0 -0.33310736772332972 -0.31420894600868787 0 -0.33290439490506157 -0.33660007152283761 0 -0.33310736772332972 -0.31420894600868787 0 -0.33312879114543842 -0.31184560229865183 0 -0.32333728605693551 -0.31963858947759199 0 -0.33310736772332972 -0.31420894600868787 0 -0.32333728605693551 -0.31963858947759199 0 -0.33310736772332972 -0.31420894600868787 0 -0.33312879114543842 -0.31184560229865183 0 -0.33310736772332972 -0.31420894600868787 0 -0.33312879114543842 -0.31184560229865183 0 -0.33310736772332972 -0.31420894600868787 0 -0.33553795869987108 -0.31285816483080142 0 -0.33310736772332972 -0.31420894600868787 0 -0.33553795869987108 -0.31285816483080142 0 -0.34152660310720118 -0.32424881873517353 0 -0.33310736772332972 -0.31420894600868787 0 -0.33553795869987108 -0.31285816483080142 0 -0.34152660310720118 -0.32424881873517353 0 -0.33553795869987108 -0.31285816483080142 0 -0.35773385491018328 -0.32218700243225429 0 -0.34152660310720118 -0.32424881873517353 0 -0.35773385491018328 -0.32218700243225429 0 -0.34850868564350213 -0.33272041770390459 0 -0.33553795869987108 -0.31285816483080142 0 -0.35773385491018328 -0.32218700243225429 0 -0.37595800937222618 -0.31861964865870751 0 -0.36177650152787599 -0.29827630793703869 0 -0.35773385491018328 -0.32218700243225429 0 -0.37992975112049571 -0.33151584003370649 0 -0.37595800937222618 -0.31861964865870751 0 -0.35773385491018328 -0.32218700243225429 0 -0.37992975112049571 -0.33151584003370649 0 -0.35773385491018328 -0.32218700243225429 0 -0.37992975112049571 -0.33151584003370649 0 -0.35773385491018328 -0.32218700243225429 0 -0.37122354459229701 -0.33596593369906907 0 -0.3790750482196874 -0.34437424490918439 0 -0.37122354459229701 -0.33596593369906907 0 -0.36978010004777728 -0.34588423666751678 0 -0.35773385491018328 -0.32218700243225429 0 -0.37122354459229701 -0.33596593369906907 0 -0.35927608542092948 -0.33457044777653472 0 -0.37122354459229701 -0.33596593369906907 0 -0.35927608542092948 -0.33457044777653472 0 -0.36978010004777728 -0.34588423666751678 0 -0.35927608542092948 -0.33457044777653472 0 -0.34850868564350213 -0.33272041770390459 0 -0.35110248987413473 -0.34599574805272332 0 -0.33290439490506157 -0.33660007152283761 0 -0.34850868564350213 -0.33272041770390459 0 -0.35110248987413473 -0.34599574805272332 0 -0.35773385491018328 -0.32218700243225429 0 -0.35927608542092948 -0.33457044777653472 0 -0.34850868564350213 -0.33272041770390459 0 -0.35927608542092948 -0.33457044777653472 0 -0.35864650014041322 -0.35784619359987158 0 -0.35927608542092948 -0.33457044777653472 0 -0.35110248987413473 -0.34599574805272332 0 -0.35864650014041322 -0.35784619359987158 0 -0.35110248987413473 -0.34599574805272332 0 -0.34546065488247829 -0.35886100547302308 0 -0.35864650014041322 -0.35784619359987158 0 -0.37901138746526941 -0.35520790336737601 0 -0.35864650014041322 -0.35784619359987158 0 -0.36978010004777728 -0.34588423666751678 0 -0.35927608542092948 -0.33457044777653472 0 -0.35864650014041322 -0.35784619359987158 0 -0.36978010004777728 -0.34588423666751678 0 -0.35864650014041322 -0.35784619359987158 0 -0.36499282662225718 -0.36730650053275382 0 -0.35801691485989567 -0.38112193942320849 0 -0.37901138746526941 -0.35520790336737601 0 -0.35864650014041322 -0.35784619359987158 0 -0.36499282662225718 -0.36730650053275382 0 -0.37612254132508599 -0.37004492812090112 0 -0.36499282662225718 -0.36730650053275382 0 -0.37001583187281317 -0.377892963090108 0 -0.37612254132508599 -0.37004492812090112 0 -0.37901138746526941 -0.35520790336737601 0 -0.36499282662225718 -0.36730650053275382 0 -0.37901138746526941 -0.35520790336737601 0 -0.36499282662225718 -0.36730650053275382 0 -0.34546065488247829 -0.35886100547302308 0 -0.35864650014041322 -0.35784619359987158 0 -0.35801691485989567 -0.38112193942320849 0 -0.35864650014041322 -0.35784619359987158 0 -0.35801691485989567 -0.38112193942320849 0 -0.34546065488247829 -0.35886100547302308 0 -0.35801691485989567 -0.38112193942320849 0 -0.34546065488247829 -0.35886100547302308 0 -0.34459208761093241 -0.37928767122533091 0 -0.35801691485989567 -0.38112193942320849 0 -0.33257416318950639 -0.37302987456139908 0 -0.33273927904728368 -0.35481497304211829 0 -0.33257416318950639 -0.37302987456139908 0 -0.33273927904728368 -0.35481497304211829 0 -0.31971889672997589 -0.36357472665957019 0 -0.34546065488247829 -0.35886100547302308 0 -0.33257416318950639 -0.37302987456139908 0 -0.34459208761093241 -0.37928767122533091 0 -0.34546065488247829 -0.35886100547302308 0 -0.33257416318950639 -0.37302987456139908 0 -0.33273927904728368 -0.35481497304211829 0 -0.33290439490506157 -0.33660007152283761 0 -0.34546065488247829 -0.35886100547302308 0 -0.33290439490506157 -0.33660007152283761 0 -0.35110248987413473 -0.34599574805272332 0 -0.34546065488247829 -0.35886100547302308 0 -0.33290439490506157 -0.33660007152283761 0 -0.34546065488247829 -0.35886100547302308 0 -0.33273927904728368 -0.35481497304211829 0 -0.33290439490506157 -0.33660007152283761 0 -0.33273927904728368 -0.35481497304211829 0 -0.33290439490506157 -0.33660007152283761 0 -0.33273927904728368 -0.35481497304211829 0 -0.3163123407777424 -0.34555786571566072 0 -0.33273927904728368 -0.35481497304211829 0 -0.3163123407777424 -0.34555786571566072 0 -0.31971889672997589 -0.36357472665957019 0 -0.3163123407777424 -0.34555786571566072 0 -0.31971889672997589 -0.36357472665957019 0 -0.30577197850087462 -0.36119241399942248 0 -0.31971889672997589 -0.36357472665957019 0 -0.31079379255441242 -0.3703067332421891 0 -0.31947774053566952 -0.37538637463218327 0 -0.33257416318950639 -0.37302987456139908 0 -0.31971889672997589 -0.36357472665957019 0 -0.31947774053566952 -0.37538637463218327 0 -0.30577197850087462 -0.36119241399942248 0 -0.29588770224460631 -0.35631437123445181 0 -0.29110329015123371 -0.36555989706129538 0 -0.3008358669182804 -0.37411695625553998 0 -0.30577197850087462 -0.36119241399942248 0 -0.29110329015123371 -0.36555989706129538 0 -0.3008358669182804 -0.37411695625553998 0 -0.31079379255441242 -0.3703067332421891 0 -0.30577197850087462 -0.36119241399942248 0 -0.31971889672997589 -0.36357472665957019 0 -0.31079379255441242 -0.3703067332421891 0 -0.30577197850087462 -0.36119241399942248 0 -0.3163123407777424 -0.34555786571566072 0 -0.30577197850087462 -0.36119241399942248 0 -0.30220565230201568 -0.34875955049288349 0 -0.30577197850087462 -0.36119241399942248 0 -0.30220565230201568 -0.34875955049288349 0 -0.29588770224460631 -0.35631437123445181 0 -0.2905221312714561 -0.3467337754993538 0 -0.28271890438708119 -0.35196018628107378 0 -0.2745686522819844 -0.34674136127678662 0 -0.29588770224460631 -0.35631437123445181 0 -0.28791255630026769 -0.35587283676041959 0 -0.29110329015123371 -0.36555989706129538 0 -0.29588770224460631 -0.35631437123445181 0 -0.2905221312714561 -0.3467337754993538 0 -0.28791255630026769 -0.35587283676041959 0 -0.30220565230201568 -0.34875955049288349 0 -0.29588770224460631 -0.35631437123445181 0 -0.2905221312714561 -0.3467337754993538 0 -0.2905221312714561 -0.3467337754993538 0 -0.28271890438708119 -0.35196018628107378 0 -0.28791255630026769 -0.35587283676041959 0 -0.28271890438708119 -0.35196018628107378 0 -0.28791255630026769 -0.35587283676041959 0 -0.27836930209837002 -0.35706926254648058 0 -0.29110329015123371 -0.36555989706129538 0 -0.27836930209837002 -0.35706926254648058 0 -0.28508750879396572 -0.37963312344532629 0 -0.27836930209837002 -0.35706926254648058 0 -0.28508750879396572 -0.37963312344532629 0 -0.3008358669182804 -0.37411695625553998 0 -0.29110329015123371 -0.36555989706129538 0 -0.28508750879396572 -0.37963312344532629 0 -0.28791255630026769 -0.35587283676041959 0 -0.29110329015123371 -0.36555989706129538 0 -0.27836930209837002 -0.35706926254648058 0 -0.273149839104051 -0.37197452274136827 0 -0.26307851446279301 -0.36086665316249639 0 -0.27260457468078508 -0.34797568144674118 0 -0.273149839104051 -0.37197452274136827 0 -0.27836930209837002 -0.35706926254648058 0 -0.28508750879396572 -0.37963312344532629 0 -0.273149839104051 -0.37197452274136827 0 -0.27260457468078508 -0.34797568144674118 0 -0.25893338925728893 -0.3739307342629028 0 -0.25168234128731259 -0.36273293774725718 0 -0.2421752620654718 -0.37978914002859171 0 -0.273149839104051 -0.37197452274136827 0 -0.25893338925728893 -0.3739307342629028 0 -0.26307851446279301 -0.36086665316249639 0 -0.25893338925728893 -0.3739307342629028 0 -0.26307851446279301 -0.36086665316249639 0 -0.25168234128731259 -0.36273293774725718 0 -0.26307851446279301 -0.36086665316249639 0 -0.25168234128731259 -0.36273293774725718 0 -0.25902242798452701 -0.34771938961421228 0 -0.26307851446279301 -0.36086665316249639 0 -0.25902242798452701 -0.34771938961421228 0 -0.27260457468078508 -0.34797568144674118 0 -0.273149839104051 -0.37197452274136827 0 -0.27260457468078508 -0.34797568144674118 0 -0.27836930209837002 -0.35706926254648058 0 -0.28271890438708119 -0.35196018628107378 0 -0.27836930209837002 -0.35706926254648058 0 -0.2745686522819844 -0.34674136127678662 0 -0.27260457468078508 -0.34797568144674118 0 -0.27836930209837002 -0.35706926254648058 0 -0.2745686522819844 -0.34674136127678662 0 -0.2745686522819844 -0.34674136127678662 0 -0.27205931025751923 -0.32397684015211409 0 -0.28367821347906491 -0.32862907740765568 0 -0.27260457468078508 -0.34797568144674118 0 -0.2745686522819844 -0.34674136127678662 0 -0.27205931025751923 -0.32397684015211409 0 -0.27260457468078508 -0.34797568144674118 0 -0.26105723004971348 -0.33491635554623772 0 -0.27205931025751923 -0.32397684015211409 0 -0.27260457468078508 -0.34797568144674118 0 -0.27205931025751923 -0.32397684015211409 0 -0.25902242798452701 -0.34771938961421228 0 -0.27260457468078508 -0.34797568144674118 0 -0.26105723004971348 -0.33491635554623772 0 -0.26105723004971348 -0.33491635554623772 0 -0.25600005574897378 -0.31992000368868567 0 -0.24549884347453171 -0.33403115256602178 0 -0.25902242798452701 -0.34771938961421228 0 -0.26105723004971348 -0.33491635554623772 0 -0.24549884347453171 -0.33403115256602178 0 -0.26105723004971348 -0.33491635554623772 0 -0.25600005574897378 -0.31992000368868567 0 -0.27205931025751923 -0.32397684015211409 0 -0.25600005574897378 -0.31992000368868567 0 -0.27205931025751923 -0.32397684015211409 0 -0.2696304677330712 -0.30596867079211659 0 -0.27205931025751923 -0.32397684015211409 0 -0.28913192220729539 -0.31060813282453142 0 -0.2696304677330712 -0.30596867079211659 0 -0.28367821347906491 -0.32862907740765568 0 -0.29895296916946063 -0.33318997537719069 0 -0.28913192220729539 -0.31060813282453142 0 -0.27205931025751923 -0.32397684015211409 0 -0.28367821347906491 -0.32862907740765568 0 -0.28913192220729539 -0.31060813282453142 0 -0.2745686522819844 -0.34674136127678662 0 -0.29895296916946063 -0.33318997537719069 0 -0.2745686522819844 -0.34674136127678662 0 -0.28367821347906491 -0.32862907740765568 0 -0.29895296916946063 -0.33318997537719069 0 -0.2905221312714561 -0.3467337754993538 0 -0.2745686522819844 -0.34674136127678662 0 -0.29895296916946063 -0.33318997537719069 0 -0.31787674772730012 -0.33374662552332018 0 -0.3163123407777424 -0.34555786571566072 0 -0.29895296916946063 -0.33318997537719069 0 -0.3163123407777424 -0.34555786571566072 0 -0.30220565230201568 -0.34875955049288349 0 -0.29895296916946063 -0.33318997537719069 0 -0.30220565230201568 -0.34875955049288349 0 -0.2905221312714561 -0.3467337754993538 0 -0.29895296916946063 -0.33318997537719069 0 -0.29895296916946063 -0.33318997537719069 0 -0.30608314329765079 -0.31210168917786868 0 -0.28913192220729539 -0.31060813282453142 0 -0.32333728605693551 -0.31963858947759199 0 -0.29895296916946063 -0.33318997537719069 0 -0.30608314329765079 -0.31210168917786868 0 -0.32333728605693551 -0.31963858947759199 0 -0.29895296916946063 -0.33318997537719069 0 -0.31492523074182138 -0.30472489638013528 0 -0.30608314329765079 -0.31210168917786868 0 -0.30911446578735041 -0.29442301866462228 0 -0.30608314329765079 -0.31210168917786868 0 -0.29957160904977492 -0.30234326221262492 0 -0.28913192220729539 -0.31060813282453142 0 -0.30608314329765079 -0.31210168917786868 0 -0.29957160904977492 -0.30234326221262492 0 -0.30911446578735041 -0.29442301866462228 0 -0.31492523074182138 -0.30472489638013528 0 -0.30911446578735041 -0.29442301866462228 0 -0.29957160904977492 -0.30234326221262492 0 -0.30911446578735041 -0.29442301866462228 0 -0.29288369035148559 -0.29212493386957128 0 -0.30448275470430591 -0.28241485047084919 0 -0.29288369035148559 -0.29212493386957128 0 -0.29432749259128171 -0.27579598105357389 0 -0.30911446578735041 -0.29442301866462228 0 -0.30448275470430591 -0.28241485047084919 0 -0.29288369035148559 -0.29212493386957128 0 -0.31717977619591659 -0.28238341154793239 0 -0.30911446578735041 -0.29442301866462228 0 -0.30448275470430591 -0.28241485047084919 0 -0.29288369035148559 -0.29212493386957128 0 -0.27501366883440831 -0.2896739246459481 0 -0.28231140837305441 -0.28062612565801881 0 -0.29288369035148559 -0.29212493386957128 0 -0.29432749259128171 -0.27579598105357389 0 -0.28231140837305441 -0.28062612565801881 0 -0.29288369035148559 -0.29212493386957128 0 -0.28166493728156522 -0.29959391553304182 0 -0.27501366883440831 -0.2896739246459481 0 -0.29288369035148559 -0.29212493386957128 0 -0.28913192220729539 -0.31060813282453142 0 -0.28166493728156522 -0.29959391553304182 0 -0.29957160904977492 -0.30234326221262492 0 -0.29288369035148559 -0.29212493386957128 0 -0.28913192220729539 -0.31060813282453142 0 -0.28913192220729539 -0.31060813282453142 0 -0.28166493728156522 -0.29959391553304182 0 -0.2696304677330712 -0.30596867079211659 0 -0.28166493728156522 -0.29959391553304182 0 -0.2696304677330712 -0.30596867079211659 0 -0.27501366883440831 -0.2896739246459481 0 -0.2696304677330712 -0.30596867079211659 0 -0.25120068256207578 -0.30478828704230881 0 -0.26102637213815238 -0.29092281776801943 0 -0.25600005574897378 -0.31992000368868567 0 -0.2696304677330712 -0.30596867079211659 0 -0.25120068256207578 -0.30478828704230881 0 -0.25120068256207578 -0.30478828704230881 0 -0.26102637213815238 -0.29092281776801943 0 -0.24553050315752581 -0.28890034277410809 0 -0.26102637213815238 -0.29092281776801943 0 -0.2553209964375982 -0.27648340776592129 0 -0.24553050315752581 -0.28890034277410809 0 -0.26102637213815238 -0.29092281776801943 0 -0.26886591220927708 -0.27960105076459818 0 -0.2553209964375982 -0.27648340776592129 0 -0.2696304677330712 -0.30596867079211659 0 -0.26102637213815238 -0.29092281776801943 0 -0.27501366883440831 -0.2896739246459481 0 -0.26102637213815238 -0.29092281776801943 0 -0.27501366883440831 -0.2896739246459481 0 -0.26886591220927708 -0.27960105076459818 0 -0.27501366883440831 -0.2896739246459481 0 -0.26886591220927708 -0.27960105076459818 0 -0.28231140837305441 -0.28062612565801881 0 -0.2756128680983867 -0.27012940622020187 0 -0.26391015937406292 -0.26977062252948031 0 -0.25962203517416249 -0.25887593997011621 0 -0.2756128680983867 -0.27012940622020187 0 -0.26886591220927708 -0.27960105076459818 0 -0.28231140837305441 -0.28062612565801881 0 -0.2756128680983867 -0.27012940622020187 0 -0.26886591220927708 -0.27960105076459818 0 -0.26391015937406292 -0.26977062252948031 0 -0.26391015937406292 -0.26977062252948031 0 -0.2553209964375982 -0.27648340776592129 0 -0.25962203517416249 -0.25887593997011621 0 -0.26886591220927708 -0.27960105076459818 0 -0.26391015937406292 -0.26977062252948031 0 -0.2553209964375982 -0.27648340776592129 0 -0.2553209964375982 -0.27648340776592129 0 -0.25962203517416249 -0.25887593997011621 0 -0.23570313163309281 -0.26733871708396628 0 -0.25962203517416249 -0.25887593997011621 0 -0.24175845980168911 -0.25428478927776899 0 -0.25534024554036799 -0.24953009406698781 0 -0.25962203517416249 -0.25887593997011621 0 -0.26956626606988687 -0.24595824657802251 0 -0.25534024554036799 -0.24953009406698781 0 -0.25962203517416249 -0.25887593997011621 0 -0.2835409387152325 -0.25041316285626603 0 -0.26956626606988687 -0.24595824657802251 0 -0.25962203517416249 -0.25887593997011621 0 -0.2835409387152325 -0.25041316285626603 0 -0.2756128680983867 -0.27012940622020187 0 -0.25962203517416249 -0.25887593997011621 0 -0.2835409387152325 -0.25041316285626603 0 -0.29266149634668731 -0.26262725870794817 0 -0.2835409387152325 -0.25041316285626603 0 -0.30135248256264541 -0.25011025019154232 0 -0.2756128680983867 -0.27012940622020187 0 -0.29266149634668731 -0.26262725870794817 0 -0.2835409387152325 -0.25041316285626603 0 -0.2756128680983867 -0.27012940622020187 0 -0.29266149634668731 -0.26262725870794817 0 -0.29432749259128171 -0.27579598105357389 0 -0.2756128680983867 -0.27012940622020187 0 -0.29432749259128171 -0.27579598105357389 0 -0.28231140837305441 -0.28062612565801881 0 -0.31717977619591659 -0.28238341154793239 0 -0.30448275470430591 -0.28241485047084919 0 -0.30847369976589017 -0.26668749321815682 0 -0.29266149634668731 -0.26262725870794817 0 -0.29432749259128171 -0.27579598105357389 0 -0.30847369976589017 -0.26668749321815682 0 -0.30448275470430591 -0.28241485047084919 0 -0.29432749259128171 -0.27579598105357389 0 -0.30847369976589017 -0.26668749321815682 0 -0.30847369976589017 -0.26668749321815682 0 -0.30135248256264541 -0.25011025019154232 0 -0.31722060212611358 -0.24934470963434141 0 -0.29266149634668731 -0.26262725870794817 0 -0.30847369976589017 -0.26668749321815682 0 -0.30135248256264541 -0.25011025019154232 0 -0.32909918341516242 -0.45505287509964609 0 -0.33698723589921342 -0.47460594224636549 0 -0.34937580788814843 -0.45864104481830947 0 -0.32909918341516242 -0.45505287509964609 0 -0.3418094568495923 -0.44118766326014303 0 -0.32153024003028069 -0.43397756838178081 0 -0.32909918341516242 -0.45505287509964609 0 -0.3418094568495923 -0.44118766326014303 0 -0.34937580788814843 -0.45864104481830947 0 -0.31344301271412212 -0.45170460271570112 0 -0.32153024003028069 -0.43397756838178081 0 -0.30326813707780759 -0.44258036584071092 0 -0.32909918341516242 -0.45505287509964609 0 -0.31344301271412212 -0.45170460271570112 0 -0.32153024003028069 -0.43397756838178081 0 -0.32909918341516242 -0.45505287509964609 0 -0.31344301271412212 -0.45170460271570112 0 -0.31162526440622812 -0.47239755722952698 0 -0.32909918341516242 -0.45505287509964609 0 -0.33698723589921342 -0.47460594224636549 0 -0.31162526440622812 -0.47239755722952698 0 -0.33698723589921342 -0.47460594224636549 0 -0.31162526440622812 -0.47239755722952698 0 -0.32424435611906871 -0.48675087486897312 0 -0.33698723589921342 -0.47460594224636549 0 -0.31162526440622812 -0.47239755722952698 0 -0.32424435611906871 -0.48675087486897312 0 -0.31008401149009712 -0.5 0 -0.31162526440622812 -0.47239755722952698 0 -0.32424435611906871 -0.48675087486897312 0 -0.33828091268073629 -0.5 0 -0.31008401149009712 -0.5 0 -0.33828091268073629 -0.5 0 -0.33698723589921342 -0.47460594224636549 0 -0.351023792460881 -0.48785506737739243 0 -0.32424435611906871 -0.48675087486897312 0 -0.33828091268073629 -0.5 0 -0.33698723589921342 -0.47460594224636549 0 -0.33698723589921342 -0.47460594224636549 0 -0.35333543071403872 -0.46953169578085902 0 -0.36234920739219878 -0.47681432726320389 0 -0.33698723589921342 -0.47460594224636549 0 -0.351023792460881 -0.48785506737739243 0 -0.36234920739219878 -0.47681432726320389 0 -0.33698723589921342 -0.47460594224636549 0 -0.36234920739219878 -0.47681432726320389 0 -0.33828091268073629 -0.5 0 -0.351023792460881 -0.48785506737739243 0 -0.36647781387137562 -0.49999999999999728 0 -0.351023792460881 -0.48785506737739243 0 -0.36647781387137562 -0.49999999999999728 0 -0.36234920739219878 -0.47681432726320389 0 -0.36647781387137562 -0.49999999999999728 0 -0.36469558054743489 -0.47181902764881778 0 -0.37578582006703293 -0.4890918617918481 0 -0.36647781387137562 -0.49999999999999728 0 -0.36469558054743489 -0.47181902764881778 0 -0.37578582006703293 -0.4890918617918481 0 -0.36469558054743489 -0.47181902764881778 0 -0.37427790409048928 -0.47641171988590741 0 -0.36647781387137562 -0.49999999999999728 0 -0.36469558054743489 -0.47181902764881778 0 -0.36234920739219878 -0.47681432726320389 0 -0.35333543071403872 -0.46953169578085902 0 -0.36469558054743489 -0.47181902764881778 0 -0.36234920739219878 -0.47681432726320389 0 -0.37594339666883508 -0.46912028010584561 0 -0.36469558054743489 -0.47181902764881778 0 -0.37427790409048928 -0.47641171988590741 0 -0.37756530610104899 -0.45685827229810932 0 -0.37594339666883508 -0.46912028010584561 0 -0.36469558054743489 -0.47181902764881778 0 -0.36469558054743489 -0.47181902764881778 0 -0.362913347223494 -0.44363805529763822 0 -0.37756530610104899 -0.45685827229810932 0 -0.36469558054743489 -0.47181902764881778 0 -0.362913347223494 -0.44363805529763822 0 -0.35333543071403872 -0.46953169578085902 0 -0.36469558054743489 -0.47181902764881778 0 -0.34937580788814843 -0.45864104481830947 0 -0.36469558054743489 -0.47181902764881778 0 -0.34937580788814843 -0.45864104481830947 0 -0.362913347223494 -0.44363805529763822 0 -0.33698723589921342 -0.47460594224636549 0 -0.35333543071403872 -0.46953169578085902 0 -0.34937580788814843 -0.45864104481830947 0 -0.3418094568495923 -0.44118766326014303 0 -0.34937580788814843 -0.45864104481830947 0 -0.362913347223494 -0.44363805529763822 0 -0.38111389347561608 -0.44136201189070101 0 -0.362913347223494 -0.44363805529763822 0 -0.37058296678970931 -0.43151443823635371 0 -0.38111389347561608 -0.44136201189070101 0 -0.37756530610104899 -0.45685827229810932 0 -0.362913347223494 -0.44363805529763822 0 -0.362913347223494 -0.44363805529763822 0 -0.37058296678970931 -0.43151443823635371 0 -0.35676793213049501 -0.42729678729045789 0 -0.37058296678970931 -0.43151443823635371 0 -0.36780184235336882 -0.41851058728042029 0 -0.35676793213049501 -0.42729678729045789 0 -0.38309852253871002 -0.42558900309557701 0 -0.37058296678970931 -0.43151443823635371 0 -0.36780184235336882 -0.41851058728042029 0 -0.36780184235336882 -0.41851058728042029 0 -0.35676793213049501 -0.42729678729045789 0 -0.35739242349519601 -0.40420936335683327 0 -0.38309852253871002 -0.42558900309557701 0 -0.36780184235336882 -0.41851058728042029 0 -0.37055771869930237 -0.40335547125939297 0 -0.36780184235336882 -0.41851058728042029 0 -0.37055771869930237 -0.40335547125939297 0 -0.35739242349519601 -0.40420936335683327 0 -0.35676793213049501 -0.42729678729045789 0 -0.35739242349519601 -0.40420936335683327 0 -0.35676793213049501 -0.42729678729045789 0 -0.35739242349519601 -0.40420936335683327 0 -0.34186078077668969 -0.41400554026108988 0 -0.35739242349519601 -0.40420936335683327 0 -0.34427765482102018 -0.40195423652145801 0 -0.34186078077668969 -0.41400554026108988 0 -0.3418094568495923 -0.44118766326014303 0 -0.35676793213049501 -0.42729678729045789 0 -0.33626193347335731 -0.42742437099393732 0 -0.35676793213049501 -0.42729678729045789 0 -0.33626193347335731 -0.42742437099393732 0 -0.34186078077668969 -0.41400554026108988 0 -0.3418094568495923 -0.44118766326014303 0 -0.362913347223494 -0.44363805529763822 0 -0.35676793213049501 -0.42729678729045789 0 -0.36499282662225718 -0.36730650053275382 0 -0.37001583187281317 -0.377892963090108 0 -0.35801691485989567 -0.38112193942320849 0 -0.37001583187281317 -0.377892963090108 0 -0.37228741197365028 -0.38826728888172068 0 -0.35801691485989567 -0.38112193942320849 0 -0.38060184875009262 -0.38167269985187552 0 -0.37001583187281317 -0.377892963090108 0 -0.37228741197365028 -0.38826728888172068 0 -0.37055771869930237 -0.40335547125939297 0 -0.35801691485989567 -0.38112193942320849 0 -0.37055771869930237 -0.40335547125939297 0 -0.35739242349519601 -0.40420936335683327 0 -0.35801691485989567 -0.38112193942320849 0 -0.37228741197365028 -0.38826728888172068 0 -0.37055771869930237 -0.40335547125939297 0 -0.35801691485989567 -0.38112193942320849 0 -0.35739242349519601 -0.40420936335683327 0 -0.35801691485989567 -0.38112193942320849 0 -0.35739242349519601 -0.40420936335683327 0 -0.34850684149691352 -0.3913488832686654 0 -0.35801691485989567 -0.38112193942320849 0 -0.35739242349519601 -0.40420936335683327 0 -0.34427765482102018 -0.40195423652145801 0 -0.34850684149691352 -0.3913488832686654 0 -0.34850684149691352 -0.3913488832686654 0 -0.34459208761093241 -0.37928767122533091 0 -0.35801691485989567 -0.38112193942320849 0 -0.34850684149691352 -0.3913488832686654 0 -0.34459208761093241 -0.37928767122533091 0 -0.338255126697523 -0.39017120581649661 0 -0.33257416318950639 -0.37302987456139908 0 -0.338255126697523 -0.39017120581649661 0 -0.32435450414313188 -0.38654670956871667 0 -0.33257416318950639 -0.37302987456139908 0 -0.34459208761093241 -0.37928767122533091 0 -0.338255126697523 -0.39017120581649661 0 -0.338255126697523 -0.39017120581649661 0 -0.32937919625159789 -0.40172202319436862 0 -0.32435450414313188 -0.38654670956871667 0 -0.34427765482102018 -0.40195423652145801 0 -0.34850684149691352 -0.3913488832686654 0 -0.338255126697523 -0.39017120581649661 0 -0.34427765482102018 -0.40195423652145801 0 -0.338255126697523 -0.39017120581649661 0 -0.32937919625159789 -0.40172202319436862 0 -0.34427765482102018 -0.40195423652145801 0 -0.32937919625159789 -0.40172202319436862 0 -0.34186078077668969 -0.41400554026108988 0 -0.32937919625159789 -0.40172202319436862 0 -0.31693461721274291 -0.39545578203750792 0 -0.31585573903263009 -0.40746441456168969 0 -0.31693461721274291 -0.39545578203750792 0 -0.31585573903263009 -0.40746441456168969 0 -0.30500131677929881 -0.39760171610313472 0 -0.32937919625159789 -0.40172202319436862 0 -0.31693461721274291 -0.39545578203750792 0 -0.32435450414313188 -0.38654670956871667 0 -0.31693461721274291 -0.39545578203750792 0 -0.32435450414313188 -0.38654670956871667 0 -0.31008232985705553 -0.38394404675962968 0 -0.32435450414313188 -0.38654670956871667 0 -0.31947774053566952 -0.37538637463218327 0 -0.31008232985705553 -0.38394404675962968 0 -0.31079379255441242 -0.3703067332421891 0 -0.31947774053566952 -0.37538637463218327 0 -0.31008232985705553 -0.38394404675962968 0 -0.33257416318950639 -0.37302987456139908 0 -0.32435450414313188 -0.38654670956871667 0 -0.31947774053566952 -0.37538637463218327 0 -0.3418094568495923 -0.44118766326014303 0 -0.33626193347335731 -0.42742437099393732 0 -0.32153024003028069 -0.43397756838178081 0 -0.32937919625159789 -0.40172202319436862 0 -0.34186078077668969 -0.41400554026108988 0 -0.32611720302783398 -0.41738447956338148 0 -0.33626193347335731 -0.42742437099393732 0 -0.34186078077668969 -0.41400554026108988 0 -0.32611720302783398 -0.41738447956338148 0 -0.32937919625159789 -0.40172202319436862 0 -0.32611720302783398 -0.41738447956338148 0 -0.31585573903263009 -0.40746441456168969 0 -0.32611720302783398 -0.41738447956338148 0 -0.31585573903263009 -0.40746441456168969 0 -0.313226983904137 -0.41903174827641598 0 -0.32611720302783398 -0.41738447956338148 0 -0.313226983904137 -0.41903174827641598 0 -0.32153024003028069 -0.43397756838178081 0 -0.33626193347335731 -0.42742437099393732 0 -0.32611720302783398 -0.41738447956338148 0 -0.32153024003028069 -0.43397756838178081 0 -0.313226983904137 -0.41903174827641598 0 -0.32153024003028069 -0.43397756838178081 0 -0.29852392218515678 -0.42476084524301799 0 -0.32153024003028069 -0.43397756838178081 0 -0.30041761858093202 -0.43112103985967409 0 -0.29852392218515678 -0.42476084524301799 0 -0.32153024003028069 -0.43397756838178081 0 -0.29852392218515678 -0.42476084524301799 0 -0.32153024003028069 -0.43397756838178081 0 -0.30041761858093202 -0.43112103985967409 0 -0.30326813707780759 -0.44258036584071092 0 -0.30041761858093202 -0.43112103985967409 0 -0.29156265946919963 -0.43795106079038482 0 -0.30326813707780759 -0.44258036584071092 0 -0.30041761858093202 -0.43112103985967409 0 -0.29852392218515678 -0.42476084524301799 0 -0.29233064655965868 -0.43147653740417508 0 -0.30041761858093202 -0.43112103985967409 0 -0.29852392218515678 -0.42476084524301799 0 -0.313226983904137 -0.41903174827641598 0 -0.29852392218515678 -0.42476084524301799 0 -0.3045760825414548 -0.41067678730688928 0 -0.29852392218515678 -0.42476084524301799 0 -0.3045760825414548 -0.41067678730688928 0 -0.29180571548956141 -0.40219698434417223 0 -0.31585573903263009 -0.40746441456168969 0 -0.313226983904137 -0.41903174827641598 0 -0.3045760825414548 -0.41067678730688928 0 -0.29852392218515678 -0.42476084524301799 0 -0.29180571548956141 -0.40219698434417223 0 -0.29852392218515678 -0.42476084524301799 0 -0.2949269353648864 -0.41610852367658308 0 -0.29180571548956141 -0.40219698434417223 0 -0.29852392218515678 -0.42476084524301799 0 -0.2770914112775853 -0.41617461599358169 0 -0.2949269353648864 -0.41610852367658308 0 -0.2770914112775853 -0.41617461599358169 0 -0.27662062595813242 -0.41340209219586488 0 -0.2949269353648864 -0.41610852367658308 0 -0.27662062595813242 -0.41340209219586488 0 -0.2949269353648864 -0.41610852367658308 0 -0.28629097946201909 -0.40838187051740421 0 -0.27662062595813242 -0.41340209219586488 0 -0.29852392218515678 -0.42476084524301799 0 -0.2949269353648864 -0.41610852367658308 0 -0.2770914112775853 -0.41617461599358169 0 -0.2949269353648864 -0.41610852367658308 0 -0.28629097946201909 -0.40838187051740421 0 -0.29180571548956141 -0.40219698434417223 0 -0.28629097946201909 -0.40838187051740421 0 -0.28181064103549502 -0.40181988185299677 0 -0.27662062595813242 -0.41340209219586488 0 -0.28541349591214771 -0.43264702461217069 0 -0.2770914112775853 -0.41617461599358169 0 -0.28167735209541578 -0.44318189410313458 0 -0.28706566314283688 -0.42735441826167769 0 -0.28541349591214771 -0.43264702461217069 0 -0.2770914112775853 -0.41617461599358169 0 -0.29852392218515678 -0.42476084524301799 0 -0.28706566314283688 -0.42735441826167769 0 -0.2770914112775853 -0.41617461599358169 0 -0.28706566314283688 -0.42735441826167769 0 -0.28541349591214771 -0.43264702461217069 0 -0.29233064655965868 -0.43147653740417508 0 -0.30041761858093202 -0.43112103985967409 0 -0.29233064655965868 -0.43147653740417508 0 -0.29156265946919963 -0.43795106079038482 0 -0.28541349591214771 -0.43264702461217069 0 -0.29233064655965868 -0.43147653740417508 0 -0.29156265946919963 -0.43795106079038482 0 -0.29852392218515678 -0.42476084524301799 0 -0.28706566314283688 -0.42735441826167769 0 -0.29233064655965868 -0.43147653740417508 0 -0.3008358669182804 -0.37411695625553998 0 -0.31008232985705553 -0.38394404675962968 0 -0.29856254756763229 -0.38749856538156058 0 -0.3008358669182804 -0.37411695625553998 0 -0.31079379255441242 -0.3703067332421891 0 -0.31008232985705553 -0.38394404675962968 0 -0.31008232985705553 -0.38394404675962968 0 -0.29856254756763229 -0.38749856538156058 0 -0.30500131677929881 -0.39760171610313472 0 -0.29856254756763229 -0.38749856538156058 0 -0.30500131677929881 -0.39760171610313472 0 -0.29180571548956141 -0.40219698434417223 0 -0.31693461721274291 -0.39545578203750792 0 -0.31008232985705553 -0.38394404675962968 0 -0.30500131677929881 -0.39760171610313472 0 -0.31585573903263009 -0.40746441456168969 0 -0.3045760825414548 -0.41067678730688928 0 -0.30500131677929881 -0.39760171610313472 0 -0.3045760825414548 -0.41067678730688928 0 -0.30500131677929881 -0.39760171610313472 0 -0.29180571548956141 -0.40219698434417223 0 -0.29180571548956141 -0.40219698434417223 0 -0.28508750879396572 -0.37963312344532629 0 -0.29180571548956141 -0.40219698434417223 0 -0.28181064103549502 -0.40181988185299677 0 -0.28508750879396572 -0.37963312344532629 0 -0.28629097946201909 -0.40838187051740421 0 -0.29180571548956141 -0.40219698434417223 0 -0.28181064103549502 -0.40181988185299677 0 -0.3008358669182804 -0.37411695625553998 0 -0.29856254756763229 -0.38749856538156058 0 -0.28508750879396572 -0.37963312344532629 0 -0.29856254756763229 -0.38749856538156058 0 -0.29180571548956141 -0.40219698434417223 0 -0.28508750879396572 -0.37963312344532629 0 -0.273149839104051 -0.37197452274136827 0 -0.27366129061072553 -0.39597413228060518 0 -0.273149839104051 -0.37197452274136827 0 -0.27366129061072553 -0.39597413228060518 0 -0.25871987841311378 -0.38809613781256092 0 -0.273149839104051 -0.37197452274136827 0 -0.28508750879396572 -0.37963312344532629 0 -0.27366129061072553 -0.39597413228060518 0 -0.28181064103549502 -0.40181988185299677 0 -0.27366129061072553 -0.39597413228060518 0 -0.27662062595813242 -0.41340209219586488 0 -0.27366129061072553 -0.39597413228060518 0 -0.27408256663484692 -0.41302686180399129 0 -0.27366129061072553 -0.39597413228060518 0 -0.27662062595813242 -0.41340209219586488 0 -0.27366129061072553 -0.39597413228060518 0 -0.26276416806828129 -0.40059370643938819 0 -0.26639843963969262 -0.41189082926245407 0 -0.28181064103549502 -0.40181988185299677 0 -0.28508750879396572 -0.37963312344532629 0 -0.27366129061072553 -0.39597413228060518 0 -0.26276416806828129 -0.40059370643938819 0 -0.25170061786742493 -0.40488681380903457 0 -0.25871987841311378 -0.38809613781256092 0 -0.25170061786742493 -0.40488681380903457 0 -0.25871987841311378 -0.38809613781256092 0 -0.2421752620654718 -0.37978914002859171 0 -0.26276416806828129 -0.40059370643938819 0 -0.25170061786742493 -0.40488681380903457 0 -0.26639843963969262 -0.41189082926245407 0 -0.27366129061072553 -0.39597413228060518 0 -0.26276416806828129 -0.40059370643938819 0 -0.25871987841311378 -0.38809613781256092 0 -0.25893338925728893 -0.3739307342629028 0 -0.25871987841311378 -0.38809613781256092 0 -0.2421752620654718 -0.37978914002859171 0 -0.273149839104051 -0.37197452274136827 0 -0.25893338925728893 -0.3739307342629028 0 -0.25871987841311378 -0.38809613781256092 0 -0.27453137985688342 -0.43278057546473891 0 -0.27412710329949419 -0.41498706368226052 0 -0.2770914112775853 -0.41617461599358169 0 -0.28167735209541578 -0.44318189410313458 0 -0.27453137985688342 -0.43278057546473891 0 -0.27412710329949419 -0.41498706368226052 0 -0.26820486896303419 -0.42049486071486381 0 -0.27453137985688342 -0.43278057546473891 0 -0.2770914112775853 -0.41617461599358169 0 -0.28167735209541578 -0.44318189410313458 0 -0.27453137985688342 -0.43278057546473891 0 -0.26820486896303419 -0.42049486071486381 0 -0.26475984481290249 -0.42581632691031379 0 -0.27453137985688342 -0.43278057546473891 0 -0.26184028491793498 -0.43588472662827699 0 -0.27116838156131251 -0.44296700671050199 0 -0.27453137985688342 -0.43278057546473891 0 -0.26475984481290249 -0.42581632691031379 0 -0.26184028491793498 -0.43588472662827699 0 -0.27366129061072553 -0.39597413228060518 0 -0.27408256663484692 -0.41302686180399129 0 -0.26639843963969262 -0.41189082926245407 0 -0.27453137985688342 -0.43278057546473891 0 -0.2770914112775853 -0.41617461599358169 0 -0.27412710329949419 -0.41498706368226052 0 -0.27366129061072553 -0.39597413228060518 0 -0.27662062595813242 -0.41340209219586488 0 -0.27408256663484692 -0.41302686180399129 0 -0.2770914112775853 -0.41617461599358169 0 -0.27662062595813242 -0.41340209219586488 0 -0.2770914112775853 -0.41617461599358169 0 -0.27412710329949419 -0.41498706368226052 0 -0.27662062595813242 -0.41340209219586488 0 -0.2770914112775853 -0.41617461599358169 0 -0.27412710329949419 -0.41498706368226052 0 -0.27412710329949419 -0.41498706368226052 0 -0.27662062595813242 -0.41340209219586488 0 -0.27408256663484692 -0.41302686180399129 0 -0.27662062595813242 -0.41340209219586488 0 -0.27408256663484692 -0.41302686180399129 0 -0.27412710329949419 -0.41498706368226052 0 -0.27408256663484692 -0.41302686180399129 0 -0.27412710329949419 -0.41498706368226052 0 -0.26639843963969262 -0.41189082926245407 0 -0.27408256663484692 -0.41302686180399129 0 -0.26639843963969262 -0.41189082926245407 0 -0.27412710329949419 -0.41498706368226052 0 -0.27408256663484692 -0.41302686180399129 0 -0.26639843963969262 -0.41189082926245407 0 -0.26639843963969262 -0.41189082926245407 0 -0.26820486896303419 -0.42049486071486381 0 -0.26228966035254769 -0.42000572704306749 0 -0.27412710329949419 -0.41498706368226052 0 -0.26639843963969262 -0.41189082926245407 0 -0.26820486896303419 -0.42049486071486381 0 -0.26639843963969262 -0.41189082926245407 0 -0.24359468078704399 -0.4027552547092883 0 -0.26228966035254769 -0.42000572704306749 0 -0.25394794329103021 -0.41758377639979932 0 -0.25858618344808382 -0.42576657847269161 0 -0.26639843963969262 -0.41189082926245407 0 -0.23862456106131849 -0.40778469854784832 0 -0.25170061786742493 -0.40488681380903457 0 -0.26639843963969262 -0.41189082926245407 0 -0.24359468078704399 -0.4027552547092883 0 -0.26639843963969262 -0.41189082926245407 0 -0.23862456106131849 -0.40778469854784832 0 -0.24831099594139669 -0.41436232413454721 0 -0.26639843963969262 -0.41189082926245407 0 -0.25394794329103021 -0.41758377639979932 0 -0.24831099594139669 -0.41436232413454721 0 -0.26639843963969262 -0.41189082926245407 0 -0.26228966035254769 -0.42000572704306749 0 -0.25394794329103021 -0.41758377639979932 0 -0.25394794329103021 -0.41758377639979932 0 -0.25009318386600321 -0.42954233538200032 0 -0.25858618344808382 -0.42576657847269161 0 -0.25858618344808382 -0.42576657847269161 0 -0.26475984481290249 -0.42581632691031379 0 -0.26184028491793498 -0.43588472662827699 0 -0.26228966035254769 -0.42000572704306749 0 -0.25858618344808382 -0.42576657847269161 0 -0.26475984481290249 -0.42581632691031379 0 -0.26820486896303419 -0.42049486071486381 0 -0.26228966035254769 -0.42000572704306749 0 -0.26475984481290249 -0.42581632691031379 0 -0.25009318386600321 -0.42954233538200032 0 -0.25858618344808382 -0.42576657847269161 0 -0.26184028491793498 -0.43588472662827699 0 -0.25009318386600321 -0.42954233538200032 0 -0.26184028491793498 -0.43588472662827699 0 -0.24715149831813399 -0.44269078356300301 0 -0.26478611670110019 -0.45094848399790483 0 -0.24715149831813399 -0.44269078356300301 0 -0.24109549740099959 -0.45725136152995932 0 -0.26184028491793498 -0.43588472662827699 0 -0.26478611670110019 -0.45094848399790483 0 -0.24715149831813399 -0.44269078356300301 0 -0.26478611670110019 -0.45094848399790483 0 -0.24109549740099959 -0.45725136152995932 0 -0.26036767163437607 -0.46477077678494189 0 -0.25266863548914398 -0.47707131649393991 0 -0.24109549740099959 -0.45725136152995932 0 -0.26478611670110019 -0.45094848399790483 0 -0.26036767163437607 -0.46477077678494189 0 -0.24109549740099959 -0.45725136152995932 0 -0.26036767163437607 -0.46477077678494189 0 -0.27216902714463592 -0.45574880870276802 0 -0.27420583178698932 -0.46913927289789381 0 -0.26478611670110019 -0.45094848399790483 0 -0.26036767163437607 -0.46477077678494189 0 -0.27216902714463592 -0.45574880870276802 0 -0.27857887598507092 -0.45956478697912101 0 -0.28626329291324248 -0.47018917221268791 0 -0.27420583178698932 -0.46913927289789381 0 -0.27216902714463592 -0.45574880870276802 0 -0.27857887598507092 -0.45956478697912101 0 -0.27420583178698932 -0.46913927289789381 0 -0.27216902714463592 -0.45574880870276802 0 -0.27857887598507092 -0.45956478697912101 0 -0.28167735209541578 -0.44318189410313458 0 -0.26184028491793498 -0.43588472662827699 0 -0.26478611670110019 -0.45094848399790483 0 -0.27116838156131251 -0.44296700671050199 0 -0.26478611670110019 -0.45094848399790483 0 -0.27216902714463592 -0.45574880870276802 0 -0.27116838156131251 -0.44296700671050199 0 -0.27216902714463592 -0.45574880870276802 0 -0.27116838156131251 -0.44296700671050199 0 -0.28167735209541578 -0.44318189410313458 0 -0.27453137985688342 -0.43278057546473891 0 -0.27116838156131251 -0.44296700671050199 0 -0.28167735209541578 -0.44318189410313458 0 -0.28541349591214771 -0.43264702461217069 0 -0.28167735209541578 -0.44318189410313458 0 -0.29156265946919963 -0.43795106079038482 0 -0.28167735209541578 -0.44318189410313458 0 -0.29156265946919963 -0.43795106079038482 0 -0.29378862675025119 -0.44759696368108481 0 -0.29156265946919963 -0.43795106079038482 0 -0.29378862675025119 -0.44759696368108481 0 -0.30326813707780759 -0.44258036584071092 0 -0.28167735209541578 -0.44318189410313458 0 -0.29378862675025119 -0.44759696368108481 0 -0.29291958753584052 -0.45864419564756831 0 -0.28167735209541578 -0.44318189410313458 0 -0.28626329291324248 -0.47018917221268791 0 -0.27857887598507092 -0.45956478697912101 0 -0.28167735209541578 -0.44318189410313458 0 -0.28626329291324248 -0.47018917221268791 0 -0.28167735209541578 -0.44318189410313458 0 -0.29291958753584052 -0.45864419564756831 0 -0.28626329291324248 -0.47018917221268791 0 -0.29378862675025119 -0.44759696368108481 0 -0.29291958753584052 -0.45864419564756831 0 -0.30169223864113182 -0.45451464702684069 0 -0.29291958753584052 -0.45864419564756831 0 -0.31162526440622812 -0.47239755722952698 0 -0.28626329291324248 -0.47018917221268791 0 -0.31344301271412212 -0.45170460271570112 0 -0.30169223864113182 -0.45451464702684069 0 -0.31162526440622812 -0.47239755722952698 0 -0.29291958753584052 -0.45864419564756831 0 -0.30169223864113182 -0.45451464702684069 0 -0.31162526440622812 -0.47239755722952698 0 -0.31344301271412212 -0.45170460271570112 0 -0.30169223864113182 -0.45451464702684069 0 -0.30326813707780759 -0.44258036584071092 0 -0.29378862675025119 -0.44759696368108481 0 -0.30169223864113182 -0.45451464702684069 0 -0.30326813707780759 -0.44258036584071092 0 -0.31008401149009712 -0.5 0 -0.31162526440622812 -0.47239755722952698 0 -0.29125234496372238 -0.48530842576065431 0 -0.31162526440622812 -0.47239755722952698 0 -0.28626329291324248 -0.47018917221268791 0 -0.31162526440622812 -0.47239755722952698 0 -0.28626329291324248 -0.47018917221268791 0 -0.28660790183653151 -0.47221862470671883 0 -0.2821694610258258 -0.47638224027658671 0 -0.29125234496372238 -0.48530842576065431 0 -0.27251793362864318 -0.48505570580497842 0 -0.31162526440622812 -0.47239755722952698 0 -0.28660790183653151 -0.47221862470671883 0 -0.29125234496372238 -0.48530842576065431 0 -0.28626329291324248 -0.47018917221268791 0 -0.28660790183653151 -0.47221862470671883 0 -0.28626329291324248 -0.47018917221268791 0 -0.28660790183653151 -0.47221862470671883 0 -0.2821694610258258 -0.47638224027658671 0 -0.28660790183653151 -0.47221862470671883 0 -0.2821694610258258 -0.47638224027658671 0 -0.29125234496372238 -0.48530842576065431 0 -0.28188711029945779 -0.5 0 -0.29125234496372238 -0.48530842576065431 0 -0.27251793362864318 -0.48505570580497842 0 -0.31008401149009712 -0.5 0 -0.28188711029945779 -0.5 0 -0.29125234496372238 -0.48530842576065431 0 -0.28188711029945779 -0.5 0 -0.27251793362864318 -0.48505570580497842 0 -0.25369020910881862 -0.5 0 -0.2821694610258258 -0.47638224027658671 0 -0.27251793362864318 -0.48505570580497842 0 -0.27420583178698932 -0.46913927289789381 0 -0.27251793362864318 -0.48505570580497842 0 -0.27420583178698932 -0.46913927289789381 0 -0.25266863548914398 -0.47707131649393991 0 -0.28626329291324248 -0.47018917221268791 0 -0.2821694610258258 -0.47638224027658671 0 -0.27420583178698932 -0.46913927289789381 0 -0.28626329291324248 -0.47018917221268791 0 -0.27420583178698932 -0.46913927289789381 0 -0.26036767163437607 -0.46477077678494189 0 -0.27420583178698932 -0.46913927289789381 0 -0.25266863548914398 -0.47707131649393991 0 -0.27251793362864318 -0.48505570580497842 0 -0.25266863548914398 -0.47707131649393991 0 -0.25369020910881862 -0.5 0 -0.25369020910881862 -0.5 0 -0.2314970922228877 -0.47954716097479638 0 -0.2254933079181792 -0.5 0 -0.25266863548914398 -0.47707131649393991 0 -0.25369020910881862 -0.5 0 -0.2314970922228877 -0.47954716097479638 0 -0.25266863548914398 -0.47707131649393991 0 -0.2314970922228877 -0.47954716097479638 0 -0.24109549740099959 -0.45725136152995932 0 -0.2314970922228877 -0.47954716097479638 0 -0.21740487810089901 -0.46355423906201382 0 -0.20747243728407069 -0.47389557594496179 0 -0.2314970922228877 -0.47954716097479638 0 -0.2254933079181792 -0.5 0 -0.20747243728407069 -0.47389557594496179 0 -0.24715149831813399 -0.44269078356300301 0 -0.2228945511509513 -0.44534697275872159 0 -0.236930344997171 -0.43125286603484841 0 -0.24715149831813399 -0.44269078356300301 0 -0.24109549740099959 -0.45725136152995932 0 -0.2228945511509513 -0.44534697275872159 0 -0.24109549740099959 -0.45725136152995932 0 -0.21740487810089901 -0.46355423906201382 0 -0.24109549740099959 -0.45725136152995932 0 -0.2228945511509513 -0.44534697275872159 0 -0.21740487810089901 -0.46355423906201382 0 -0.2314970922228877 -0.47954716097479638 0 -0.24109549740099959 -0.45725136152995932 0 -0.21740487810089901 -0.46355423906201382 0 -0.2228945511509513 -0.44534697275872159 0 -0.2044354765436063 -0.45767227502778529 0 -0.1964070503944215 -0.44493385509627481 0 -0.2228945511509513 -0.44534697275872159 0 -0.1964070503944215 -0.44493385509627481 0 -0.21089803870211279 -0.43103514278072708 0 -0.21740487810089901 -0.46355423906201382 0 -0.2044354765436063 -0.45767227502778529 0 -0.19371425880079779 -0.46985711659406632 0 -0.2228945511509513 -0.44534697275872159 0 -0.21740487810089901 -0.46355423906201382 0 -0.2044354765436063 -0.45767227502778529 0 -0.21740487810089901 -0.46355423906201382 0 -0.19371425880079779 -0.46985711659406632 0 -0.2044354765436063 -0.45767227502778529 0 -0.1964070503944215 -0.44493385509627481 0 -0.19371425880079779 -0.46985711659406632 0 -0.1964070503944215 -0.44493385509627481 0 -0.19371425880079779 -0.46985711659406632 0 -0.18780113760336731 -0.45661114362183852 0 -0.1964070503944215 -0.44493385509627481 0 -0.19371425880079779 -0.46985711659406632 0 -0.18780113760336731 -0.45661114362183852 0 -0.19371425880079779 -0.46985711659406632 0 -0.1892520323309678 -0.47104428973645701 0 -0.2254933079181792 -0.5 0 -0.1972964067275399 -0.5 0 -0.19834089955190529 -0.4855784861259973 0 -0.2254933079181792 -0.5 0 -0.20747243728407069 -0.47389557594496179 0 -0.19834089955190529 -0.4855784861259973 0 -0.21740487810089901 -0.46355423906201382 0 -0.20747243728407069 -0.47389557594496179 0 -0.19371425880079779 -0.46985711659406632 0 -0.19834089955190529 -0.4855784861259973 0 -0.180490553800738 -0.48593857382194711 0 -0.186123518570595 -0.47873458276808101 0 -0.20747243728407069 -0.47389557594496179 0 -0.19316917301030931 -0.47490218422099367 0 -0.19834089955190529 -0.4855784861259973 0 -0.20747243728407069 -0.47389557594496179 0 -0.19371425880079779 -0.46985711659406632 0 -0.19316917301030931 -0.47490218422099367 0 -0.19371425880079779 -0.46985711659406632 0 -0.19316917301030931 -0.47490218422099367 0 -0.19371425880079779 -0.46985711659406632 0 -0.19316917301030931 -0.47490218422099367 0 -0.1892520323309678 -0.47104428973645701 0 -0.19371425880079779 -0.46985711659406632 0 -0.1892520323309678 -0.47104428973645701 0 -0.19316917301030931 -0.47490218422099367 0 -0.1892520323309678 -0.47104428973645701 0 -0.186123518570595 -0.47873458276808101 0 -0.19316917301030931 -0.47490218422099367 0 -0.19834089955190529 -0.4855784861259973 0 -0.186123518570595 -0.47873458276808101 0 -0.1972964067275399 -0.5 0 -0.19834089955190529 -0.4855784861259973 0 -0.180490553800738 -0.48593857382194711 0 -0.180490553800738 -0.48593857382194711 0 -0.16909950553690051 -0.5 0 -0.16774027498376909 -0.47851820619543722 0 -0.1972964067275399 -0.5 0 -0.180490553800738 -0.48593857382194711 0 -0.16909950553690051 -0.5 0 -0.16909950553690051 -0.5 0 -0.16774027498376909 -0.47851820619543722 0 -0.15022473015461629 -0.48511298132523312 0 -0.16774027498376909 -0.47851820619543722 0 -0.1601300393585961 -0.4570458966335138 0 -0.15022473015461629 -0.48511298132523312 0 -0.16774027498376909 -0.47851820619543722 0 -0.18065998339663511 -0.47201497270486242 0 -0.17329914746625169 -0.46647394448181229 0 -0.180490553800738 -0.48593857382194711 0 -0.16774027498376909 -0.47851820619543722 0 -0.18065998339663511 -0.47201497270486242 0 -0.180490553800738 -0.48593857382194711 0 -0.186123518570595 -0.47873458276808101 0 -0.18065998339663511 -0.47201497270486242 0 -0.1892520323309678 -0.47104428973645701 0 -0.186123518570595 -0.47873458276808101 0 -0.18065998339663511 -0.47201497270486242 0 -0.18780113760336731 -0.45661114362183852 0 -0.18065998339663511 -0.47201497270486242 0 -0.17329914746625169 -0.46647394448181229 0 -0.18780113760336731 -0.45661114362183852 0 -0.1892520323309678 -0.47104428973645701 0 -0.18065998339663511 -0.47201497270486242 0 -0.18780113760336731 -0.45661114362183852 0 -0.17329914746625169 -0.46647394448181229 0 -0.1601300393585961 -0.4570458966335138 0 -0.18780113760336731 -0.45661114362183852 0 -0.1601300393585961 -0.4570458966335138 0 -0.17003534856257591 -0.42897881194179438 0 -0.18780113760336731 -0.45661114362183852 0 -0.1964070503944215 -0.44493385509627481 0 -0.17003534856257591 -0.42897881194179438 0 -0.1601300393585961 -0.4570458966335138 0 -0.17003534856257591 -0.42897881194179438 0 -0.1601300393585961 -0.4570458966335138 0 -0.1478197327274226 -0.44451905155746779 0 -0.17003534856257591 -0.42897881194179438 0 -0.16774027498376909 -0.47851820619543722 0 -0.17329914746625169 -0.46647394448181229 0 -0.1601300393585961 -0.4570458966335138 0 -0.1601300393585961 -0.4570458966335138 0 -0.1411072514750471 -0.46269698764504208 0 -0.15022473015461629 -0.48511298132523312 0 -0.1601300393585961 -0.4570458966335138 0 -0.1411072514750471 -0.46269698764504208 0 -0.1478197327274226 -0.44451905155746779 0 -0.1411072514750471 -0.46269698764504208 0 -0.1478197327274226 -0.44451905155746779 0 -0.13265898397729189 -0.45107247986885618 0 -0.13265898397729189 -0.45107247986885618 0 -0.1298672063520207 -0.43713488879251772 0 -0.1168434023055443 -0.44973804543752621 0 -0.1478197327274226 -0.44451905155746779 0 -0.13265898397729189 -0.45107247986885618 0 -0.1298672063520207 -0.43713488879251772 0 -0.1411072514750471 -0.46269698764504208 0 -0.13148064123289049 -0.47547340178674719 0 -0.1236995917965865 -0.46286873524114658 0 -0.1411072514750471 -0.46269698764504208 0 -0.13265898397729189 -0.45107247986885618 0 -0.1236995917965865 -0.46286873524114658 0 -0.13148064123289049 -0.47547340178674719 0 -0.1409026043462612 -0.5 0 -0.11270570315562201 -0.5 0 -0.16909950553690051 -0.5 0 -0.15022473015461629 -0.48511298132523312 0 -0.1409026043462612 -0.5 0 -0.13148064123289049 -0.47547340178674719 0 -0.15022473015461629 -0.48511298132523312 0 -0.1409026043462612 -0.5 0 -0.1411072514750471 -0.46269698764504208 0 -0.13148064123289049 -0.47547340178674719 0 -0.15022473015461629 -0.48511298132523312 0 -0.1601300393585961 -0.4570458966335138 0 -0.15022473015461629 -0.48511298132523312 0 -0.1543920170910994 -0.40166099878486727 0 -0.14055435681904141 -0.38025653733797921 0 -0.1349107447597872 -0.39703696047264919 0 -0.1543920170910994 -0.40166099878486727 0 -0.1349107447597872 -0.39703696047264919 0 -0.13505337107046481 -0.41319224292351059 0 -0.1543920170910994 -0.40166099878486727 0 -0.14055435681904141 -0.38025653733797921 0 -0.15854176236668421 -0.37787723616018881 0 -0.14055435681904141 -0.38025653733797921 0 -0.1349107447597872 -0.39703696047264919 0 -0.1220138554978997 -0.37607861538086401 0 -0.1349107447597872 -0.39703696047264919 0 -0.11925877338091009 -0.4134911786440737 0 -0.1349107447597872 -0.39703696047264919 0 -0.13505337107046481 -0.41319224292351059 0 -0.11925877338091009 -0.4134911786440737 0 -0.13505337107046481 -0.41319224292351059 0 -0.12835957316710381 -0.42528549604131649 0 -0.11925877338091009 -0.4134911786440737 0 -0.1478197327274226 -0.44451905155746779 0 -0.1298672063520207 -0.43713488879251772 0 -0.14238190582576321 -0.42866136046810299 0 -0.13505337107046481 -0.41319224292351059 0 -0.12835957316710381 -0.42528549604131649 0 -0.14238190582576321 -0.42866136046810299 0 -0.1298672063520207 -0.43713488879251772 0 -0.12835957316710381 -0.42528549604131649 0 -0.14238190582576321 -0.42866136046810299 0 -0.1478197327274226 -0.44451905155746779 0 -0.14238190582576321 -0.42866136046810299 0 -0.17003534856257591 -0.42897881194179438 0 -0.1543920170910994 -0.40166099878486727 0 -0.14238190582576321 -0.42866136046810299 0 -0.17003534856257591 -0.42897881194179438 0 -0.1543920170910994 -0.40166099878486727 0 -0.13505337107046481 -0.41319224292351059 0 -0.14238190582576321 -0.42866136046810299 0 -0.1543920170910994 -0.40166099878486727 0 -0.17003534856257591 -0.42897881194179438 0 -0.17994065776655571 -0.40091172725007501 0 -0.17003534856257591 -0.42897881194179438 0 -0.17994065776655571 -0.40091172725007501 0 -0.17003534856257591 -0.42897881194179438 0 -0.17994065776655571 -0.40091172725007501 0 -0.19320335995847651 -0.4067664183769768 0 -0.17003534856257591 -0.42897881194179438 0 -0.19320335995847651 -0.4067664183769768 0 -0.19909984198804581 -0.42001059359848342 0 -0.1543920170910994 -0.40166099878486727 0 -0.17994065776655571 -0.40091172725007501 0 -0.1716464447337212 -0.38495805200464001 0 -0.1543920170910994 -0.40166099878486727 0 -0.15854176236668421 -0.37787723616018881 0 -0.1716464447337212 -0.38495805200464001 0 -0.15854176236668421 -0.37787723616018881 0 -0.1716464447337212 -0.38495805200464001 0 -0.17280675847658719 -0.36933728472521682 0 -0.17994065776655571 -0.40091172725007501 0 -0.1716464447337212 -0.38495805200464001 0 -0.1898459669705356 -0.37284464255835548 0 -0.17994065776655571 -0.40091172725007501 0 -0.1898459669705356 -0.37284464255835548 0 -0.1716464447337212 -0.38495805200464001 0 -0.1898459669705356 -0.37284464255835548 0 -0.17280675847658719 -0.36933728472521682 0 -0.17994065776655571 -0.40091172725007501 0 -0.20179263358167021 -0.39508733210069202 0 -0.1898459669705356 -0.37284464255835548 0 -0.20179263358167021 -0.39508733210069202 0 -0.1898459669705356 -0.37284464255835548 0 -0.20448542517529461 -0.37016407060290057 0 -0.17994065776655571 -0.40091172725007501 0 -0.20179263358167021 -0.39508733210069202 0 -0.19320335995847651 -0.4067664183769768 0 -0.20179263358167021 -0.39508733210069202 0 -0.21085068248294439 -0.40367856783324257 0 -0.21263486139733279 -0.38945025592444799 0 -0.21085068248294439 -0.40367856783324257 0 -0.21263486139733279 -0.38945025592444799 0 -0.2245327122004786 -0.39534609160408568 0 -0.20179263358167021 -0.39508733210069202 0 -0.21263486139733279 -0.38945025592444799 0 -0.20448542517529461 -0.37016407060290057 0 -0.20179263358167021 -0.39508733210069202 0 -0.20448542517529461 -0.37016407060290057 0 -0.21263486139733279 -0.38945025592444799 0 -0.2215128535462762 -0.38297521748131902 0 -0.20448542517529461 -0.37016407060290057 0 -0.1964070503944215 -0.44493385509627481 0 -0.19909984198804581 -0.42001059359848342 0 -0.21089803870211279 -0.43103514278072708 0 -0.1964070503944215 -0.44493385509627481 0 -0.19909984198804581 -0.42001059359848342 0 -0.1964070503944215 -0.44493385509627481 0 -0.17003534856257591 -0.42897881194179438 0 -0.19909984198804581 -0.42001059359848342 0 -0.20179263358167021 -0.39508733210069202 0 -0.19320335995847651 -0.4067664183769768 0 -0.19909984198804581 -0.42001059359848342 0 -0.20179263358167021 -0.39508733210069202 0 -0.19909984198804581 -0.42001059359848342 0 -0.21085068248294439 -0.40367856783324257 0 -0.19909984198804581 -0.42001059359848342 0 -0.2130576776844528 -0.41890144964395792 0 -0.20179263358167021 -0.39508733210069202 0 -0.21085068248294439 -0.40367856783324257 0 -0.19909984198804581 -0.42001059359848342 0 -0.21085068248294439 -0.40367856783324257 0 -0.2130576776844528 -0.41890144964395792 0 -0.2233640758098045 -0.41389678234055521 0 -0.19909984198804581 -0.42001059359848342 0 -0.2130576776844528 -0.41890144964395792 0 -0.21089803870211279 -0.43103514278072708 0 -0.2130576776844528 -0.41890144964395792 0 -0.21089803870211279 -0.43103514278072708 0 -0.22303107229269251 -0.42598284280619808 0 -0.2228945511509513 -0.44534697275872159 0 -0.22303107229269251 -0.42598284280619808 0 -0.236930344997171 -0.43125286603484841 0 -0.2228945511509513 -0.44534697275872159 0 -0.21089803870211279 -0.43103514278072708 0 -0.22303107229269251 -0.42598284280619808 0 -0.22303107229269251 -0.42598284280619808 0 -0.233375785620591 -0.4168123143946777 0 -0.236930344997171 -0.43125286603484841 0 -0.21085068248294439 -0.40367856783324257 0 -0.2233640758098045 -0.41389678234055521 0 -0.23862456106131849 -0.40778469854784832 0 -0.22303107229269251 -0.42598284280619808 0 -0.233375785620591 -0.4168123143946777 0 -0.2233640758098045 -0.41389678234055521 0 -0.2130576776844528 -0.41890144964395792 0 -0.22303107229269251 -0.42598284280619808 0 -0.2233640758098045 -0.41389678234055521 0 -0.233375785620591 -0.4168123143946777 0 -0.2233640758098045 -0.41389678234055521 0 -0.23862456106131849 -0.40778469854784832 0 -0.26639843963969262 -0.41189082926245407 0 -0.23862456106131849 -0.40778469854784832 0 -0.24359468078704399 -0.4027552547092883 0 -0.233375785620591 -0.4168123143946777 0 -0.23862456106131849 -0.40778469854784832 0 -0.24050566046064059 -0.41464116600842271 0 -0.23862456106131849 -0.40778469854784832 0 -0.24831099594139669 -0.41436232413454721 0 -0.24050566046064059 -0.41464116600842271 0 -0.25394794329103021 -0.41758377639979932 0 -0.24831099594139669 -0.41436232413454721 0 -0.24269016864604331 -0.42042085628353543 0 -0.24831099594139669 -0.41436232413454721 0 -0.24269016864604331 -0.42042085628353543 0 -0.24050566046064059 -0.41464116600842271 0 -0.233375785620591 -0.4168123143946777 0 -0.24269016864604331 -0.42042085628353543 0 -0.24050566046064059 -0.41464116600842271 0 -0.233375785620591 -0.4168123143946777 0 -0.24269016864604331 -0.42042085628353543 0 -0.236930344997171 -0.43125286603484841 0 -0.25009318386600321 -0.42954233538200032 0 -0.24269016864604331 -0.42042085628353543 0 -0.236930344997171 -0.43125286603484841 0 -0.25394794329103021 -0.41758377639979932 0 -0.25009318386600321 -0.42954233538200032 0 -0.24269016864604331 -0.42042085628353543 0 -0.25009318386600321 -0.42954233538200032 0 -0.24715149831813399 -0.44269078356300301 0 -0.236930344997171 -0.43125286603484841 0 -0.2215128535462762 -0.38297521748131902 0 -0.2421752620654718 -0.37978914002859171 0 -0.22212211073288121 -0.36799646040096279 0 -0.2215128535462762 -0.38297521748131902 0 -0.23012133324645789 -0.39132209161158071 0 -0.2421752620654718 -0.37978914002859171 0 -0.2215128535462762 -0.38297521748131902 0 -0.2245327122004786 -0.39534609160408568 0 -0.23012133324645789 -0.39132209161158071 0 -0.21263486139733279 -0.38945025592444799 0 -0.2215128535462762 -0.38297521748131902 0 -0.2245327122004786 -0.39534609160408568 0 -0.21085068248294439 -0.40367856783324257 0 -0.23862456106131849 -0.40778469854784832 0 -0.2245327122004786 -0.39534609160408568 0 -0.21085068248294439 -0.40367856783324257 0 -0.23862456106131849 -0.40778469854784832 0 -0.23862456106131849 -0.40778469854784832 0 -0.2245327122004786 -0.39534609160408568 0 -0.23520669818314369 -0.39694244797048223 0 -0.2245327122004786 -0.39534609160408568 0 -0.23012133324645789 -0.39132209161158071 0 -0.23520669818314369 -0.39694244797048223 0 -0.25170061786742493 -0.40488681380903457 0 -0.2421752620654718 -0.37978914002859171 0 -0.25170061786742493 -0.40488681380903457 0 -0.24359468078704399 -0.4027552547092883 0 -0.2421752620654718 -0.37978914002859171 0 -0.23520669818314369 -0.39694244797048223 0 -0.24359468078704399 -0.4027552547092883 0 -0.2421752620654718 -0.37978914002859171 0 -0.23862456106131849 -0.40778469854784832 0 -0.23520669818314369 -0.39694244797048223 0 -0.24359468078704399 -0.4027552547092883 0 -0.23012133324645789 -0.39132209161158071 0 -0.23520669818314369 -0.39694244797048223 0 -0.2421752620654718 -0.37978914002859171 0 -0.25168234128731259 -0.36273293774725718 0 -0.2421752620654718 -0.37978914002859171 0 -0.2326499062635187 -0.35469146624814868 0 -0.2421752620654718 -0.37978914002859171 0 -0.2326499062635187 -0.35469146624814868 0 -0.2421752620654718 -0.37978914002859171 0 -0.22212211073288121 -0.36799646040096279 0 -0.2326499062635187 -0.35469146624814868 0 -0.2326499062635187 -0.35469146624814868 0 -0.2231245504615656 -0.32959379246770582 0 -0.20978710661384459 -0.35236240764385413 0 -0.22212211073288121 -0.36799646040096279 0 -0.2326499062635187 -0.35469146624814868 0 -0.20978710661384459 -0.35236240764385413 0 -0.25902242798452701 -0.34771938961421228 0 -0.2326499062635187 -0.35469146624814868 0 -0.24549884347453171 -0.33403115256602178 0 -0.25168234128731259 -0.36273293774725718 0 -0.25902242798452701 -0.34771938961421228 0 -0.2326499062635187 -0.35469146624814868 0 -0.25600005574897378 -0.31992000368868567 0 -0.25120068256207578 -0.30478828704230881 0 -0.23631154897157811 -0.31353781140112391 0 -0.24549884347453171 -0.33403115256602178 0 -0.23631154897157811 -0.31353781140112391 0 -0.2231245504615656 -0.32959379246770582 0 -0.25600005574897378 -0.31992000368868567 0 -0.24549884347453171 -0.33403115256602178 0 -0.23631154897157811 -0.31353781140112391 0 -0.23631154897157811 -0.31353781140112391 0 -0.2231245504615656 -0.32959379246770582 0 -0.21359919465961241 -0.3044961186872629 0 -0.2326499062635187 -0.35469146624814868 0 -0.24549884347453171 -0.33403115256602178 0 -0.2231245504615656 -0.32959379246770582 0 -0.2326499062635187 -0.35469146624814868 0 -0.2231245504615656 -0.32959379246770582 0 -0.2231245504615656 -0.32959379246770582 0 -0.19908355970800731 -0.333007269773472 0 -0.20978710661384459 -0.35236240764385413 0 -0.2231245504615656 -0.32959379246770582 0 -0.20712085067435451 -0.31995935613301407 0 -0.21359919465961241 -0.3044961186872629 0 -0.2231245504615656 -0.32959379246770582 0 -0.20712085067435451 -0.31995935613301407 0 -0.19908355970800731 -0.333007269773472 0 -0.20712085067435451 -0.31995935613301407 0 -0.19231222615432969 -0.31457414589109173 0 -0.21359919465961241 -0.3044961186872629 0 -0.2231245504615656 -0.32959379246770582 0 -0.21359919465961241 -0.3044961186872629 0 -0.20712085067435451 -0.31995935613301407 0 -0.19231222615432969 -0.31457414589109173 0 -0.19908355970800731 -0.333007269773472 0 -0.19231222615432969 -0.31457414589109173 0 -0.19908355970800731 -0.333007269773472 0 -0.18412638823678079 -0.32921168282118879 0 -0.19908355970800731 -0.333007269773472 0 -0.19232674081992321 -0.34916669874476369 0 -0.1834960292429636 -0.33923537000052328 0 -0.19908355970800731 -0.333007269773472 0 -0.1834960292429636 -0.33923537000052328 0 -0.18412638823678079 -0.32921168282118879 0 -0.19908355970800731 -0.333007269773472 0 -0.19232674081992321 -0.34916669874476369 0 -0.20978710661384459 -0.35236240764385413 0 -0.19232674081992321 -0.34916669874476369 0 -0.19585664729725979 -0.36089416168028993 0 -0.20978710661384459 -0.35236240764385413 0 -0.19232674081992321 -0.34916669874476369 0 -0.19585664729725979 -0.36089416168028993 0 -0.18283799690670099 -0.35993298885157582 0 -0.1898459669705356 -0.37284464255835548 0 -0.19585664729725979 -0.36089416168028993 0 -0.18283799690670099 -0.35993298885157582 0 -0.1898459669705356 -0.37284464255835548 0 -0.19585664729725979 -0.36089416168028993 0 -0.20448542517529461 -0.37016407060290057 0 -0.19585664729725979 -0.36089416168028993 0 -0.20448542517529461 -0.37016407060290057 0 -0.20978710661384459 -0.35236240764385413 0 -0.22212211073288121 -0.36799646040096279 0 -0.20448542517529461 -0.37016407060290057 0 -0.20978710661384459 -0.35236240764385413 0 -0.2215128535462762 -0.38297521748131902 0 -0.22212211073288121 -0.36799646040096279 0 -0.20448542517529461 -0.37016407060290057 0 -0.224254699894156 -0.25597908654454998 0 -0.24175845980168911 -0.25428478927776899 0 -0.23570313163309281 -0.26733871708396628 0 -0.224254699894156 -0.25597908654454998 0 -0.24175845980168911 -0.25428478927776899 0 -0.23361576110838281 -0.24390984221039619 0 -0.25962203517416249 -0.25887593997011621 0 -0.23570313163309281 -0.26733871708396628 0 -0.25962203517416249 -0.25887593997011621 0 -0.24175845980168911 -0.25428478927776899 0 -0.23570313163309281 -0.26733871708396628 0 -0.2553209964375982 -0.27648340776592129 0 -0.23570313163309281 -0.26733871708396628 0 -0.24553050315752581 -0.28890034277410809 0 -0.23570313163309281 -0.26733871708396628 0 -0.22103090721034391 -0.28587663798676238 0 -0.23335173719507291 -0.28836922815107952 0 -0.224254699894156 -0.25597908654454998 0 -0.23570313163309281 -0.26733871708396628 0 -0.2117842280920228 -0.27580149419781652 0 -0.23570313163309281 -0.26733871708396628 0 -0.2117842280920228 -0.27580149419781652 0 -0.23570313163309281 -0.26733871708396628 0 -0.22103090721034391 -0.28587663798676238 0 -0.2117842280920228 -0.27580149419781652 0 -0.22103090721034391 -0.28587663798676238 0 -0.2261027335965155 -0.29857648736357251 0 -0.2171122283688548 -0.29448609062282871 0 -0.22103090721034391 -0.28587663798676238 0 -0.23335173719507291 -0.28836922815107952 0 -0.2261027335965155 -0.29857648736357251 0 -0.23335173719507291 -0.28836922815107952 0 -0.23839141037788639 -0.30115395554698787 0 -0.2261027335965155 -0.29857648736357251 0 -0.23570313163309281 -0.26733871708396628 0 -0.23335173719507291 -0.28836922815107952 0 -0.24553050315752581 -0.28890034277410809 0 -0.23335173719507291 -0.28836922815107952 0 -0.24553050315752581 -0.28890034277410809 0 -0.23839141037788639 -0.30115395554698787 0 -0.25120068256207578 -0.30478828704230881 0 -0.24553050315752581 -0.28890034277410809 0 -0.23839141037788639 -0.30115395554698787 0 -0.25120068256207578 -0.30478828704230881 0 -0.23631154897157811 -0.31353781140112391 0 -0.23839141037788639 -0.30115395554698787 0 -0.23631154897157811 -0.31353781140112391 0 -0.2261027335965155 -0.29857648736357251 0 -0.21359919465961241 -0.3044961186872629 0 -0.23631154897157811 -0.31353781140112391 0 -0.23839141037788639 -0.30115395554698787 0 -0.2261027335965155 -0.29857648736357251 0 -0.2261027335965155 -0.29857648736357251 0 -0.21359919465961241 -0.3044961186872629 0 -0.2261027335965155 -0.29857648736357251 0 -0.21359919465961241 -0.3044961186872629 0 -0.2171122283688548 -0.29448609062282871 0 -0.21359919465961241 -0.3044961186872629 0 -0.1961159522832929 -0.29797238157030148 0 -0.20771607800894751 -0.28899511845371711 0 -0.19231222615432969 -0.31457414589109173 0 -0.21359919465961241 -0.3044961186872629 0 -0.19231222615432969 -0.31457414589109173 0 -0.1961159522832929 -0.29797238157030148 0 -0.18418573876038241 -0.30335825531171928 0 -0.19231222615432969 -0.31457414589109173 0 -0.21359919465961241 -0.3044961186872629 0 -0.1961159522832929 -0.29797238157030148 0 -0.1961159522832929 -0.29797238157030148 0 -0.1824943794536911 -0.29086172764037299 0 -0.18418573876038241 -0.30335825531171928 0 -0.1961159522832929 -0.29797238157030148 0 -0.19619498668751939 -0.28574809927688499 0 -0.20771607800894751 -0.28899511845371711 0 -0.1961159522832929 -0.29797238157030148 0 -0.19619498668751939 -0.28574809927688499 0 -0.1824943794536911 -0.29086172764037299 0 -0.19619498668751939 -0.28574809927688499 0 -0.18925870364341041 -0.27633165015449501 0 -0.1824943794536911 -0.29086172764037299 0 -0.19619498668751939 -0.28574809927688499 0 -0.20771607800894751 -0.28899511845371711 0 -0.20183296135828241 -0.27349411822017122 0 -0.21359919465961241 -0.3044961186872629 0 -0.20771607800894751 -0.28899511845371711 0 -0.21359919465961241 -0.3044961186872629 0 -0.20771607800894751 -0.28899511845371711 0 -0.2171122283688548 -0.29448609062282871 0 -0.22103090721034391 -0.28587663798676238 0 -0.20771607800894751 -0.28899511845371711 0 -0.2171122283688548 -0.29448609062282871 0 -0.22103090721034391 -0.28587663798676238 0 -0.20771607800894751 -0.28899511845371711 0 -0.2117842280920228 -0.27580149419781652 0 -0.2117842280920228 -0.27580149419781652 0 -0.20530091493962341 -0.26842204932325942 0 -0.20996332158049641 -0.26104207887466718 0 -0.2117842280920228 -0.27580149419781652 0 -0.20530091493962341 -0.26842204932325942 0 -0.20183296135828241 -0.27349411822017122 0 -0.20771607800894751 -0.28899511845371711 0 -0.2117842280920228 -0.27580149419781652 0 -0.20183296135828241 -0.27349411822017122 0 -0.20771607800894751 -0.28899511845371711 0 -0.20183296135828241 -0.27349411822017122 0 -0.19619498668751939 -0.28574809927688499 0 -0.20183296135828241 -0.27349411822017122 0 -0.18925870364341041 -0.27633165015449501 0 -0.18925870364341041 -0.27633165015449501 0 -0.19762314872769199 -0.2633505060003829 0 -0.18348376806499861 -0.26463203889129228 0 -0.20183296135828241 -0.27349411822017122 0 -0.18925870364341041 -0.27633165015449501 0 -0.19762314872769199 -0.2633505060003829 0 -0.20530091493962341 -0.26842204932325942 0 -0.20183296135828241 -0.27349411822017122 0 -0.19762314872769199 -0.2633505060003829 0 -0.19762314872769199 -0.2633505060003829 0 -0.20134047018832821 -0.25150160644606268 0 -0.20996332158049641 -0.26104207887466718 0 -0.19762314872769199 -0.2633505060003829 0 -0.18677763921309559 -0.25033346045329108 0 -0.18348376806499861 -0.26463203889129228 0 -0.19762314872769199 -0.2633505060003829 0 -0.20134047018832821 -0.25150160644606268 0 -0.18677763921309559 -0.25033346045329108 0 -0.224254699894156 -0.25597908654454998 0 -0.2117842280920228 -0.27580149419781652 0 -0.20996332158049641 -0.26104207887466718 0 -0.20134047018832821 -0.25150160644606268 0 -0.20996332158049641 -0.26104207887466718 0 -0.21260693995459931 -0.24643932896582799 0 -0.20530091493962341 -0.26842204932325942 0 -0.19762314872769199 -0.2633505060003829 0 -0.20996332158049641 -0.26104207887466718 0 -0.224254699894156 -0.25597908654454998 0 -0.20996332158049641 -0.26104207887466718 0 -0.21260693995459931 -0.24643932896582799 0 -0.1692940198503024 -0.25683541485098532 0 -0.15514173466474779 -0.27136896144783551 0 -0.1555282206182291 -0.24179013257842771 0 -0.1692940198503024 -0.25683541485098532 0 -0.18677763921309559 -0.25033346045329108 0 -0.18348376806499861 -0.26463203889129228 0 -0.1692940198503024 -0.25683541485098532 0 -0.18348376806499861 -0.26463203889129228 0 -0.17432665026161659 -0.2748457480475982 0 -0.18925870364341041 -0.27633165015449501 0 -0.17432665026161659 -0.2748457480475982 0 -0.1824943794536911 -0.29086172764037299 0 -0.18925870364341041 -0.27633165015449501 0 -0.18348376806499861 -0.26463203889129228 0 -0.17432665026161659 -0.2748457480475982 0 -0.17432665026161659 -0.2748457480475982 0 -0.1662872958925497 -0.28904469530060822 0 -0.15514173466474779 -0.27136896144783551 0 -0.1692940198503024 -0.25683541485098532 0 -0.17432665026161659 -0.2748457480475982 0 -0.15514173466474779 -0.27136896144783551 0 -0.1662872958925497 -0.28904469530060822 0 -0.1547552487112665 -0.30094779031724311 0 -0.15514173466474779 -0.27136896144783551 0 -0.17432665026161659 -0.2748457480475982 0 -0.1662872958925497 -0.28904469530060822 0 -0.1824943794536911 -0.29086172764037299 0 -0.1662872958925497 -0.28904469530060822 0 -0.1824943794536911 -0.29086172764037299 0 -0.17106490024437421 -0.30353467662461481 0 -0.1824943794536911 -0.29086172764037299 0 -0.18418573876038241 -0.30335825531171928 0 -0.17106490024437421 -0.30353467662461481 0 -0.19231222615432969 -0.31457414589109173 0 -0.18418573876038241 -0.30335825531171928 0 -0.17619752913751541 -0.31267823515614129 0 -0.18418573876038241 -0.30335825531171928 0 -0.17106490024437421 -0.30353467662461481 0 -0.17619752913751541 -0.31267823515614129 0 -0.1662872958925497 -0.28904469530060822 0 -0.17106490024437421 -0.30353467662461481 0 -0.1547552487112665 -0.30094779031724311 0 -0.17106490024437421 -0.30353467662461481 0 -0.17619752913751541 -0.31267823515614129 0 -0.16220641290416779 -0.31747110069759948 0 -0.17106490024437421 -0.30353467662461481 0 -0.1547552487112665 -0.30094779031724311 0 -0.16220641290416779 -0.31747110069759948 0 -0.1547552487112665 -0.30094779031724311 0 -0.14639426420465571 -0.31150694549994162 0 -0.16220641290416779 -0.31747110069759948 0 -0.1547552487112665 -0.30094779031724311 0 -0.14199683822268799 -0.3011306666175802 0 -0.14639426420465571 -0.31150694549994162 0 -0.14199683822268799 -0.3011306666175802 0 -0.14639426420465571 -0.31150694549994162 0 -0.1363806449627894 -0.31019891956895229 0 -0.1363806449627894 -0.31019891956895229 0 -0.12734635178927989 -0.3107583397359871 0 -0.12873641531802471 -0.29698804782384502 0 -0.14199683822268799 -0.3011306666175802 0 -0.1363806449627894 -0.31019891956895229 0 -0.12873641531802471 -0.29698804782384502 0 -0.14199683822268799 -0.3011306666175802 0 -0.12873641531802471 -0.29698804782384502 0 -0.1437176179167037 -0.28601162987791912 0 -0.12873641531802471 -0.29698804782384502 0 -0.1437176179167037 -0.28601162987791912 0 -0.11323811721208719 -0.27298091051201873 0 -0.1547552487112665 -0.30094779031724311 0 -0.1437176179167037 -0.28601162987791912 0 -0.15514173466474779 -0.27136896144783551 0 -0.1547552487112665 -0.30094779031724311 0 -0.15514173466474779 -0.27136896144783551 0 -0.1547552487112665 -0.30094779031724311 0 -0.14199683822268799 -0.3011306666175802 0 -0.1437176179167037 -0.28601162987791912 0 -0.1437176179167037 -0.28601162987791912 0 -0.15514173466474779 -0.27136896144783551 0 -0.13361502428459901 -0.25892913269697448 0 -0.1437176179167037 -0.28601162987791912 0 -0.13361502428459901 -0.25892913269697448 0 -0.11323811721208719 -0.27298091051201873 0 -0.15514173466474779 -0.27136896144783551 0 -0.13361502428459901 -0.25892913269697448 0 -0.1555282206182291 -0.24179013257842771 0 -0.15514173466474779 -0.27136896144783551 0 -0.1555282206182291 -0.24179013257842771 0 -0.1701994692711859 -0.35247256019751511 0 -0.174799180427571 -0.34278601597473363 0 -0.16457195195503441 -0.33854174814155302 0 -0.1701994692711859 -0.35247256019751511 0 -0.16457195195503441 -0.33854174814155302 0 -0.1552900753968241 -0.34585869770486211 0 -0.1701994692711859 -0.35247256019751511 0 -0.15951851848160159 -0.36141322584850089 0 -0.1552900753968241 -0.34585869770486211 0 -0.1701994692711859 -0.35247256019751511 0 -0.15951851848160159 -0.36141322584850089 0 -0.17280675847658719 -0.36933728472521682 0 -0.15854176236668421 -0.37787723616018881 0 -0.15951851848160159 -0.36141322584850089 0 -0.17280675847658719 -0.36933728472521682 0 -0.1898459669705356 -0.37284464255835548 0 -0.17280675847658719 -0.36933728472521682 0 -0.18283799690670099 -0.35993298885157582 0 -0.1701994692711859 -0.35247256019751511 0 -0.17280675847658719 -0.36933728472521682 0 -0.18283799690670099 -0.35993298885157582 0 -0.19232674081992321 -0.34916669874476369 0 -0.18283799690670099 -0.35993298885157582 0 -0.18101358323911521 -0.34909094618814052 0 -0.1701994692711859 -0.35247256019751511 0 -0.18283799690670099 -0.35993298885157582 0 -0.18101358323911521 -0.34909094618814052 0 -0.1701994692711859 -0.35247256019751511 0 -0.18101358323911521 -0.34909094618814052 0 -0.174799180427571 -0.34278601597473363 0 -0.19232674081992321 -0.34916669874476369 0 -0.18101358323911521 -0.34909094618814052 0 -0.1834960292429636 -0.33923537000052328 0 -0.18101358323911521 -0.34909094618814052 0 -0.1834960292429636 -0.33923537000052328 0 -0.174799180427571 -0.34278601597473363 0 -0.1834960292429636 -0.33923537000052328 0 -0.18412638823678079 -0.32921168282118879 0 -0.17471486842955569 -0.33458945534593548 0 -0.18412638823678079 -0.32921168282118879 0 -0.17471486842955569 -0.33458945534593548 0 -0.17102525764904741 -0.32465217309492139 0 -0.1834960292429636 -0.33923537000052328 0 -0.17471486842955569 -0.33458945534593548 0 -0.174799180427571 -0.34278601597473363 0 -0.19231222615432969 -0.31457414589109173 0 -0.17102525764904741 -0.32465217309492139 0 -0.19231222615432969 -0.31457414589109173 0 -0.17619752913751541 -0.31267823515614129 0 -0.17102525764904741 -0.32465217309492139 0 -0.19231222615432969 -0.31457414589109173 0 -0.18412638823678079 -0.32921168282118879 0 -0.17102525764904741 -0.32465217309492139 0 -0.17102525764904741 -0.32465217309492139 0 -0.16220641290416779 -0.31747110069759948 0 -0.14973828914376519 -0.33473020029875122 0 -0.17619752913751541 -0.31267823515614129 0 -0.17102525764904741 -0.32465217309492139 0 -0.16220641290416779 -0.31747110069759948 0 -0.17102525764904741 -0.32465217309492139 0 -0.14973828914376519 -0.33473020029875122 0 -0.17102525764904741 -0.32465217309492139 0 -0.16457195195503441 -0.33854174814155302 0 -0.14973828914376519 -0.33473020029875122 0 -0.17471486842955569 -0.33458945534593548 0 -0.174799180427571 -0.34278601597473363 0 -0.16457195195503441 -0.33854174814155302 0 -0.17471486842955569 -0.33458945534593548 0 -0.17102525764904741 -0.32465217309492139 0 -0.16457195195503441 -0.33854174814155302 0 -0.16457195195503441 -0.33854174814155302 0 -0.14973828914376519 -0.33473020029875122 0 -0.1552900753968241 -0.34585869770486211 0 -0.14973828914376519 -0.33473020029875122 0 -0.14128207028563591 -0.3446760647268105 0 -0.1552900753968241 -0.34585869770486211 0 -0.14973828914376519 -0.33473020029875122 0 -0.13724871905053851 -0.33225994881190968 0 -0.14128207028563591 -0.3446760647268105 0 -0.16220641290416779 -0.31747110069759948 0 -0.1343362458676795 -0.32270382410173432 0 -0.14639426420465571 -0.31150694549994162 0 -0.16220641290416779 -0.31747110069759948 0 -0.1343362458676795 -0.32270382410173432 0 -0.16220641290416779 -0.31747110069759948 0 -0.14973828914376519 -0.33473020029875122 0 -0.1343362458676795 -0.32270382410173432 0 -0.12734635178927989 -0.3107583397359871 0 -0.1343362458676795 -0.32270382410173432 0 -0.1181100945635721 -0.32106585002800769 0 -0.14639426420465571 -0.31150694549994162 0 -0.1363806449627894 -0.31019891956895229 0 -0.1343362458676795 -0.32270382410173432 0 -0.1363806449627894 -0.31019891956895229 0 -0.12734635178927989 -0.3107583397359871 0 -0.1343362458676795 -0.32270382410173432 0 -0.13724871905053851 -0.33225994881190968 0 -0.1140454071019501 -0.33759285710350162 0 -0.1343362458676795 -0.32270382410173432 0 -0.13724871905053851 -0.33225994881190968 0 -0.1140454071019501 -0.33759285710350162 0 -0.13724871905053851 -0.33225994881190968 0 -0.13020078870312879 -0.34049751047936838 0 -0.1140454071019501 -0.33759285710350162 0 -0.13724871905053851 -0.33225994881190968 0 -0.13020078870312879 -0.34049751047936838 0 -0.14128207028563591 -0.3446760647268105 0 -0.14973828914376519 -0.33473020029875122 0 -0.1343362458676795 -0.32270382410173432 0 -0.13724871905053851 -0.33225994881190968 0 -0.12822695837439091 -0.34746117127525211 0 -0.13776467042778279 -0.35618078667158531 0 -0.12417087852030639 -0.3580191389828431 0 -0.12822695837439091 -0.34746117127525211 0 -0.13776467042778279 -0.35618078667158531 0 -0.14128207028563591 -0.3446760647268105 0 -0.13020078870312879 -0.34049751047936838 0 -0.12822695837439091 -0.34746117127525211 0 -0.14128207028563591 -0.3446760647268105 0 -0.14128207028563591 -0.3446760647268105 0 -0.14871535973288191 -0.35498036323832088 0 -0.1552900753968241 -0.34585869770486211 0 -0.13776467042778279 -0.35618078667158531 0 -0.14128207028563591 -0.3446760647268105 0 -0.14871535973288191 -0.35498036323832088 0 -0.13776467042778279 -0.35618078667158531 0 -0.14871535973288191 -0.35498036323832088 0 -0.14668479189934899 -0.36617181756771389 0 -0.15951851848160159 -0.36141322584850089 0 -0.14871535973288191 -0.35498036323832088 0 -0.1552900753968241 -0.34585869770486211 0 -0.14055435681904141 -0.38025653733797921 0 -0.15854176236668421 -0.37787723616018881 0 -0.14668479189934899 -0.36617181756771389 0 -0.15854176236668421 -0.37787723616018881 0 -0.15951851848160159 -0.36141322584850089 0 -0.14668479189934899 -0.36617181756771389 0 -0.15951851848160159 -0.36141322584850089 0 -0.14871535973288191 -0.35498036323832088 0 -0.14668479189934899 -0.36617181756771389 0 -0.14055435681904141 -0.38025653733797921 0 -0.14668479189934899 -0.36617181756771389 0 -0.13323274057808029 -0.3667131789433784 0 -0.14055435681904141 -0.38025653733797921 0 -0.13323274057808029 -0.3667131789433784 0 -0.1220138554978997 -0.37607861538086401 0 -0.13323274057808029 -0.3667131789433784 0 -0.12417087852030639 -0.3580191389828431 0 -0.1220138554978997 -0.37607861538086401 0 -0.13776467042778279 -0.35618078667158531 0 -0.14668479189934899 -0.36617181756771389 0 -0.13323274057808029 -0.3667131789433784 0 -0.13776467042778279 -0.35618078667158531 0 -0.13323274057808029 -0.3667131789433784 0 -0.12417087852030639 -0.3580191389828431 0 -0.10992218890762639 -0.36084723502449872 0 -0.12417087852030639 -0.3580191389828431 0 -0.1220138554978997 -0.37607861538086401 0 -0.10992218890762639 -0.36084723502449872 0 -0.099373054983912912 -0.37490892933526132 0 -0.1220138554978997 -0.37607861538086401 0 -0.10992218890762639 -0.36084723502449872 0 -0.099373054983912912 -0.37490892933526132 0 -0.097592008049698017 -0.35890134227757109 0 -0.099373054983912912 -0.37490892933526132 0 -0.097592008049698017 -0.35890134227757109 0 -0.084372591566068383 -0.36177454483494181 0 -0.097592008049698017 -0.35890134227757109 0 -0.105769373827198 -0.3500062576978073 0 -0.090842095153361779 -0.34292576539509351 0 -0.10992218890762639 -0.36084723502449872 0 -0.097592008049698017 -0.35890134227757109 0 -0.105769373827198 -0.3500062576978073 0 -0.105769373827198 -0.3500062576978073 0 -0.11653293392990299 -0.35017781417960681 0 -0.1140454071019501 -0.33759285710350162 0 -0.10992218890762639 -0.36084723502449872 0 -0.105769373827198 -0.3500062576978073 0 -0.11653293392990299 -0.35017781417960681 0 -0.10992218890762639 -0.36084723502449872 0 -0.11653293392990299 -0.35017781417960681 0 -0.12417087852030639 -0.3580191389828431 0 -0.12822695837439091 -0.34746117127525211 0 -0.11653293392990299 -0.35017781417960681 0 -0.12417087852030639 -0.3580191389828431 0 -0.12822695837439091 -0.34746117127525211 0 -0.11653293392990299 -0.35017781417960681 0 -0.1140454071019501 -0.33759285710350162 0 -0.1343362458676795 -0.32270382410173432 0 -0.1140454071019501 -0.33759285710350162 0 -0.1064660788311912 -0.32793654750586898 0 -0.13020078870312879 -0.34049751047936838 0 -0.12822695837439091 -0.34746117127525211 0 -0.1140454071019501 -0.33759285710350162 0 -0.1343362458676795 -0.32270382410173432 0 -0.1064660788311912 -0.32793654750586898 0 -0.1343362458676795 -0.32270382410173432 0 -0.1181100945635721 -0.32106585002800769 0 -0.1064660788311912 -0.32793654750586898 0 -0.1064660788311912 -0.32793654750586898 0 -0.084883271079699646 -0.31720186404685641 0 -0.098452186300300337 -0.29879800118845951 0 -0.1181100945635721 -0.32106585002800769 0 -0.1064660788311912 -0.32793654750586898 0 -0.098452186300300337 -0.29879800118845951 0 -0.1140454071019501 -0.33759285710350162 0 -0.090842095153361779 -0.34292576539509351 0 -0.105769373827198 -0.3500062576978073 0 -0.1140454071019501 -0.33759285710350162 0 -0.090842095153361779 -0.34292576539509351 0 -0.1140454071019501 -0.33759285710350162 0 -0.1064660788311912 -0.32793654750586898 0 -0.090842095153361779 -0.34292576539509351 0 -0.1064660788311912 -0.32793654750586898 0 -0.078595911794702905 -0.33316927091000381 0 -0.1064660788311912 -0.32793654750586898 0 -0.090842095153361779 -0.34292576539509351 0 -0.078595911794702905 -0.33316927091000381 0 -0.090842095153361779 -0.34292576539509351 0 -0.078595911794702905 -0.33316927091000381 0 -0.067638783204773401 -0.34825867368668528 0 -0.1064660788311912 -0.32793654750586898 0 -0.078595911794702905 -0.33316927091000381 0 -0.084883271079699646 -0.31720186404685641 0 -0.084883271079699646 -0.31720186404685641 0 -0.067262630993435657 -0.3251200063029811 0 -0.067955962839005818 -0.31298897122298891 0 -0.078595911794702905 -0.33316927091000381 0 -0.084883271079699646 -0.31720186404685641 0 -0.067262630993435657 -0.3251200063029811 0 -0.067262630993435657 -0.3251200063029811 0 -0.067955962839005818 -0.31298897122298891 0 -0.054152264495555338 -0.32383793102091801 0 -0.078595911794702905 -0.33316927091000381 0 -0.050725744758214592 -0.33840199431413848 0 -0.078595911794702905 -0.33316927091000381 0 -0.067638783204773401 -0.34825867368668528 0 -0.050725744758214592 -0.33840199431413848 0 -0.078595911794702905 -0.33316927091000381 0 -0.067262630993435657 -0.3251200063029811 0 -0.050725744758214592 -0.33840199431413848 0 -0.067638783204773401 -0.34825867368668528 0 -0.069739210363178053 -0.36759070987530801 0 -0.084372591566068383 -0.36177454483494181 0 -0.067638783204773401 -0.34825867368668528 0 -0.069739210363178053 -0.36759070987530801 0 -0.056990179308726907 -0.36154487368393379 0 -0.069739210363178053 -0.36759070987530801 0 -0.058506465857790388 -0.3729300509839576 0 -0.068899883543915005 -0.38302293058480719 0 -0.099373054983912912 -0.37490892933526132 0 -0.084372591566068383 -0.36177454483494181 0 -0.082684647052352137 -0.37771376376896448 0 -0.069739210363178053 -0.36759070987530801 0 -0.084372591566068383 -0.36177454483494181 0 -0.082684647052352137 -0.37771376376896448 0 -0.090842095153361779 -0.34292576539509351 0 -0.067638783204773401 -0.34825867368668528 0 -0.084372591566068383 -0.36177454483494181 0 -0.097592008049698017 -0.35890134227757109 0 -0.090842095153361779 -0.34292576539509351 0 -0.084372591566068383 -0.36177454483494181 0 -0.090842095153361779 -0.34292576539509351 0 -0.067638783204773401 -0.34825867368668528 0 -0.11323811721208719 -0.27298091051201873 0 -0.078794278037028542 -0.27653015234891121 0 -0.092778135407556916 -0.25278341398886511 0 -0.11323811721208719 -0.27298091051201873 0 -0.092778135407556916 -0.25278341398886511 0 -0.1165731632203976 -0.24082599565915661 0 -0.13361502428459901 -0.25892913269697448 0 -0.11323811721208719 -0.27298091051201873 0 -0.1165731632203976 -0.24082599565915661 0 -0.11323811721208719 -0.27298091051201873 0 -0.098452186300300337 -0.29879800118845951 0 -0.078794278037028542 -0.27653015234891121 0 -0.12873641531802471 -0.29698804782384502 0 -0.11323811721208719 -0.27298091051201873 0 -0.098452186300300337 -0.29879800118845951 0 -0.12734635178927989 -0.3107583397359871 0 -0.12873641531802471 -0.29698804782384502 0 -0.098452186300300337 -0.29879800118845951 0 -0.12734635178927989 -0.3107583397359871 0 -0.1181100945635721 -0.32106585002800769 0 -0.098452186300300337 -0.29879800118845951 0 -0.1181100945635721 -0.32106585002800769 0 -0.098452186300300337 -0.29879800118845951 0 -0.084883271079699646 -0.31720186404685641 0 -0.098452186300300337 -0.29879800118845951 0 -0.078676397016373051 -0.30050328660853431 0 -0.084883271079699646 -0.31720186404685641 0 -0.067955962839005818 -0.31298897122298891 0 -0.078676397016373051 -0.30050328660853431 0 -0.067955962839005818 -0.31298897122298891 0 -0.078676397016373051 -0.30050328660853431 0 -0.063296286825830952 -0.29699744423545582 0 -0.063296286825830952 -0.29699744423545582 0 -0.078794278037028542 -0.27653015234891121 0 -0.053940084314362063 -0.28548675640176902 0 -0.078676397016373051 -0.30050328660853431 0 -0.063296286825830952 -0.29699744423545582 0 -0.078794278037028542 -0.27653015234891121 0 -0.098452186300300337 -0.29879800118845951 0 -0.078676397016373051 -0.30050328660853431 0 -0.078794278037028542 -0.27653015234891121 0 -0.098452186300300337 -0.29879800118845951 0 -0.078794278037028542 -0.27653015234891121 0 -0.078794278037028542 -0.27653015234891121 0 -0.059136369773753673 -0.25426230350936552 0 -0.078794278037028542 -0.27653015234891121 0 -0.075881532845746655 -0.2518003866666863 0 -0.059136369773753673 -0.25426230350936552 0 -0.078794278037028542 -0.27653015234891121 0 -0.075881532845746655 -0.2518003866666863 0 -0.092778135407556916 -0.25278341398886511 0 -0.038279177000462718 -0.25298892135794571 0 -0.048084329560061201 -0.26969760609834559 0 -0.026855388200113049 -0.26587594312667251 0 -0.038279177000462718 -0.25298892135794571 0 -0.059136369773753673 -0.25426230350936552 0 -0.048084329560061201 -0.26969760609834559 0 -0.059136369773753673 -0.25426230350936552 0 -0.048084329560061201 -0.26969760609834559 0 -0.078794278037028542 -0.27653015234891121 0 -0.059136369773753673 -0.25426230350936552 0 -0.048084329560061201 -0.26969760609834559 0 -0.078794278037028542 -0.27653015234891121 0 -0.048084329560061201 -0.26969760609834559 0 -0.053940084314362063 -0.28548675640176902 0 -0.048084329560061201 -0.26969760609834559 0 -0.037032289346370352 -0.28513290868732682 0 -0.026855388200113049 -0.26587594312667251 0 -0.048084329560061201 -0.26969760609834559 0 -0.037032289346370352 -0.28513290868732682 0 -0.053940084314362063 -0.28548675640176902 0 -0.037032289346370352 -0.28513290868732682 0 -0.026855388200113049 -0.26587594312667251 0 -0.048084329560061201 -0.26969760609834559 0 -0.037032289346370352 -0.28513290868732682 0 -0.037032289346370352 -0.28513290868732682 0 -0.053940084314362063 -0.28548675640176902 0 -0.045429126480150447 -0.30102159633199332 0 -0.037032289346370352 -0.28513290868732682 0 -0.045429126480150447 -0.30102159633199332 0 -0.063296286825830952 -0.29699744423545582 0 -0.053940084314362063 -0.28548675640176902 0 -0.045429126480150447 -0.30102159633199332 0 -0.067955962839005818 -0.31298897122298891 0 -0.063296286825830952 -0.29699744423545582 0 -0.054691307672800872 -0.31022823389988519 0 -0.063296286825830952 -0.29699744423545582 0 -0.054691307672800872 -0.31022823389988519 0 -0.045429126480150447 -0.30102159633199332 0 -0.054691307672800872 -0.31022823389988519 0 -0.045429126480150447 -0.30102159633199332 0 -0.042622897723461742 -0.31629522668806992 0 -0.045429126480150447 -0.30102159633199332 0 -0.033818241483559539 -0.30661477379892749 0 -0.042622897723461742 -0.31629522668806992 0 -0.037032289346370352 -0.28513290868732682 0 -0.045429126480150447 -0.30102159633199332 0 -0.033818241483559539 -0.30661477379892749 0 -0.037032289346370352 -0.28513290868732682 0 -0.033818241483559539 -0.30661477379892749 0 -0.021465151807031679 -0.30687400569005668 0 -0.021465151807031679 -0.30687400569005668 0 -0.011111708647086689 -0.28917869030745319 0 -0.033818241483559539 -0.30661477379892749 0 -0.02445608570673562 -0.31198588179022763 0 -0.021465151807031679 -0.30687400569005668 0 -0.02445608570673562 -0.31198588179022763 0 -0.021465151807031679 -0.30687400569005668 0 -0.0130685673524099 -0.31860069318531792 0 -0.02445608570673562 -0.31198588179022763 0 -0.021465151807031679 -0.30687400569005668 0 -0.021465151807031679 -0.30687400569005668 0 -0.0085910264265026005 -0.30780961868218681 0 -0.0130685673524099 -0.31860069318531792 0 -0.0085910264265026005 -0.30780961868218681 0 -0.00064033772500888425 -0.3207383258129487 0 0.0033306333990243669 -0.30365637841515741 0 -0.0085910264265026005 -0.30780961868218681 0 -0.011111708647086689 -0.28917869030745319 0 0.0033306333990243669 -0.30365637841515741 0 -0.021465151807031679 -0.30687400569005668 0 -0.0085910264265026005 -0.30780961868218681 0 -0.011111708647086689 -0.28917869030745319 0 -0.011111708647086689 -0.28917869030745319 0 -0.0007582654871422026 -0.27148337492484942 0 0.0079978645729627401 -0.28683117843660327 0 -0.021465151807031679 -0.30687400569005668 0 -0.011111708647086689 -0.28917869030745319 0 -0.027739333253950081 -0.28216498948508129 0 -0.037032289346370352 -0.28513290868732682 0 -0.021465151807031679 -0.30687400569005668 0 -0.037032289346370352 -0.28513290868732682 0 -0.021465151807031679 -0.30687400569005668 0 -0.027739333253950081 -0.28216498948508129 0 -0.037032289346370352 -0.28513290868732682 0 -0.027739333253950081 -0.28216498948508129 0 -0.026855388200113049 -0.26587594312667251 0 -0.027739333253950081 -0.28216498948508129 0 -0.026855388200113049 -0.26587594312667251 0 -0.0136647060947924 -0.26255007279879122 0 -0.011111708647086689 -0.28917869030745319 0 -0.027739333253950081 -0.28216498948508129 0 -0.0007582654871422026 -0.27148337492484942 0 -0.027739333253950081 -0.28216498948508129 0 -0.0007582654871422026 -0.27148337492484942 0 -0.0136647060947924 -0.26255007279879122 0 -0.011111708647086689 -0.28917869030745319 0 -0.0007582654871422026 -0.27148337492484942 0 -0.027739333253950081 -0.28216498948508129 0 -0.0007582654871422026 -0.27148337492484942 0 -0.0007582654871422026 -0.27148337492484942 0 -0.0136647060947924 -0.26255007279879122 0 -0.004144784243036481 -0.25526440730861449 0 -0.0136647060947924 -0.26255007279879122 0 -0.004144784243036481 -0.25526440730861449 0 -0.016678487053853618 -0.2466189775660193 0 -0.038279177000462718 -0.25298892135794571 0 -0.026855388200113049 -0.26587594312667251 0 -0.016678487053853618 -0.2466189775660193 0 -0.026855388200113049 -0.26587594312667251 0 -0.016678487053853618 -0.2466189775660193 0 -0.026855388200113049 -0.26587594312667251 0 -0.0136647060947924 -0.26255007279879122 0 -0.016678487053853618 -0.2466189775660193 0 -0.04443547125618498 -0.35359158197827723 0 -0.033874509258348097 -0.3612137824470848 0 -0.027527216129092581 -0.34962370318429498 0 -0.04443547125618498 -0.35359158197827723 0 -0.038535993347029063 -0.34185167104901049 0 -0.027527216129092581 -0.34962370318429498 0 -0.04443547125618498 -0.35359158197827723 0 -0.050725744758214592 -0.33840199431413848 0 -0.038535993347029063 -0.34185167104901049 0 -0.033874509258348097 -0.3612137824470848 0 -0.044234418044586131 -0.36983912542331532 0 -0.02676660440660647 -0.37222456846551649 0 -0.04443547125618498 -0.35359158197827723 0 -0.033874509258348097 -0.3612137824470848 0 -0.044234418044586131 -0.36983912542331532 0 -0.044234418044586131 -0.36983912542331532 0 -0.02676660440660647 -0.37222456846551649 0 -0.035611693581706051 -0.3823378390697062 0 -0.04443547125618498 -0.35359158197827723 0 -0.044234418044586131 -0.36983912542331532 0 -0.056990179308726907 -0.36154487368393379 0 -0.044234418044586131 -0.36983912542331532 0 -0.058506465857790388 -0.3729300509839576 0 -0.056990179308726907 -0.36154487368393379 0 -0.069739210363178053 -0.36759070987530801 0 -0.058506465857790388 -0.3729300509839576 0 -0.056990179308726907 -0.36154487368393379 0 -0.067638783204773401 -0.34825867368668528 0 -0.04443547125618498 -0.35359158197827723 0 -0.050725744758214592 -0.33840199431413848 0 -0.067638783204773401 -0.34825867368668528 0 -0.04443547125618498 -0.35359158197827723 0 -0.067638783204773401 -0.34825867368668528 0 -0.04443547125618498 -0.35359158197827723 0 -0.056990179308726907 -0.36154487368393379 0 -0.067262630993435657 -0.3251200063029811 0 -0.050725744758214592 -0.33840199431413848 0 -0.054152264495555338 -0.32383793102091801 0 -0.050725744758214592 -0.33840199431413848 0 -0.054152264495555338 -0.32383793102091801 0 -0.041274455008499251 -0.32900288727854488 0 -0.067955962839005818 -0.31298897122298891 0 -0.054691307672800872 -0.31022823389988519 0 -0.054152264495555338 -0.32383793102091801 0 -0.054691307672800872 -0.31022823389988519 0 -0.054152264495555338 -0.32383793102091801 0 -0.042622897723461742 -0.31629522668806992 0 -0.054152264495555338 -0.32383793102091801 0 -0.042622897723461742 -0.31629522668806992 0 -0.041274455008499251 -0.32900288727854488 0 -0.032273814214766119 -0.3203845311595529 0 -0.041274455008499251 -0.32900288727854488 0 -0.0293360155119687 -0.33324596943958001 0 -0.042622897723461742 -0.31629522668806992 0 -0.032273814214766119 -0.3203845311595529 0 -0.041274455008499251 -0.32900288727854488 0 -0.033818241483559539 -0.30661477379892749 0 -0.042622897723461742 -0.31629522668806992 0 -0.032273814214766119 -0.3203845311595529 0 -0.038535993347029063 -0.34185167104901049 0 -0.0293360155119687 -0.33324596943958001 0 -0.027527216129092581 -0.34962370318429498 0 -0.050725744758214592 -0.33840199431413848 0 -0.041274455008499251 -0.32900288727854488 0 -0.038535993347029063 -0.34185167104901049 0 -0.041274455008499251 -0.32900288727854488 0 -0.038535993347029063 -0.34185167104901049 0 -0.0293360155119687 -0.33324596943958001 0 -0.0293360155119687 -0.33324596943958001 0 -0.01406930046854365 -0.33386768575274978 0 -0.027527216129092581 -0.34962370318429498 0 -0.0293360155119687 -0.33324596943958001 0 -0.022837151086164499 -0.32328898556904789 0 -0.01406930046854365 -0.33386768575274978 0 -0.033818241483559539 -0.30661477379892749 0 -0.02445608570673562 -0.31198588179022763 0 -0.032273814214766119 -0.3203845311595529 0 -0.02445608570673562 -0.31198588179022763 0 -0.032273814214766119 -0.3203845311595529 0 -0.022837151086164499 -0.32328898556904789 0 -0.032273814214766119 -0.3203845311595529 0 -0.0293360155119687 -0.33324596943958001 0 -0.022837151086164499 -0.32328898556904789 0 -0.022837151086164499 -0.32328898556904789 0 -0.0130685673524099 -0.31860069318531792 0 -0.01406930046854365 -0.33386768575274978 0 -0.02445608570673562 -0.31198588179022763 0 -0.022837151086164499 -0.32328898556904789 0 -0.0130685673524099 -0.31860069318531792 0 -0.021465151807031679 -0.30687400569005668 0 -0.0130685673524099 -0.31860069318531792 0 -0.0130685673524099 -0.31860069318531792 0 -0.00064033772500888425 -0.3207383258129487 0 -0.01406930046854365 -0.33386768575274978 0 -0.0085910264265026005 -0.30780961868218681 0 -0.0130685673524099 -0.31860069318531792 0 -0.00064033772500888425 -0.3207383258129487 0 -0.01406930046854365 -0.33386768575274978 0 -0.01062982243337058 -0.35234142963879839 0 0.00093598445714682533 -0.33501187277556899 0 -0.00064033772500888425 -0.3207383258129487 0 -0.01406930046854365 -0.33386768575274978 0 0.00093598445714682533 -0.33501187277556899 0 -0.01062982243337058 -0.35234142963879839 0 0.0053148931994630687 -0.34826805892008872 0 0.00093598445714682533 -0.33501187277556899 0 -0.01062982243337058 -0.35234142963879839 0 -0.027527216129092581 -0.34962370318429498 0 -0.020428397209101581 -0.36088657010504482 0 -0.01406930046854365 -0.33386768575274978 0 -0.01062982243337058 -0.35234142963879839 0 -0.027527216129092581 -0.34962370318429498 0 -0.033874509258348097 -0.3612137824470848 0 -0.027527216129092581 -0.34962370318429498 0 -0.020428397209101581 -0.36088657010504482 0 -0.02676660440660647 -0.37222456846551649 0 -0.020428397209101581 -0.36088657010504482 0 -0.0071592383932490072 -0.37172433421641388 0 -0.033874509258348097 -0.3612137824470848 0 -0.02676660440660647 -0.37222456846551649 0 -0.020428397209101581 -0.36088657010504482 0 -0.01062982243337058 -0.35234142963879839 0 -0.0071592383932490072 -0.37172433421641388 0 0.01073991848365162 -0.36351689085440531 0 -0.01062982243337058 -0.35234142963879839 0 -0.020428397209101581 -0.36088657010504482 0 -0.0071592383932490072 -0.37172433421641388 0 -0.0071592383932490072 -0.37172433421641388 0 -0.00072232415062651462 -0.39261026810674549 0 -0.019092912474610022 -0.38865475755236489 0 -0.0071592383932490072 -0.37172433421641388 0 -0.00072232415062651462 -0.39261026810674549 0 0.0058916104488833509 -0.37833181594326631 0 -0.00072232415062651462 -0.39261026810674549 0 -0.008065960077298831 -0.40184134807545829 0 -0.019092912474610022 -0.38865475755236489 0 -0.008065960077298831 -0.40184134807545829 0 -0.0081126324668909892 -0.41123767716410042 0 0.00077620197462267013 -0.40325672237600563 0 -0.00072232415062651462 -0.39261026810674549 0 -0.008065960077298831 -0.40184134807545829 0 0.00077620197462267013 -0.40325672237600563 0 -0.008065960077298831 -0.40184134807545829 0 -0.02027141736645019 -0.40482443330058149 0 -0.0081126324668909892 -0.41123767716410042 0 -0.02027141736645019 -0.40482443330058149 0 -0.034799920510811953 -0.39573710514178589 0 -0.034595559724544013 -0.41552484628283298 0 -0.008065960077298831 -0.40184134807545829 0 -0.02027141736645019 -0.40482443330058149 0 -0.019092912474610022 -0.38865475755236489 0 -0.02027141736645019 -0.40482443330058149 0 -0.019092912474610022 -0.38865475755236489 0 -0.034799920510811953 -0.39573710514178589 0 -0.02676660440660647 -0.37222456846551649 0 -0.0071592383932490072 -0.37172433421641388 0 -0.019092912474610022 -0.38865475755236489 0 -0.019092912474610022 -0.38865475755236489 0 -0.035611693581706051 -0.3823378390697062 0 -0.034799920510811953 -0.39573710514178589 0 -0.02676660440660647 -0.37222456846551649 0 -0.019092912474610022 -0.38865475755236489 0 -0.035611693581706051 -0.3823378390697062 0 -0.044234418044586131 -0.36983912542331532 0 -0.035611693581706051 -0.3823378390697062 0 -0.051949114061413858 -0.3886732876118858 0 -0.035611693581706051 -0.3823378390697062 0 -0.034799920510811953 -0.39573710514178589 0 -0.051949114061413858 -0.3886732876118858 0 -0.034799920510811953 -0.39573710514178589 0 -0.044773932817550169 -0.40554503843954309 0 -0.051949114061413858 -0.3886732876118858 0 -0.034799920510811953 -0.39573710514178589 0 -0.044773932817550169 -0.40554503843954309 0 -0.034595559724544013 -0.41552484628283298 0 -0.044773932817550169 -0.40554503843954309 0 -0.057018153371777403 -0.40215046145673911 0 -0.051949114061413858 -0.3886732876118858 0 -0.057018153371777403 -0.40215046145673911 0 -0.051949114061413858 -0.3886732876118858 0 -0.068955726610223658 -0.39670231924997251 0 -0.044234418044586131 -0.36983912542331532 0 -0.058506465857790388 -0.3729300509839576 0 -0.051949114061413858 -0.3886732876118858 0 -0.058506465857790388 -0.3729300509839576 0 -0.051949114061413858 -0.3886732876118858 0 -0.068899883543915005 -0.38302293058480719 0 -0.051801464461672497 -0.41655477534174451 0 -0.042185885013804943 -0.43590378386609419 0 -0.062579091732656814 -0.42976856887312193 0 -0.042185885013804943 -0.43590378386609419 0 -0.05287886342474598 -0.44619104927310332 0 -0.062579091732656814 -0.42976856887312193 0 -0.051801464461672497 -0.41655477534174451 0 -0.066534539216486957 -0.41216317164843969 0 -0.062579091732656814 -0.42976856887312193 0 -0.057018153371777403 -0.40215046145673911 0 -0.051801464461672497 -0.41655477534174451 0 -0.066534539216486957 -0.41216317164843969 0 -0.044773932817550169 -0.40554503843954309 0 -0.057018153371777403 -0.40215046145673911 0 -0.051801464461672497 -0.41655477534174451 0 -0.044773932817550169 -0.40554503843954309 0 -0.051801464461672497 -0.41655477534174451 0 -0.034595559724544013 -0.41552484628283298 0 -0.051801464461672497 -0.41655477534174451 0 -0.034595559724544013 -0.41552484628283298 0 -0.042185885013804943 -0.43590378386609419 0 -0.034595559724544013 -0.41552484628283298 0 -0.042185885013804943 -0.43590378386609419 0 -0.016012530166438711 -0.42382540295061633 0 -0.042185885013804943 -0.43590378386609419 0 -0.016012530166438711 -0.42382540295061633 0 -0.022972687864810909 -0.43811561493510781 0 -0.042185885013804943 -0.43590378386609419 0 -0.016012530166438711 -0.42382540295061633 0 -0.016012530166438711 -0.42382540295061633 0 -0.013408486879178181 -0.43262675231407322 0 -0.022972687864810909 -0.43811561493510781 0 -0.034595559724544013 -0.41552484628283298 0 -0.016012530166438711 -0.42382540295061633 0 -0.019748034931080981 -0.41385308992453279 0 -0.02027141736645019 -0.40482443330058149 0 -0.034595559724544013 -0.41552484628283298 0 -0.019748034931080981 -0.41385308992453279 0 -0.02027141736645019 -0.40482443330058149 0 -0.019748034931080981 -0.41385308992453279 0 -0.0081126324668909892 -0.41123767716410042 0 -0.0081126324668909892 -0.41123767716410042 0 -0.0053503916519833756 -0.41890507954911932 0 0.01016082468092764 -0.41174702203513819 0 -0.016012530166438711 -0.42382540295061633 0 -0.0081126324668909892 -0.41123767716410042 0 -0.0053503916519833756 -0.41890507954911932 0 -0.016012530166438711 -0.42382540295061633 0 -0.0053503916519833756 -0.41890507954911932 0 -0.016012530166438711 -0.42382540295061633 0 -0.019748034931080981 -0.41385308992453279 0 -0.0081126324668909892 -0.41123767716410042 0 -0.013408486879178181 -0.43262675231407322 0 -0.0052946689989270051 -0.42945332493974081 0 -0.0093540604865360987 -0.43911266643082808 0 -0.013408486879178181 -0.43262675231407322 0 -0.0093540604865360987 -0.43911266643082808 0 -0.022972687864810909 -0.43811561493510781 0 -0.016012530166438711 -0.42382540295061633 0 -0.013408486879178181 -0.43262675231407322 0 -0.0052946689989270051 -0.42945332493974081 0 -0.016012530166438711 -0.42382540295061633 0 -0.0053503916519833756 -0.41890507954911932 0 -0.0052946689989270051 -0.42945332493974081 0 -0.0053503916519833756 -0.41890507954911932 0 -0.0052946689989270051 -0.42945332493974081 0 0.0029814021335089918 -0.42568077098759632 0 -0.0052946689989270051 -0.42945332493974081 0 -0.00072542549580032715 -0.4354249626967972 0 -0.0093540604865360987 -0.43911266643082808 0 -0.0052946689989270051 -0.42945332493974081 0 -0.00072542549580032715 -0.4354249626967972 0 0.0029814021335089918 -0.42568077098759632 0 -0.003664230010532391 -0.44570336902629643 0 -0.0077442852071358884 -0.46305409302634359 0 0.0045823816277680979 -0.44826751347413002 0 -0.01325984613280403 -0.44753234720526353 0 -0.003664230010532391 -0.44570336902629643 0 -0.0077442852071358884 -0.46305409302634359 0 -0.00072542549580032715 -0.4354249626967972 0 -0.0093540604865360987 -0.43911266643082808 0 -0.003664230010532391 -0.44570336902629643 0 -0.00072542549580032715 -0.4354249626967972 0 -0.003664230010532391 -0.44570336902629643 0 0.0037527775864003251 -0.44018732198252952 0 -0.0093540604865360987 -0.43911266643082808 0 -0.01325984613280403 -0.44753234720526353 0 -0.022972687864810909 -0.43811561493510781 0 -0.0093540604865360987 -0.43911266643082808 0 -0.01325984613280403 -0.44753234720526353 0 -0.003664230010532391 -0.44570336902629643 0 -0.01325984613280403 -0.44753234720526353 0 -0.0077442852071358884 -0.46305409302634359 0 -0.02256396709500489 -0.45167599260774188 0 -0.0077442852071358884 -0.46305409302634359 0 -0.030521947544170449 -0.46093594978658831 0 -0.024185626092520181 -0.4747284022158107 0 -0.0077442852071358884 -0.46305409302634359 0 -0.030521947544170449 -0.46093594978658831 0 -0.02256396709500489 -0.45167599260774188 0 -0.030521947544170449 -0.46093594978658831 0 -0.024185626092520181 -0.4747284022158107 0 -0.038633788096154108 -0.46990178336812061 0 -0.030521947544170449 -0.46093594978658831 0 -0.02256396709500489 -0.45167599260774188 0 -0.034222068142809231 -0.44617425872539812 0 -0.022972687864810909 -0.43811561493510781 0 -0.02256396709500489 -0.45167599260774188 0 -0.034222068142809231 -0.44617425872539812 0 -0.01325984613280403 -0.44753234720526353 0 -0.022972687864810909 -0.43811561493510781 0 -0.02256396709500489 -0.45167599260774188 0 -0.0045963692354046293 -0.5 0 -0.006205207030923446 -0.48109721305138509 0 0.0087783883482265655 -0.48831305638716738 0 -0.0045963692354046293 -0.5 0 -0.006205207030923446 -0.48109721305138509 0 -0.019957652241953259 -0.48919036952629019 0 -0.0077442852071358884 -0.46305409302634359 0 -0.006205207030923446 -0.48109721305138509 0 0.0104743022432467 -0.47129735715269849 0 -0.0077442852071358884 -0.46305409302634359 0 -0.006205207030923446 -0.48109721305138509 0 -0.024185626092520181 -0.4747284022158107 0 -0.006205207030923446 -0.48109721305138509 0 -0.024185626092520181 -0.4747284022158107 0 -0.019957652241953259 -0.48919036952629019 0 -0.024185626092520181 -0.4747284022158107 0 -0.019957652241953259 -0.48919036952629019 0 -0.040626966977904508 -0.4864027114052778 0 -0.0077442852071358884 -0.46305409302634359 0 -0.024185626092520181 -0.4747284022158107 0 -0.0045963692354046293 -0.5 0 -0.030454135004874209 -0.5 0 -0.019957652241953259 -0.48919036952629019 0 -0.030454135004874209 -0.5 0 -0.019957652241953259 -0.48919036952629019 0 -0.040626966977904508 -0.4864027114052778 0 -0.030454135004874209 -0.5 0 -0.040626966977904508 -0.4864027114052778 0 -0.056311900774343782 -0.49999999999999989 0 -0.024185626092520181 -0.4747284022158107 0 -0.040626966977904508 -0.4864027114052778 0 -0.038633788096154108 -0.46990178336812061 0 -0.024185626092520181 -0.4747284022158107 0 -0.040626966977904508 -0.4864027114052778 0 -0.040626966977904508 -0.4864027114052778 0 -0.038633788096154108 -0.46990178336812061 0 -0.049585122093446878 -0.47578731975913108 0 -0.038633788096154108 -0.46990178336812061 0 -0.049585122093446878 -0.47578731975913108 0 -0.048438245188373849 -0.46611907490211713 0 -0.059477882460102667 -0.47648382722157212 0 -0.05316920315142841 -0.48575172098827563 0 -0.071510515513048836 -0.48296297385902559 0 -0.049585122093446878 -0.47578731975913108 0 -0.055996654382018209 -0.46914239116635842 0 -0.048438245188373849 -0.46611907490211713 0 -0.055996654382018209 -0.46914239116635842 0 -0.059477882460102667 -0.47648382722157212 0 -0.066365428830543111 -0.46909558846446148 0 -0.049585122093446878 -0.47578731975913108 0 -0.055996654382018209 -0.46914239116635842 0 -0.059477882460102667 -0.47648382722157212 0 -0.040626966977904508 -0.4864027114052778 0 -0.049585122093446878 -0.47578731975913108 0 -0.05316920315142841 -0.48575172098827563 0 -0.049585122093446878 -0.47578731975913108 0 -0.059477882460102667 -0.47648382722157212 0 -0.05316920315142841 -0.48575172098827563 0 -0.056311900774343782 -0.49999999999999989 0 -0.05316920315142841 -0.48575172098827563 0 -0.071510515513048836 -0.48296297385902559 0 -0.040626966977904508 -0.4864027114052778 0 -0.056311900774343782 -0.49999999999999989 0 -0.05316920315142841 -0.48575172098827563 0 -0.034222068142809231 -0.44617425872539812 0 -0.041216154498740491 -0.456224642425201 0 -0.05287886342474598 -0.44619104927310332 0 -0.042185885013804943 -0.43590378386609419 0 -0.022972687864810909 -0.43811561493510781 0 -0.034222068142809231 -0.44617425872539812 0 -0.042185885013804943 -0.43590378386609419 0 -0.034222068142809231 -0.44617425872539812 0 -0.05287886342474598 -0.44619104927310332 0 -0.030521947544170449 -0.46093594978658831 0 -0.034222068142809231 -0.44617425872539812 0 -0.041216154498740491 -0.456224642425201 0 -0.030521947544170449 -0.46093594978658831 0 -0.038633788096154108 -0.46990178336812061 0 -0.041216154498740491 -0.456224642425201 0 -0.038633788096154108 -0.46990178336812061 0 -0.041216154498740491 -0.456224642425201 0 -0.048438245188373849 -0.46611907490211713 0 -0.041216154498740491 -0.456224642425201 0 -0.048438245188373849 -0.46611907490211713 0 -0.056759506871509553 -0.45953923779177452 0 -0.041216154498740491 -0.456224642425201 0 -0.056759506871509553 -0.45953923779177452 0 -0.041216154498740491 -0.456224642425201 0 -0.056759506871509553 -0.45953923779177452 0 -0.05287886342474598 -0.44619104927310332 0 -0.055996654382018209 -0.46914239116635842 0 -0.048438245188373849 -0.46611907490211713 0 -0.056759506871509553 -0.45953923779177452 0 -0.055996654382018209 -0.46914239116635842 0 -0.056759506871509553 -0.45953923779177452 0 -0.066365428830543111 -0.46909558846446148 0 -0.05287886342474598 -0.44619104927310332 0 -0.067533421093166235 -0.44243577140471718 0 -0.065802555759514617 -0.45340334207501243 0 -0.05287886342474598 -0.44619104927310332 0 -0.067533421093166235 -0.44243577140471718 0 -0.062579091732656814 -0.42976856887312193 0 -0.056759506871509553 -0.45953923779177452 0 -0.05287886342474598 -0.44619104927310332 0 -0.065802555759514617 -0.45340334207501243 0 -0.074036101609853619 -0.44780609413073991 0 -0.072302859244278664 -0.46285383315834783 0 -0.087954830623155594 -0.44639961498692288 0 -0.067533421093166235 -0.44243577140471718 0 -0.074036101609853619 -0.44780609413073991 0 -0.076426444275716876 -0.43628454830980279 0 -0.067533421093166235 -0.44243577140471718 0 -0.074036101609853619 -0.44780609413073991 0 -0.065802555759514617 -0.45340334207501243 0 -0.056759506871509553 -0.45953923779177452 0 -0.065802555759514617 -0.45340334207501243 0 -0.072302859244278664 -0.46285383315834783 0 -0.056759506871509553 -0.45953923779177452 0 -0.072302859244278664 -0.46285383315834783 0 -0.056759506871509553 -0.45953923779177452 0 -0.072302859244278664 -0.46285383315834783 0 -0.066365428830543111 -0.46909558846446148 0 -0.072302859244278664 -0.46285383315834783 0 -0.066365428830543111 -0.46909558846446148 0 -0.074036101609853619 -0.44780609413073991 0 -0.065802555759514617 -0.45340334207501243 0 -0.072302859244278664 -0.46285383315834783 0 -0.072302859244278664 -0.46285383315834783 0 -0.086709130251753863 -0.46592594771805118 0 -0.087954830623155594 -0.44639961498692288 0 -0.072302859244278664 -0.46285383315834783 0 -0.087954830623155594 -0.44639961498692288 0 -0.086709130251753863 -0.46592594771805118 0 -0.087954830623155594 -0.44639961498692288 0 -0.100972869729057 -0.44993687854821418 0 -0.072302859244278664 -0.46285383315834783 0 -0.086709130251753863 -0.46592594771805118 0 -0.074036101609853619 -0.44780609413073991 0 -0.087954830623155594 -0.44639961498692288 0 -0.076426444275716876 -0.43628454830980279 0 -0.056311900774343782 -0.49999999999999989 0 -0.071510515513048836 -0.48296297385902559 0 -0.084508801964982838 -0.5 0 -0.056311900774343782 -0.49999999999999989 0 -0.071510515513048836 -0.48296297385902559 0 -0.072302859244278664 -0.46285383315834783 0 -0.071510515513048836 -0.48296297385902559 0 -0.066365428830543111 -0.46909558846446148 0 -0.072302859244278664 -0.46285383315834783 0 -0.086709130251753863 -0.46592594771805118 0 -0.071510515513048836 -0.48296297385902559 0 -0.059477882460102667 -0.47648382722157212 0 -0.071510515513048836 -0.48296297385902559 0 -0.066365428830543111 -0.46909558846446148 0 -0.086709130251753863 -0.46592594771805118 0 -0.071510515513048836 -0.48296297385902559 0 -0.092905807325545944 -0.48391771926589522 0 -0.086709130251753863 -0.46592594771805118 0 -0.071510515513048836 -0.48296297385902559 0 -0.071510515513048836 -0.48296297385902559 0 -0.092905807325545944 -0.48391771926589522 0 -0.084508801964982838 -0.5 0 -0.092905807325545944 -0.48391771926589522 0 -0.084508801964982838 -0.5 0 -0.11270570315562201 -0.5 0 -0.092905807325545944 -0.48391771926589522 0 -0.10909488574232221 -0.47069967475239921 0 -0.11270570315562201 -0.5 0 -0.086709130251753863 -0.46592594771805118 0 -0.092905807325545944 -0.48391771926589522 0 -0.10909488574232221 -0.47069967475239921 0 -0.13148064123289049 -0.47547340178674719 0 -0.10909488574232221 -0.47069967475239921 0 -0.11270570315562201 -0.5 0 -0.13148064123289049 -0.47547340178674719 0 -0.10909488574232221 -0.47069967475239921 0 -0.13148064123289049 -0.47547340178674719 0 -0.10909488574232221 -0.47069967475239921 0 -0.1236995917965865 -0.46286873524114658 0 -0.100972869729057 -0.44993687854821418 0 -0.1152366092063601 -0.43394780937837718 0 -0.087954830623155594 -0.44639961498692288 0 -0.1036068020020329 -0.42994539681549832 0 -0.100972869729057 -0.44993687854821418 0 -0.1152366092063601 -0.43394780937837718 0 -0.1036068020020329 -0.42994539681549832 0 -0.087954830623155594 -0.44639961498692288 0 -0.100972869729057 -0.44993687854821418 0 -0.1036068020020329 -0.42994539681549832 0 -0.10909488574232221 -0.47069967475239921 0 -0.100972869729057 -0.44993687854821418 0 -0.1168434023055443 -0.44973804543752621 0 -0.086709130251753863 -0.46592594771805118 0 -0.100972869729057 -0.44993687854821418 0 -0.086709130251753863 -0.46592594771805118 0 -0.10909488574232221 -0.47069967475239921 0 -0.086709130251753863 -0.46592594771805118 0 -0.10909488574232221 -0.47069967475239921 0 -0.100972869729057 -0.44993687854821418 0 -0.13265898397729189 -0.45107247986885618 0 -0.1236995917965865 -0.46286873524114658 0 -0.1168434023055443 -0.44973804543752621 0 -0.10909488574232221 -0.47069967475239921 0 -0.1236995917965865 -0.46286873524114658 0 -0.1168434023055443 -0.44973804543752621 0 -0.100972869729057 -0.44993687854821418 0 -0.1168434023055443 -0.44973804543752621 0 -0.1152366092063601 -0.43394780937837718 0 -0.1298672063520207 -0.43713488879251772 0 -0.1168434023055443 -0.44973804543752621 0 -0.1152366092063601 -0.43394780937837718 0 -0.12835957316710381 -0.42528549604131649 0 -0.1152366092063601 -0.43394780937837718 0 -0.11925877338091009 -0.4134911786440737 0 -0.1152366092063601 -0.43394780937837718 0 -0.1036068020020329 -0.42994539681549832 0 -0.11925877338091009 -0.4134911786440737 0 -0.1298672063520207 -0.43713488879251772 0 -0.12835957316710381 -0.42528549604131649 0 -0.1152366092063601 -0.43394780937837718 0 -0.1036068020020329 -0.42994539681549832 0 -0.088215246496570476 -0.42981035021578312 0 -0.091715539709488453 -0.41646046434913508 0 -0.1036068020020329 -0.42994539681549832 0 -0.1038971598288588 -0.4112921694984728 0 -0.11925877338091009 -0.4134911786440737 0 -0.1036068020020329 -0.42994539681549832 0 -0.1038971598288588 -0.4112921694984728 0 -0.091715539709488453 -0.41646046434913508 0 -0.1038971598288588 -0.4112921694984728 0 -0.094442410792564213 -0.40189534044287289 0 -0.091715539709488453 -0.41646046434913508 0 -0.1038971598288588 -0.4112921694984728 0 -0.11925877338091009 -0.4134911786440737 0 -0.1104622732592984 -0.39466846724078342 0 -0.1036068020020329 -0.42994539681549832 0 -0.11925877338091009 -0.4134911786440737 0 -0.1349107447597872 -0.39703696047264919 0 -0.11925877338091009 -0.4134911786440737 0 -0.1104622732592984 -0.39466846724078342 0 -0.099373054983912912 -0.37490892933526132 0 -0.1104622732592984 -0.39466846724078342 0 -0.1220138554978997 -0.37607861538086401 0 -0.1349107447597872 -0.39703696047264919 0 -0.1104622732592984 -0.39466846724078342 0 -0.1220138554978997 -0.37607861538086401 0 -0.099373054983912912 -0.37490892933526132 0 -0.1104622732592984 -0.39466846724078342 0 -0.092419745075942833 -0.3886443677840305 0 -0.1104622732592984 -0.39466846724078342 0 -0.094442410792564213 -0.40189534044287289 0 -0.092419745075942833 -0.3886443677840305 0 -0.1038971598288588 -0.4112921694984728 0 -0.1104622732592984 -0.39466846724078342 0 -0.094442410792564213 -0.40189534044287289 0 -0.094442410792564213 -0.40189534044287289 0 -0.081386401708323522 -0.39311662985462231 0 -0.092419745075942833 -0.3886443677840305 0 -0.094442410792564213 -0.40189534044287289 0 -0.081386401708323522 -0.39311662985462231 0 -0.080489431710442941 -0.40733508410316738 0 -0.099373054983912912 -0.37490892933526132 0 -0.092419745075942833 -0.3886443677840305 0 -0.082684647052352137 -0.37771376376896448 0 -0.081386401708323522 -0.39311662985462231 0 -0.092419745075942833 -0.3886443677840305 0 -0.082684647052352137 -0.37771376376896448 0 -0.051949114061413858 -0.3886732876118858 0 -0.068899883543915005 -0.38302293058480719 0 -0.068955726610223658 -0.39670231924997251 0 -0.069739210363178053 -0.36759070987530801 0 -0.082684647052352137 -0.37771376376896448 0 -0.068899883543915005 -0.38302293058480719 0 -0.081386401708323522 -0.39311662985462231 0 -0.082684647052352137 -0.37771376376896448 0 -0.068899883543915005 -0.38302293058480719 0 -0.068955726610223658 -0.39670231924997251 0 -0.066534539216486957 -0.41216317164843969 0 -0.080489431710442941 -0.40733508410316738 0 -0.081386401708323522 -0.39311662985462231 0 -0.068955726610223658 -0.39670231924997251 0 -0.080489431710442941 -0.40733508410316738 0 -0.081386401708323522 -0.39311662985462231 0 -0.068899883543915005 -0.38302293058480719 0 -0.068955726610223658 -0.39670231924997251 0 -0.057018153371777403 -0.40215046145673911 0 -0.068955726610223658 -0.39670231924997251 0 -0.066534539216486957 -0.41216317164843969 0 -0.066534539216486957 -0.41216317164843969 0 -0.062579091732656814 -0.42976856887312193 0 -0.078239974098898532 -0.42148689024753178 0 -0.066534539216486957 -0.41216317164843969 0 -0.080489431710442941 -0.40733508410316738 0 -0.078239974098898532 -0.42148689024753178 0 -0.062579091732656814 -0.42976856887312193 0 -0.076426444275716876 -0.43628454830980279 0 -0.078239974098898532 -0.42148689024753178 0 -0.067533421093166235 -0.44243577140471718 0 -0.062579091732656814 -0.42976856887312193 0 -0.076426444275716876 -0.43628454830980279 0 -0.087954830623155594 -0.44639961498692288 0 -0.076426444275716876 -0.43628454830980279 0 -0.088215246496570476 -0.42981035021578312 0 -0.076426444275716876 -0.43628454830980279 0 -0.088215246496570476 -0.42981035021578312 0 -0.078239974098898532 -0.42148689024753178 0 -0.087954830623155594 -0.44639961498692288 0 -0.1036068020020329 -0.42994539681549832 0 -0.088215246496570476 -0.42981035021578312 0 -0.088215246496570476 -0.42981035021578312 0 -0.091715539709488453 -0.41646046434913508 0 -0.078239974098898532 -0.42148689024753178 0 -0.094442410792564213 -0.40189534044287289 0 -0.091715539709488453 -0.41646046434913508 0 -0.080489431710442941 -0.40733508410316738 0 -0.091715539709488453 -0.41646046434913508 0 -0.080489431710442941 -0.40733508410316738 0 -0.078239974098898532 -0.42148689024753178 0 -0.079377701422888552 -0.081873007498466766 0 -0.086270018718221222 -0.091758421320861552 0 -0.087421124021850413 -0.079330456139143676 0 -0.079377701422888552 -0.081873007498466766 0 -0.086270018718221222 -0.091758421320861552 0 -0.073349975055673269 -0.095516023894501312 0 -0.086270018718221222 -0.091758421320861552 0 -0.087421124021850413 -0.079330456139143676 0 -0.097755271113672784 -0.078788598322702283 0 -0.087421124021850413 -0.079330456139143676 0 -0.091227981749188142 -0.070787977230814911 0 -0.097755271113672784 -0.078788598322702283 0 -0.087421124021850413 -0.079330456139143676 0 -0.091227981749188142 -0.070787977230814911 0 -0.08127294704861561 -0.069754126376363898 0 -0.091227981749188142 -0.070787977230814911 0 -0.08127294704861561 -0.069754126376363898 0 -0.088126851978975809 -0.06122346537340654 0 -0.091227981749188142 -0.070787977230814911 0 -0.098713776908149808 -0.061860942475050452 0 -0.088126851978975809 -0.06122346537340654 0 -0.08127294704861561 -0.069754126376363898 0 -0.081276268772870364 -0.062069346681542709 0 -0.074443832621768707 -0.06128829603515959 0 -0.08127294704861561 -0.069754126376363898 0 -0.081276268772870364 -0.062069346681542709 0 -0.088126851978975809 -0.06122346537340654 0 -0.079377701422888552 -0.081873007498466766 0 -0.087421124021850413 -0.079330456139143676 0 -0.08127294704861561 -0.069754126376363898 0 -0.079377701422888552 -0.081873007498466766 0 -0.08127294704861561 -0.069754126376363898 0 -0.068574442270082248 -0.073006009761463403 0 -0.08127294704861561 -0.069754126376363898 0 -0.068574442270082248 -0.073006009761463403 0 -0.074443832621768707 -0.06128829603515959 0 -0.064846056302926086 -0.062813005469966154 0 -0.068574442270082248 -0.073006009761463403 0 -0.059094274490035459 -0.062423255459486383 0 -0.068574442270082248 -0.073006009761463403 0 -0.073349975055673269 -0.095516023894501312 0 -0.079377701422888552 -0.081873007498466766 0 -0.068574442270082248 -0.073006009761463403 0 -0.073349975055673269 -0.095516023894501312 0 -0.068574442270082248 -0.073006009761463403 0 -0.073349975055673269 -0.095516023894501312 0 -0.0569441987329833 -0.091660394637237602 0 -0.07452539348270662 -0.10822960678669211 0 -0.073349975055673269 -0.095516023894501312 0 -0.078125507841264291 -0.11802603802753921 0 -0.073349975055673269 -0.095516023894501312 0 -0.078125507841264291 -0.11802603802753921 0 -0.064903422561823534 -0.1040758897833549 0 -0.073349975055673269 -0.095516023894501312 0 -0.0569441987329833 -0.091660394637237602 0 -0.064903422561823534 -0.1040758897833549 0 -0.07452539348270662 -0.10822960678669211 0 -0.073349975055673269 -0.095516023894501312 0 -0.064903422561823534 -0.1040758897833549 0 -0.07452539348270662 -0.10822960678669211 0 -0.054794122975932641 -0.1208975338149888 0 -0.07452539348270662 -0.10822960678669211 0 -0.068129236300158907 -0.1211845017952274 0 -0.054794122975932641 -0.1208975338149888 0 -0.07452539348270662 -0.10822960678669211 0 -0.054794122975932641 -0.1208975338149888 0 -0.07452539348270662 -0.10822960678669211 0 -0.068129236300158907 -0.1211845017952274 0 -0.078125507841264291 -0.11802603802753921 0 -0.068129236300158907 -0.1211845017952274 0 -0.078125507841264291 -0.11802603802753921 0 -0.072371832980449705 -0.13100826389537859 0 -0.078125507841264291 -0.11802603802753921 0 -0.093704077788682658 -0.1132063469420521 0 -0.084950044276480258 -0.10436660731773929 0 -0.078125507841264291 -0.11802603802753921 0 -0.093704077788682658 -0.1132063469420521 0 -0.093649347106788516 -0.1264942078087995 0 -0.073349975055673269 -0.095516023894501312 0 -0.078125507841264291 -0.11802603802753921 0 -0.084950044276480258 -0.10436660731773929 0 -0.086270018718221222 -0.091758421320861552 0 -0.073349975055673269 -0.095516023894501312 0 -0.084950044276480258 -0.10436660731773929 0 -0.093704077788682658 -0.1132063469420521 0 -0.084950044276480258 -0.10436660731773929 0 -0.097521713172836227 -0.10010985199488689 0 -0.086270018718221222 -0.091758421320861552 0 -0.084950044276480258 -0.10436660731773929 0 -0.097521713172836227 -0.10010985199488689 0 -0.097521713172836227 -0.10010985199488689 0 -0.114273776546044 -0.1170350295612957 0 -0.1124686865905026 -0.088235856219818193 0 -0.093704077788682658 -0.1132063469420521 0 -0.114273776546044 -0.1170350295612957 0 -0.093649347106788516 -0.1264942078087995 0 -0.093704077788682658 -0.1132063469420521 0 -0.097521713172836227 -0.10010985199488689 0 -0.114273776546044 -0.1170350295612957 0 -0.114273776546044 -0.1170350295612957 0 -0.1293309172992361 -0.13423660300012069 0 -0.1266899655208536 -0.109489682707931 0 -0.1186767810779077 -0.08446318279313568 0 -0.1266899655208536 -0.109489682707931 0 -0.114273776546044 -0.1170350295612957 0 -0.1124686865905026 -0.088235856219818193 0 -0.1266899655208536 -0.109489682707931 0 -0.114273776546044 -0.1170350295612957 0 -0.1124686865905026 -0.088235856219818193 0 -0.1124686865905026 -0.088235856219818193 0 -0.1186767810779077 -0.08446318279313568 0 -0.1266899655208536 -0.109489682707931 0 -0.086270018718221222 -0.091758421320861552 0 -0.097521713172836227 -0.10010985199488689 0 -0.097755271113672784 -0.078788598322702283 0 -0.097521713172836227 -0.10010985199488689 0 -0.1124686865905026 -0.088235856219818193 0 -0.097755271113672784 -0.078788598322702283 0 -0.091227981749188142 -0.070787977230814911 0 -0.097755271113672784 -0.078788598322702283 0 -0.098713776908149808 -0.061860942475050452 0 -0.097755271113672784 -0.078788598322702283 0 -0.1106635966349615 -0.059436682878340419 0 -0.098713776908149808 -0.061860942475050452 0 -0.1124686865905026 -0.088235856219818193 0 -0.097755271113672784 -0.078788598322702283 0 -0.1106635966349615 -0.059436682878340419 0 -0.1124686865905026 -0.088235856219818193 0 -0.1106635966349615 -0.059436682878340419 0 -0.1186767810779077 -0.08446318279313568 0 -0.1182307077072345 -0.062672475954693482 0 -0.1106635966349615 -0.059436682878340419 0 -0.1186767810779077 -0.08446318279313568 0 -0.1182307077072345 -0.062672475954693482 0 -0.1337849317432184 -0.06265033997400779 0 -0.1186767810779077 -0.08446318279313568 0 -0.1106635966349615 -0.059436682878340419 0 -0.1124686865905026 -0.088235856219818193 0 -0.1186767810779077 -0.08446318279313568 0 -0.1106635966349615 -0.059436682878340419 0 -0.1182307077072345 -0.062672475954693482 0 -0.1175382146115669 -0.050144895004305613 0 -0.1337849317432184 -0.06265033997400779 0 -0.1175382146115669 -0.050144895004305613 0 -0.12206180444256889 -0.038246759982370253 0 -0.1337849317432184 -0.06265033997400779 0 -0.1182307077072345 -0.062672475954693482 0 -0.11049001446851819 -0.056667279123677812 0 -0.1175382146115669 -0.050144895004305613 0 -0.11049001446851819 -0.056667279123677812 0 -0.1106635966349615 -0.059436682878340419 0 -0.1182307077072345 -0.062672475954693482 0 -0.11049001446851819 -0.056667279123677812 0 -0.1106635966349615 -0.059436682878340419 0 -0.11049001446851819 -0.056667279123677812 0 -0.1175382146115669 -0.050144895004305613 0 -0.1090935285383962 -0.04992115128254801 0 -0.1175382146115669 -0.050144895004305613 0 -0.12206180444256889 -0.038246759982370253 0 -0.10848936891874029 -0.0396051361995459 0 -0.1175382146115669 -0.050144895004305613 0 -0.10848936891874029 -0.0396051361995459 0 -0.1090935285383962 -0.04992115128254801 0 -0.10848936891874029 -0.0396051361995459 0 -0.097082745662416037 -0.04091750659698002 0 -0.102370282433142 -0.049546416404944241 0 -0.10848936891874029 -0.0396051361995459 0 -0.1090935285383962 -0.04992115128254801 0 -0.102370282433142 -0.049546416404944241 0 -0.10848936891874029 -0.0396051361995459 0 -0.097082745662416037 -0.04091750659698002 0 -0.095723249785003267 -0.026282174022535111 0 -0.097082745662416037 -0.04091750659698002 0 -0.095881380864381111 -0.049492112211839363 0 -0.091286034294632432 -0.044826266512408897 0 -0.097082745662416037 -0.04091750659698002 0 -0.095881380864381111 -0.049492112211839363 0 -0.102370282433142 -0.049546416404944241 0 -0.095881380864381111 -0.049492112211839363 0 -0.098575608433427026 -0.054635421407923879 0 -0.102370282433142 -0.049546416404944241 0 -0.095881380864381111 -0.049492112211839363 0 -0.098575608433427026 -0.054635421407923879 0 -0.093160429961612792 -0.056077695927985421 0 -0.098575608433427026 -0.054635421407923879 0 -0.098713776908149808 -0.061860942475050452 0 -0.093160429961612792 -0.056077695927985421 0 -0.098575608433427026 -0.054635421407923879 0 -0.098713776908149808 -0.061860942475050452 0 -0.1043259197730356 -0.056044363089258038 0 -0.1106635966349615 -0.059436682878340419 0 -0.098713776908149808 -0.061860942475050452 0 -0.1043259197730356 -0.056044363089258038 0 -0.11049001446851819 -0.056667279123677812 0 -0.1106635966349615 -0.059436682878340419 0 -0.1043259197730356 -0.056044363089258038 0 -0.11049001446851819 -0.056667279123677812 0 -0.1043259197730356 -0.056044363089258038 0 -0.1072120439203019 -0.053771551197485369 0 -0.1072120439203019 -0.053771551197485369 0 -0.1090935285383962 -0.04992115128254801 0 -0.102370282433142 -0.049546416404944241 0 -0.11049001446851819 -0.056667279123677812 0 -0.1072120439203019 -0.053771551197485369 0 -0.1090935285383962 -0.04992115128254801 0 -0.098575608433427026 -0.054635421407923879 0 -0.1043259197730356 -0.056044363089258038 0 -0.102370282433142 -0.049546416404944241 0 -0.1043259197730356 -0.056044363089258038 0 -0.1072120439203019 -0.053771551197485369 0 -0.102370282433142 -0.049546416404944241 0 -0.11033867714191931 -0.01384317999073272 0 -0.13462794717459339 0.0001373875200551381 0 -0.11854375220917759 0.012447116600704021 0 -0.11033867714191931 -0.01384317999073272 0 -0.1286437647168831 -0.021076231063149861 0 -0.13462794717459339 0.0001373875200551381 0 -0.12206180444256889 -0.038246759982370253 0 -0.10848936891874029 -0.0396051361995459 0 -0.11033867714191931 -0.01384317999073272 0 -0.12206180444256889 -0.038246759982370253 0 -0.11033867714191931 -0.01384317999073272 0 -0.1286437647168831 -0.021076231063149861 0 -0.12206180444256889 -0.038246759982370253 0 -0.11033867714191931 -0.01384317999073272 0 -0.10848936891874029 -0.0396051361995459 0 -0.11033867714191931 -0.01384317999073272 0 -0.095723249785003267 -0.026282174022535111 0 -0.11033867714191931 -0.01384317999073272 0 -0.095723249785003267 -0.026282174022535111 0 -0.086027716256106931 -0.01022087334676958 0 -0.11033867714191931 -0.01384317999073272 0 -0.098615549841269828 0.010560400000904821 0 -0.11033867714191931 -0.01384317999073272 0 -0.086027716256106931 -0.01022087334676958 0 -0.098615549841269828 0.010560400000904821 0 -0.095723249785003267 -0.026282174022535111 0 -0.086027716256106931 -0.01022087334676958 0 -0.081562455577526533 -0.024259700156362019 0 -0.095723249785003267 -0.026282174022535111 0 -0.081562455577526533 -0.024259700156362019 0 -0.088418830283655006 -0.036206759914979438 0 -0.062690371888160137 -0.013522838913300641 0 -0.074952109674707251 -0.035065854584225301 0 -0.060922623762686451 -0.037561014222313692 0 -0.086027716256106931 -0.01022087334676958 0 -0.081562455577526533 -0.024259700156362019 0 -0.062690371888160137 -0.013522838913300641 0 -0.081562455577526533 -0.024259700156362019 0 -0.062690371888160137 -0.013522838913300641 0 -0.074952109674707251 -0.035065854584225301 0 -0.062690371888160137 -0.013522838913300641 0 -0.064458120013633824 0.0105153363957124 0 -0.086027716256106931 -0.01022087334676958 0 -0.062690371888160137 -0.013522838913300641 0 -0.064458120013633824 0.0105153363957124 0 -0.078568812403378402 -0.048848878851328589 0 -0.087713437146587039 -0.051247687031410291 0 -0.084187844760592032 -0.043239089378870513 0 -0.078568812403378402 -0.048848878851328589 0 -0.08126144344212137 -0.056011498941240821 0 -0.087713437146587039 -0.051247687031410291 0 -0.08126144344212137 -0.056011498941240821 0 -0.088126851978975809 -0.06122346537340654 0 -0.087713437146587039 -0.051247687031410291 0 -0.08126144344212137 -0.056011498941240821 0 -0.081276268772870364 -0.062069346681542709 0 -0.074443832621768707 -0.06128829603515959 0 -0.08126144344212137 -0.056011498941240821 0 -0.081276268772870364 -0.062069346681542709 0 -0.088126851978975809 -0.06122346537340654 0 -0.098713776908149808 -0.061860942475050452 0 -0.088126851978975809 -0.06122346537340654 0 -0.093160429961612792 -0.056077695927985421 0 -0.088126851978975809 -0.06122346537340654 0 -0.093160429961612792 -0.056077695927985421 0 -0.087713437146587039 -0.051247687031410291 0 -0.095881380864381111 -0.049492112211839363 0 -0.093160429961612792 -0.056077695927985421 0 -0.087713437146587039 -0.051247687031410291 0 -0.095881380864381111 -0.049492112211839363 0 -0.087713437146587039 -0.051247687031410291 0 -0.091286034294632432 -0.044826266512408897 0 -0.097082745662416037 -0.04091750659698002 0 -0.091286034294632432 -0.044826266512408897 0 -0.088418830283655006 -0.036206759914979438 0 -0.091286034294632432 -0.044826266512408897 0 -0.088418830283655006 -0.036206759914979438 0 -0.084187844760592032 -0.043239089378870513 0 -0.087713437146587039 -0.051247687031410291 0 -0.091286034294632432 -0.044826266512408897 0 -0.084187844760592032 -0.043239089378870513 0 -0.097082745662416037 -0.04091750659698002 0 -0.095723249785003267 -0.026282174022535111 0 -0.088418830283655006 -0.036206759914979438 0 -0.081562455577526533 -0.024259700156362019 0 -0.088418830283655006 -0.036206759914979438 0 -0.074952109674707251 -0.035065854584225301 0 -0.088418830283655006 -0.036206759914979438 0 -0.084187844760592032 -0.043239089378870513 0 -0.074952109674707251 -0.035065854584225301 0 -0.078568812403378402 -0.048848878851328589 0 -0.084187844760592032 -0.043239089378870513 0 -0.074952109674707251 -0.035065854584225301 0 -0.078568812403378402 -0.048848878851328589 0 -0.070506496352588058 -0.043598423913076202 0 -0.074952109674707251 -0.035065854584225301 0 -0.070506496352588058 -0.043598423913076202 0 -0.074952109674707251 -0.035065854584225301 0 -0.060922623762686451 -0.037561014222313692 0 -0.070506496352588058 -0.043598423913076202 0 -0.063798909484491184 -0.050495995628425369 0 -0.060922623762686451 -0.037561014222313692 0 -0.070506496352588058 -0.043598423913076202 0 -0.063798909484491184 -0.050495995628425369 0 -0.07371589886086953 -0.052048618673846123 0 -0.068574442270082248 -0.073006009761463403 0 -0.063798909484491184 -0.050495995628425369 0 -0.064846056302926086 -0.062813005469966154 0 -0.068574442270082248 -0.073006009761463403 0 -0.063798909484491184 -0.050495995628425369 0 -0.068574442270082248 -0.073006009761463403 0 -0.063798909484491184 -0.050495995628425369 0 -0.074443832621768707 -0.06128829603515959 0 -0.078568812403378402 -0.048848878851328589 0 -0.070506496352588058 -0.043598423913076202 0 -0.07371589886086953 -0.052048618673846123 0 -0.063798909484491184 -0.050495995628425369 0 -0.07371589886086953 -0.052048618673846123 0 -0.074443832621768707 -0.06128829603515959 0 -0.078568812403378402 -0.048848878851328589 0 -0.08126144344212137 -0.056011498941240821 0 -0.07371589886086953 -0.052048618673846123 0 -0.08126144344212137 -0.056011498941240821 0 -0.07371589886086953 -0.052048618673846123 0 -0.074443832621768707 -0.06128829603515959 0 -0.064846056302926086 -0.062813005469966154 0 -0.063798909484491184 -0.050495995628425369 0 -0.059094274490035459 -0.062423255459486383 0 -0.063798909484491184 -0.050495995628425369 0 -0.059094274490035459 -0.062423255459486383 0 -0.060922623762686451 -0.037561014222313692 0 -0.059094274490035459 -0.062423255459486383 0 -0.060922623762686451 -0.037561014222313692 0 -0.04211122673240722 -0.043189259681813252 0 -0.059094274490035459 -0.062423255459486383 0 -0.060922623762686451 -0.037561014222313692 0 -0.060922623762686451 -0.037561014222313692 0 -0.04211122673240722 -0.043189259681813252 0 -0.037601467631754787 -0.025418611129510282 0 -0.04211122673240722 -0.043189259681813252 0 -0.037601467631754787 -0.025418611129510282 0 -0.025856808230252531 -0.043638772081389943 0 -0.059094274490035459 -0.062423255459486383 0 -0.04211122673240722 -0.043189259681813252 0 -0.031799868896170848 -0.060573742523789449 0 -0.059094274490035459 -0.062423255459486383 0 -0.031799868896170848 -0.060573742523789449 0 -0.04211122673240722 -0.043189259681813252 0 -0.031799868896170848 -0.060573742523789449 0 -0.025856808230252531 -0.043638772081389943 0 -0.062690371888160137 -0.013522838913300641 0 -0.037601467631754787 -0.025418611129510282 0 -0.044855184916723648 -0.0020500068189094819 0 -0.062690371888160137 -0.013522838913300641 0 -0.044855184916723648 -0.0020500068189094819 0 -0.064458120013633824 0.0105153363957124 0 -0.062690371888160137 -0.013522838913300641 0 -0.060922623762686451 -0.037561014222313692 0 -0.062690371888160137 -0.013522838913300641 0 -0.060922623762686451 -0.037561014222313692 0 -0.037601467631754787 -0.025418611129510282 0 -0.037601467631754787 -0.025418611129510282 0 -0.044855184916723648 -0.0020500068189094819 0 -0.02145552275097698 -0.0043143944003012219 0 -0.037601467631754787 -0.025418611129510282 0 -0.02145552275097698 -0.0043143944003012219 0 -0.013044298273739881 -0.031314496607603708 0 -0.02145552275097698 -0.0043143944003012219 0 -0.013044298273739881 -0.031314496607603708 0 -0.02145552275097698 -0.0043143944003012219 0 -0.0031752882931124259 -0.01515272796499229 0 -0.013044298273739881 -0.031314496607603708 0 -0.0031752882931124259 -0.01515272796499229 0 -0.013044298273739881 -0.031314496607603708 0 0.001586025533247544 -0.03758510872839553 0 -0.02145552275097698 -0.0043143944003012219 0 -0.0031752882931124259 -0.01515272796499229 0 -0.0079842835926580199 0.01140056467584467 0 -0.031799868896170848 -0.060573742523789449 0 -0.025856808230252531 -0.043638772081389943 0 -0.0045054633023061596 -0.058724229588092328 0 -0.031799868896170848 -0.060573742523789449 0 -0.0045054633023061596 -0.058724229588092328 0 -0.037601467631754787 -0.025418611129510282 0 -0.025856808230252531 -0.043638772081389943 0 -0.013044298273739881 -0.031314496607603708 0 -0.013044298273739881 -0.031314496607603708 0 -0.0045054633023061596 -0.058724229588092328 0 -0.013044298273739881 -0.031314496607603708 0 -0.0045054633023061596 -0.058724229588092328 0 0.001586025533247544 -0.03758510872839553 0 -0.025856808230252531 -0.043638772081389943 0 -0.013044298273739881 -0.031314496607603708 0 -0.0045054633023061596 -0.058724229588092328 0 -0.031799868896170848 -0.060573742523789449 0 -0.01026535175829126 -0.061655729353657963 0 -0.0045054633023061596 -0.058724229588092328 0 -0.01026535175829126 -0.061655729353657963 0 -0.0045054633023061596 -0.058724229588092328 0 -0.0035231408946746041 -0.061877492882667577 0 -0.01026535175829126 -0.061655729353657963 0 -0.0035231408946746041 -0.061877492882667577 0 -0.0045054633023061596 -0.058724229588092328 0 -0.0035231408946746041 -0.061877492882667577 0 -0.0035231408946746041 -0.061877492882667577 0 -0.01000090502107929 -0.076135466778098806 0 0.0044767963405016884 -0.087557359540175544 0 -0.01026535175829126 -0.061655729353657963 0 -0.0035231408946746041 -0.061877492882667577 0 -0.01000090502107929 -0.076135466778098806 0 -0.01026535175829126 -0.061655729353657963 0 -0.01000090502107929 -0.076135466778098806 0 -0.023201322148495209 -0.071921854119629494 0 -0.01000090502107929 -0.076135466778098806 0 -0.01703391523149736 -0.091641803463133067 0 0.0044767963405016884 -0.087557359540175544 0 -0.01703391523149736 -0.091641803463133067 0 -0.022134806560332679 -0.083051475847025477 0 -0.033359726824603343 -0.089828822202919004 0 -0.01000090502107929 -0.076135466778098806 0 -0.01703391523149736 -0.091641803463133067 0 -0.022134806560332679 -0.083051475847025477 0 -0.022134806560332679 -0.083051475847025477 0 -0.023201322148495209 -0.071921854119629494 0 -0.03905536170945377 -0.077189093277718959 0 -0.031799868896170848 -0.060573742523789449 0 -0.01026535175829126 -0.061655729353657963 0 -0.023201322148495209 -0.071921854119629494 0 -0.01000090502107929 -0.076135466778098806 0 -0.022134806560332679 -0.083051475847025477 0 -0.023201322148495209 -0.071921854119629494 0 -0.031799868896170848 -0.060573742523789449 0 -0.023201322148495209 -0.071921854119629494 0 -0.03905536170945377 -0.077189093277718959 0 -0.059094274490035459 -0.062423255459486383 0 -0.031799868896170848 -0.060573742523789449 0 -0.03905536170945377 -0.077189093277718959 0 -0.022134806560332679 -0.083051475847025477 0 -0.03905536170945377 -0.077189093277718959 0 -0.033359726824603343 -0.089828822202919004 0 -0.03905536170945377 -0.077189093277718959 0 -0.033359726824603343 -0.089828822202919004 0 -0.0569441987329833 -0.091660394637237602 0 -0.068574442270082248 -0.073006009761463403 0 -0.059094274490035459 -0.062423255459486383 0 -0.0569441987329833 -0.091660394637237602 0 -0.059094274490035459 -0.062423255459486383 0 -0.03905536170945377 -0.077189093277718959 0 -0.0569441987329833 -0.091660394637237602 0 -0.059094274490035459 -0.062423255459486383 0 -0.0569441987329833 -0.091660394637237602 0 -0.064846056302926086 -0.062813005469966154 0 -0.059094274490035459 -0.062423255459486383 0 -0.068129236300158907 -0.1211845017952274 0 -0.054794122975932641 -0.1208975338149888 0 -0.06082932422044296 -0.1277610664515384 0 -0.0569441987329833 -0.091660394637237602 0 -0.054794122975932641 -0.1208975338149888 0 -0.031630351888749603 -0.1056013437894799 0 -0.064903422561823534 -0.1040758897833549 0 -0.0569441987329833 -0.091660394637237602 0 -0.054794122975932641 -0.1208975338149888 0 -0.0569441987329833 -0.091660394637237602 0 -0.054794122975932641 -0.1208975338149888 0 -0.033359726824603343 -0.089828822202919004 0 -0.0569441987329833 -0.091660394637237602 0 -0.031630351888749603 -0.1056013437894799 0 -0.054794122975932641 -0.1208975338149888 0 -0.031630351888749603 -0.1056013437894799 0 -0.029833871247388559 -0.1206455252749206 0 -0.054794122975932641 -0.1208975338149888 0 -0.029833871247388559 -0.1206455252749206 0 -0.035896899067794141 -0.13302998384772491 0 -0.031630351888749603 -0.1056013437894799 0 -0.018205139852017448 -0.11812771514242119 0 -0.0083572851437748626 -0.1064103685077297 0 -0.031630351888749603 -0.1056013437894799 0 -0.029833871247388559 -0.1206455252749206 0 -0.018205139852017448 -0.11812771514242119 0 -0.029833871247388559 -0.1206455252749206 0 -0.018205139852017448 -0.11812771514242119 0 -0.019033696682656101 -0.1303371073292337 0 -0.01703391523149736 -0.091641803463133067 0 -0.033359726824603343 -0.089828822202919004 0 -0.031630351888749603 -0.1056013437894799 0 -0.01703391523149736 -0.091641803463133067 0 -0.031630351888749603 -0.1056013437894799 0 -0.0083572851437748626 -0.1064103685077297 0 -0.01703391523149736 -0.091641803463133067 0 -0.0083572851437748626 -0.1064103685077297 0 0.0044767963405016884 -0.087557359540175544 0 -0.018205139852017448 -0.11812771514242119 0 -0.0083572851437748626 -0.1064103685077297 0 -0.0021704942975181371 -0.1276442308107418 0 -0.018205139852017448 -0.11812771514242119 0 -0.0021704942975181371 -0.1276442308107418 0 -0.019033696682656101 -0.1303371073292337 0 -0.0021704942975181371 -0.1276442308107418 0 -0.0074560643586685047 -0.13969431437722971 0 -0.019033696682656101 -0.1303371073292337 0 -0.0021704942975181371 -0.1276442308107418 0 -0.019033696682656101 -0.1303371073292337 0 -0.0021704942975181371 -0.1276442308107418 0 -0.0074560643586685047 -0.13969431437722971 0 0.0048852549988201268 -0.14179469452142321 0 -0.0074560643586685047 -0.13969431437722971 0 -0.019033696682656101 -0.1303371073292337 0 -0.018952761626594001 -0.1439085076908245 0 -0.029833871247388559 -0.1206455252749206 0 -0.019033696682656101 -0.1303371073292337 0 -0.035896899067794141 -0.13302998384772491 0 -0.019033696682656101 -0.1303371073292337 0 -0.035896899067794141 -0.13302998384772491 0 -0.018952761626594001 -0.1439085076908245 0 -0.035896899067794141 -0.13302998384772491 0 -0.019033696682656101 -0.1303371073292337 0 -0.018952761626594001 -0.1439085076908245 0 -0.035896899067794141 -0.13302998384772491 0 -0.018952761626594001 -0.1439085076908245 0 -0.035896899067794141 -0.13302998384772491 0 -0.034318158934223353 -0.14922873427193761 0 -0.018952761626594001 -0.1439085076908245 0 -0.0234332735576427 -0.15484774694288239 0 -0.034318158934223353 -0.14922873427193761 0 -0.0074560643586685047 -0.13969431437722971 0 -0.018952761626594001 -0.1439085076908245 0 -0.0020086241853944091 -0.1547870315339249 0 -0.018952761626594001 -0.1439085076908245 0 -0.0234332735576427 -0.15484774694288239 0 -0.0020086241853944091 -0.1547870315339249 0 -0.018952761626594001 -0.1439085076908245 0 -0.0020086241853944091 -0.1547870315339249 0 -0.0074560643586685047 -0.13969431437722971 0 -0.0020086241853944091 -0.1547870315339249 0 0.0048852549988201268 -0.14179469452142321 0 -0.0234332735576427 -0.15484774694288239 0 -0.0020086241853944091 -0.1547870315339249 0 -0.01859949007343208 -0.16566159925180651 0 -0.0020086241853944091 -0.1547870315339249 0 -0.01859949007343208 -0.16566159925180651 0 0.002193658633994617 -0.1668768133420033 0 -0.015075242220331769 -0.18058547884145151 0 -0.01859949007343208 -0.16566159925180651 0 0.002193658633994617 -0.1668768133420033 0 -0.015075242220331769 -0.18058547884145151 0 -0.001786670059977728 -0.18929840057947059 0 0.002193658633994617 -0.1668768133420033 0 -0.015075242220331769 -0.18058547884145151 0 -0.03043411383349361 -0.1756190656738566 0 -0.01859949007343208 -0.16566159925180651 0 -0.015075242220331769 -0.18058547884145151 0 -0.03043411383349361 -0.1756190656738566 0 -0.027706798335800139 -0.1902262747305653 0 -0.03043411383349361 -0.1756190656738566 0 -0.01859949007343208 -0.16566159925180651 0 -0.039408104865193173 -0.1635266795586002 0 -0.0234332735576427 -0.15484774694288239 0 -0.01859949007343208 -0.16566159925180651 0 -0.039408104865193173 -0.1635266795586002 0 -0.03043411383349361 -0.1756190656738566 0 -0.039408104865193173 -0.1635266795586002 0 -0.045408184064018711 -0.18198260427523369 0 -0.03043411383349361 -0.1756190656738566 0 -0.045408184064018711 -0.18198260427523369 0 -0.027706798335800139 -0.1902262747305653 0 -0.039408104865193173 -0.1635266795586002 0 -0.045408184064018711 -0.18198260427523369 0 -0.054528171644611233 -0.17097077036390129 0 -0.045408184064018711 -0.18198260427523369 0 -0.054943427237068687 -0.19450670076856391 0 -0.062529010681322467 -0.1834537095572106 0 -0.045408184064018711 -0.18198260427523369 0 -0.054528171644611233 -0.17097077036390129 0 -0.062529010681322467 -0.1834537095572106 0 -0.039408104865193173 -0.1635266795586002 0 -0.054528171644611233 -0.17097077036390129 0 -0.052407826743223578 -0.1517031079761246 0 -0.054528171644611233 -0.17097077036390129 0 -0.052407826743223578 -0.1517031079761246 0 -0.065501400131689286 -0.16130001303407271 0 -0.052407826743223578 -0.1517031079761246 0 -0.05939896984732488 -0.1367830180041508 0 -0.070766817991037831 -0.15073009492666081 0 -0.054794122975932641 -0.1208975338149888 0 -0.053855518270444422 -0.13366085916163811 0 -0.035896899067794141 -0.13302998384772491 0 -0.052407826743223578 -0.1517031079761246 0 -0.05939896984732488 -0.1367830180041508 0 -0.035896899067794141 -0.13302998384772491 0 -0.05939896984732488 -0.1367830180041508 0 -0.053855518270444422 -0.13366085916163811 0 -0.035896899067794141 -0.13302998384772491 0 -0.05939896984732488 -0.1367830180041508 0 -0.035896899067794141 -0.13302998384772491 0 -0.054794122975932641 -0.1208975338149888 0 -0.06082932422044296 -0.1277610664515384 0 -0.053855518270444422 -0.13366085916163811 0 -0.05939896984732488 -0.1367830180041508 0 -0.06082932422044296 -0.1277610664515384 0 -0.053855518270444422 -0.13366085916163811 0 -0.054794122975932641 -0.1208975338149888 0 -0.053855518270444422 -0.13366085916163811 0 -0.054794122975932641 -0.1208975338149888 0 -0.035896899067794141 -0.13302998384772491 0 -0.052407826743223578 -0.1517031079761246 0 -0.035896899067794141 -0.13302998384772491 0 -0.034318158934223353 -0.14922873427193761 0 -0.0234332735576427 -0.15484774694288239 0 -0.039408104865193173 -0.1635266795586002 0 -0.034318158934223353 -0.14922873427193761 0 -0.039408104865193173 -0.1635266795586002 0 -0.052407826743223578 -0.1517031079761246 0 -0.034318158934223353 -0.14922873427193761 0 -0.038279177000462718 -0.25298892135794571 0 -0.016678487053853618 -0.2466189775660193 0 -0.027688681319516809 -0.23774482673904701 0 -0.016678487053853618 -0.2466189775660193 0 -0.027688681319516809 -0.23774482673904701 0 -0.0065015859075924099 -0.22736201200536699 0 -0.016678487053853618 -0.2466189775660193 0 -0.0065015859075924099 -0.22736201200536699 0 0.0012919838376714949 -0.2410105410862598 0 -0.004144784243036481 -0.25526440730861449 0 -0.016678487053853618 -0.2466189775660193 0 0.0012919838376714949 -0.2410105410862598 0 -0.016678487053853618 -0.2466189775660193 0 -0.0065015859075924099 -0.22736201200536699 0 -0.0065015859075924099 -0.22736201200536699 0 0.002394388801066951 -0.21052884480337411 0 -0.0065015859075924099 -0.22736201200536699 0 0.0012919838376714949 -0.2410105410862598 0 -0.0065015859075924099 -0.22736201200536699 0 -0.017847786861920369 -0.20749191925654009 0 -0.031610647832531938 -0.22308204734081491 0 -0.027688681319516809 -0.23774482673904701 0 -0.0065015859075924099 -0.22736201200536699 0 -0.031610647832531938 -0.22308204734081491 0 -0.017847786861920369 -0.20749191925654009 0 -0.043357962437899848 -0.2145564816812644 0 -0.031610647832531938 -0.22308204734081491 0 -0.017847786861920369 -0.20749191925654009 0 -0.031610647832531938 -0.22308204734081491 0 -0.0065015859075924099 -0.22736201200536699 0 -0.017847786861920369 -0.20749191925654009 0 -0.0065015859075924099 -0.22736201200536699 0 -0.017847786861920369 -0.20749191925654009 0 0.002394388801066951 -0.21052884480337411 0 -0.017847786861920369 -0.20749191925654009 0 0.0020364241398806481 -0.1995724166759115 0 0.002394388801066951 -0.21052884480337411 0 -0.015075242220331769 -0.18058547884145151 0 -0.017847786861920369 -0.20749191925654009 0 -0.001786670059977728 -0.18929840057947059 0 -0.017847786861920369 -0.20749191925654009 0 -0.001786670059977728 -0.18929840057947059 0 0.0020364241398806481 -0.1995724166759115 0 -0.017847786861920369 -0.20749191925654009 0 -0.001786670059977728 -0.18929840057947059 0 -0.015075242220331769 -0.18058547884145151 0 -0.017847786861920369 -0.20749191925654009 0 -0.027706798335800139 -0.1902262747305653 0 -0.017847786861920369 -0.20749191925654009 0 -0.027706798335800139 -0.1902262747305653 0 -0.017847786861920369 -0.20749191925654009 0 -0.027706798335800139 -0.1902262747305653 0 -0.041076068932084112 -0.19967751213005161 0 -0.045408184064018711 -0.18198260427523369 0 -0.027706798335800139 -0.1902262747305653 0 -0.041076068932084112 -0.19967751213005161 0 -0.045408184064018711 -0.18198260427523369 0 -0.041076068932084112 -0.19967751213005161 0 -0.054943427237068687 -0.19450670076856391 0 -0.041076068932084112 -0.19967751213005161 0 -0.054943427237068687 -0.19450670076856391 0 -0.057165256450390209 -0.21059691539411321 0 -0.054943427237068687 -0.19450670076856391 0 -0.06848461964671286 -0.19941440913815359 0 -0.062529010681322467 -0.1834537095572106 0 -0.054943427237068687 -0.19450670076856391 0 -0.057165256450390209 -0.21059691539411321 0 -0.06848461964671286 -0.19941440913815359 0 -0.041076068932084112 -0.19967751213005161 0 -0.057165256450390209 -0.21059691539411321 0 -0.043357962437899848 -0.2145564816812644 0 -0.057165256450390209 -0.21059691539411321 0 -0.057925321497147853 -0.22778202531693709 0 -0.06857843293455422 -0.21779910048823281 0 -0.057165256450390209 -0.21059691539411321 0 -0.043357962437899848 -0.2145564816812644 0 -0.057925321497147853 -0.22778202531693709 0 -0.017847786861920369 -0.20749191925654009 0 -0.041076068932084112 -0.19967751213005161 0 -0.043357962437899848 -0.2145564816812644 0 -0.027688681319516809 -0.23774482673904701 0 -0.031610647832531938 -0.22308204734081491 0 -0.045373508803144301 -0.23867217542508881 0 -0.043357962437899848 -0.2145564816812644 0 -0.031610647832531938 -0.22308204734081491 0 -0.045373508803144301 -0.23867217542508881 0 -0.031610647832531938 -0.22308204734081491 0 -0.045373508803144301 -0.23867217542508881 0 -0.043357962437899848 -0.2145564816812644 0 -0.057925321497147853 -0.22778202531693709 0 -0.045373508803144301 -0.23867217542508881 0 -0.038279177000462718 -0.25298892135794571 0 -0.059136369773753673 -0.25426230350936552 0 -0.045373508803144301 -0.23867217542508881 0 -0.059136369773753673 -0.25426230350936552 0 -0.057925321497147853 -0.22778202531693709 0 -0.045373508803144301 -0.23867217542508881 0 -0.059136369773753673 -0.25426230350936552 0 -0.045373508803144301 -0.23867217542508881 0 -0.038279177000462718 -0.25298892135794571 0 -0.027688681319516809 -0.23774482673904701 0 -0.045373508803144301 -0.23867217542508881 0 -0.075881532845746655 -0.2518003866666863 0 -0.092778135407556916 -0.25278341398886511 0 -0.072817778950757708 -0.23515481870044169 0 -0.092778135407556916 -0.25278341398886511 0 -0.072817778950757708 -0.23515481870044169 0 -0.095171427693100497 -0.23325607132777479 0 -0.059136369773753673 -0.25426230350936552 0 -0.057925321497147853 -0.22778202531693709 0 -0.072817778950757708 -0.23515481870044169 0 -0.075881532845746655 -0.2518003866666863 0 -0.059136369773753673 -0.25426230350936552 0 -0.072817778950757708 -0.23515481870044169 0 -0.059136369773753673 -0.25426230350936552 0 -0.072817778950757708 -0.23515481870044169 0 -0.057925321497147853 -0.22778202531693709 0 -0.072817778950757708 -0.23515481870044169 0 -0.06857843293455422 -0.21779910048823281 0 -0.072817778950757708 -0.23515481870044169 0 -0.0864991881277625 -0.21604733389151851 0 -0.06857843293455422 -0.21779910048823281 0 -0.072817778950757708 -0.23515481870044169 0 -0.0864991881277625 -0.21604733389151851 0 -0.072817778950757708 -0.23515481870044169 0 -0.0864991881277625 -0.21604733389151851 0 -0.095171427693100497 -0.23325607132777479 0 -0.0864991881277625 -0.21604733389151851 0 -0.1001805973047673 -0.19693984908259521 0 -0.0864991881277625 -0.21604733389151851 0 -0.06848461964671286 -0.19941440913815359 0 -0.083858918784761788 -0.1950744326751476 0 -0.057165256450390209 -0.21059691539411321 0 -0.06857843293455422 -0.21779910048823281 0 -0.06848461964671286 -0.19941440913815359 0 -0.0864991881277625 -0.21604733389151851 0 -0.06857843293455422 -0.21779910048823281 0 -0.06848461964671286 -0.19941440913815359 0 -0.06848461964671286 -0.19941440913815359 0 -0.083858918784761788 -0.1950744326751476 0 -0.076760647845170976 -0.1832065383521693 0 -0.06848461964671286 -0.19941440913815359 0 -0.062529010681322467 -0.1834537095572106 0 -0.076760647845170976 -0.1832065383521693 0 -0.083858918784761788 -0.1950744326751476 0 -0.1001805973047673 -0.19693984908259521 0 -0.091392336642178718 -0.1844959829513724 0 -0.0864991881277625 -0.21604733389151851 0 -0.083858918784761788 -0.1950744326751476 0 -0.1001805973047673 -0.19693984908259521 0 -0.083858918784761788 -0.1950744326751476 0 -0.076760647845170976 -0.1832065383521693 0 -0.091392336642178718 -0.1844959829513724 0 -0.1001805973047673 -0.19693984908259521 0 -0.091392336642178718 -0.1844959829513724 0 -0.1062478217144289 -0.1850868604237598 0 -0.1001805973047673 -0.19693984908259521 0 -0.1138835594831757 -0.1951941985818271 0 -0.10933935213197631 -0.20807961362898211 0 -0.1001805973047673 -0.19693984908259521 0 -0.1138835594831757 -0.1951941985818271 0 -0.1062478217144289 -0.1850868604237598 0 -0.1138835594831757 -0.1951941985818271 0 -0.10933935213197631 -0.20807961362898211 0 -0.12560983322401659 -0.20134442528610019 0 -0.1138835594831757 -0.1951941985818271 0 -0.1062478217144289 -0.1850868604237598 0 -0.11770444126217371 -0.18534871505223921 0 -0.1138835594831757 -0.1951941985818271 0 -0.11770444126217371 -0.18534871505223921 0 -0.12588715641700199 -0.18780851979182639 0 -0.1138835594831757 -0.1951941985818271 0 -0.12560983322401659 -0.20134442528610019 0 -0.12588715641700199 -0.18780851979182639 0 -0.12267406189310801 -0.21748308053295989 0 -0.10933935213197631 -0.20807961362898211 0 -0.12560983322401659 -0.20134442528610019 0 -0.12267406189310801 -0.21748308053295989 0 -0.10933935213197631 -0.20807961362898211 0 -0.1071888727590278 -0.22146879439889189 0 -0.0864991881277625 -0.21604733389151851 0 -0.1001805973047673 -0.19693984908259521 0 -0.10933935213197631 -0.20807961362898211 0 -0.0864991881277625 -0.21604733389151851 0 -0.10933935213197631 -0.20807961362898211 0 -0.1071888727590278 -0.22146879439889189 0 -0.095171427693100497 -0.23325607132777479 0 -0.1071888727590278 -0.22146879439889189 0 -0.1165731632203976 -0.24082599565915661 0 -0.0864991881277625 -0.21604733389151851 0 -0.095171427693100497 -0.23325607132777479 0 -0.1071888727590278 -0.22146879439889189 0 -0.12267406189310801 -0.21748308053295989 0 -0.1071888727590278 -0.22146879439889189 0 -0.1165731632203976 -0.24082599565915661 0 -0.092778135407556916 -0.25278341398886511 0 -0.095171427693100497 -0.23325607132777479 0 -0.1165731632203976 -0.24082599565915661 0 -0.082901040626855604 -0.14053605216057691 0 -0.099489953564220218 -0.14318512753167559 0 -0.085328586970733977 -0.1519785665275997 0 -0.082901040626855604 -0.14053605216057691 0 -0.099489953564220218 -0.14318512753167559 0 -0.085328586970733977 -0.1519785665275997 0 -0.082901040626855604 -0.14053605216057691 0 -0.085328586970733977 -0.1519785665275997 0 -0.082901040626855604 -0.14053605216057691 0 -0.070766817991037831 -0.15073009492666081 0 -0.078125507841264291 -0.11802603802753921 0 -0.093649347106788516 -0.1264942078087995 0 -0.082901040626855604 -0.14053605216057691 0 -0.078125507841264291 -0.11802603802753921 0 -0.082901040626855604 -0.14053605216057691 0 -0.093649347106788516 -0.1264942078087995 0 -0.082901040626855604 -0.14053605216057691 0 -0.099489953564220218 -0.14318512753167559 0 -0.05939896984732488 -0.1367830180041508 0 -0.082901040626855604 -0.14053605216057691 0 -0.072371832980449705 -0.13100826389537859 0 -0.05939896984732488 -0.1367830180041508 0 -0.082901040626855604 -0.14053605216057691 0 -0.078125507841264291 -0.11802603802753921 0 -0.082901040626855604 -0.14053605216057691 0 -0.072371832980449705 -0.13100826389537859 0 -0.05939896984732488 -0.1367830180041508 0 -0.06082932422044296 -0.1277610664515384 0 -0.072371832980449705 -0.13100826389537859 0 -0.068129236300158907 -0.1211845017952274 0 -0.06082932422044296 -0.1277610664515384 0 -0.072371832980449705 -0.13100826389537859 0 -0.05939896984732488 -0.1367830180041508 0 -0.082901040626855604 -0.14053605216057691 0 -0.070766817991037831 -0.15073009492666081 0 -0.052407826743223578 -0.1517031079761246 0 -0.070766817991037831 -0.15073009492666081 0 -0.065501400131689286 -0.16130001303407271 0 -0.085328586970733977 -0.1519785665275997 0 -0.070766817991037831 -0.15073009492666081 0 -0.077990558350262529 -0.16232575187809589 0 -0.054528171644611233 -0.17097077036390129 0 -0.065501400131689286 -0.16130001303407271 0 -0.07058756687384099 -0.17261584497073329 0 -0.077990558350262529 -0.16232575187809589 0 -0.07058756687384099 -0.17261584497073329 0 -0.084419145482083208 -0.17343850854882711 0 -0.065501400131689286 -0.16130001303407271 0 -0.077990558350262529 -0.16232575187809589 0 -0.07058756687384099 -0.17261584497073329 0 -0.070766817991037831 -0.15073009492666081 0 -0.065501400131689286 -0.16130001303407271 0 -0.077990558350262529 -0.16232575187809589 0 -0.054528171644611233 -0.17097077036390129 0 -0.062529010681322467 -0.1834537095572106 0 -0.07058756687384099 -0.17261584497073329 0 -0.062529010681322467 -0.1834537095572106 0 -0.07058756687384099 -0.17261584497073329 0 -0.076760647845170976 -0.1832065383521693 0 -0.07058756687384099 -0.17261584497073329 0 -0.076760647845170976 -0.1832065383521693 0 -0.084419145482083208 -0.17343850854882711 0 -0.076760647845170976 -0.1832065383521693 0 -0.084419145482083208 -0.17343850854882711 0 -0.091392336642178718 -0.1844959829513724 0 -0.084419145482083208 -0.17343850854882711 0 -0.091392336642178718 -0.1844959829513724 0 -0.097084191832475783 -0.17397718586375749 0 -0.085328586970733977 -0.1519785665275997 0 -0.077990558350262529 -0.16232575187809589 0 -0.090553375878375378 -0.16303066150674361 0 -0.077990558350262529 -0.16232575187809589 0 -0.084419145482083208 -0.17343850854882711 0 -0.090553375878375378 -0.16303066150674361 0 -0.084419145482083208 -0.17343850854882711 0 -0.090553375878375378 -0.16303066150674361 0 -0.097084191832475783 -0.17397718586375749 0 -0.085328586970733977 -0.1519785665275997 0 -0.090553375878375378 -0.16303066150674361 0 -0.097139504472258872 -0.15459274437535861 0 -0.090553375878375378 -0.16303066150674361 0 -0.1026749023362644 -0.16281168315163841 0 -0.097139504472258872 -0.15459274437535861 0 -0.090553375878375378 -0.16303066150674361 0 -0.1026749023362644 -0.16281168315163841 0 -0.097084191832475783 -0.17397718586375749 0 -0.1089645744755485 -0.17142897721468039 0 -0.1026749023362644 -0.16281168315163841 0 -0.097084191832475783 -0.17397718586375749 0 -0.1089645744755485 -0.17142897721468039 0 -0.1026749023362644 -0.16281168315163841 0 -0.1140167290604851 -0.16196387522270281 0 -0.1026749023362644 -0.16281168315163841 0 -0.1140167290604851 -0.16196387522270281 0 -0.1076507036117005 -0.15195768315913591 0 -0.1026749023362644 -0.16281168315163841 0 -0.1076507036117005 -0.15195768315913591 0 -0.097139504472258872 -0.15459274437535861 0 -0.091392336642178718 -0.1844959829513724 0 -0.097084191832475783 -0.17397718586375749 0 -0.1062478217144289 -0.1850868604237598 0 -0.1089645744755485 -0.17142897721468039 0 -0.097084191832475783 -0.17397718586375749 0 -0.1062478217144289 -0.1850868604237598 0 -0.1062478217144289 -0.1850868604237598 0 -0.12479922743408831 -0.17330528141154361 0 -0.11770444126217371 -0.18534871505223921 0 -0.1062478217144289 -0.1850868604237598 0 -0.12479922743408831 -0.17330528141154361 0 -0.1089645744755485 -0.17142897721468039 0 -0.1062478217144289 -0.1850868604237598 0 -0.12479922743408831 -0.17330528141154361 0 -0.12479922743408831 -0.17330528141154361 0 -0.11770444126217371 -0.18534871505223921 0 -0.12588715641700199 -0.18780851979182639 0 -0.1089645744755485 -0.17142897721468039 0 -0.12479922743408831 -0.17330528141154361 0 -0.1140167290604851 -0.16196387522270281 0 -0.12479922743408831 -0.17330528141154361 0 -0.1140167290604851 -0.16196387522270281 0 -0.1240093008825658 -0.15686093502651219 0 -0.1140167290604851 -0.16196387522270281 0 -0.1240093008825658 -0.15686093502651219 0 -0.117084107706598 -0.153465493282673 0 -0.1240093008825658 -0.15686093502651219 0 -0.1211459765225162 -0.15145768332081569 0 -0.12508970972525871 -0.14857024574996699 0 -0.1211459765225162 -0.15145768332081569 0 -0.1200209075899193 -0.14713856632692279 0 -0.12508970972525871 -0.14857024574996699 0 -0.1200209075899193 -0.14713856632692279 0 -0.116078866501585 -0.1458342029027733 0 -0.117084107706598 -0.153465493282673 0 -0.1211459765225162 -0.15145768332081569 0 -0.1200209075899193 -0.14713856632692279 0 -0.117084107706598 -0.153465493282673 0 -0.1240093008825658 -0.15686093502651219 0 -0.1211459765225162 -0.15145768332081569 0 -0.117084107706598 -0.153465493282673 0 -0.1225235340995908 -0.14404916522227901 0 -0.1214271450840065 -0.13815660808852531 0 -0.12816474465035449 -0.14176172005113899 0 -0.1225235340995908 -0.14404916522227901 0 -0.1200209075899193 -0.14713856632692279 0 -0.12508970972525871 -0.14857024574996699 0 -0.1225235340995908 -0.14404916522227901 0 -0.1200209075899193 -0.14713856632692279 0 -0.116078866501585 -0.1458342029027733 0 -0.1225235340995908 -0.14404916522227901 0 -0.116078866501585 -0.1458342029027733 0 -0.1214271450840065 -0.13815660808852531 0 -0.1140167290604851 -0.16196387522270281 0 -0.117084107706598 -0.153465493282673 0 -0.1076507036117005 -0.15195768315913591 0 -0.116078866501585 -0.1458342029027733 0 -0.117084107706598 -0.153465493282673 0 -0.1076507036117005 -0.15195768315913591 0 -0.116078866501585 -0.1458342029027733 0 -0.099489953564220218 -0.14318512753167559 0 -0.116078866501585 -0.1458342029027733 0 -0.1076507036117005 -0.15195768315913591 0 -0.099489953564220218 -0.14318512753167559 0 -0.1076507036117005 -0.15195768315913591 0 -0.099489953564220218 -0.14318512753167559 0 -0.097139504472258872 -0.15459274437535861 0 -0.085328586970733977 -0.1519785665275997 0 -0.099489953564220218 -0.14318512753167559 0 -0.097139504472258872 -0.15459274437535861 0 -0.114273776546044 -0.1170350295612957 0 -0.093649347106788516 -0.1264942078087995 0 -0.099489953564220218 -0.14318512753167559 0 -0.114273776546044 -0.1170350295612957 0 -0.116078866501585 -0.1458342029027733 0 -0.099489953564220218 -0.14318512753167559 0 -0.114273776546044 -0.1170350295612957 0 -0.116078866501585 -0.1458342029027733 0 -0.114273776546044 -0.1170350295612957 0 -0.1214271450840065 -0.13815660808852531 0 -0.1293309172992361 -0.13423660300012069 0 -0.114273776546044 -0.1170350295612957 0 -0.116078866501585 -0.1458342029027733 0 -0.1214271450840065 -0.13815660808852531 0 -0.1293309172992361 -0.13423660300012069 0 -0.13470314996379951 -0.13451618262272641 0 -0.1266899655208536 -0.109489682707931 0 -0.1214271450840065 -0.13815660808852531 0 -0.1293309172992361 -0.13423660300012069 0 -0.12816474465035449 -0.14176172005113899 0 -0.1293309172992361 -0.13423660300012069 0 -0.13470314996379951 -0.13451618262272641 0 -0.1293309172992361 -0.13423660300012069 0 -0.13470314996379951 -0.13451618262272641 0 -0.12816474465035449 -0.14176172005113899 0 -0.13470314996379951 -0.13451618262272641 0 -0.15691479087430441 -0.13567211211628319 0 -0.14143934886438039 -0.1185632200812223 0 -0.13470314996379951 -0.13451618262272641 0 -0.15691479087430441 -0.13567211211628319 0 -0.13470314996379951 -0.13451618262272641 0 -0.15691479087430441 -0.13567211211628319 0 -0.1566876784786706 -0.15305364597020499 0 -0.13470314996379951 -0.13451618262272641 0 -0.1433506331537476 -0.16152370239932731 0 -0.1566876784786706 -0.15305364597020499 0 -0.13470314996379951 -0.13451618262272641 0 -0.12816474465035449 -0.14176172005113899 0 -0.13182841572614179 -0.15030559309317959 0 -0.13470314996379951 -0.13451618262272641 0 -0.1433506331537476 -0.16152370239932731 0 -0.13470314996379951 -0.13451618262272641 0 -0.13182841572614179 -0.15030559309317959 0 -0.1433506331537476 -0.16152370239932731 0 -0.12816474465035449 -0.14176172005113899 0 -0.13182841572614179 -0.15030559309317959 0 -0.12508970972525871 -0.14857024574996699 0 -0.1225235340995908 -0.14404916522227901 0 -0.12816474465035449 -0.14176172005113899 0 -0.12508970972525871 -0.14857024574996699 0 -0.1240093008825658 -0.15686093502651219 0 -0.13182841572614179 -0.15030559309317959 0 -0.13192448903704079 -0.1600638743744679 0 -0.1240093008825658 -0.15686093502651219 0 -0.13182841572614179 -0.15030559309317959 0 -0.12508970972525871 -0.14857024574996699 0 -0.12479922743408831 -0.17330528141154361 0 -0.1240093008825658 -0.15686093502651219 0 -0.13192448903704079 -0.1600638743744679 0 -0.12479922743408831 -0.17330528141154361 0 -0.13616138036261949 -0.1789076865920346 0 -0.1433506331537476 -0.16152370239932731 0 -0.12479922743408831 -0.17330528141154361 0 -0.1433506331537476 -0.16152370239932731 0 -0.12479922743408831 -0.17330528141154361 0 -0.13192448903704079 -0.1600638743744679 0 -0.1433506331537476 -0.16152370239932731 0 -0.13182841572614179 -0.15030559309317959 0 -0.13192448903704079 -0.1600638743744679 0 -0.1433506331537476 -0.16152370239932731 0 -0.12479922743408831 -0.17330528141154361 0 -0.13616138036261949 -0.1789076865920346 0 -0.12588715641700199 -0.18780851979182639 0 -0.13616138036261949 -0.1789076865920346 0 -0.12588715641700199 -0.18780851979182639 0 -0.1385132620580399 -0.19135574328649371 0 -0.14882653027793671 -0.17862583450270161 0 -0.15630119252519181 -0.18263247483961259 0 -0.15430242740212649 -0.19572796660607561 0 -0.13616138036261949 -0.1789076865920346 0 -0.14882653027793671 -0.17862583450270161 0 -0.1433506331537476 -0.16152370239932731 0 -0.14882653027793671 -0.17862583450270161 0 -0.15430242740212649 -0.19572796660607561 0 -0.13616138036261949 -0.1789076865920346 0 -0.14882653027793671 -0.17862583450270161 0 -0.1385132620580399 -0.19135574328649371 0 -0.14882653027793671 -0.17862583450270161 0 -0.1433506331537476 -0.16152370239932731 0 -0.1566876784786706 -0.15305364597020499 0 -0.14882653027793671 -0.17862583450270161 0 -0.1433506331537476 -0.16152370239932731 0 -0.14882653027793671 -0.17862583450270161 0 -0.15630119252519181 -0.18263247483961259 0 -0.1566876784786706 -0.15305364597020499 0 -0.1433506331537476 -0.16152370239932731 0 -0.1566876784786706 -0.15305364597020499 0 -0.15630119252519181 -0.18263247483961259 0 -0.1566876784786706 -0.15305364597020499 0 -0.16499293692711051 -0.16744504641101221 0 -0.16632624373900459 -0.17846532826234901 0 -0.17879228752812079 -0.16146506028456831 0 -0.16499293692711051 -0.16744504641101221 0 -0.16826808775772031 -0.15898568065347971 0 -0.1566876784786706 -0.15305364597020499 0 -0.16499293692711051 -0.16744504641101221 0 -0.15630119252519181 -0.18263247483961259 0 -0.1566876784786706 -0.15305364597020499 0 -0.16499293692711051 -0.16744504641101221 0 -0.16826808775772031 -0.15898568065347971 0 -0.17879228752812079 -0.16146506028456831 0 -0.15630119252519181 -0.18263247483961259 0 -0.16632624373900459 -0.17846532826234901 0 -0.16722609109787301 -0.1886216267524069 0 -0.16499293692711051 -0.16744504641101221 0 -0.15630119252519181 -0.18263247483961259 0 -0.16632624373900459 -0.17846532826234901 0 -0.16632624373900459 -0.17846532826234901 0 -0.17397691471357721 -0.18616818462053211 0 -0.16722609109787301 -0.1886216267524069 0 -0.17397691471357721 -0.18616818462053211 0 -0.17879228752812079 -0.16146506028456831 0 -0.19457767982992241 -0.18105211390118731 0 -0.17397691471357721 -0.18616818462053211 0 -0.17879228752812079 -0.16146506028456831 0 -0.17397691471357721 -0.18616818462053211 0 -0.18637913543024531 -0.19237041576220221 0 -0.19457767982992241 -0.18105211390118731 0 -0.16632624373900459 -0.17846532826234901 0 -0.17397691471357721 -0.18616818462053211 0 -0.17879228752812079 -0.16146506028456831 0 -0.17879228752812079 -0.16146506028456831 0 -0.19457767982992241 -0.18105211390118731 0 -0.16826808775772031 -0.15898568065347971 0 -0.17879228752812079 -0.16146506028456831 0 -0.1706453491026734 -0.15135606098321219 0 -0.17879228752812079 -0.16146506028456831 0 -0.1706453491026734 -0.15135606098321219 0 -0.17879228752812079 -0.16146506028456831 0 -0.17241519229109231 -0.14306545696464451 0 -0.18200112822937969 -0.13697764543328919 0 -0.17879228752812079 -0.16146506028456831 0 -0.18378665187187779 -0.13584369967251159 0 -0.19396144186942421 -0.15132888745912901 0 -0.17879228752812079 -0.16146506028456831 0 -0.17241519229109231 -0.14306545696464451 0 -0.1706453491026734 -0.15135606098321219 0 -0.17879228752812079 -0.16146506028456831 0 -0.18378665187187779 -0.13584369967251159 0 -0.17879228752812079 -0.16146506028456831 0 -0.18378665187187779 -0.13584369967251159 0 -0.18200112822937969 -0.13697764543328919 0 -0.18378665187187779 -0.13584369967251159 0 -0.18200112822937969 -0.13697764543328919 0 -0.17457184909778631 -0.13659101380626901 0 -0.18378665187187779 -0.13584369967251159 0 -0.17457184909778631 -0.13659101380626901 0 -0.18248147676758389 -0.11238966834508771 0 -0.18378665187187779 -0.13584369967251159 0 -0.18200112822937969 -0.13697764543328919 0 -0.17457184909778631 -0.13659101380626901 0 -0.16916991477121079 -0.1363098884614275 0 -0.17242450892128541 -0.1223856582720856 0 -0.1730285539843138 -0.14131308414244129 0 -0.18200112822937969 -0.13697764543328919 0 -0.17457184909778631 -0.13659101380626901 0 -0.17241519229109231 -0.14306545696464451 0 -0.1730285539843138 -0.14131308414244129 0 -0.18200112822937969 -0.13697764543328919 0 -0.17241519229109231 -0.14306545696464451 0 -0.18200112822937969 -0.13697764543328919 0 -0.18200112822937969 -0.13697764543328919 0 -0.17457184909778631 -0.13659101380626901 0 -0.1730285539843138 -0.14131308414244129 0 -0.17457184909778631 -0.13659101380626901 0 -0.16916991477121079 -0.1363098884614275 0 -0.1730285539843138 -0.14131308414244129 0 -0.17457184909778631 -0.13659101380626901 0 -0.16916991477121079 -0.1363098884614275 0 -0.15691479087430441 -0.13567211211628319 0 -0.15723118634451691 -0.11145749995728341 0 -0.17241519229109231 -0.14306545696464451 0 -0.16916991477121079 -0.1363098884614275 0 -0.17241519229109231 -0.14306545696464451 0 -0.1730285539843138 -0.14131308414244129 0 -0.16916991477121079 -0.1363098884614275 0 -0.17241519229109231 -0.14306545696464451 0 -0.16916991477121079 -0.1363098884614275 0 -0.15691479087430441 -0.13567211211628319 0 -0.17457184909778631 -0.13659101380626901 0 -0.16916991477121079 -0.1363098884614275 0 -0.16916991477121079 -0.1363098884614275 0 -0.17242450892128541 -0.1223856582720856 0 -0.1679059441212736 -0.12074420099468421 0 -0.16916991477121079 -0.1363098884614275 0 -0.15691479087430441 -0.13567211211628319 0 -0.17241519229109231 -0.14306545696464451 0 -0.1566876784786706 -0.15305364597020499 0 -0.1706453491026734 -0.15135606098321219 0 -0.17241519229109231 -0.14306545696464451 0 -0.1566876784786706 -0.15305364597020499 0 -0.15691479087430441 -0.13567211211628319 0 -0.1566876784786706 -0.15305364597020499 0 -0.17241519229109231 -0.14306545696464451 0 -0.15691479087430441 -0.13567211211628319 0 -0.1566876784786706 -0.15305364597020499 0 -0.16826808775772031 -0.15898568065347971 0 -0.1566876784786706 -0.15305364597020499 0 -0.1706453491026734 -0.15135606098321219 0 -0.13361502428459901 -0.25892913269697448 0 -0.1555282206182291 -0.24179013257842771 0 -0.1365483042253714 -0.22700629954182169 0 -0.13361502428459901 -0.25892913269697448 0 -0.1165731632203976 -0.24082599565915661 0 -0.1365483042253714 -0.22700629954182169 0 -0.12267406189310801 -0.21748308053295989 0 -0.1165731632203976 -0.24082599565915661 0 -0.1365483042253714 -0.22700629954182169 0 -0.1555282206182291 -0.24179013257842771 0 -0.15591470657171039 -0.21221130370902019 0 -0.1555282206182291 -0.24179013257842771 0 -0.1365483042253714 -0.22700629954182169 0 -0.15591470657171039 -0.21221130370902019 0 -0.15591470657171039 -0.21221130370902019 0 -0.13917028850853899 -0.20754495785582769 0 -0.15430242740212649 -0.19572796660607561 0 -0.1365483042253714 -0.22700629954182169 0 -0.15591470657171039 -0.21221130370902019 0 -0.13917028850853899 -0.20754495785582769 0 -0.12267406189310801 -0.21748308053295989 0 -0.1365483042253714 -0.22700629954182169 0 -0.13917028850853899 -0.20754495785582769 0 -0.12267406189310801 -0.21748308053295989 0 -0.13917028850853899 -0.20754495785582769 0 -0.12560983322401659 -0.20134442528610019 0 -0.13917028850853899 -0.20754495785582769 0 -0.12560983322401659 -0.20134442528610019 0 -0.1385132620580399 -0.19135574328649371 0 -0.12560983322401659 -0.20134442528610019 0 -0.12588715641700199 -0.18780851979182639 0 -0.1385132620580399 -0.19135574328649371 0 -0.15630119252519181 -0.18263247483961259 0 -0.15591470657171039 -0.21221130370902019 0 -0.14882653027793671 -0.17862583450270161 0 -0.1385132620580399 -0.19135574328649371 0 -0.15430242740212649 -0.19572796660607561 0 -0.13917028850853899 -0.20754495785582769 0 -0.1385132620580399 -0.19135574328649371 0 -0.15430242740212649 -0.19572796660607561 0 -0.15630119252519181 -0.18263247483961259 0 -0.15591470657171039 -0.21221130370902019 0 -0.15430242740212649 -0.19572796660607561 0 -0.15630119252519181 -0.18263247483961259 0 -0.16398367257205301 -0.19829620051630981 0 -0.16722609109787301 -0.1886216267524069 0 -0.15630119252519181 -0.18263247483961259 0 -0.15591470657171039 -0.21221130370902019 0 -0.16398367257205301 -0.19829620051630981 0 -0.16398367257205301 -0.19829620051630981 0 -0.1755424319395385 -0.19754594552323121 0 -0.17490979001253859 -0.2121803140308415 0 -0.16398367257205301 -0.19829620051630981 0 -0.16722609109787301 -0.1886216267524069 0 -0.1755424319395385 -0.19754594552323121 0 -0.17397691471357721 -0.18616818462053211 0 -0.18637913543024531 -0.19237041576220221 0 -0.1755424319395385 -0.19754594552323121 0 -0.17397691471357721 -0.18616818462053211 0 -0.16722609109787301 -0.1886216267524069 0 -0.1755424319395385 -0.19754594552323121 0 -0.18637913543024531 -0.19237041576220221 0 -0.1755424319395385 -0.19754594552323121 0 -0.18833048497577209 -0.20305782048687451 0 -0.17490979001253859 -0.2121803140308415 0 -0.1852641227602897 -0.2240724569631507 0 -0.19074615119009261 -0.21462868022888379 0 -0.17490979001253859 -0.2121803140308415 0 -0.19074615119009261 -0.21462868022888379 0 -0.18833048497577209 -0.20305782048687451 0 -0.1755424319395385 -0.19754594552323121 0 -0.17490979001253859 -0.2121803140308415 0 -0.18833048497577209 -0.20305782048687451 0 -0.15591470657171039 -0.21221130370902019 0 -0.17490979001253859 -0.2121803140308415 0 -0.17275546273782699 -0.22765908699001031 0 -0.15591470657171039 -0.21221130370902019 0 -0.16398367257205301 -0.19829620051630981 0 -0.17490979001253859 -0.2121803140308415 0 -0.1555282206182291 -0.24179013257842771 0 -0.15591470657171039 -0.21221130370902019 0 -0.17275546273782699 -0.22765908699001031 0 -0.17490979001253859 -0.2121803140308415 0 -0.1852641227602897 -0.2240724569631507 0 -0.17275546273782699 -0.22765908699001031 0 -0.1852641227602897 -0.2240724569631507 0 -0.17275546273782699 -0.22765908699001031 0 -0.18610021014797859 -0.2365947910154497 0 -0.1692940198503024 -0.25683541485098532 0 -0.18677763921309559 -0.25033346045329108 0 -0.1744596593823331 -0.24245519554357969 0 -0.17275546273782699 -0.22765908699001031 0 -0.18610021014797859 -0.2365947910154497 0 -0.1744596593823331 -0.24245519554357969 0 -0.18677763921309559 -0.25033346045329108 0 -0.18610021014797859 -0.2365947910154497 0 -0.1744596593823331 -0.24245519554357969 0 -0.1692940198503024 -0.25683541485098532 0 -0.1555282206182291 -0.24179013257842771 0 -0.1744596593823331 -0.24245519554357969 0 -0.1555282206182291 -0.24179013257842771 0 -0.17275546273782699 -0.22765908699001031 0 -0.1744596593823331 -0.24245519554357969 0 -0.21260693995459931 -0.24643932896582799 0 -0.2136360675056691 -0.23216752596664481 0 -0.22280147924623769 -0.24193763770315799 0 -0.21260693995459931 -0.24643932896582799 0 -0.19929171078881039 -0.23935522242917509 0 -0.2136360675056691 -0.23216752596664481 0 -0.20134047018832821 -0.25150160644606268 0 -0.21260693995459931 -0.24643932896582799 0 -0.19929171078881039 -0.23935522242917509 0 -0.20134047018832821 -0.25150160644606268 0 -0.18677763921309559 -0.25033346045329108 0 -0.19929171078881039 -0.23935522242917509 0 -0.18677763921309559 -0.25033346045329108 0 -0.18610021014797859 -0.2365947910154497 0 -0.19929171078881039 -0.23935522242917509 0 -0.18610021014797859 -0.2365947910154497 0 -0.19929171078881039 -0.23935522242917509 0 -0.19755548031467601 -0.22746344532700269 0 -0.1852641227602897 -0.2240724569631507 0 -0.18610021014797859 -0.2365947910154497 0 -0.19755548031467601 -0.22746344532700269 0 -0.1852641227602897 -0.2240724569631507 0 -0.19755548031467601 -0.22746344532700269 0 -0.19074615119009261 -0.21462868022888379 0 -0.19755548031467601 -0.22746344532700269 0 -0.20630172993135659 -0.22006656722292739 0 -0.19074615119009261 -0.21462868022888379 0 -0.19755548031467601 -0.22746344532700269 0 -0.20630172993135659 -0.22006656722292739 0 -0.2136360675056691 -0.23216752596664481 0 -0.20630172993135659 -0.22006656722292739 0 -0.2136360675056691 -0.23216752596664481 0 -0.22614846443352521 -0.2202262211344255 0 -0.19929171078881039 -0.23935522242917509 0 -0.19755548031467601 -0.22746344532700269 0 -0.2136360675056691 -0.23216752596664481 0 -0.21086548589061471 -0.21210810942924149 0 -0.21036307213172381 -0.20063916751780639 0 -0.22614846443352521 -0.2202262211344255 0 -0.21036307213172381 -0.20063916751780639 0 -0.22614846443352521 -0.2202262211344255 0 -0.20630172993135659 -0.22006656722292739 0 -0.21086548589061471 -0.21210810942924149 0 -0.22614846443352521 -0.2202262211344255 0 -0.21086548589061471 -0.21210810942924149 0 -0.20064867706585299 -0.20750048184180661 0 -0.21036307213172381 -0.20063916751780639 0 -0.20630172993135659 -0.22006656722292739 0 -0.21086548589061471 -0.21210810942924149 0 -0.20064867706585299 -0.20750048184180661 0 -0.20630172993135659 -0.22006656722292739 0 -0.19074615119009261 -0.21462868022888379 0 -0.20064867706585299 -0.20750048184180661 0 -0.19074615119009261 -0.21462868022888379 0 -0.20064867706585299 -0.20750048184180661 0 -0.18833048497577209 -0.20305782048687451 0 -0.19636966041449541 -0.19666072848172181 0 -0.21036307213172381 -0.20063916751780639 0 -0.19457767982992241 -0.18105211390118731 0 -0.21036307213172381 -0.20063916751780639 0 -0.19457767982992241 -0.18105211390118731 0 -0.20064867706585299 -0.20750048184180661 0 -0.19636966041449541 -0.19666072848172181 0 -0.21036307213172381 -0.20063916751780639 0 -0.20064867706585299 -0.20750048184180661 0 -0.19636966041449541 -0.19666072848172181 0 -0.18833048497577209 -0.20305782048687451 0 -0.18637913543024531 -0.19237041576220221 0 -0.19636966041449541 -0.19666072848172181 0 -0.18833048497577209 -0.20305782048687451 0 -0.18637913543024531 -0.19237041576220221 0 -0.19636966041449541 -0.19666072848172181 0 -0.19457767982992241 -0.18105211390118731 0 -0.2093277706488911 -0.1942023568417266 0 -0.21036307213172381 -0.20063916751780639 0 -0.19457767982992241 -0.18105211390118731 0 -0.21036307213172381 -0.20063916751780639 0 -0.21775564342292639 -0.1964864516799448 0 -0.22364681297988129 -0.20245768751586141 0 -0.2093277706488911 -0.1942023568417266 0 -0.21036307213172381 -0.20063916751780639 0 -0.21775564342292639 -0.1964864516799448 0 -0.2093277706488911 -0.1942023568417266 0 -0.21775564342292639 -0.1964864516799448 0 -0.22222809446747799 -0.19044718078551501 0 -0.2093277706488911 -0.1942023568417266 0 -0.22222809446747799 -0.19044718078551501 0 -0.2217625574673254 -0.18125169647830119 0 -0.22222809446747799 -0.19044718078551501 0 -0.22242183432146931 -0.19607132967686131 0 -0.22742101515218491 -0.19499251384904731 0 -0.21775564342292639 -0.1964864516799448 0 -0.22222809446747799 -0.19044718078551501 0 -0.22242183432146931 -0.19607132967686131 0 -0.21775564342292639 -0.1964864516799448 0 -0.22242183432146931 -0.19607132967686131 0 -0.22364681297988129 -0.20245768751586141 0 -0.22242183432146931 -0.19607132967686131 0 -0.22364681297988129 -0.20245768751586141 0 -0.22742101515218491 -0.19499251384904731 0 -0.231326599947833 -0.20030023550626311 0 -0.23764233281109001 -0.1995616763346339 0 -0.2340089841235051 -0.2079803286231296 0 -0.22364681297988129 -0.20245768751586141 0 -0.231326599947833 -0.20030023550626311 0 -0.22742101515218491 -0.19499251384904731 0 -0.231326599947833 -0.20030023550626311 0 -0.22742101515218491 -0.19499251384904731 0 -0.23462586893800269 -0.19367311360374681 0 -0.22222809446747799 -0.19044718078551501 0 -0.22742101515218491 -0.19499251384904731 0 -0.2301257022165871 -0.18765900847035749 0 -0.22742101515218491 -0.19499251384904731 0 -0.2301257022165871 -0.18765900847035749 0 -0.23462586893800269 -0.19367311360374681 0 -0.2301257022165871 -0.18765900847035749 0 -0.23462586893800269 -0.19367311360374681 0 -0.23776325307700771 -0.18706645226735949 0 -0.23462586893800269 -0.19367311360374681 0 -0.241919338403112 -0.19337469152527609 0 -0.23776325307700771 -0.18706645226735949 0 -0.2470799838977 -0.20158512588218541 0 -0.24664540831350951 -0.18115561913721051 0 -0.241919338403112 -0.19337469152527609 0 -0.2470799838977 -0.20158512588218541 0 -0.24664540831350951 -0.18115561913721051 0 -0.2488743987547265 -0.1964769315240191 0 -0.2470799838977 -0.20158512588218541 0 -0.24664540831350951 -0.18115561913721051 0 -0.241919338403112 -0.19337469152527609 0 -0.2470799838977 -0.20158512588218541 0 -0.24187348153321619 -0.19998332485005521 0 -0.2470799838977 -0.20158512588218541 0 -0.24187348153321619 -0.19998332485005521 0 -0.24085227102096271 -0.20541180565812511 0 -0.24187348153321619 -0.19998332485005521 0 -0.23764233281109001 -0.1995616763346339 0 -0.24085227102096271 -0.20541180565812511 0 -0.241919338403112 -0.19337469152527609 0 -0.24187348153321619 -0.19998332485005521 0 -0.23764233281109001 -0.1995616763346339 0 -0.23462586893800269 -0.19367311360374681 0 -0.241919338403112 -0.19337469152527609 0 -0.23764233281109001 -0.1995616763346339 0 -0.231326599947833 -0.20030023550626311 0 -0.23462586893800269 -0.19367311360374681 0 -0.23764233281109001 -0.1995616763346339 0 -0.24085227102096271 -0.20541180565812511 0 -0.2340089841235051 -0.2079803286231296 0 -0.24513076192569991 -0.22228630733671209 0 -0.2488743987547265 -0.1964769315240191 0 -0.2470799838977 -0.20158512588218541 0 -0.24513076192569991 -0.22228630733671209 0 -0.2470799838977 -0.20158512588218541 0 -0.24085227102096271 -0.20541180565812511 0 -0.24513076192569991 -0.22228630733671209 0 -0.23764233281109001 -0.1995616763346339 0 -0.24085227102096271 -0.20541180565812511 0 -0.2340089841235051 -0.2079803286231296 0 -0.2340089841235051 -0.2079803286231296 0 -0.22614846443352521 -0.2202262211344255 0 -0.24513076192569991 -0.22228630733671209 0 -0.2488743987547265 -0.1964769315240191 0 -0.24513076192569991 -0.22228630733671209 0 -0.22364681297988129 -0.20245768751586141 0 -0.2340089841235051 -0.2079803286231296 0 -0.22614846443352521 -0.2202262211344255 0 -0.21036307213172381 -0.20063916751780639 0 -0.22364681297988129 -0.20245768751586141 0 -0.22614846443352521 -0.2202262211344255 0 -0.22364681297988129 -0.20245768751586141 0 -0.231326599947833 -0.20030023550626311 0 -0.2340089841235051 -0.2079803286231296 0 -0.22614846443352521 -0.2202262211344255 0 -0.23088623992506979 -0.23308611799329881 0 -0.24513076192569991 -0.22228630733671209 0 -0.2136360675056691 -0.23216752596664481 0 -0.22614846443352521 -0.2202262211344255 0 -0.23088623992506979 -0.23308611799329881 0 -0.23088623992506979 -0.23308611799329881 0 -0.24513076192569991 -0.22228630733671209 0 -0.24398490533090411 -0.23798917360845631 0 -0.24513076192569991 -0.22228630733671209 0 -0.24398490533090411 -0.23798917360845631 0 -0.25571962837200518 -0.22937650551787259 0 -0.23088623992506979 -0.23308611799329881 0 -0.24398490533090411 -0.23798917360845631 0 -0.23361576110838281 -0.24390984221039619 0 -0.24175845980168911 -0.25428478927776899 0 -0.24398490533090411 -0.23798917360845631 0 -0.23361576110838281 -0.24390984221039619 0 -0.24175845980168911 -0.25428478927776899 0 -0.24398490533090411 -0.23798917360845631 0 -0.25534024554036799 -0.24953009406698781 0 -0.224254699894156 -0.25597908654454998 0 -0.23361576110838281 -0.24390984221039619 0 -0.22280147924623769 -0.24193763770315799 0 -0.2136360675056691 -0.23216752596664481 0 -0.23088623992506979 -0.23308611799329881 0 -0.22280147924623769 -0.24193763770315799 0 -0.23088623992506979 -0.23308611799329881 0 -0.23361576110838281 -0.24390984221039619 0 -0.22280147924623769 -0.24193763770315799 0 -0.224254699894156 -0.25597908654454998 0 -0.21260693995459931 -0.24643932896582799 0 -0.22280147924623769 -0.24193763770315799 0 -0.20834804754604 -0.1518914195290304 0 -0.21819985220452209 -0.16676277971837239 0 -0.22707193376015311 -0.13932320259501821 0 -0.20834804754604 -0.1518914195290304 0 -0.20531091723139841 -0.13819072431857199 0 -0.22707193376015311 -0.13932320259501821 0 -0.20531091723139841 -0.13819072431857199 0 -0.22707193376015311 -0.13932320259501821 0 -0.22314006824820889 -0.1266041787708411 0 -0.20531091723139841 -0.13819072431857199 0 -0.22707193376015311 -0.13932320259501821 0 -0.20531091723139841 -0.13819072431857199 0 -0.22314006824820889 -0.1266041787708411 0 -0.21303401546546241 -0.1182985901692655 0 -0.20531091723139841 -0.13819072431857199 0 -0.21303401546546241 -0.1182985901692655 0 -0.20064075354686589 -0.1234072711611833 0 -0.18378665187187779 -0.13584369967251159 0 -0.20531091723139841 -0.13819072431857199 0 -0.18378665187187779 -0.13584369967251159 0 -0.20064075354686589 -0.1234072711611833 0 -0.19414125045560071 -0.11927728604000561 0 -0.18378665187187779 -0.13584369967251159 0 -0.20531091723139841 -0.13819072431857199 0 -0.20064075354686589 -0.1234072711611833 0 -0.18378665187187779 -0.13584369967251159 0 -0.20531091723139841 -0.13819072431857199 0 -0.19396144186942421 -0.15132888745912901 0 -0.20834804754604 -0.1518914195290304 0 -0.20531091723139841 -0.13819072431857199 0 -0.19396144186942421 -0.15132888745912901 0 -0.20834804754604 -0.1518914195290304 0 -0.19396144186942421 -0.15132888745912901 0 -0.19719609266470209 -0.16385150355406011 0 -0.17879228752812079 -0.16146506028456831 0 -0.19396144186942421 -0.15132888745912901 0 -0.19719609266470209 -0.16385150355406011 0 -0.17879228752812079 -0.16146506028456831 0 -0.19719609266470209 -0.16385150355406011 0 -0.19457767982992241 -0.18105211390118731 0 -0.2093277706488911 -0.1942023568417266 0 -0.19457767982992241 -0.18105211390118731 0 -0.21819985220452209 -0.16676277971837239 0 -0.2093277706488911 -0.1942023568417266 0 -0.21819985220452209 -0.16676277971837239 0 -0.2093277706488911 -0.1942023568417266 0 -0.21819985220452209 -0.16676277971837239 0 -0.2217625574673254 -0.18125169647830119 0 -0.20834804754604 -0.1518914195290304 0 -0.19719609266470209 -0.16385150355406011 0 -0.21819985220452209 -0.16676277971837239 0 -0.19719609266470209 -0.16385150355406011 0 -0.19457767982992241 -0.18105211390118731 0 -0.21819985220452209 -0.16676277971837239 0 -0.21819985220452209 -0.16676277971837239 0 -0.23360800010457611 -0.1623544040428076 0 -0.2358559519520389 -0.15072700545942089 0 -0.21819985220452209 -0.16676277971837239 0 -0.2341653635324244 -0.17120171860120131 0 -0.23360800010457611 -0.1623544040428076 0 -0.21819985220452209 -0.16676277971837239 0 -0.2341653635324244 -0.17120171860120131 0 -0.2217625574673254 -0.18125169647830119 0 -0.22222809446747799 -0.19044718078551501 0 -0.2301257022165871 -0.18765900847035749 0 -0.2217625574673254 -0.18125169647830119 0 -0.2341653635324244 -0.17120171860120131 0 -0.2217625574673254 -0.18125169647830119 0 -0.2343070260713295 -0.18050140386600419 0 -0.2301257022165871 -0.18765900847035749 0 -0.2217625574673254 -0.18125169647830119 0 -0.2343070260713295 -0.18050140386600419 0 -0.2301257022165871 -0.18765900847035749 0 -0.2343070260713295 -0.18050140386600419 0 -0.23776325307700771 -0.18706645226735949 0 -0.2488743987547265 -0.1964769315240191 0 -0.24664540831350951 -0.18115561913721051 0 -0.25261803558375312 -0.17066755571132619 0 -0.241919338403112 -0.19337469152527609 0 -0.23776325307700771 -0.18706645226735949 0 -0.24664540831350951 -0.18115561913721051 0 -0.2343070260713295 -0.18050140386600419 0 -0.23776325307700771 -0.18706645226735949 0 -0.24664540831350951 -0.18115561913721051 0 -0.2341653635324244 -0.17120171860120131 0 -0.2343070260713295 -0.18050140386600419 0 -0.24664540831350951 -0.18115561913721051 0 -0.2341653635324244 -0.17120171860120131 0 -0.24664540831350951 -0.18115561913721051 0 -0.2462108327293189 -0.16072611239223561 0 -0.24664540831350951 -0.18115561913721051 0 -0.2462108327293189 -0.16072611239223561 0 -0.25261803558375312 -0.17066755571132619 0 -0.24664540831350951 -0.18115561913721051 0 -0.2462108327293189 -0.16072611239223561 0 -0.23360800010457611 -0.1623544040428076 0 -0.2462108327293189 -0.16072611239223561 0 -0.2358559519520389 -0.15072700545942089 0 -0.2341653635324244 -0.17120171860120131 0 -0.23360800010457611 -0.1623544040428076 0 -0.2462108327293189 -0.16072611239223561 0 -0.2462108327293189 -0.16072611239223561 0 -0.24577625714512799 -0.14029660564726071 0 -0.25636167241277957 -0.1448581798986332 0 -0.2462108327293189 -0.16072611239223561 0 -0.2358559519520389 -0.15072700545942089 0 -0.24577625714512799 -0.14029660564726071 0 -0.2358559519520389 -0.15072700545942089 0 -0.22707193376015311 -0.13932320259501821 0 -0.24577625714512799 -0.14029660564726071 0 -0.2462108327293189 -0.16072611239223561 0 -0.24577625714512799 -0.14029660564726071 0 -0.21819985220452209 -0.16676277971837239 0 -0.2358559519520389 -0.15072700545942089 0 -0.22707193376015311 -0.13932320259501821 0 -0.21819985220452209 -0.16676277971837239 0 -0.22707193376015311 -0.13932320259501821 0 -0.22707193376015311 -0.13932320259501821 0 -0.23762107206430191 -0.1288752200809965 0 -0.2336431314314687 -0.11899980000180981 0 -0.22707193376015311 -0.13932320259501821 0 -0.2336431314314687 -0.11899980000180981 0 -0.22707193376015311 -0.13932320259501821 0 -0.22314006824820889 -0.1266041787708411 0 -0.2336431314314687 -0.11899980000180981 0 -0.23762107206430191 -0.1288752200809965 0 -0.24577625714512799 -0.14029660564726071 0 -0.24519677062478559 -0.11305479960329121 0 -0.22707193376015311 -0.13932320259501821 0 -0.24577625714512799 -0.14029660564726071 0 -0.22707193376015311 -0.13932320259501821 0 -0.23762107206430191 -0.1288752200809965 0 -0.24577625714512799 -0.14029660564726071 0 -0.24577625714512799 -0.14029660564726071 0 -0.24519677062478559 -0.11305479960329121 0 -0.24577625714512799 -0.14029660564726071 0 -0.2511891577251894 -0.14057830169355889 0 -0.23762107206430191 -0.1288752200809965 0 -0.24519677062478559 -0.11305479960329121 0 -0.2336431314314687 -0.11899980000180981 0 -0.24519677062478559 -0.11305479960329121 0 -0.23158335594467169 -0.102117943209814 0 -0.2336431314314687 -0.11899980000180981 0 -0.24519677062478559 -0.11305479960329121 0 -0.23158335594467169 -0.102117943209814 0 -0.24461728410444289 -0.085812993559321732 0 -0.24519677062478559 -0.11305479960329121 0 -0.24461728410444289 -0.085812993559321732 0 -0.24519677062478559 -0.11305479960329121 0 -0.24461728410444289 -0.085812993559321732 0 -0.25849843363262498 -0.10407958980146111 0 -0.23158335594467169 -0.102117943209814 0 -0.2273954041226762 -0.085138900064031242 0 -0.21603975336413961 -0.099255742078068435 0 -0.23158335594467169 -0.102117943209814 0 -0.22427924145176581 -0.1116264991823261 0 -0.21603975336413961 -0.099255742078068435 0 -0.23158335594467169 -0.102117943209814 0 -0.22427924145176581 -0.1116264991823261 0 -0.2336431314314687 -0.11899980000180981 0 -0.22314006824820889 -0.1266041787708411 0 -0.22427924145176581 -0.1116264991823261 0 -0.21303401546546241 -0.1182985901692655 0 -0.22314006824820889 -0.1266041787708411 0 -0.22427924145176581 -0.1116264991823261 0 -0.2336431314314687 -0.11899980000180981 0 -0.24461728410444289 -0.085812993559321732 0 -0.2314384919830059 -0.069024203331896405 0 -0.24403779758410021 -0.058571187515352091 0 -0.24461728410444289 -0.085812993559321732 0 -0.24403779758410021 -0.058571187515352091 0 -0.25634613900226388 -0.071936431436955148 0 -0.24461728410444289 -0.085812993559321732 0 -0.24403779758410021 -0.058571187515352091 0 -0.24461728410444289 -0.085812993559321732 0 -0.2273954041226762 -0.085138900064031242 0 -0.2314384919830059 -0.069024203331896405 0 -0.23158335594467169 -0.102117943209814 0 -0.24461728410444289 -0.085812993559321732 0 -0.2273954041226762 -0.085138900064031242 0 -0.2273954041226762 -0.085138900064031242 0 -0.21404414941324651 -0.069899802653768453 0 -0.21603975336413961 -0.099255742078068435 0 -0.2314384919830059 -0.069024203331896405 0 -0.21404414941324651 -0.069899802653768453 0 -0.2376971943891146 -0.051611282423632741 0 -0.2273954041226762 -0.085138900064031242 0 -0.2314384919830059 -0.069024203331896405 0 -0.21404414941324651 -0.069899802653768453 0 -0.21404414941324651 -0.069899802653768453 0 -0.21603975336413961 -0.099255742078068435 0 -0.20234335788747779 -0.095154190461451751 0 -0.21404414941324651 -0.069899802653768453 0 -0.1903911044373795 -0.08818832288390567 0 -0.20234335788747779 -0.095154190461451751 0 -0.21404414941324651 -0.069899802653768453 0 -0.1903911044373795 -0.08818832288390567 0 -0.21404414941324651 -0.069899802653768453 0 -0.1903911044373795 -0.08818832288390567 0 -0.19869441214389841 -0.062782421789060003 0 -0.1903911044373795 -0.08818832288390567 0 -0.19869441214389841 -0.062782421789060003 0 -0.1903911044373795 -0.08818832288390567 0 -0.19869441214389841 -0.062782421789060003 0 -0.17783880042097699 -0.076500308653624755 0 -0.22427924145176581 -0.1116264991823261 0 -0.21303401546546241 -0.1182985901692655 0 -0.21603975336413961 -0.099255742078068435 0 -0.21303401546546241 -0.1182985901692655 0 -0.2020378452980667 -0.11037435186076321 0 -0.20064075354686589 -0.1234072711611833 0 -0.21303401546546241 -0.1182985901692655 0 -0.21603975336413961 -0.099255742078068435 0 -0.2020378452980667 -0.11037435186076321 0 -0.21603975336413961 -0.099255742078068435 0 -0.20234335788747779 -0.095154190461451751 0 -0.2020378452980667 -0.11037435186076321 0 -0.1903911044373795 -0.08818832288390567 0 -0.20234335788747779 -0.095154190461451751 0 -0.18920393692455531 -0.10805273283075249 0 -0.20234335788747779 -0.095154190461451751 0 -0.18920393692455531 -0.10805273283075249 0 -0.2020378452980667 -0.11037435186076321 0 -0.18378665187187779 -0.13584369967251159 0 -0.18920393692455531 -0.10805273283075249 0 -0.19414125045560071 -0.11927728604000561 0 -0.18920393692455531 -0.10805273283075249 0 -0.2020378452980667 -0.11037435186076321 0 -0.19414125045560071 -0.11927728604000561 0 -0.2020378452980667 -0.11037435186076321 0 -0.20064075354686589 -0.1234072711611833 0 -0.19414125045560071 -0.11927728604000561 0 -0.17457184909778631 -0.13659101380626901 0 -0.18248147676758389 -0.11238966834508771 0 -0.18378665187187779 -0.13584369967251159 0 -0.18920393692455531 -0.10805273283075249 0 -0.17457184909778631 -0.13659101380626901 0 -0.18248147676758389 -0.11238966834508771 0 -0.17242450892128541 -0.1223856582720856 0 -0.18378665187187779 -0.13584369967251159 0 -0.18920393692455531 -0.10805273283075249 0 -0.18248147676758389 -0.11238966834508771 0 -0.18248147676758389 -0.11238966834508771 0 -0.17242450892128541 -0.1223856582720856 0 -0.1707461018914978 -0.112040360610466 0 -0.15691479087430441 -0.13567211211628319 0 -0.15723118634451691 -0.11145749995728341 0 -0.16916991477121079 -0.1363098884614275 0 -0.15723118634451691 -0.11145749995728341 0 -0.15928325090109921 -0.1122408966347585 0 -0.16916991477121079 -0.1363098884614275 0 -0.1679059441212736 -0.12074420099468421 0 -0.15928325090109921 -0.1122408966347585 0 -0.17242450892128541 -0.1223856582720856 0 -0.1679059441212736 -0.12074420099468421 0 -0.1707461018914978 -0.112040360610466 0 -0.16916991477121079 -0.1363098884614275 0 -0.15723118634451691 -0.11145749995728341 0 -0.1679059441212736 -0.12074420099468421 0 -0.1707461018914978 -0.112040360610466 0 -0.15928325090109921 -0.1122408966347585 0 -0.15723118634451691 -0.11145749995728341 0 -0.1575814521498454 -0.084650698257726115 0 -0.15723118634451691 -0.11145749995728341 0 -0.1643548763255932 -0.1027288653905112 0 -0.1575814521498454 -0.084650698257726115 0 -0.15723118634451691 -0.11145749995728341 0 -0.15928325090109921 -0.1122408966347585 0 -0.1643548763255932 -0.1027288653905112 0 -0.15928325090109921 -0.1122408966347585 0 -0.17483717766923881 -0.1002146097593314 0 -0.15928325090109921 -0.1122408966347585 0 -0.1643548763255932 -0.1027288653905112 0 -0.17483717766923881 -0.1002146097593314 0 -0.1707461018914978 -0.112040360610466 0 -0.15928325090109921 -0.1122408966347585 0 -0.17483717766923881 -0.1002146097593314 0 -0.1643548763255932 -0.1027288653905112 0 -0.17483717766923881 -0.1002146097593314 0 -0.16594595786729169 -0.0920673184874779 0 -0.1903911044373795 -0.08818832288390567 0 -0.18920393692455531 -0.10805273283075249 0 -0.18248147676758389 -0.11238966834508771 0 -0.1903911044373795 -0.08818832288390567 0 -0.18248147676758389 -0.11238966834508771 0 -0.1903911044373795 -0.08818832288390567 0 -0.18248147676758389 -0.11238966834508771 0 -0.17483717766923881 -0.1002146097593314 0 -0.18248147676758389 -0.11238966834508771 0 -0.1707461018914978 -0.112040360610466 0 -0.17483717766923881 -0.1002146097593314 0 -0.1903911044373795 -0.08818832288390567 0 -0.17483717766923881 -0.1002146097593314 0 -0.1903911044373795 -0.08818832288390567 0 -0.17483717766923881 -0.1002146097593314 0 -0.17724544248760049 -0.088876243959215229 0 -0.1903911044373795 -0.08818832288390567 0 -0.17724544248760049 -0.088876243959215229 0 -0.17783880042097699 -0.076500308653624755 0 -0.17724544248760049 -0.088876243959215229 0 -0.17783880042097699 -0.076500308653624755 0 -0.16594595786729169 -0.0920673184874779 0 -0.17483717766923881 -0.1002146097593314 0 -0.17724544248760049 -0.088876243959215229 0 -0.16594595786729169 -0.0920673184874779 0 -0.17783880042097699 -0.076500308653624755 0 -0.16486669470826021 -0.062569389835113398 0 -0.1808195144823759 -0.062257597698413422 0 -0.19869441214389841 -0.062782421789060003 0 -0.17783880042097699 -0.076500308653624755 0 -0.1808195144823759 -0.062257597698413422 0 -0.1575814521498454 -0.084650698257726115 0 -0.15793171795517461 -0.05784389655816885 0 -0.16486669470826021 -0.062569389835113398 0 -0.16594595786729169 -0.0920673184874779 0 -0.17783880042097699 -0.076500308653624755 0 -0.16486669470826021 -0.062569389835113398 0 -0.16594595786729169 -0.0920673184874779 0 -0.16486669470826021 -0.062569389835113398 0 -0.1575814521498454 -0.084650698257726115 0 -0.15793171795517461 -0.05784389655816885 0 -0.1643548763255932 -0.1027288653905112 0 -0.1575814521498454 -0.084650698257726115 0 -0.16594595786729169 -0.0920673184874779 0 -0.16486669470826021 -0.062569389835113398 0 -0.1575814521498454 -0.084650698257726115 0 -0.16594595786729169 -0.0920673184874779 0 -0.1575814521498454 -0.084650698257726115 0 -0.14550805904386799 -0.087053919965645418 0 -0.14861383348981419 -0.071127835441729945 0 -0.14550805904386799 -0.087053919965645418 0 -0.14861383348981419 -0.071127835441729945 0 -0.1337849317432184 -0.06265033997400779 0 -0.1575814521498454 -0.084650698257726115 0 -0.14861383348981419 -0.071127835441729945 0 -0.15793171795517461 -0.05784389655816885 0 -0.14861383348981419 -0.071127835441729945 0 -0.1337849317432184 -0.06265033997400779 0 -0.1474196656361294 -0.056534386534467559 0 -0.14550805904386799 -0.087053919965645418 0 -0.1337849317432184 -0.06265033997400779 0 -0.1186767810779077 -0.08446318279313568 0 -0.14550805904386799 -0.087053919965645418 0 -0.1337849317432184 -0.06265033997400779 0 -0.1186767810779077 -0.08446318279313568 0 -0.14550805904386799 -0.087053919965645418 0 -0.1266899655208536 -0.109489682707931 0 -0.15723118634451691 -0.11145749995728341 0 -0.14550805904386799 -0.087053919965645418 0 -0.14143934886438039 -0.1185632200812223 0 -0.14550805904386799 -0.087053919965645418 0 -0.1266899655208536 -0.109489682707931 0 -0.14143934886438039 -0.1185632200812223 0 -0.13470314996379951 -0.13451618262272641 0 -0.1266899655208536 -0.109489682707931 0 -0.14143934886438039 -0.1185632200812223 0 -0.13470314996379951 -0.13451618262272641 0 -0.1266899655208536 -0.109489682707931 0 -0.15691479087430441 -0.13567211211628319 0 -0.15723118634451691 -0.11145749995728341 0 -0.14143934886438039 -0.1185632200812223 0 -0.15723118634451691 -0.11145749995728341 0 -0.14550805904386799 -0.087053919965645418 0 -0.15723118634451691 -0.11145749995728341 0 -0.1575814521498454 -0.084650698257726115 0 -0.14550805904386799 -0.087053919965645418 0 -0.14648438030968169 -0.019686391012341129 0 -0.162708168390197 -0.0035735325303842269 0 -0.13462794717459339 0.0001373875200551381 0 -0.14648438030968169 -0.019686391012341129 0 -0.1286437647168831 -0.021076231063149861 0 -0.13462794717459339 0.0001373875200551381 0 -0.14648438030968169 -0.019686391012341129 0 -0.1286437647168831 -0.021076231063149861 0 -0.143634948227641 -0.041386117953503117 0 -0.12206180444256889 -0.038246759982370253 0 -0.1286437647168831 -0.021076231063149861 0 -0.143634948227641 -0.041386117953503117 0 -0.12206180444256889 -0.038246759982370253 0 -0.1337849317432184 -0.06265033997400779 0 -0.143634948227641 -0.041386117953503117 0 -0.12206180444256889 -0.038246759982370253 0 -0.1337849317432184 -0.06265033997400779 0 -0.1337849317432184 -0.06265033997400779 0 -0.1474196656361294 -0.056534386534467559 0 -0.143634948227641 -0.041386117953503117 0 -0.1474196656361294 -0.056534386534467559 0 -0.1558631288726349 -0.048622066971297687 0 -0.15793171795517461 -0.05784389655816885 0 -0.1474196656361294 -0.056534386534467559 0 -0.1558631288726349 -0.048622066971297687 0 -0.143634948227641 -0.041386117953503117 0 -0.14861383348981419 -0.071127835441729945 0 -0.1474196656361294 -0.056534386534467559 0 -0.15793171795517461 -0.05784389655816885 0 -0.14648438030968169 -0.019686391012341129 0 -0.143634948227641 -0.041386117953503117 0 -0.16378743154922859 -0.033071461182748813 0 -0.1558631288726349 -0.048622066971297687 0 -0.143634948227641 -0.041386117953503117 0 -0.16378743154922859 -0.033071461182748813 0 -0.16486669470826021 -0.062569389835113398 0 -0.16378743154922859 -0.033071461182748813 0 -0.16486669470826021 -0.062569389835113398 0 -0.16378743154922859 -0.033071461182748813 0 -0.18187815065636809 -0.047178270515855533 0 -0.16486669470826021 -0.062569389835113398 0 -0.1558631288726349 -0.048622066971297687 0 -0.16378743154922859 -0.033071461182748813 0 -0.16486669470826021 -0.062569389835113398 0 -0.1558631288726349 -0.048622066971297687 0 -0.15793171795517461 -0.05784389655816885 0 -0.16486669470826021 -0.062569389835113398 0 -0.1808195144823759 -0.062257597698413422 0 -0.18187815065636809 -0.047178270515855533 0 -0.19869441214389841 -0.062782421789060003 0 -0.1808195144823759 -0.062257597698413422 0 -0.18187815065636809 -0.047178270515855533 0 -0.16378743154922859 -0.033071461182748813 0 -0.18187815065636809 -0.047178270515855533 0 -0.18602521526144619 -0.023206763806465532 0 -0.16378743154922859 -0.033071461182748813 0 -0.162708168390197 -0.0035735325303842269 0 -0.14648438030968169 -0.019686391012341129 0 -0.16378743154922859 -0.033071461182748813 0 -0.162708168390197 -0.0035735325303842269 0 -0.16378743154922859 -0.033071461182748813 0 -0.18602521526144619 -0.023206763806465532 0 -0.162708168390197 -0.0035735325303842269 0 -0.18602521526144619 -0.023206763806465532 0 -0.162708168390197 -0.0035735325303842269 0 -0.1903622337904419 0.00073110470842471559 0 -0.18602521526144619 -0.023206763806465532 0 -0.21530102755693351 -0.01197061959936772 0 -0.1903622337904419 0.00073110470842471559 0 -0.18602521526144619 -0.023206763806465532 0 -0.21530102755693351 -0.01197061959936772 0 -0.20699771985041601 -0.037376520694213843 0 -0.21530102755693351 -0.01197061959936772 0 -0.20699771985041601 -0.037376520694213843 0 -0.22944837581621619 -0.031188772436901019 0 -0.21530102755693351 -0.01197061959936772 0 -0.20699771985041601 -0.037376520694213843 0 -0.19869441214389841 -0.062782421789060003 0 -0.18187815065636809 -0.047178270515855533 0 -0.20699771985041601 -0.037376520694213843 0 -0.19869441214389841 -0.062782421789060003 0 -0.20699771985041601 -0.037376520694213843 0 -0.18187815065636809 -0.047178270515855533 0 -0.18602521526144619 -0.023206763806465532 0 -0.20699771985041601 -0.037376520694213843 0 -0.20699771985041601 -0.037376520694213843 0 -0.21782732024284429 -0.050925805691808372 0 -0.22944837581621619 -0.031188772436901019 0 -0.21404414941324651 -0.069899802653768453 0 -0.19869441214389841 -0.062782421789060003 0 -0.21782732024284429 -0.050925805691808372 0 -0.19869441214389841 -0.062782421789060003 0 -0.20699771985041601 -0.037376520694213843 0 -0.21782732024284429 -0.050925805691808372 0 -0.21404414941324651 -0.069899802653768453 0 -0.21782732024284429 -0.050925805691808372 0 -0.2376971943891146 -0.051611282423632741 0 -0.21404414941324651 -0.069899802653768453 0 -0.2376971943891146 -0.051611282423632741 0 -0.21782732024284429 -0.050925805691808372 0 -0.2376971943891146 -0.051611282423632741 0 -0.22944837581621619 -0.031188772436901019 0 -0.2376971943891146 -0.051611282423632741 0 -0.26135023936498353 -0.033322762193498029 0 -0.24143471366480071 -0.035077590019831538 0 -0.2376971943891146 -0.051611282423632741 0 -0.25160532082985682 -0.038750614477696663 0 -0.24143471366480071 -0.035077590019831538 0 -0.2376971943891146 -0.051611282423632741 0 -0.22944837581621619 -0.031188772436901019 0 -0.24143471366480071 -0.035077590019831538 0 -0.24863456144023741 -0.024564238402092368 0 -0.25160532082985682 -0.038750614477696663 0 -0.2376971943891146 -0.051611282423632741 0 -0.2583802444478398 -0.045366989844700487 0 -0.25108015812935758 -0.055127740583737747 0 -0.2314384919830059 -0.069024203331896405 0 -0.2376971943891146 -0.051611282423632741 0 -0.24403779758410021 -0.058571187515352091 0 -0.2376971943891146 -0.051611282423632741 0 -0.24403779758410021 -0.058571187515352091 0 -0.25108015812935758 -0.055127740583737747 0 -0.24403779758410021 -0.058571187515352091 0 -0.2534759031166931 -0.060728745457993963 0 -0.25108015812935758 -0.055127740583737747 0 -0.21530102755693351 -0.01197061959936772 0 -0.23670680225066101 -0.01005326634575009 0 -0.22989434843903819 0.00062340882394032373 0 -0.21530102755693351 -0.01197061959936772 0 -0.22944837581621619 -0.031188772436901019 0 -0.23670680225066101 -0.01005326634575009 0 -0.22944837581621619 -0.031188772436901019 0 -0.23670680225066101 -0.01005326634575009 0 -0.24143471366480071 -0.035077590019831538 0 -0.22944837581621619 -0.031188772436901019 0 -0.24863456144023741 -0.024564238402092368 0 -0.22944837581621619 -0.031188772436901019 0 -0.24863456144023741 -0.024564238402092368 0 -0.23670680225066101 -0.01005326634575009 0 -0.24863456144023741 -0.024564238402092368 0 -0.23670680225066101 -0.01005326634575009 0 -0.25244635663921139 -0.01058035858029167 0 -0.23670680225066101 -0.01005326634575009 0 -0.25244635663921139 -0.01058035858029167 0 -0.24396522868510681 0.011082239745400501 0 -0.25244635663921139 -0.01058035858029167 0 -0.26462835371274279 -0.01715965287176403 0 -0.26333516374386129 0.00051910053004670942 0 -0.26462835371274279 -0.01715965287176403 0 -0.27047280914219668 -0.026265063064951081 0 -0.26135023936498353 -0.033322762193498029 0 -0.24863456144023741 -0.024564238402092368 0 -0.25244635663921139 -0.01058035858029167 0 -0.26135023936498353 -0.033322762193498029 0 -0.25244635663921139 -0.01058035858029167 0 -0.26462835371274279 -0.01715965287176403 0 -0.26135023936498353 -0.033322762193498029 0 -0.25244635663921139 -0.01058035858029167 0 -0.26135023936498353 -0.033322762193498029 0 -0.27047280914219668 -0.026265063064951081 0 -0.27954474629153547 -0.019246535996728379 0 -0.27292365050773942 -0.036369826323027238 0 -0.27047280914219668 -0.026265063064951081 0 -0.26135023936498353 -0.033322762193498029 0 -0.26462835371274279 -0.01715965287176403 0 -0.27047280914219668 -0.026265063064951081 0 -0.27954474629153547 -0.019246535996728379 0 -0.27047280914219668 -0.026265063064951081 0 -0.27954474629153547 -0.019246535996728379 0 -0.27954474629153547 -0.019246535996728379 0 -0.26333516374386129 0.00051910053004670942 0 -0.28141789439927128 0.0039550589139241482 0 -0.26462835371274279 -0.01715965287176403 0 -0.27954474629153547 -0.019246535996728379 0 -0.26333516374386129 0.00051910053004670942 0 -0.27954474629153547 -0.019246535996728379 0 -0.26333516374386129 0.00051910053004670942 0 -0.27954474629153547 -0.019246535996728379 0 -0.29643305124632008 -0.0074570729062871004 0 -0.27954474629153547 -0.019246535996728379 0 -0.29643305124632008 -0.0074570729062871004 0 -0.28141789439927128 0.0039550589139241482 0 -0.27954474629153547 -0.019246535996728379 0 -0.29829193660678399 -0.042106480019324363 0 -0.27954474629153547 -0.019246535996728379 0 -0.29643305124632008 -0.0074570729062871004 0 -0.29620659629837032 -0.023068693338949949 0 -0.27954474629153547 -0.019246535996728379 0 -0.29620659629837032 -0.023068693338949949 0 -0.29829193660678399 -0.042106480019324363 0 -0.29643305124632008 -0.0074570729062871004 0 -0.29620659629837032 -0.023068693338949949 0 -0.30987599943209893 -0.01791619496714596 0 -0.29620659629837032 -0.023068693338949949 0 -0.30490891047651209 -0.02950707556434988 0 -0.30987599943209893 -0.01791619496714596 0 -0.30490891047651209 -0.02950707556434988 0 -0.30987599943209893 -0.01791619496714596 0 -0.31568328481807439 -0.032709364960495681 0 -0.29643305124632008 -0.0074570729062871004 0 -0.31332135620110318 0.0043323901841563778 0 -0.29643305124632008 -0.0074570729062871004 0 -0.30987599943209893 -0.01791619496714596 0 -0.31332135620110318 0.0043323901841563778 0 -0.29829193660678399 -0.042106480019324363 0 -0.31703912692203379 -0.064966424041919185 0 -0.29829193660678399 -0.042106480019324363 0 -0.29657236928244951 -0.066795824978556947 0 -0.31703912692203379 -0.064966424041919185 0 -0.29620659629837032 -0.023068693338949949 0 -0.30490891047651209 -0.02950707556434988 0 -0.29829193660678399 -0.042106480019324363 0 -0.30490891047651209 -0.02950707556434988 0 -0.29829193660678399 -0.042106480019324363 0 -0.31568328481807439 -0.032709364960495681 0 -0.29829193660678399 -0.042106480019324363 0 -0.27977153622425088 -0.047501782629090217 0 -0.27292365050773942 -0.036369826323027238 0 -0.27954474629153547 -0.019246535996728379 0 -0.29829193660678399 -0.042106480019324363 0 -0.27292365050773942 -0.036369826323027238 0 -0.29829193660678399 -0.042106480019324363 0 -0.28603059434134698 -0.057086361219575971 0 -0.27977153622425088 -0.047501782629090217 0 -0.29829193660678399 -0.042106480019324363 0 -0.28603059434134698 -0.057086361219575971 0 -0.29657236928244951 -0.066795824978556947 0 -0.28603059434134698 -0.057086361219575971 0 -0.27458703602791579 -0.055233944653823072 0 -0.27602852234133701 -0.066365442678115824 0 -0.27458703602791579 -0.055233944653823072 0 -0.27977153622425088 -0.047501782629090217 0 -0.26832002276819272 -0.04741368708583308 0 -0.28603059434134698 -0.057086361219575971 0 -0.27458703602791579 -0.055233944653823072 0 -0.27977153622425088 -0.047501782629090217 0 -0.27458703602791579 -0.055233944653823072 0 -0.26832002276819272 -0.04741368708583308 0 -0.26243951775105079 -0.057279622295930879 0 -0.27458703602791579 -0.055233944653823072 0 -0.26243951775105079 -0.057279622295930879 0 -0.27602852234133701 -0.066365442678115824 0 -0.27977153622425088 -0.047501782629090217 0 -0.26832002276819272 -0.04741368708583308 0 -0.27292365050773942 -0.036369826323027238 0 -0.26832002276819272 -0.04741368708583308 0 -0.27292365050773942 -0.036369826323027238 0 -0.26494283983407702 -0.041615828614448958 0 -0.27292365050773942 -0.036369826323027238 0 -0.26252896560662348 -0.03633347883953536 0 -0.26494283983407702 -0.041615828614448958 0 -0.27047280914219668 -0.026265063064951081 0 -0.27292365050773942 -0.036369826323027238 0 -0.26135023936498353 -0.033322762193498029 0 -0.2376971943891146 -0.051611282423632741 0 -0.26135023936498353 -0.033322762193498029 0 -0.25160532082985682 -0.038750614477696663 0 -0.2376971943891146 -0.051611282423632741 0 -0.26135023936498353 -0.033322762193498029 0 -0.2583802444478398 -0.045366989844700487 0 -0.26135023936498353 -0.033322762193498029 0 -0.26252896560662348 -0.03633347883953536 0 -0.2583802444478398 -0.045366989844700487 0 -0.27292365050773942 -0.036369826323027238 0 -0.26135023936498353 -0.033322762193498029 0 -0.26252896560662348 -0.03633347883953536 0 -0.26135023936498353 -0.033322762193498029 0 -0.26252896560662348 -0.03633347883953536 0 -0.26832002276819272 -0.04741368708583308 0 -0.2583802444478398 -0.045366989844700487 0 -0.26494283983407702 -0.041615828614448958 0 -0.26252896560662348 -0.03633347883953536 0 -0.2583802444478398 -0.045366989844700487 0 -0.26494283983407702 -0.041615828614448958 0 -0.26135023936498353 -0.033322762193498029 0 -0.25160532082985682 -0.038750614477696663 0 -0.24863456144023741 -0.024564238402092368 0 -0.26135023936498353 -0.033322762193498029 0 -0.25160532082985682 -0.038750614477696663 0 -0.26832002276819272 -0.04741368708583308 0 -0.2583802444478398 -0.045366989844700487 0 -0.26243951775105079 -0.057279622295930879 0 -0.2583802444478398 -0.045366989844700487 0 -0.26243951775105079 -0.057279622295930879 0 -0.25108015812935758 -0.055127740583737747 0 -0.26243951775105079 -0.057279622295930879 0 -0.2534759031166931 -0.060728745457993963 0 -0.25108015812935758 -0.055127740583737747 0 -0.26243951775105079 -0.057279622295930879 0 -0.25634613900226388 -0.071936431436955148 0 -0.27602852234133701 -0.066365442678115824 0 -0.24403779758410021 -0.058571187515352091 0 -0.2534759031166931 -0.060728745457993963 0 -0.25634613900226388 -0.071936431436955148 0 -0.26243951775105079 -0.057279622295930879 0 -0.2534759031166931 -0.060728745457993963 0 -0.25634613900226388 -0.071936431436955148 0 -0.24461728410444289 -0.085812993559321732 0 -0.25634613900226388 -0.071936431436955148 0 -0.269259183809134 -0.092175551269514253 0 -0.269259183809134 -0.092175551269514253 0 -0.27602852234133701 -0.066365442678115824 0 -0.2864040922875164 -0.08263917988472641 0 -0.25634613900226388 -0.071936431436955148 0 -0.269259183809134 -0.092175551269514253 0 -0.27602852234133701 -0.066365442678115824 0 -0.24577625714512799 -0.14029660564726071 0 -0.24519677062478559 -0.11305479960329121 0 -0.26010530924180619 -0.1190488040859401 0 -0.24519677062478559 -0.11305479960329121 0 -0.26010530924180619 -0.1190488040859401 0 -0.25849843363262498 -0.10407958980146111 0 -0.26010530924180619 -0.1190488040859401 0 -0.25849843363262498 -0.10407958980146111 0 -0.27331362038295609 -0.1103058004892383 0 -0.24461728410444289 -0.085812993559321732 0 -0.269259183809134 -0.092175551269514253 0 -0.25849843363262498 -0.10407958980146111 0 -0.269259183809134 -0.092175551269514253 0 -0.25849843363262498 -0.10407958980146111 0 -0.27331362038295609 -0.1103058004892383 0 -0.269259183809134 -0.092175551269514253 0 -0.27331362038295609 -0.1103058004892383 0 -0.29186607481136512 -0.10657976852832469 0 -0.26010530924180619 -0.1190488040859401 0 -0.27331362038295609 -0.1103058004892383 0 -0.27927954875603039 -0.12738644077152739 0 -0.29186607481136512 -0.10657976852832469 0 -0.30078403940394632 -0.1228575569570648 0 -0.27927954875603039 -0.12738644077152739 0 -0.27331362038295609 -0.1103058004892383 0 -0.29186607481136512 -0.10657976852832469 0 -0.27927954875603039 -0.12738644077152739 0 -0.29186607481136512 -0.10657976852832469 0 -0.27927954875603039 -0.12738644077152739 0 -0.269259183809134 -0.092175551269514253 0 -0.29186607481136512 -0.10657976852832469 0 -0.2864040922875164 -0.08263917988472641 0 -0.29186607481136512 -0.10657976852832469 0 -0.30445260086669967 -0.085773096285122086 0 -0.31383046227746458 -0.1062221848934692 0 -0.29186607481136512 -0.10657976852832469 0 -0.30445260086669967 -0.085773096285122086 0 -0.30078403940394632 -0.1228575569570648 0 -0.31891113185760678 -0.1244156289722799 0 -0.31383046227746458 -0.1062221848934692 0 -0.29186607481136512 -0.10657976852832469 0 -0.30078403940394632 -0.1228575569570648 0 -0.31383046227746458 -0.1062221848934692 0 -0.27602852234133701 -0.066365442678115824 0 -0.29657236928244951 -0.066795824978556947 0 -0.2864040922875164 -0.08263917988472641 0 -0.28603059434134698 -0.057086361219575971 0 -0.27602852234133701 -0.066365442678115824 0 -0.29657236928244951 -0.066795824978556947 0 -0.29186607481136512 -0.10657976852832469 0 -0.2864040922875164 -0.08263917988472641 0 -0.30445260086669967 -0.085773096285122086 0 -0.29657236928244951 -0.066795824978556947 0 -0.2864040922875164 -0.08263917988472641 0 -0.30445260086669967 -0.085773096285122086 0 -0.29657236928244951 -0.066795824978556947 0 -0.30445260086669967 -0.085773096285122086 0 -0.31703912692203379 -0.064966424041919185 0 -0.30445260086669967 -0.085773096285122086 0 -0.31703912692203379 -0.064966424041919185 0 -0.31703912692203379 -0.064966424041919185 0 -0.33516635096027553 -0.087070393747830432 0 -0.30445260086669967 -0.085773096285122086 0 -0.31703912692203379 -0.064966424041919185 0 -0.33516635096027553 -0.087070393747830432 0 -0.30445260086669967 -0.085773096285122086 0 -0.33516635096027553 -0.087070393747830432 0 -0.31383046227746458 -0.1062221848934692 0 -0.33516635096027553 -0.087070393747830432 0 -0.34566249475218042 -0.099869178819208593 0 -0.33516635096027553 -0.087070393747830432 0 -0.35221739011871678 -0.077769047248747072 0 -0.33540594502462512 -0.060639363164647027 0 -0.33516635096027553 -0.087070393747830432 0 -0.33540594502462512 -0.060639363164647027 0 -0.35221739011871678 -0.077769047248747072 0 -0.33540594502462512 -0.060639363164647027 0 -0.34083045390550792 -0.054478799175520259 0 -0.31703912692203379 -0.064966424041919185 0 -0.33516635096027553 -0.087070393747830432 0 -0.33540594502462512 -0.060639363164647027 0 -0.31891113185760678 -0.1244156289722799 0 -0.31383046227746458 -0.1062221848934692 0 -0.33494106078166508 -0.1119234785571304 0 -0.33516635096027553 -0.087070393747830432 0 -0.31383046227746458 -0.1062221848934692 0 -0.33494106078166508 -0.1119234785571304 0 -0.34018913267761353 -0.1183228710928179 0 -0.34566249475218042 -0.099869178819208593 0 -0.33516635096027553 -0.087070393747830432 0 -0.33494106078166508 -0.1119234785571304 0 -0.33516635096027553 -0.087070393747830432 0 -0.33494106078166508 -0.1119234785571304 0 -0.34566249475218042 -0.099869178819208593 0 -0.33494106078166508 -0.1119234785571304 0 -0.33471577060305779 -0.13677656336643049 0 -0.33494106078166508 -0.1119234785571304 0 -0.34018913267761353 -0.1183228710928179 0 -0.34566249475218042 -0.099869178819208593 0 -0.31891113185760678 -0.1244156289722799 0 -0.33494106078166508 -0.1119234785571304 0 -0.33471577060305779 -0.13677656336643049 0 -0.33494106078166508 -0.1119234785571304 0 -0.34018913267761353 -0.1183228710928179 0 -0.33471577060305779 -0.13677656336643049 0 -0.34956542439473298 -0.1191869236496147 0 -0.34566249475218042 -0.099869178819208593 0 -0.35999200860367642 -0.1173422976709896 0 -0.34018913267761353 -0.1183228710928179 0 -0.34956542439473298 -0.1191869236496147 0 -0.34566249475218042 -0.099869178819208593 0 -0.34956542439473298 -0.1191869236496147 0 -0.35999200860367642 -0.1173422976709896 0 -0.35726704382272928 -0.12792677819997469 0 -0.34018913267761353 -0.1183228710928179 0 -0.34956542439473298 -0.1191869236496147 0 -0.34340497599965708 -0.12990771750654989 0 -0.34566249475218042 -0.099869178819208593 0 -0.35999200860367642 -0.1173422976709896 0 -0.34566249475218042 -0.099869178819208593 0 -0.3643619388480101 -0.10260887662403211 0 -0.35999200860367642 -0.1173422976709896 0 -0.3643619388480101 -0.10260887662403211 0 -0.37556586895243421 -0.088280769288691885 0 -0.37730311894933699 -0.1037545088539835 0 -0.3643619388480101 -0.10260887662403211 0 -0.37112524462420932 -0.1164421910796144 0 -0.37730311894933699 -0.1037545088539835 0 -0.37112524462420932 -0.1164421910796144 0 -0.35999200860367642 -0.1173422976709896 0 -0.37650648757731559 -0.1274487059993111 0 -0.3643619388480101 -0.10260887662403211 0 -0.37112524462420932 -0.1164421910796144 0 -0.35999200860367642 -0.1173422976709896 0 -0.3643619388480101 -0.10260887662403211 0 -0.37112524462420932 -0.1164421910796144 0 -0.37112524462420932 -0.1164421910796144 0 -0.37650648757731559 -0.1274487059993111 0 -0.35221739011871678 -0.077769047248747072 0 -0.35059521293857088 -0.057263738132353553 0 -0.34083045390550792 -0.054478799175520259 0 -0.35221739011871678 -0.077769047248747072 0 -0.36009938766948452 -0.051194529553421839 0 -0.35221739011871678 -0.077769047248747072 0 -0.34083045390550792 -0.054478799175520259 0 -0.34566249475218042 -0.099869178819208593 0 -0.3643619388480101 -0.10260887662403211 0 -0.35221739011871678 -0.077769047248747072 0 -0.3643619388480101 -0.10260887662403211 0 -0.35221739011871678 -0.077769047248747072 0 -0.34566249475218042 -0.099869178819208593 0 -0.35221739011871678 -0.077769047248747072 0 -0.33516635096027553 -0.087070393747830432 0 -0.34566249475218042 -0.099869178819208593 0 -0.35221739011871678 -0.077769047248747072 0 -0.3643619388480101 -0.10260887662403211 0 -0.35221739011871678 -0.077769047248747072 0 -0.37556586895243421 -0.088280769288691885 0 -0.35221739011871678 -0.077769047248747072 0 -0.36009938766948452 -0.051194529553421839 0 -0.37655918218499912 -0.068217097007042191 0 -0.35221739011871678 -0.077769047248747072 0 -0.37655918218499912 -0.068217097007042191 0 -0.37556586895243421 -0.088280769288691885 0 -0.36009938766948452 -0.051194529553421839 0 -0.37907160123037592 -0.048820037027131703 0 -0.37655918218499912 -0.068217097007042191 0 -0.35221739011871678 -0.077769047248747072 0 -0.36009938766948452 -0.051194529553421839 0 -0.35059521293857088 -0.057263738132353553 0 -0.36009938766948452 -0.051194529553421839 0 -0.35059521293857088 -0.057263738132353553 0 -0.34923362006056458 -0.045612576551722198 0 -0.35059521293857088 -0.057263738132353553 0 -0.34923362006056458 -0.045612576551722198 0 -0.34083045390550792 -0.054478799175520259 0 -0.34923362006056458 -0.045612576551722198 0 -0.35318963186021402 -0.03405519468188354 0 -0.33564553908897149 -0.034208332581463601 0 -0.36009938766948452 -0.051194529553421839 0 -0.34923362006056458 -0.045612576551722198 0 -0.35318963186021402 -0.03405519468188354 0 -0.36009938766948452 -0.051194529553421839 0 -0.35318963186021402 -0.03405519468188354 0 -0.3679813852202426 -0.024620011858093729 0 -0.36009938766948452 -0.051194529553421839 0 -0.3679813852202426 -0.024620011858093729 0 -0.36009938766948452 -0.051194529553421839 0 -0.3679813852202426 -0.024620011858093729 0 -0.37907160123037592 -0.048820037027131703 0 -0.3679813852202426 -0.024620011858093729 0 -0.36291849627630512 -0.011003334465895581 0 -0.35726674694407368 -0.021333405950539439 0 -0.35318963186021402 -0.03405519468188354 0 -0.3679813852202426 -0.024620011858093729 0 -0.35726674694407368 -0.021333405950539439 0 -0.3679813852202426 -0.024620011858093729 0 -0.36291849627630512 -0.011003334465895581 0 -0.37586338277100068 0.0019545058372344988 0 -0.36291849627630512 -0.011003334465895581 0 -0.37586338277100068 0.0019545058372344988 0 -0.35848621854042878 0.0035493877830932892 0 -0.3679813852202426 -0.024620011858093729 0 -0.37586338277100068 0.0019545058372344988 0 -0.34631492114257878 -0.016570873726576809 0 -0.35848621854042878 0.0035493877830932892 0 -0.34385549330821541 -0.0030521141313502899 0 -0.34631492114257878 -0.016570873726576809 0 -0.35848621854042878 0.0035493877830932892 0 -0.35452545960934628 -0.012553838251106149 0 -0.34631492114257878 -0.016570873726576809 0 -0.35848621854042878 0.0035493877830932892 0 -0.36291849627630512 -0.011003334465895581 0 -0.35452545960934628 -0.012553838251106149 0 -0.35848621854042878 0.0035493877830932892 0 -0.36291849627630512 -0.011003334465895581 0 -0.35452545960934628 -0.012553838251106149 0 -0.35726674694407368 -0.021333405950539439 0 -0.35318963186021402 -0.03405519468188354 0 -0.34801155083583668 -0.024715754367215091 0 -0.33564553908897149 -0.034208332581463601 0 -0.35318963186021402 -0.03405519468188354 0 -0.35726674694407368 -0.021333405950539439 0 -0.34801155083583668 -0.024715754367215091 0 -0.35452545960934628 -0.012553838251106149 0 -0.35726674694407368 -0.021333405950539439 0 -0.34631492114257878 -0.016570873726576809 0 -0.35726674694407368 -0.021333405950539439 0 -0.34631492114257878 -0.016570873726576809 0 -0.34801155083583668 -0.024715754367215091 0 -0.33518024096845422 -0.021516058851720241 0 -0.32981813867183951 -0.0061192417712125653 0 -0.32537188059897781 -0.0221743245200943 0 -0.34631492114257878 -0.016570873726576809 0 -0.33518024096845422 -0.021516058851720241 0 -0.33564553908897149 -0.034208332581463601 0 -0.34631492114257878 -0.016570873726576809 0 -0.34801155083583668 -0.024715754367215091 0 -0.33564553908897149 -0.034208332581463601 0 -0.34631492114257878 -0.016570873726576809 0 -0.33564553908897149 -0.034208332581463601 0 -0.33518024096845422 -0.021516058851720241 0 -0.33062277628484338 -0.02712673402252468 0 -0.33564553908897149 -0.034208332581463601 0 -0.33518024096845422 -0.021516058851720241 0 -0.33062277628484338 -0.02712673402252468 0 -0.32537188059897781 -0.0221743245200943 0 -0.33062277628484338 -0.02712673402252468 0 -0.32630954465416673 -0.033484713917493948 0 -0.33205874571996341 -0.031937560019797813 0 -0.33062277628484338 -0.02712673402252468 0 -0.33205874571996341 -0.031937560019797813 0 -0.33564553908897149 -0.034208332581463601 0 -0.34631492114257878 -0.016570873726576809 0 -0.32981813867183951 -0.0061192417712125653 0 -0.34385549330821541 -0.0030521141313502899 0 -0.34631492114257878 -0.016570873726576809 0 -0.32981813867183951 -0.0061192417712125653 0 -0.34631492114257878 -0.016570873726576809 0 -0.33518024096845422 -0.021516058851720241 0 -0.32981813867183951 -0.0061192417712125653 0 -0.34385549330821541 -0.0030521141313502899 0 -0.32981813867183951 -0.0061192417712125653 0 -0.34080269487801462 0.0069322711892949931 0 -0.30987599943209893 -0.01791619496714596 0 -0.32981813867183951 -0.0061192417712125653 0 -0.32537188059897781 -0.0221743245200943 0 -0.32981813867183951 -0.0061192417712125653 0 -0.31332135620110318 0.0043323901841563778 0 -0.30987599943209893 -0.01791619496714596 0 -0.32981813867183951 -0.0061192417712125653 0 -0.31332135620110318 0.0043323901841563778 0 -0.33062277628484338 -0.02712673402252468 0 -0.32537188059897781 -0.0221743245200943 0 -0.32630954465416673 -0.033484713917493948 0 -0.32537188059897781 -0.0221743245200943 0 -0.31568328481807439 -0.032709364960495681 0 -0.32630954465416673 -0.033484713917493948 0 -0.30987599943209893 -0.01791619496714596 0 -0.32537188059897781 -0.0221743245200943 0 -0.31568328481807439 -0.032709364960495681 0 -0.29829193660678399 -0.042106480019324363 0 -0.31568328481807439 -0.032709364960495681 0 -0.3263423330055028 -0.049587378311691452 0 -0.31568328481807439 -0.032709364960495681 0 -0.32630954465416673 -0.033484713917493948 0 -0.3263423330055028 -0.049587378311691452 0 -0.31703912692203379 -0.064966424041919185 0 -0.3263423330055028 -0.049587378311691452 0 -0.33540594502462512 -0.060639363164647027 0 -0.29829193660678399 -0.042106480019324363 0 -0.31703912692203379 -0.064966424041919185 0 -0.3263423330055028 -0.049587378311691452 0 -0.31703912692203379 -0.064966424041919185 0 -0.3263423330055028 -0.049587378311691452 0 -0.33540594502462512 -0.060639363164647027 0 -0.34083045390550792 -0.054478799175520259 0 -0.33564553908897149 -0.034208332581463601 0 -0.33540594502462512 -0.060639363164647027 0 -0.33564553908897149 -0.034208332581463601 0 -0.3263423330055028 -0.049587378311691452 0 -0.33540594502462512 -0.060639363164647027 0 -0.33564553908897149 -0.034208332581463601 0 -0.32630954465416673 -0.033484713917493948 0 -0.3263423330055028 -0.049587378311691452 0 -0.33564553908897149 -0.034208332581463601 0 -0.34923362006056458 -0.045612576551722198 0 -0.34083045390550792 -0.054478799175520259 0 -0.33564553908897149 -0.034208332581463601 0 -0.32630954465416673 -0.033484713917493948 0 -0.33205874571996341 -0.031937560019797813 0 -0.33564553908897149 -0.034208332581463601 0 -0.3263423330055028 -0.049587378311691452 0 -0.33564553908897149 -0.034208332581463601 0 -0.30135248256264541 -0.25011025019154232 0 -0.30530464233036803 -0.23365091060391341 0 -0.31722060212611358 -0.24934470963434141 0 -0.30135248256264541 -0.25011025019154232 0 -0.30530464233036803 -0.23365091060391341 0 -0.28813250276720259 -0.23386487898149219 0 -0.30530464233036803 -0.23365091060391341 0 -0.30346407965692163 -0.2168368162066259 0 -0.32107591686267511 -0.22283425654894831 0 -0.30530464233036803 -0.23365091060391341 0 -0.28813250276720259 -0.23386487898149219 0 -0.30346407965692163 -0.2168368162066259 0 -0.28813250276720259 -0.23386487898149219 0 -0.28694061111813152 -0.2132206816953828 0 -0.30346407965692163 -0.2168368162066259 0 -0.28813250276720259 -0.23386487898149219 0 -0.27114042832924978 -0.23137538788118531 0 -0.28694061111813152 -0.2132206816953828 0 -0.2835409387152325 -0.25041316285626603 0 -0.30135248256264541 -0.25011025019154232 0 -0.28813250276720259 -0.23386487898149219 0 -0.28813250276720259 -0.23386487898149219 0 -0.26956626606988687 -0.24595824657802251 0 -0.27114042832924978 -0.23137538788118531 0 -0.2835409387152325 -0.25041316285626603 0 -0.28813250276720259 -0.23386487898149219 0 -0.26956626606988687 -0.24595824657802251 0 -0.25534024554036799 -0.24953009406698781 0 -0.25571962837200518 -0.22937650551787259 0 -0.27114042832924978 -0.23137538788118531 0 -0.26956626606988687 -0.24595824657802251 0 -0.25534024554036799 -0.24953009406698781 0 -0.27114042832924978 -0.23137538788118531 0 -0.24398490533090411 -0.23798917360845631 0 -0.25534024554036799 -0.24953009406698781 0 -0.25571962837200518 -0.22937650551787259 0 -0.25534024554036799 -0.24953009406698781 0 -0.27114042832924978 -0.23137538788118531 0 -0.25571962837200518 -0.22937650551787259 0 -0.27114042832924978 -0.23137538788118531 0 -0.25810050579600641 -0.21099136787076239 0 -0.24513076192569991 -0.22228630733671209 0 -0.25571962837200518 -0.22937650551787259 0 -0.25810050579600641 -0.21099136787076239 0 -0.27114042832924978 -0.23137538788118531 0 -0.28694061111813152 -0.2132206816953828 0 -0.25810050579600641 -0.21099136787076239 0 -0.2695333828073222 -0.1981430513722893 0 -0.28694061111813152 -0.2132206816953828 0 -0.27114042832924978 -0.23137538788118531 0 -0.25810050579600641 -0.21099136787076239 0 -0.28694061111813152 -0.2132206816953828 0 -0.2488743987547265 -0.1964769315240191 0 -0.24513076192569991 -0.22228630733671209 0 -0.25810050579600641 -0.21099136787076239 0 -0.2488743987547265 -0.1964769315240191 0 -0.25480096477913827 -0.19209074860696701 0 -0.25399519627080319 -0.18572101370062019 0 -0.25480096477913827 -0.19209074860696701 0 -0.25789643153735481 -0.1866794693321239 0 -0.25399519627080319 -0.18572101370062019 0 -0.25480096477913827 -0.19209074860696701 0 -0.26038480146967619 -0.19221782310506 0 -0.25789643153735481 -0.1866794693321239 0 -0.2488743987547265 -0.1964769315240191 0 -0.25810050579600641 -0.21099136787076239 0 -0.25833881072137388 -0.19798398449581961 0 -0.2488743987547265 -0.1964769315240191 0 -0.25480096477913827 -0.19209074860696701 0 -0.25833881072137388 -0.19798398449581961 0 -0.25810050579600641 -0.21099136787076239 0 -0.25833881072137388 -0.19798398449581961 0 -0.2695333828073222 -0.1981430513722893 0 -0.25833881072137388 -0.19798398449581961 0 -0.26038480146967619 -0.19221782310506 0 -0.2695333828073222 -0.1981430513722893 0 -0.26038480146967619 -0.19221782310506 0 -0.2695333828073222 -0.1981430513722893 0 -0.2642490191364037 -0.18334460113504969 0 -0.25480096477913827 -0.19209074860696701 0 -0.25833881072137388 -0.19798398449581961 0 -0.26038480146967619 -0.19221782310506 0 -0.2695333828073222 -0.1981430513722893 0 -0.28699433922668499 -0.19731457726515891 0 -0.28694061111813152 -0.2132206816953828 0 -0.2695333828073222 -0.1981430513722893 0 -0.2900683108260288 -0.1817082406206656 0 -0.2695333828073222 -0.1981430513722893 0 -0.28699433922668499 -0.19731457726515891 0 -0.2900683108260288 -0.1817082406206656 0 -0.28699433922668499 -0.19731457726515891 0 -0.30274079390701331 -0.19506597550958019 0 -0.2900683108260288 -0.1817082406206656 0 -0.28699433922668499 -0.19731457726515891 0 -0.28694061111813152 -0.2132206816953828 0 -0.30274079390701331 -0.19506597550958019 0 -0.28694061111813152 -0.2132206816953828 0 -0.30274079390701331 -0.19506597550958019 0 -0.30346407965692163 -0.2168368162066259 0 -0.30274079390701331 -0.19506597550958019 0 -0.31653207543670597 -0.2045073433681541 0 -0.28694061111813152 -0.2132206816953828 0 -0.30346407965692163 -0.2168368162066259 0 -0.30274079390701331 -0.19506597550958019 0 -0.30548833006841808 -0.17973972883076639 0 -0.31060323884473529 -0.165273429869042 0 -0.2900683108260288 -0.1817082406206656 0 -0.30274079390701331 -0.19506597550958019 0 -0.30548833006841808 -0.17973972883076639 0 -0.31854097669589498 -0.17691126932377771 0 -0.31060323884473529 -0.165273429869042 0 -0.2900683108260288 -0.1817082406206656 0 -0.30274079390701331 -0.19506597550958019 0 -0.31854097669589498 -0.17691126932377771 0 -0.30274079390701331 -0.19506597550958019 0 -0.30548833006841808 -0.17973972883076639 0 -0.2900683108260288 -0.1817082406206656 0 -0.30548833006841808 -0.17973972883076639 0 -0.31060323884473529 -0.165273429869042 0 -0.31854097669589498 -0.17691126932377771 0 -0.31060323884473529 -0.165273429869042 0 -0.29625430851641432 -0.16415910285035401 0 -0.2900683108260288 -0.1817082406206656 0 -0.29625430851641432 -0.16415910285035401 0 -0.29187970649107831 -0.15233143325025619 0 -0.30364810621285399 -0.15537567875738889 0 -0.31060323884473529 -0.165273429869042 0 -0.29625430851641432 -0.16415910285035401 0 -0.30364810621285399 -0.15537567875738889 0 -0.29625430851641432 -0.16415910285035401 0 -0.28507218020737513 -0.1661067317544172 0 -0.2900683108260288 -0.1817082406206656 0 -0.29625430851641432 -0.16415910285035401 0 -0.28507218020737513 -0.1661067317544172 0 -0.29187970649107831 -0.15233143325025619 0 -0.28507218020737513 -0.1661067317544172 0 -0.27764780261152261 -0.15435597105306331 0 -0.29187970649107831 -0.15233143325025619 0 -0.28507218020737513 -0.1661067317544172 0 -0.2900683108260288 -0.1817082406206656 0 -0.27550035343900292 -0.17730063395417681 0 -0.2695333828073222 -0.1981430513722893 0 -0.2900683108260288 -0.1817082406206656 0 -0.27550035343900292 -0.17730063395417681 0 -0.2695333828073222 -0.1981430513722893 0 -0.27550035343900292 -0.17730063395417681 0 -0.2642490191364037 -0.18334460113504969 0 -0.27550035343900292 -0.17730063395417681 0 -0.26737876615813461 -0.17370546466514711 0 -0.2642490191364037 -0.18334460113504969 0 -0.27550035343900292 -0.17730063395417681 0 -0.26737876615813461 -0.17370546466514711 0 -0.27258490128151952 -0.16538857693836251 0 -0.2488743987547265 -0.1964769315240191 0 -0.25261803558375312 -0.17066755571132619 0 -0.2488743987547265 -0.1964769315240191 0 -0.25369825060611201 -0.17841623830429701 0 -0.25399519627080319 -0.18572101370062019 0 -0.2488743987547265 -0.1964769315240191 0 -0.25369825060611201 -0.17841623830429701 0 -0.25261803558375312 -0.17066755571132619 0 -0.25784152460556758 -0.1812749105718644 0 -0.2642490191364037 -0.18334460113504969 0 -0.25920427879114749 -0.17473154698905691 0 -0.26038480146967619 -0.19221782310506 0 -0.25789643153735481 -0.1866794693321239 0 -0.2642490191364037 -0.18334460113504969 0 -0.25789643153735481 -0.1866794693321239 0 -0.25784152460556758 -0.1812749105718644 0 -0.2642490191364037 -0.18334460113504969 0 -0.26737876615813461 -0.17370546466514711 0 -0.2642490191364037 -0.18334460113504969 0 -0.25920427879114749 -0.17473154698905691 0 -0.26737876615813461 -0.17370546466514711 0 -0.25920427879114749 -0.17473154698905691 0 -0.2653552781425989 -0.16776196430908921 0 -0.25784152460556758 -0.1812749105718644 0 -0.25920427879114749 -0.17473154698905691 0 -0.25369825060611201 -0.17841623830429701 0 -0.25920427879114749 -0.17473154698905691 0 -0.25490985567174079 -0.1736586077659483 0 -0.25369825060611201 -0.17841623830429701 0 -0.25920427879114749 -0.17473154698905691 0 -0.25649688237314622 -0.1726312702589281 0 -0.25490985567174079 -0.1736586077659483 0 -0.25649688237314622 -0.1726312702589281 0 -0.25490985567174079 -0.1736586077659483 0 -0.25500898878899431 -0.17094729734891301 0 -0.25490985567174079 -0.1736586077659483 0 -0.25369825060611201 -0.17841623830429701 0 -0.25261803558375312 -0.17066755571132619 0 -0.25789643153735481 -0.1866794693321239 0 -0.25784152460556758 -0.1812749105718644 0 -0.25399519627080319 -0.18572101370062019 0 -0.25784152460556758 -0.1812749105718644 0 -0.25369825060611201 -0.17841623830429701 0 -0.25399519627080319 -0.18572101370062019 0 -0.25410649664536111 -0.1689997852579328 0 -0.26085648340178169 -0.1656844403562871 0 -0.26669302270069573 -0.14819311301473009 0 -0.25261803558375312 -0.17066755571132619 0 -0.25636167241277957 -0.1448581798986332 0 -0.25410649664536111 -0.1689997852579328 0 -0.26669302270069573 -0.14819311301473009 0 -0.26085648340178169 -0.1656844403562871 0 -0.26882557485771091 -0.1591519877044254 0 -0.26669302270069573 -0.14819311301473009 0 -0.25744480683564741 -0.1581796584706556 0 -0.25410649664536111 -0.1689997852579328 0 -0.26669302270069573 -0.14819311301473009 0 -0.25744480683564741 -0.1581796584706556 0 -0.25261803558375312 -0.17066755571132619 0 -0.25636167241277957 -0.1448581798986332 0 -0.2462108327293189 -0.16072611239223561 0 -0.25261803558375312 -0.17066755571132619 0 -0.25636167241277957 -0.1448581798986332 0 -0.25744480683564741 -0.1581796584706556 0 -0.25261803558375312 -0.17066755571132619 0 -0.25410649664536111 -0.1689997852579328 0 -0.25649688237314622 -0.1726312702589281 0 -0.25500898878899431 -0.17094729734891301 0 -0.26085648340178169 -0.1656844403562871 0 -0.25500898878899431 -0.17094729734891301 0 -0.25410649664536111 -0.1689997852579328 0 -0.26085648340178169 -0.1656844403562871 0 -0.25261803558375312 -0.17066755571132619 0 -0.25500898878899431 -0.17094729734891301 0 -0.25410649664536111 -0.1689997852579328 0 -0.25490985567174079 -0.1736586077659483 0 -0.25261803558375312 -0.17066755571132619 0 -0.25500898878899431 -0.17094729734891301 0 -0.2653552781425989 -0.16776196430908921 0 -0.26085648340178169 -0.1656844403562871 0 -0.26882557485771091 -0.1591519877044254 0 -0.25920427879114749 -0.17473154698905691 0 -0.2653552781425989 -0.16776196430908921 0 -0.26085648340178169 -0.1656844403562871 0 -0.25920427879114749 -0.17473154698905691 0 -0.25649688237314622 -0.1726312702589281 0 -0.26085648340178169 -0.1656844403562871 0 -0.26882557485771091 -0.1591519877044254 0 -0.27258490128151952 -0.16538857693836251 0 -0.27764780261152261 -0.15435597105306331 0 -0.26737876615813461 -0.17370546466514711 0 -0.2653552781425989 -0.16776196430908921 0 -0.27258490128151952 -0.16538857693836251 0 -0.2653552781425989 -0.16776196430908921 0 -0.26882557485771091 -0.1591519877044254 0 -0.27258490128151952 -0.16538857693836251 0 -0.28507218020737513 -0.1661067317544172 0 -0.27550035343900292 -0.17730063395417681 0 -0.27258490128151952 -0.16538857693836251 0 -0.28507218020737513 -0.1661067317544172 0 -0.27258490128151952 -0.16538857693836251 0 -0.27764780261152261 -0.15435597105306331 0 -0.27764780261152261 -0.15435597105306331 0 -0.26669302270069573 -0.14819311301473009 0 -0.28185708473435389 -0.14393395258607869 0 -0.26882557485771091 -0.1591519877044254 0 -0.27764780261152261 -0.15435597105306331 0 -0.26669302270069573 -0.14819311301473009 0 -0.25744480683564741 -0.1581796584706556 0 -0.26669302270069573 -0.14819311301473009 0 -0.25636167241277957 -0.1448581798986332 0 -0.26669302270069573 -0.14819311301473009 0 -0.25636167241277957 -0.1448581798986332 0 -0.26575860549466468 -0.13341755511168579 0 -0.24577625714512799 -0.14029660564726071 0 -0.25636167241277957 -0.1448581798986332 0 -0.2511891577251894 -0.14057830169355889 0 -0.26010530924180619 -0.1190488040859401 0 -0.25636167241277957 -0.1448581798986332 0 -0.2511891577251894 -0.14057830169355889 0 -0.26010530924180619 -0.1190488040859401 0 -0.25636167241277957 -0.1448581798986332 0 -0.26575860549466468 -0.13341755511168579 0 -0.26010530924180619 -0.1190488040859401 0 -0.25636167241277957 -0.1448581798986332 0 -0.24577625714512799 -0.14029660564726071 0 -0.26010530924180619 -0.1190488040859401 0 -0.2511891577251894 -0.14057830169355889 0 -0.26669302270069573 -0.14819311301473009 0 -0.27927954875603039 -0.12738644077152739 0 -0.26669302270069573 -0.14819311301473009 0 -0.27927954875603039 -0.12738644077152739 0 -0.28185708473435389 -0.14393395258607869 0 -0.26669302270069573 -0.14819311301473009 0 -0.27927954875603039 -0.12738644077152739 0 -0.26575860549466468 -0.13341755511168579 0 -0.26010530924180619 -0.1190488040859401 0 -0.27927954875603039 -0.12738644077152739 0 -0.26575860549466468 -0.13341755511168579 0 -0.27927954875603039 -0.12738644077152739 0 -0.29378534311244231 -0.13740280484081679 0 -0.28185708473435389 -0.14393395258607869 0 -0.30078403940394632 -0.1228575569570648 0 -0.27927954875603039 -0.12738644077152739 0 -0.29378534311244231 -0.13740280484081679 0 -0.27764780261152261 -0.15435597105306331 0 -0.28185708473435389 -0.14393395258607869 0 -0.29187970649107831 -0.15233143325025619 0 -0.29378534311244231 -0.13740280484081679 0 -0.29187970649107831 -0.15233143325025619 0 -0.30164490439757069 -0.14565008621493991 0 -0.29378534311244231 -0.13740280484081679 0 -0.28185708473435389 -0.14393395258607869 0 -0.29187970649107831 -0.15233143325025619 0 -0.31060323884473529 -0.165273429869042 0 -0.30364810621285399 -0.15537567875738889 0 -0.3118796905627107 -0.1480020004902671 0 -0.29187970649107831 -0.15233143325025619 0 -0.30164490439757069 -0.14565008621493991 0 -0.30364810621285399 -0.15537567875738889 0 -0.30164490439757069 -0.14565008621493991 0 -0.30364810621285399 -0.15537567875738889 0 -0.3118796905627107 -0.1480020004902671 0 -0.30164490439757069 -0.14565008621493991 0 -0.3118796905627107 -0.1480020004902671 0 -0.30703167560876848 -0.13513851373597069 0 -0.30078403940394632 -0.1228575569570648 0 -0.31891113185760678 -0.1244156289722799 0 -0.30703167560876848 -0.13513851373597069 0 -0.30078403940394632 -0.1228575569570648 0 -0.29378534311244231 -0.13740280484081679 0 -0.30703167560876848 -0.13513851373597069 0 -0.29378534311244231 -0.13740280484081679 0 -0.30164490439757069 -0.14565008621493991 0 -0.30703167560876848 -0.13513851373597069 0 -0.31891113185760678 -0.1244156289722799 0 -0.3215735211957404 -0.13974395583000421 0 -0.33471577060305779 -0.13677656336643049 0 -0.31891113185760678 -0.1244156289722799 0 -0.30703167560876848 -0.13513851373597069 0 -0.3215735211957404 -0.13974395583000421 0 -0.3118796905627107 -0.1480020004902671 0 -0.3215735211957404 -0.13974395583000421 0 -0.31879865436664978 -0.1504645013266776 0 -0.3118796905627107 -0.1480020004902671 0 -0.30703167560876848 -0.13513851373597069 0 -0.3215735211957404 -0.13974395583000421 0 -0.31060323884473529 -0.165273429869042 0 -0.3118796905627107 -0.1480020004902671 0 -0.31879865436664978 -0.1504645013266776 0 -0.31060323884473529 -0.165273429869042 0 -0.31879865436664978 -0.1504645013266776 0 -0.33113816686342912 -0.1488386191174022 0 -0.3215735211957404 -0.13974395583000421 0 -0.31879865436664978 -0.1504645013266776 0 -0.33113816686342912 -0.1488386191174022 0 -0.3215735211957404 -0.13974395583000421 0 -0.33113816686342912 -0.1488386191174022 0 -0.33471577060305779 -0.13677656336643049 0 -0.33463177544123462 -0.14604256374464161 0 -0.33471577060305779 -0.13677656336643049 0 -0.33113816686342912 -0.1488386191174022 0 -0.33471577060305779 -0.13677656336643049 0 -0.33463177544123462 -0.14604256374464161 0 -0.33113816686342912 -0.1488386191174022 0 -0.33471577060305779 -0.13677656336643049 0 -0.33463177544123462 -0.14604256374464161 0 -0.33113816686342912 -0.1488386191174022 0 -0.34018913267761353 -0.1183228710928179 0 -0.33471577060305779 -0.13677656336643049 0 -0.33463177544123462 -0.14604256374464161 0 -0.33471577060305779 -0.13677656336643049 0 -0.34340497599965708 -0.12990771750654989 0 -0.34018913267761353 -0.1183228710928179 0 -0.33471577060305779 -0.13677656336643049 0 -0.34340497599965708 -0.12990771750654989 0 -0.34956542439473298 -0.1191869236496147 0 -0.34340497599965708 -0.12990771750654989 0 -0.35726704382272928 -0.12792677819997469 0 -0.35726704382272928 -0.12792677819997469 0 -0.3637071157644769 -0.13911950607196119 0 -0.3538914338482626 -0.14600803827979189 0 -0.33463177544123462 -0.14604256374464161 0 -0.35726704382272928 -0.12792677819997469 0 -0.3538914338482626 -0.14600803827979189 0 -0.33463177544123462 -0.14604256374464161 0 -0.35726704382272928 -0.12792677819997469 0 -0.33463177544123462 -0.14604256374464161 0 -0.34340497599965708 -0.12990771750654989 0 -0.35726704382272928 -0.12792677819997469 0 -0.35999200860367642 -0.1173422976709896 0 -0.37432152245514833 -0.13481541652279019 0 -0.35999200860367642 -0.1173422976709896 0 -0.35726704382272928 -0.12792677819997469 0 -0.37432152245514833 -0.13481541652279019 0 -0.35726704382272928 -0.12792677819997469 0 -0.3637071157644769 -0.13911950607196119 0 -0.37432152245514833 -0.13481541652279019 0 -0.35999200860367642 -0.1173422976709896 0 -0.37432152245514833 -0.13481541652279019 0 -0.37650648757731559 -0.1274487059993111 0 -0.3637071157644769 -0.13911950607196119 0 -0.37432152245514833 -0.13481541652279019 0 -0.36934150265767968 -0.14941295198707849 0 -0.3637071157644769 -0.13911950607196119 0 -0.36934150265767968 -0.14941295198707849 0 -0.3538914338482626 -0.14600803827979189 0 -0.36934150265767968 -0.14941295198707849 0 -0.3538914338482626 -0.14600803827979189 0 -0.36027959978185459 -0.1609433421744578 0 -0.33463177544123462 -0.14604256374464161 0 -0.3538914338482626 -0.14600803827979189 0 -0.34593694060822799 -0.15993786936278531 0 -0.3538914338482626 -0.14600803827979189 0 -0.34593694060822799 -0.15993786936278531 0 -0.36027959978185459 -0.1609433421744578 0 -0.34593694060822799 -0.15993786936278531 0 -0.36096666751904982 -0.1793364830981575 0 -0.33436113500529419 -0.175898502199823 0 -0.34593694060822799 -0.15993786936278531 0 -0.36027959978185459 -0.1609433421744578 0 -0.36096666751904982 -0.1793364830981575 0 -0.36027959978185459 -0.1609433421744578 0 -0.36096666751904982 -0.1793364830981575 0 -0.37519830778971541 -0.16330287349887951 0 -0.36934150265767968 -0.14941295198707849 0 -0.36027959978185459 -0.1609433421744578 0 -0.37519830778971541 -0.16330287349887951 0 -0.36096666751904982 -0.1793364830981575 0 -0.38072381114907489 -0.19088025119417529 0 -0.37863568028109928 -0.17763145396319771 0 -0.36096666751904982 -0.1793364830981575 0 -0.37863568028109928 -0.17763145396319771 0 -0.37519830778971541 -0.16330287349887951 0 -0.36096666751904982 -0.1793364830981575 0 -0.33436113500529419 -0.175898502199823 0 -0.35208471071104402 -0.19911344287949301 0 -0.33463177544123462 -0.14604256374464161 0 -0.34593694060822799 -0.15993786936278531 0 -0.33436113500529419 -0.175898502199823 0 -0.33463177544123462 -0.14604256374464161 0 -0.33436113500529419 -0.175898502199823 0 -0.33113816686342912 -0.1488386191174022 0 -0.33436113500529419 -0.175898502199823 0 -0.32621362952548899 -0.16544192351900469 0 -0.33463177544123462 -0.14604256374464161 0 -0.33113816686342912 -0.1488386191174022 0 -0.33436113500529419 -0.175898502199823 0 -0.33113816686342912 -0.1488386191174022 0 -0.32621362952548899 -0.16544192351900469 0 -0.31060323884473529 -0.165273429869042 0 -0.33113816686342912 -0.1488386191174022 0 -0.32621362952548899 -0.16544192351900469 0 -0.31060323884473529 -0.165273429869042 0 -0.33113816686342912 -0.1488386191174022 0 -0.31060323884473529 -0.165273429869042 0 -0.32621362952548899 -0.16544192351900469 0 -0.31854097669589498 -0.17691126932377771 0 -0.32621362952548899 -0.16544192351900469 0 -0.32128909218756529 -0.18204522792061181 0 -0.33436113500529419 -0.175898502199823 0 -0.32621362952548899 -0.16544192351900469 0 -0.32128909218756529 -0.18204522792061181 0 -0.30274079390701331 -0.19506597550958019 0 -0.32128909218756529 -0.18204522792061181 0 -0.31854097669589498 -0.17691126932377771 0 -0.32621362952548899 -0.16544192351900469 0 -0.32128909218756529 -0.18204522792061181 0 -0.31854097669589498 -0.17691126932377771 0 -0.32128909218756529 -0.18204522792061181 0 -0.31653207543670597 -0.2045073433681541 0 -0.33409049456935458 -0.20575444065500439 0 -0.30274079390701331 -0.19506597550958019 0 -0.32128909218756529 -0.18204522792061181 0 -0.31653207543670597 -0.2045073433681541 0 -0.30346407965692163 -0.2168368162066259 0 -0.31653207543670597 -0.2045073433681541 0 -0.32107591686267511 -0.22283425654894831 0 -0.31653207543670597 -0.2045073433681541 0 -0.33409049456935458 -0.20575444065500439 0 -0.32107591686267511 -0.22283425654894831 0 -0.33436113500529419 -0.175898502199823 0 -0.33409049456935458 -0.20575444065500439 0 -0.33436113500529419 -0.175898502199823 0 -0.33409049456935458 -0.20575444065500439 0 -0.35208471071104402 -0.19911344287949301 0 -0.33436113500529419 -0.175898502199823 0 -0.32128909218756529 -0.18204522792061181 0 -0.33409049456935458 -0.20575444065500439 0 -0.36096666751904982 -0.1793364830981575 0 -0.35208471071104402 -0.19911344287949301 0 -0.37051444640536818 -0.20093297152766029 0 -0.36096666751904982 -0.1793364830981575 0 -0.37051444640536818 -0.20093297152766029 0 -0.38072381114907489 -0.19088025119417529 0 -0.35208471071104402 -0.19911344287949301 0 -0.37051444640536818 -0.20093297152766029 0 -0.3645391438583574 -0.21489856293347601 0 -0.37051444640536818 -0.20093297152766029 0 -0.3645391438583574 -0.21489856293347601 0 -0.3813058970595769 -0.21387774659939651 0 -0.35208471071104402 -0.19911344287949301 0 -0.3645391438583574 -0.21489856293347601 0 -0.34734430536945887 -0.21757210513160699 0 -0.33409049456935458 -0.20575444065500439 0 -0.35208471071104402 -0.19911344287949301 0 -0.34734430536945887 -0.21757210513160699 0 -0.3645391438583574 -0.21489856293347601 0 -0.34734430536945887 -0.21757210513160699 0 -0.3580549419247564 -0.22715339943330801 0 -0.34734430536945887 -0.21757210513160699 0 -0.3580549419247564 -0.22715339943330801 0 -0.35023093617404671 -0.23508419229958899 0 -0.34734430536945887 -0.21757210513160699 0 -0.35023093617404671 -0.23508419229958899 0 -0.33381985413342208 -0.2356103791101857 0 -0.3645391438583574 -0.21489856293347601 0 -0.37825513954928391 -0.23418565519173329 0 -0.3813058970595769 -0.21387774659939651 0 -0.3645391438583574 -0.21489856293347601 0 -0.3580549419247564 -0.22715339943330801 0 -0.37825513954928391 -0.23418565519173329 0 -0.3580549419247564 -0.22715339943330801 0 -0.35023093617404671 -0.23508419229958899 0 -0.37825513954928391 -0.23418565519173329 0 -0.36574197782918022 -0.24588091879952639 0 -0.35023093617404671 -0.23508419229958899 0 -0.37825513954928391 -0.23418565519173329 0 -0.35023093617404671 -0.23508419229958899 0 -0.37825513954928391 -0.23418565519173329 0 -0.36757427284176208 -0.25455807078907677 0 -0.36574197782918022 -0.24588091879952639 0 -0.37764468782704042 -0.24899062017314161 0 -0.36574197782918022 -0.24588091879952639 0 -0.37764468782704042 -0.24899062017314161 0 -0.37825513954928391 -0.23418565519173329 0 -0.35668027886030312 -0.25602512018371798 0 -0.35023093617404671 -0.23508419229958899 0 -0.34239593143502273 -0.2469038302415234 0 -0.35668027886030312 -0.25602512018371798 0 -0.35023093617404671 -0.23508419229958899 0 -0.35668027886030312 -0.25602512018371798 0 -0.36574197782918022 -0.24588091879952639 0 -0.35023093617404671 -0.23508419229958899 0 -0.33361653275719072 -0.25803995610263991 0 -0.34239593143502273 -0.2469038302415234 0 -0.33381985413342208 -0.2356103791101857 0 -0.35023093617404671 -0.23508419229958899 0 -0.34239593143502273 -0.2469038302415234 0 -0.33381985413342208 -0.2356103791101857 0 -0.33361653275719072 -0.25803995610263991 0 -0.33381985413342208 -0.2356103791101857 0 -0.32735349430960708 -0.24262562400034121 0 -0.33361653275719072 -0.25803995610263991 0 -0.33381985413342208 -0.2356103791101857 0 -0.35023093617404671 -0.23508419229958899 0 -0.33381985413342208 -0.2356103791101857 0 -0.33409049456935458 -0.20575444065500439 0 -0.34734430536945887 -0.21757210513160699 0 -0.33381985413342208 -0.2356103791101857 0 -0.33409049456935458 -0.20575444065500439 0 -0.33381985413342208 -0.2356103791101857 0 -0.32107591686267511 -0.22283425654894831 0 -0.33409049456935458 -0.20575444065500439 0 -0.33381985413342208 -0.2356103791101857 0 -0.30530464233036803 -0.23365091060391341 0 -0.32107591686267511 -0.22283425654894831 0 -0.3194078345079745 -0.23448687518145109 0 -0.33381985413342208 -0.2356103791101857 0 -0.32107591686267511 -0.22283425654894831 0 -0.3194078345079745 -0.23448687518145109 0 -0.30530464233036803 -0.23365091060391341 0 -0.3194078345079745 -0.23448687518145109 0 -0.31722060212611358 -0.24934470963434141 0 -0.33381985413342208 -0.2356103791101857 0 -0.3194078345079745 -0.23448687518145109 0 -0.32735349430960708 -0.24262562400034121 0 -0.3194078345079745 -0.23448687518145109 0 -0.31722060212611358 -0.24934470963434141 0 -0.32735349430960708 -0.24262562400034121 0 -0.42836401332371432 -0.23865874682188451 0 -0.41862232456115961 -0.2451785838159298 0 -0.44092962542926251 -0.24420782110838621 0 -0.43192748323268432 -0.25712770411644359 0 -0.41862232456115961 -0.2451785838159298 0 -0.44092962542926251 -0.24420782110838621 0 -0.42836401332371432 -0.23865874682188451 0 -0.43591031917992401 -0.23233706318486971 0 -0.41799378412451088 -0.23291151917835209 0 -0.41862232456115961 -0.2451785838159298 0 -0.44092962542926251 -0.24420782110838621 0 -0.42836401332371432 -0.23865874682188451 0 -0.43591031917992401 -0.23233706318486971 0 -0.44092962542926251 -0.24420782110838621 0 -0.43591031917992401 -0.23233706318486971 0 -0.42658374039690727 -0.22046600310872921 0 -0.44106556703794209 -0.21620175214681689 0 -0.43591031917992401 -0.23233706318486971 0 -0.41799378412451088 -0.23291151917835209 0 -0.43591031917992401 -0.23233706318486971 0 -0.42658374039690727 -0.22046600310872921 0 -0.41799378412451088 -0.23291151917835209 0 -0.41799378412451088 -0.23291151917835209 0 -0.41676838838383418 -0.2089957806180093 0 -0.41165072162761918 -0.22133179241106921 0 -0.40627934292452128 -0.23328711808387809 0 -0.40556137107761031 -0.21013275176403709 0 -0.41799378412451088 -0.23291151917835209 0 -0.41165072162761918 -0.22133179241106921 0 -0.41676838838383418 -0.2089957806180093 0 -0.42658374039690727 -0.22046600310872921 0 -0.41799378412451088 -0.23291151917835209 0 -0.41676838838383418 -0.2089957806180093 0 -0.41799378412451088 -0.23291151917835209 0 -0.40627934292452128 -0.23328711808387809 0 -0.41799378412451088 -0.23291151917835209 0 -0.41165072162761918 -0.22133179241106921 0 -0.40627934292452128 -0.23328711808387809 0 -0.41799378412451088 -0.23291151917835209 0 -0.40627934292452128 -0.23328711808387809 0 -0.41238991550589188 -0.2392690486671338 0 -0.40627934292452128 -0.23328711808387809 0 -0.40666421041337558 -0.24569897359037501 0 -0.40627934292452128 -0.23328711808387809 0 -0.41238991550589188 -0.2392690486671338 0 -0.40666421041337558 -0.24569897359037501 0 -0.41799378412451088 -0.23291151917835209 0 -0.41862232456115961 -0.2451785838159298 0 -0.42836401332371432 -0.23865874682188451 0 -0.41799378412451088 -0.23291151917835209 0 -0.41862232456115961 -0.2451785838159298 0 -0.41799378412451088 -0.23291151917835209 0 -0.41238991550589188 -0.2392690486671338 0 -0.41862232456115961 -0.2451785838159298 0 -0.41862232456115961 -0.2451785838159298 0 -0.40666421041337558 -0.24569897359037501 0 -0.41305905268443521 -0.25629159816691388 0 -0.41862232456115961 -0.2451785838159298 0 -0.40666421041337558 -0.24569897359037501 0 -0.41238991550589188 -0.2392690486671338 0 -0.41862232456115961 -0.2451785838159298 0 -0.40666421041337558 -0.24569897359037501 0 -0.40627934292452128 -0.23328711808387809 0 -0.39411142420351142 -0.24624524213269491 0 -0.37825513954928391 -0.23418565519173329 0 -0.40666421041337558 -0.24569897359037501 0 -0.39411142420351142 -0.24624524213269491 0 -0.40016623746553048 -0.25365426733689111 0 -0.40666421041337558 -0.24569897359037501 0 -0.39411142420351142 -0.24624524213269491 0 -0.40627934292452128 -0.23328711808387809 0 -0.40666421041337558 -0.24569897359037501 0 -0.39411142420351142 -0.24624524213269491 0 -0.39411142420351142 -0.24624524213269491 0 -0.37764468782704042 -0.24899062017314161 0 -0.37825513954928391 -0.23418565519173329 0 -0.37825513954928391 -0.23418565519173329 0 -0.39414187063326428 -0.22066022982298619 0 -0.3813058970595769 -0.21387774659939651 0 -0.40627934292452128 -0.23328711808387809 0 -0.40556137107761031 -0.21013275176403709 0 -0.40627934292452128 -0.23328711808387809 0 -0.37825513954928391 -0.23418565519173329 0 -0.40627934292452128 -0.23328711808387809 0 -0.37825513954928391 -0.23418565519173329 0 -0.39414187063326428 -0.22066022982298619 0 -0.40627934292452128 -0.23328711808387809 0 -0.39414187063326428 -0.22066022982298619 0 -0.40556137107761031 -0.21013275176403709 0 -0.40556137107761031 -0.21013275176403709 0 -0.39333469307406671 -0.20770393312013821 0 -0.40066123037045559 -0.20101675105657221 0 -0.40556137107761031 -0.21013275176403709 0 -0.40066123037045559 -0.20101675105657221 0 -0.41196793477421972 -0.19997970878955909 0 -0.39414187063326428 -0.22066022982298619 0 -0.40556137107761031 -0.21013275176403709 0 -0.39333469307406671 -0.20770393312013821 0 -0.39414187063326428 -0.22066022982298619 0 -0.39333469307406671 -0.20770393312013821 0 -0.3813058970595769 -0.21387774659939651 0 -0.39333469307406671 -0.20770393312013821 0 -0.3813058970595769 -0.21387774659939651 0 -0.38360828025367549 -0.201675339855618 0 -0.37051444640536818 -0.20093297152766029 0 -0.3813058970595769 -0.21387774659939651 0 -0.38360828025367549 -0.201675339855618 0 -0.37051444640536818 -0.20093297152766029 0 -0.38072381114907489 -0.19088025119417529 0 -0.38360828025367549 -0.201675339855618 0 -0.38072381114907489 -0.19088025119417529 0 -0.38360828025367549 -0.201675339855618 0 -0.39216255358029051 -0.19498179683671951 0 -0.39333469307406671 -0.20770393312013821 0 -0.38360828025367549 -0.201675339855618 0 -0.39216255358029051 -0.19498179683671951 0 -0.38072381114907489 -0.19088025119417529 0 -0.39216255358029051 -0.19498179683671951 0 -0.39000999676860842 -0.18275449699346799 0 -0.41196793477421972 -0.19997970878955909 0 -0.4003094855404204 -0.17613412208207471 0 -0.39916823006887431 -0.19085073960471921 0 -0.41196793477421972 -0.19997970878955909 0 -0.4003094855404204 -0.17613412208207471 0 -0.39216255358029051 -0.19498179683671951 0 -0.39916823006887431 -0.19085073960471921 0 -0.39000999676860842 -0.18275449699346799 0 -0.39333469307406671 -0.20770393312013821 0 -0.39216255358029051 -0.19498179683671951 0 -0.40066123037045559 -0.20101675105657221 0 -0.39216255358029051 -0.19498179683671951 0 -0.40066123037045559 -0.20101675105657221 0 -0.39916823006887431 -0.19085073960471921 0 -0.40066123037045559 -0.20101675105657221 0 -0.39916823006887431 -0.19085073960471921 0 -0.41196793477421972 -0.19997970878955909 0 -0.41676838838383418 -0.2089957806180093 0 -0.41554299264315792 -0.18508004205766621 0 -0.41676838838383418 -0.2089957806180093 0 -0.42830427984055008 -0.20064089710224151 0 -0.41554299264315792 -0.18508004205766621 0 -0.41196793477421972 -0.19997970878955909 0 -0.41676838838383418 -0.2089957806180093 0 -0.41554299264315792 -0.18508004205766621 0 -0.40556137107761031 -0.21013275176403709 0 -0.41196793477421972 -0.19997970878955909 0 -0.41676838838383418 -0.2089957806180093 0 -0.41165072162761918 -0.22133179241106921 0 -0.40556137107761031 -0.21013275176403709 0 -0.41676838838383418 -0.2089957806180093 0 -0.42658374039690727 -0.22046600310872921 0 -0.41676838838383418 -0.2089957806180093 0 -0.42830427984055008 -0.20064089710224151 0 -0.42658374039690727 -0.22046600310872921 0 -0.42830427984055008 -0.20064089710224151 0 -0.44106556703794209 -0.21620175214681689 0 -0.42830427984055008 -0.20064089710224151 0 -0.44106556703794209 -0.21620175214681689 0 -0.42830427984055008 -0.20064089710224151 0 -0.42636070152507849 -0.17959735092351531 0 -0.41554299264315792 -0.18508004205766621 0 -0.42830427984055008 -0.20064089710224151 0 -0.41554299264315792 -0.18508004205766621 0 -0.42636070152507849 -0.17959735092351531 0 -0.42706895671375589 -0.16519923439750531 0 -0.43951571871923412 -0.180883717792339 0 -0.42830427984055008 -0.20064089710224151 0 -0.42636070152507849 -0.17959735092351531 0 -0.43951571871923412 -0.180883717792339 0 -0.42636070152507849 -0.17959735092351531 0 -0.42706895671375589 -0.16519923439750531 0 -0.4149841453049033 -0.1741731599842479 0 -0.42706895671375589 -0.16519923439750531 0 -0.44379288363427372 -0.16373701776817881 0 -0.43951571871923412 -0.180883717792339 0 -0.42706895671375589 -0.16519923439750531 0 -0.43572698603394922 -0.14346632739800921 0 -0.44379288363427372 -0.16373701776817881 0 -0.42706895671375589 -0.16519923439750531 0 -0.4120280278173839 -0.16345959749200459 0 -0.4149841453049033 -0.1741731599842479 0 -0.42706895671375589 -0.16519923439750531 0 -0.4120280278173839 -0.16345959749200459 0 -0.41552550500241819 -0.1514357457477401 0 -0.4120280278173839 -0.16345959749200459 0 -0.40213012419852279 -0.15494580923318141 0 -0.41552550500241819 -0.1514357457477401 0 -0.4120280278173839 -0.16345959749200459 0 -0.4149841453049033 -0.1741731599842479 0 -0.40209701447488921 -0.16868428871612839 0 -0.41196793477421972 -0.19997970878955909 0 -0.41554299264315792 -0.18508004205766621 0 -0.4003094855404204 -0.17613412208207471 0 -0.41554299264315792 -0.18508004205766621 0 -0.40209701447488921 -0.16868428871612839 0 -0.4149841453049033 -0.1741731599842479 0 -0.41554299264315792 -0.18508004205766621 0 -0.40209701447488921 -0.16868428871612839 0 -0.42636070152507849 -0.17959735092351531 0 -0.4149841453049033 -0.1741731599842479 0 -0.41554299264315792 -0.18508004205766621 0 -0.4149841453049033 -0.1741731599842479 0 -0.41554299264315792 -0.18508004205766621 0 -0.41554299264315792 -0.18508004205766621 0 -0.4003094855404204 -0.17613412208207471 0 -0.40209701447488921 -0.16868428871612839 0 -0.4003094855404204 -0.17613412208207471 0 -0.39000999676860842 -0.18275449699346799 0 -0.38656090133729282 -0.17042229638244219 0 -0.39916823006887431 -0.19085073960471921 0 -0.4003094855404204 -0.17613412208207471 0 -0.39000999676860842 -0.18275449699346799 0 -0.38072381114907489 -0.19088025119417529 0 -0.39000999676860842 -0.18275449699346799 0 -0.37863568028109928 -0.17763145396319771 0 -0.39000999676860842 -0.18275449699346799 0 -0.37863568028109928 -0.17763145396319771 0 -0.38656090133729282 -0.17042229638244219 0 -0.37519830778971541 -0.16330287349887951 0 -0.38656090133729282 -0.17042229638244219 0 -0.38865103630662068 -0.1522885353745905 0 -0.37863568028109928 -0.17763145396319771 0 -0.37519830778971541 -0.16330287349887951 0 -0.38656090133729282 -0.17042229638244219 0 -0.40209701447488921 -0.16868428871612839 0 -0.40213012419852279 -0.15494580923318141 0 -0.38865103630662068 -0.1522885353745905 0 -0.4003094855404204 -0.17613412208207471 0 -0.38656090133729282 -0.17042229638244219 0 -0.38865103630662068 -0.1522885353745905 0 -0.4003094855404204 -0.17613412208207471 0 -0.38865103630662068 -0.1522885353745905 0 -0.40209701447488921 -0.16868428871612839 0 -0.38865103630662068 -0.1522885353745905 0 -0.4003094855404204 -0.17613412208207471 0 -0.40209701447488921 -0.16868428871612839 0 -0.38865103630662068 -0.1522885353745905 0 -0.4120280278173839 -0.16345959749200459 0 -0.40209701447488921 -0.16868428871612839 0 -0.40213012419852279 -0.15494580923318141 0 -0.40213012419852279 -0.15494580923318141 0 -0.39926334879361097 -0.14014752074326881 0 -0.41552550500241819 -0.1514357457477401 0 -0.40213012419852279 -0.15494580923318141 0 -0.38865103630662068 -0.1522885353745905 0 -0.39926334879361097 -0.14014752074326881 0 -0.36934150265767968 -0.14941295198707849 0 -0.37519830778971541 -0.16330287349887951 0 -0.38865103630662068 -0.1522885353745905 0 -0.37432152245514833 -0.13481541652279019 0 -0.38865103630662068 -0.1522885353745905 0 -0.37432152245514833 -0.13481541652279019 0 -0.36934150265767968 -0.14941295198707849 0 -0.38865103630662068 -0.1522885353745905 0 -0.37650648757731559 -0.1274487059993111 0 -0.39292673683943757 -0.12531941359698431 0 -0.39926334879361097 -0.14014752074326881 0 -0.38865103630662068 -0.1522885353745905 0 -0.37650648757731559 -0.1274487059993111 0 -0.39926334879361097 -0.14014752074326881 0 -0.38865103630662068 -0.1522885353745905 0 -0.37650648757731559 -0.1274487059993111 0 -0.37432152245514833 -0.13481541652279019 0 -0.38865103630662068 -0.1522885353745905 0 -0.37650648757731559 -0.1274487059993111 0 -0.39292673683943757 -0.12531941359698431 0 -0.41432686143669339 -0.13439287049749679 0 -0.39292673683943757 -0.12531941359698431 0 -0.39926334879361097 -0.14014752074326881 0 -0.41432686143669339 -0.13439287049749679 0 -0.39292673683943757 -0.12531941359698431 0 -0.41432686143669339 -0.13439287049749679 0 -0.41773372174127732 -0.1189594362128276 0 -0.39926334879361097 -0.14014752074326881 0 -0.41432686143669339 -0.13439287049749679 0 -0.41552550500241819 -0.1514357457477401 0 -0.41432686143669339 -0.13439287049749679 0 -0.41552550500241819 -0.1514357457477401 0 -0.43572698603394922 -0.14346632739800921 0 -0.42706895671375589 -0.16519923439750531 0 -0.41552550500241819 -0.1514357457477401 0 -0.43572698603394922 -0.14346632739800921 0 -0.41432686143669339 -0.13439287049749679 0 -0.41773372174127732 -0.1189594362128276 0 -0.43796811146092302 -0.1222599316136963 0 -0.41432686143669339 -0.13439287049749679 0 -0.43572698603394922 -0.14346632739800921 0 -0.41432686143669339 -0.13439287049749679 0 -0.43572698603394922 -0.14346632739800921 0 -0.43796811146092302 -0.1222599316136963 0 -0.43572698603394922 -0.14346632739800921 0 -0.45539387950892901 -0.1371924195797927 0 -0.43796811146092302 -0.1222599316136963 0 -0.43572698603394922 -0.14346632739800921 0 -0.45712711063120498 -0.15253978429852169 0 -0.45539387950892901 -0.1371924195797927 0 -0.43572698603394922 -0.14346632739800921 0 -0.45712711063120498 -0.15253978429852169 0 -0.43572698603394922 -0.14346632739800921 0 -0.45712711063120498 -0.15253978429852169 0 -0.44379288363427372 -0.16373701776817881 0 -0.45712711063120498 -0.15253978429852169 0 -0.45539387950892901 -0.1371924195797927 0 -0.47771490076650902 -0.14466171925791371 0 -0.45539387950892901 -0.1371924195797927 0 -0.43796811146092302 -0.1222599316136963 0 -0.46843228865205838 -0.1230343353308227 0 -0.45539387950892901 -0.1371924195797927 0 -0.47771490076650902 -0.14466171925791371 0 -0.46843228865205838 -0.1230343353308227 0 -0.5 -0.12677599383346849 0 -0.47771490076650902 -0.14466171925791371 0 -0.46843228865205838 -0.1230343353308227 0 -0.5 -0.12677599383346849 0 -0.47771490076650902 -0.14466171925791371 0 -0.5 -0.15632490009773661 0 -0.45712711063120498 -0.15253978429852169 0 -0.47771490076650902 -0.14466171925791371 0 -0.47873015816994402 -0.17325687778462631 0 -0.47771490076650902 -0.14466171925791371 0 -0.5 -0.15632490009773661 0 -0.47873015816994402 -0.17325687778462631 0 -0.5 -0.15632490009773661 0 -0.5 -0.1858738063620049 0 -0.47873015816994402 -0.17325687778462631 0 -0.5 -0.1858738063620049 0 -0.47873015816994402 -0.17325687778462631 0 -0.48589534765145781 -0.19672643911721119 0 -0.47873015816994402 -0.17325687778462631 0 -0.45663331468178109 -0.17737937960770639 0 -0.46937290941839832 -0.1961589574610644 0 -0.45712711063120498 -0.15253978429852169 0 -0.47873015816994402 -0.17325687778462631 0 -0.45663331468178109 -0.17737937960770639 0 -0.45712711063120498 -0.15253978429852169 0 -0.45663331468178109 -0.17737937960770639 0 -0.44379288363427372 -0.16373701776817881 0 -0.45663331468178109 -0.17737937960770639 0 -0.44379288363427372 -0.16373701776817881 0 -0.43951571871923412 -0.180883717792339 0 -0.45663331468178109 -0.17737937960770639 0 -0.43951571871923412 -0.180883717792339 0 -0.44981494182191029 -0.19809159986810179 0 -0.42830427984055008 -0.20064089710224151 0 -0.43951571871923412 -0.180883717792339 0 -0.44981494182191029 -0.19809159986810179 0 -0.44981494182191029 -0.19809159986810179 0 -0.44106556703794209 -0.21620175214681689 0 -0.4617783008394456 -0.21417575193522359 0 -0.42830427984055008 -0.20064089710224151 0 -0.44981494182191029 -0.19809159986810179 0 -0.44106556703794209 -0.21620175214681689 0 -0.45663331468178109 -0.17737937960770639 0 -0.44981494182191029 -0.19809159986810179 0 -0.46937290941839832 -0.1961589574610644 0 -0.44981494182191029 -0.19809159986810179 0 -0.4617783008394456 -0.21417575193522359 0 -0.46937290941839832 -0.1961589574610644 0 -0.47873015816994402 -0.17325687778462631 0 -0.46937290941839832 -0.1961589574610644 0 -0.48589534765145781 -0.19672643911721119 0 -0.46937290941839832 -0.1961589574610644 0 -0.48589534765145781 -0.19672643911721119 0 -0.48137367066894682 -0.21291984135208711 0 -0.5 -0.1858738063620049 0 -0.48589534765145781 -0.19672643911721119 0 -0.5 -0.21542271262627311 0 -0.48589534765145781 -0.19672643911721119 0 -0.5 -0.21542271262627311 0 -0.48137367066894682 -0.21291984135208711 0 -0.5 -0.21542271262627311 0 -0.48137367066894682 -0.21291984135208711 0 -0.4891753270093443 -0.22242448656055119 0 -0.4617783008394456 -0.21417575193522359 0 -0.46937290941839832 -0.1961589574610644 0 -0.48137367066894682 -0.21291984135208711 0 -0.4617783008394456 -0.21417575193522359 0 -0.48137367066894682 -0.21291984135208711 0 -0.47638483053458919 -0.23103933315174391 0 -0.48137367066894682 -0.21291984135208711 0 -0.47638483053458919 -0.23103933315174391 0 -0.4891753270093443 -0.22242448656055119 0 -0.47638483053458919 -0.23103933315174391 0 -0.4891753270093443 -0.22242448656055119 0 -0.49894280683384118 -0.2303160591121006 0 -0.47638483053458919 -0.23103933315174391 0 -0.49894280683384118 -0.2303160591121006 0 -0.5 -0.21542271262627311 0 -0.49894280683384118 -0.2303160591121006 0 -0.5 -0.24497161889054131 0 -0.5 -0.21542271262627311 0 -0.4891753270093443 -0.22242448656055119 0 -0.49894280683384118 -0.2303160591121006 0 -0.47638483053458919 -0.23103933315174391 0 -0.49894280683384118 -0.2303160591121006 0 -0.48632640097225122 -0.2422322572783894 0 -0.49894280683384118 -0.2303160591121006 0 -0.5 -0.24497161889054131 0 -0.48632640097225122 -0.2422322572783894 0 -0.48849233615110238 -0.25564364008010299 0 -0.5 -0.24497161889054131 0 -0.48632640097225122 -0.2422322572783894 0 -0.4760503822597833 -0.25136953932998712 0 -0.48632640097225122 -0.2422322572783894 0 -0.46323692629736518 -0.24323705840084281 0 -0.48632640097225122 -0.2422322572783894 0 -0.46323692629736518 -0.24323705840084281 0 -0.4760503822597833 -0.25136953932998712 0 -0.48849233615110238 -0.25564364008010299 0 -0.48632640097225122 -0.2422322572783894 0 -0.47638483053458919 -0.23103933315174391 0 -0.48632640097225122 -0.2422322572783894 0 -0.46323692629736518 -0.24323705840084281 0 -0.46703257367587808 -0.25037202600514408 0 -0.4760503822597833 -0.25136953932998712 0 -0.46323692629736518 -0.24323705840084281 0 -0.47638483053458919 -0.23103933315174391 0 -0.46323692629736518 -0.24323705840084281 0 -0.45382685423533731 -0.23176260719138969 0 -0.46703257367587808 -0.25037202600514408 0 -0.46323692629736518 -0.24323705840084281 0 -0.46280675988418207 -0.24924293530940511 0 -0.45388261704758309 -0.25188450484146541 0 -0.46323692629736518 -0.24323705840084281 0 -0.46280675988418207 -0.24924293530940511 0 -0.46323692629736518 -0.24323705840084281 0 -0.45382685423533731 -0.23176260719138969 0 -0.4617783008394456 -0.21417575193522359 0 -0.47638483053458919 -0.23103933315174391 0 -0.45382685423533731 -0.23176260719138969 0 -0.47638483053458919 -0.23103933315174391 0 -0.45382685423533731 -0.23176260719138969 0 -0.43591031917992401 -0.23233706318486971 0 -0.44106556703794209 -0.21620175214681689 0 -0.45382685423533731 -0.23176260719138969 0 -0.44106556703794209 -0.21620175214681689 0 -0.4617783008394456 -0.21417575193522359 0 -0.45382685423533731 -0.23176260719138969 0 -0.43591031917992401 -0.23233706318486971 0 -0.45382685423533731 -0.23176260719138969 0 -0.44106556703794209 -0.21620175214681689 0 -0.45382685423533731 -0.23176260719138969 0 -0.46323692629736518 -0.24323705840084281 0 -0.45382685423533731 -0.23176260719138969 0 -0.44092962542926251 -0.24420782110838621 0 -0.43591031917992401 -0.23233706318486971 0 -0.45382685423533731 -0.23176260719138969 0 -0.44092962542926251 -0.24420782110838621 0 -0.46323692629736518 -0.24323705840084281 0 -0.44092962542926251 -0.24420782110838621 0 -0.45388261704758309 -0.25188450484146541 0 -0.46323692629736518 -0.24323705840084281 0 -0.44092962542926251 -0.24420782110838621 0 -0.42026371641198867 -0.053465418963322922 0 -0.41046337971554592 -0.026164547143641709 0 -0.39487427071928161 -0.038829037723471863 0 -0.42026371641198867 -0.053465418963322922 0 -0.43021686657863117 -0.027486697905044641 0 -0.41046337971554592 -0.026164547143641709 0 -0.42026371641198867 -0.053465418963322922 0 -0.42554002313377293 -0.069072793798440835 0 -0.44241618659373277 -0.064284228531334184 0 -0.42026371641198867 -0.053465418963322922 0 -0.44241618659373277 -0.064284228531334184 0 -0.44060834124154019 -0.045293472880420217 0 -0.42026371641198867 -0.053465418963322922 0 -0.43021686657863117 -0.027486697905044641 0 -0.44060834124154019 -0.045293472880420217 0 -0.43021686657863117 -0.027486697905044641 0 -0.43140134465179658 -0.0040513762586762911 0 -0.41638703995461551 -0.0072738463822082863 0 -0.43021686657863117 -0.027486697905044641 0 -0.43140134465179658 -0.0040513762586762911 0 -0.44633470637967781 -0.007630254119278132 0 -0.43140134465179658 -0.0040513762586762911 0 -0.41638703995461551 -0.0072738463822082863 0 -0.42980825817548279 0.011221990584159359 0 -0.43021686657863117 -0.027486697905044641 0 -0.41638703995461551 -0.0072738463822082863 0 -0.41046337971554592 -0.026164547143641709 0 -0.41638703995461551 -0.0072738463822082863 0 -0.41046337971554592 -0.026164547143641709 0 -0.3928159067085199 -0.017191530797269969 0 -0.41046337971554592 -0.026164547143641709 0 -0.3928159067085199 -0.017191530797269969 0 -0.39487427071928161 -0.038829037723471863 0 -0.41638703995461551 -0.0072738463822082863 0 -0.3928159067085199 -0.017191530797269969 0 -0.39562906181429391 8.540701072373599e-05 0 -0.3928159067085199 -0.017191530797269969 0 -0.37586338277100068 0.0019545058372344988 0 -0.39562906181429391 8.540701072373599e-05 0 -0.3679813852202426 -0.024620011858093729 0 -0.3928159067085199 -0.017191530797269969 0 -0.37586338277100068 0.0019545058372344988 0 -0.3679813852202426 -0.024620011858093729 0 -0.3928159067085199 -0.017191530797269969 0 -0.39487427071928161 -0.038829037723471863 0 -0.3679813852202426 -0.024620011858093729 0 -0.39487427071928161 -0.038829037723471863 0 -0.37907160123037592 -0.048820037027131703 0 -0.42026371641198867 -0.053465418963322922 0 -0.39487427071928161 -0.038829037723471863 0 -0.39584378035787188 -0.061239508993628899 0 -0.39487427071928161 -0.038829037723471863 0 -0.39584378035787188 -0.061239508993628899 0 -0.37907160123037592 -0.048820037027131703 0 -0.39584378035787188 -0.061239508993628899 0 -0.37907160123037592 -0.048820037027131703 0 -0.37655918218499912 -0.068217097007042191 0 -0.39584378035787188 -0.061239508993628899 0 -0.37655918218499912 -0.068217097007042191 0 -0.39269214415292347 -0.080679514573833808 0 -0.37556586895243421 -0.088280769288691885 0 -0.39269214415292347 -0.080679514573833808 0 -0.39068723898523972 -0.098123474769372845 0 -0.37655918218499912 -0.068217097007042191 0 -0.37556586895243421 -0.088280769288691885 0 -0.39269214415292347 -0.080679514573833808 0 -0.39269214415292347 -0.080679514573833808 0 -0.39068723898523972 -0.098123474769372845 0 -0.40827671313921571 -0.092709568477118837 0 -0.39269214415292347 -0.080679514573833808 0 -0.40922008129778042 -0.075506668907148217 0 -0.40827671313921571 -0.092709568477118837 0 -0.39584378035787188 -0.061239508993628899 0 -0.39269214415292347 -0.080679514573833808 0 -0.40922008129778042 -0.075506668907148217 0 -0.37112524462420932 -0.1164421910796144 0 -0.37650648757731559 -0.1274487059993111 0 -0.39292673683943757 -0.12531941359698431 0 -0.37112524462420932 -0.1164421910796144 0 -0.39292673683943757 -0.12531941359698431 0 -0.38694003641199037 -0.11065340033208 0 -0.37112524462420932 -0.1164421910796144 0 -0.39292673683943757 -0.12531941359698431 0 -0.37112524462420932 -0.1164421910796144 0 -0.38694003641199037 -0.11065340033208 0 -0.37730311894933699 -0.1037545088539835 0 -0.38694003641199037 -0.11065340033208 0 -0.37730311894933699 -0.1037545088539835 0 -0.39068723898523972 -0.098123474769372845 0 -0.37556586895243421 -0.088280769288691885 0 -0.37730311894933699 -0.1037545088539835 0 -0.39068723898523972 -0.098123474769372845 0 -0.40353952539034149 -0.1083936144639531 0 -0.39068723898523972 -0.098123474769372845 0 -0.40827671313921571 -0.092709568477118837 0 -0.38694003641199037 -0.11065340033208 0 -0.40353952539034149 -0.1083936144639531 0 -0.39068723898523972 -0.098123474769372845 0 -0.39292673683943757 -0.12531941359698431 0 -0.38694003641199037 -0.11065340033208 0 -0.40353952539034149 -0.1083936144639531 0 -0.39292673683943757 -0.12531941359698431 0 -0.40353952539034149 -0.1083936144639531 0 -0.41773372174127732 -0.1189594362128276 0 -0.40353952539034149 -0.1083936144639531 0 -0.41773372174127732 -0.1189594362128276 0 -0.42542819853069952 -0.10380190582138379 0 -0.40353952539034149 -0.1083936144639531 0 -0.42542819853069952 -0.10380190582138379 0 -0.40827671313921571 -0.092709568477118837 0 -0.42542819853069952 -0.10380190582138379 0 -0.43026010823158978 -0.083034858791958016 0 -0.45181671259765888 -0.098041519383210499 0 -0.41773372174127732 -0.1189594362128276 0 -0.42542819853069952 -0.10380190582138379 0 -0.43796811146092302 -0.1222599316136963 0 -0.42026371641198867 -0.053465418963322922 0 -0.39584378035787188 -0.061239508993628899 0 -0.40922008129778042 -0.075506668907148217 0 -0.40922008129778042 -0.075506668907148217 0 -0.43026010823158978 -0.083034858791958016 0 -0.42554002313377293 -0.069072793798440835 0 -0.42026371641198867 -0.053465418963322922 0 -0.40922008129778042 -0.075506668907148217 0 -0.42554002313377293 -0.069072793798440835 0 -0.42542819853069952 -0.10380190582138379 0 -0.40827671313921571 -0.092709568477118837 0 -0.43026010823158978 -0.083034858791958016 0 -0.40922008129778042 -0.075506668907148217 0 -0.40827671313921571 -0.092709568477118837 0 -0.43026010823158978 -0.083034858791958016 0 -0.43026010823158978 -0.083034858791958016 0 -0.42554002313377293 -0.069072793798440835 0 -0.44241618659373277 -0.064284228531334184 0 -0.43026010823158978 -0.083034858791958016 0 -0.44241618659373277 -0.064284228531334184 0 -0.44767292826274441 -0.081007909146761675 0 -0.43026010823158978 -0.083034858791958016 0 -0.44767292826274441 -0.081007909146761675 0 -0.45181671259765888 -0.098041519383210499 0 -0.45181671259765888 -0.098041519383210499 0 -0.47595829157051728 -0.10058856619760879 0 -0.47070038034200029 -0.074595363690283703 0 -0.44767292826274441 -0.081007909146761675 0 -0.45181671259765888 -0.098041519383210499 0 -0.47070038034200029 -0.074595363690283703 0 -0.44241618659373277 -0.064284228531334184 0 -0.47070038034200029 -0.074595363690283703 0 -0.46212417193740679 -0.052375719497548531 0 -0.44241618659373277 -0.064284228531334184 0 -0.44767292826274441 -0.081007909146761675 0 -0.47070038034200029 -0.074595363690283703 0 -0.43796811146092302 -0.1222599316136963 0 -0.45181671259765888 -0.098041519383210499 0 -0.46843228865205838 -0.1230343353308227 0 -0.42542819853069952 -0.10380190582138379 0 -0.43796811146092302 -0.1222599316136963 0 -0.45181671259765888 -0.098041519383210499 0 -0.45181671259765888 -0.098041519383210499 0 -0.46843228865205838 -0.1230343353308227 0 -0.47595829157051728 -0.10058856619760879 0 -0.5 -0.12677599383346849 0 -0.46843228865205838 -0.1230343353308227 0 -0.47595829157051728 -0.10058856619760879 0 -0.5 -0.12677599383346849 0 -0.47595829157051728 -0.10058856619760879 0 -0.5 -0.097227087569200288 0 -0.47070038034200029 -0.074595363690283703 0 -0.5 -0.067678181304932084 0 -0.4819127015611237 -0.053472057772443793 0 -0.47595829157051728 -0.10058856619760879 0 -0.5 -0.097227087569200288 0 -0.47070038034200029 -0.074595363690283703 0 -0.5 -0.097227087569200288 0 -0.47070038034200029 -0.074595363690283703 0 -0.5 -0.067678181304932084 0 -0.5 -0.067678181304932084 0 -0.50000000000000089 -0.038129275040663872 0 -0.4819127015611237 -0.053472057772443793 0 -0.50000000000000089 -0.038129275040663872 0 -0.47673895552621098 -0.034581749328790698 0 -0.50000000000000089 -0.038129275040663872 0 -0.47673895552621098 -0.034581749328790698 0 -0.4819127015611237 -0.053472057772443793 0 -0.47673895552621098 -0.034581749328790698 0 -0.4819127015611237 -0.053472057772443793 0 -0.46212417193740679 -0.052375719497548531 0 -0.47070038034200029 -0.074595363690283703 0 -0.4819127015611237 -0.053472057772443793 0 -0.46212417193740679 -0.052375719497548531 0 -0.47673895552621098 -0.034581749328790698 0 -0.45347791105242108 -0.031034223616917669 0 -0.47673895552621098 -0.034581749328790698 0 -0.46212417193740679 -0.052375719497548531 0 -0.45347791105242108 -0.031034223616917669 0 -0.43021686657863117 -0.027486697905044641 0 -0.44060834124154019 -0.045293472880420217 0 -0.45347791105242108 -0.031034223616917669 0 -0.46212417193740679 -0.052375719497548531 0 -0.44060834124154019 -0.045293472880420217 0 -0.45347791105242108 -0.031034223616917669 0 -0.44241618659373277 -0.064284228531334184 0 -0.46212417193740679 -0.052375719497548531 0 -0.44060834124154019 -0.045293472880420217 0 -0.43140134465179658 -0.0040513762586762911 0 -0.44633470637967781 -0.007630254119278132 0 -0.44616908948812839 0.010652187374221319 0 -0.43021686657863117 -0.027486697905044641 0 -0.44633470637967781 -0.007630254119278132 0 -0.45347791105242108 -0.031034223616917669 0 -0.43021686657863117 -0.027486697905044641 0 -0.45347791105242108 -0.031034223616917669 0 -0.47673895552621098 -0.034581749328790698 0 -0.45347791105242108 -0.031034223616917669 0 -0.46834859675825341 -0.022110181353677979 0 -0.45347791105242108 -0.031034223616917669 0 -0.46834859675825341 -0.022110181353677979 0 -0.45962087816689662 -0.013510164294281949 0 -0.44633470637967781 -0.007630254119278132 0 -0.45347791105242108 -0.031034223616917669 0 -0.45962087816689662 -0.013510164294281949 0 -0.46834859675825341 -0.022110181353677979 0 -0.45962087816689662 -0.013510164294281949 0 -0.47202978705225151 -0.0065354077420677736 0 -0.44633470637967781 -0.007630254119278132 0 -0.45962087816689662 -0.013510164294281949 0 -0.45899100081414151 0.00078915980014676503 0 -0.45962087816689662 -0.013510164294281949 0 -0.47202978705225151 -0.0065354077420677736 0 -0.45899100081414151 0.00078915980014676503 0 -0.47202978705225151 -0.0065354077420677736 0 -0.48438574741380858 -0.019977191586437081 0 -0.48538265169408851 -0.0064676082628929267 0 -0.47202978705225151 -0.0065354077420677736 0 -0.48538265169408851 -0.0064676082628929267 0 -0.47864341741602212 0.0030270442414996779 0 -0.46834859675825341 -0.022110181353677979 0 -0.47202978705225151 -0.0065354077420677736 0 -0.48438574741380858 -0.019977191586437081 0 -0.47673895552621098 -0.034581749328790698 0 -0.46834859675825341 -0.022110181353677979 0 -0.48438574741380858 -0.019977191586437081 0 -0.50000000000000089 -0.038129275040663872 0 -0.47673895552621098 -0.034581749328790698 0 -0.48438574741380858 -0.019977191586437081 0 -0.50000000000000089 -0.038129275040663872 0 -0.48438574741380858 -0.019977191586437081 0 -0.5 -0.01221990186561028 0 -0.48538265169408851 -0.0064676082628929267 0 -0.5 -0.01221990186561028 0 -0.48814886097969667 0.0055914001976607886 0 -0.48438574741380858 -0.019977191586437081 0 -0.48538265169408851 -0.0064676082628929267 0 -0.5 -0.01221990186561028 0 -0.5 -0.01221990186561028 0 -0.50000000000000111 0.01368947130944336 0 -0.48814886097969667 0.0055914001976607886 0 -0.50000000000000111 0.01368947130944336 0 -0.48814886097969667 0.0055914001976607886 0 -0.48426371447694228 0.018132389469507511 0 -0.48426371447694228 0.018132389469507511 0 -0.5 0.040533832524933373 0 -0.48148346772098771 0.033178762502599532 0 -0.50000000000000111 0.01368947130944336 0 -0.48426371447694228 0.018132389469507511 0 -0.5 0.040533832524933373 0 -0.50000000000000111 0.01368947130944336 0 -0.48426371447694228 0.018132389469507511 0 -0.48426371447694228 0.018132389469507511 0 -0.47690857398832642 0.013391077062049809 0 -0.46852742895388361 0.02257530762957171 0 -0.48426371447694228 0.018132389469507511 0 -0.46852742895388361 0.02257530762957171 0 -0.48426371447694228 0.018132389469507511 0 -0.48148346772098771 0.033178762502599532 0 -0.46852742895388361 0.02257530762957171 0 -0.47690857398832642 0.013391077062049809 0 -0.46873839445061272 0.016525770232662901 0 -0.46852742895388361 0.02257530762957171 0 -0.46920742201357107 0.0063425585041254999 0 -0.47690857398832642 0.013391077062049809 0 -0.46873839445061272 0.016525770232662901 0 -0.46920742201357107 0.0063425585041254999 0 -0.47864341741602212 0.0030270442414996779 0 -0.47690857398832642 0.013391077062049809 0 -0.47202978705225151 -0.0065354077420677736 0 -0.46920742201357107 0.0063425585041254999 0 -0.47864341741602212 0.0030270442414996779 0 -0.48814886097969667 0.0055914001976607886 0 -0.47864341741602212 0.0030270442414996779 0 -0.47690857398832642 0.013391077062049809 0 -0.48538265169408851 -0.0064676082628929267 0 -0.48814886097969667 0.0055914001976607886 0 -0.47864341741602212 0.0030270442414996779 0 -0.48814886097969667 0.0055914001976607886 0 -0.48426371447694228 0.018132389469507511 0 -0.47690857398832642 0.013391077062049809 0 -0.48530618946123921 0.055304871483770841 0 -0.5 0.040533832524933373 0 -0.5 0.06737819374042342 0 -0.48530618946123921 0.055304871483770841 0 -0.5 0.040533832524933373 0 -0.48144775784701721 0.044331854631647273 0 -0.5 0.040533832524933373 0 -0.48148346772098771 0.033178762502599532 0 -0.48144775784701721 0.044331854631647273 0 -0.48148346772098771 0.033178762502599532 0 -0.47512669755073311 0.038281700311278338 0 -0.46852742895388361 0.02257530762957171 0 -0.47512669755073311 0.038281700311278338 0 -0.4693924257154436 0.046237345039591142 0 -0.46852742895388361 0.02257530762957171 0 -0.48148346772098771 0.033178762502599532 0 -0.47512669755073311 0.038281700311278338 0 -0.48144775784701721 0.044331854631647273 0 -0.47512669755073311 0.038281700311278338 0 -0.4693924257154436 0.046237345039591142 0 -0.47535696273057632 0.044744808988356727 0 -0.47535696273057632 0.044744808988356727 0 -0.48144775784701721 0.044331854631647273 0 -0.47546096980911151 0.05012833597091014 0 -0.47512669755073311 0.038281700311278338 0 -0.47535696273057632 0.044744808988356727 0 -0.48144775784701721 0.044331854631647273 0 -0.48530618946123921 0.055304871483770841 0 -0.48144775784701721 0.044331854631647273 0 -0.47546096980911151 0.05012833597091014 0 -0.47546096980911151 0.05012833597091014 0 -0.47443887449724598 0.059127066520884911 0 -0.46763390737020971 0.04819747011222103 0 -0.4693924257154436 0.046237345039591142 0 -0.47535696273057632 0.044744808988356727 0 -0.47546096980911151 0.05012833597091014 0 -0.4693924257154436 0.046237345039591142 0 -0.47546096980911151 0.05012833597091014 0 -0.46763390737020971 0.04819747011222103 0 -0.47443887449724598 0.059127066520884911 0 -0.46763390737020971 0.04819747011222103 0 -0.46712973440647332 0.062654873080568996 0 -0.48530618946123921 0.055304871483770841 0 -0.47546096980911151 0.05012833597091014 0 -0.47443887449724598 0.059127066520884911 0 -0.48530618946123921 0.055304871483770841 0 -0.47443887449724598 0.059127066520884911 0 -0.48148159278886737 0.068106439011092007 0 -0.46155539729252359 0.054972855788364028 0 -0.46763390737020971 0.04819747011222103 0 -0.46712973440647332 0.062654873080568996 0 -0.46763390737020971 0.04819747011222103 0 -0.46712973440647332 0.062654873080568996 0 -0.46155539729252359 0.054972855788364028 0 -0.46712973440647332 0.062654873080568996 0 -0.46155539729252359 0.054972855788364028 0 -0.46763390737020971 0.04819747011222103 0 -0.4693924257154436 0.046237345039591142 0 -0.46763390737020971 0.04819747011222103 0 -0.46763390737020971 0.04819747011222103 0 -0.46852742895388361 0.02257530762957171 0 -0.46155539729252359 0.054972855788364028 0 -0.44596226176755482 0.03348389050085418 0 -0.46155539729252359 0.054972855788364028 0 -0.46763390737020971 0.04819747011222103 0 -0.45871934785722018 0.036917216918424443 0 -0.46763390737020971 0.04819747011222103 0 -0.45871934785722018 0.036917216918424443 0 -0.46852742895388361 0.02257530762957171 0 -0.46155539729252359 0.054972855788364028 0 -0.45871934785722018 0.036917216918424443 0 -0.44596226176755482 0.03348389050085418 0 -0.4693924257154436 0.046237345039591142 0 -0.46763390737020971 0.04819747011222103 0 -0.46852742895388361 0.02257530762957171 0 -0.44596226176755482 0.03348389050085418 0 -0.44578440920489482 0.053117027198969519 0 -0.44596226176755482 0.03348389050085418 0 -0.44578440920489482 0.053117027198969519 0 -0.43259187264536719 0.040311373504760793 0 -0.45871934785722018 0.036917216918424443 0 -0.44596226176755482 0.03348389050085418 0 -0.44600347259657869 0.02893462886772075 0 -0.44596226176755482 0.03348389050085418 0 -0.44322947639634969 0.029717827550527261 0 -0.44596226176755482 0.03348389050085418 0 -0.44322947639634969 0.029717827550527261 0 -0.43259187264536719 0.040311373504760793 0 -0.46155539729252359 0.054972855788364028 0 -0.44596226176755482 0.03348389050085418 0 -0.44578440920489482 0.053117027198969519 0 -0.46155539729252359 0.054972855788364028 0 -0.44578440920489482 0.053117027198969519 0 -0.44560655664223459 0.072750163897084774 0 -0.45993335836007282 0.010857707430461629 0 -0.45656059714123393 0.018830630305848368 0 -0.44616908948812839 0.010652187374221319 0 -0.45993335836007282 0.010857707430461629 0 -0.45899100081414151 0.00078915980014676503 0 -0.44616908948812839 0.010652187374221319 0 -0.47202978705225151 -0.0065354077420677736 0 -0.46920742201357107 0.0063425585041254999 0 -0.45899100081414151 0.00078915980014676503 0 -0.46920742201357107 0.0063425585041254999 0 -0.45993335836007282 0.010857707430461629 0 -0.45899100081414151 0.00078915980014676503 0 -0.46920742201357107 0.0063425585041254999 0 -0.45993335836007282 0.010857707430461629 0 -0.46873839445061272 0.016525770232662901 0 -0.45993335836007282 0.010857707430461629 0 -0.46873839445061272 0.016525770232662901 0 -0.45656059714123393 0.018830630305848368 0 -0.46852742895388361 0.02257530762957171 0 -0.44600347259657869 0.02893462886772075 0 -0.45871934785722018 0.036917216918424443 0 -0.46852742895388361 0.02257530762957171 0 -0.44600347259657869 0.02893462886772075 0 -0.46852742895388361 0.02257530762957171 0 -0.45656059714123393 0.018830630305848368 0 -0.44600347259657869 0.02893462886772075 0 -0.46873839445061272 0.016525770232662901 0 -0.46852742895388361 0.02257530762957171 0 -0.45656059714123393 0.018830630305848368 0 -0.46873839445061272 0.016525770232662901 0 -0.46852742895388361 0.02257530762957171 0 -0.44322947639634969 0.029717827550527261 0 -0.44616908948812839 0.010652187374221319 0 -0.42980825817548279 0.011221990584159359 0 -0.44600347259657869 0.02893462886772075 0 -0.44322947639634969 0.029717827550527261 0 -0.44616908948812839 0.010652187374221319 0 -0.44600347259657869 0.02893462886772075 0 -0.44616908948812839 0.010652187374221319 0 -0.45656059714123393 0.018830630305848368 0 -0.44600347259657869 0.02893462886772075 0 -0.44616908948812839 0.010652187374221319 0 -0.44596226176755482 0.03348389050085418 0 -0.44600347259657869 0.02893462886772075 0 -0.44596226176755482 0.03348389050085418 0 -0.44600347259657869 0.02893462886772075 0 -0.44322947639634969 0.029717827550527261 0 -0.44600347259657869 0.02893462886772075 0 -0.44322947639634969 0.029717827550527261 0 -0.44633470637967781 -0.007630254119278132 0 -0.45899100081414151 0.00078915980014676503 0 -0.44616908948812839 0.010652187374221319 0 -0.44633470637967781 -0.007630254119278132 0 -0.44616908948812839 0.010652187374221319 0 -0.43140134465179658 -0.0040513762586762911 0 -0.44616908948812839 0.010652187374221319 0 -0.42980825817548279 0.011221990584159359 0 -0.41638703995461551 -0.0072738463822082863 0 -0.42980825817548279 0.011221990584159359 0 -0.41638703995461551 -0.0072738463822082863 0 -0.42980825817548279 0.011221990584159359 0 -0.41676328150808539 0.01707879483626825 0 -0.41638703995461551 -0.0072738463822082863 0 -0.41676328150808539 0.01707879483626825 0 -0.40450910632673021 0.01029598511767797 0 -0.41676328150808539 0.01707879483626825 0 -0.41798474012010978 0.036845322605404067 0 -0.40094639894228867 0.025019112084735892 0 -0.41676328150808539 0.01707879483626825 0 -0.40450910632673021 0.01029598511767797 0 -0.40094639894228867 0.025019112084735892 0 -0.41676328150808539 0.01707879483626825 0 -0.42766572579510542 0.02456226706055115 0 -0.41798474012010978 0.036845322605404067 0 -0.44322947639634969 0.029717827550527261 0 -0.42766572579510542 0.02456226706055115 0 -0.41798474012010978 0.036845322605404067 0 -0.44322947639634969 0.029717827550527261 0 -0.42980825817548279 0.011221990584159359 0 -0.44322947639634969 0.029717827550527261 0 -0.42980825817548279 0.011221990584159359 0 -0.42766572579510542 0.02456226706055115 0 -0.42980825817548279 0.011221990584159359 0 -0.41676328150808539 0.01707879483626825 0 -0.42766572579510542 0.02456226706055115 0 -0.44322947639634969 0.029717827550527261 0 -0.41798474012010978 0.036845322605404067 0 -0.43259187264536719 0.040311373504760793 0 -0.41798474012010978 0.036845322605404067 0 -0.42054009216064492 0.062881069134277212 0 -0.44322947639634969 0.029717827550527261 0 -0.43259187264536719 0.040311373504760793 0 -0.41798474012010978 0.036845322605404067 0 -0.44578440920489482 0.053117027198969519 0 -0.43259187264536719 0.040311373504760793 0 -0.42054009216064492 0.062881069134277212 0 -0.40839743579800858 0.051158903703687399 0 -0.41798474012010978 0.036845322605404067 0 -0.42054009216064492 0.062881069134277212 0 -0.40839743579800858 0.051158903703687399 0 -0.41798474012010978 0.036845322605404067 0 -0.39274000384386998 0.043972817660280723 0 -0.41798474012010978 0.036845322605404067 0 -0.39274000384386998 0.043972817660280723 0 -0.39274000384386998 0.043972817660280723 0 -0.38374538032175881 0.02852902353256262 0 -0.40094639894228867 0.025019112084735892 0 -0.41798474012010978 0.036845322605404067 0 -0.39274000384386998 0.043972817660280723 0 -0.40094639894228867 0.025019112084735892 0 -0.40839743579800858 0.051158903703687399 0 -0.39274000384386998 0.043972817660280723 0 -0.39162737787251678 0.055103541227890712 0 -0.39162737787251678 0.055103541227890712 0 -0.37334710544339761 0.055220481311926709 0 -0.37490948726365508 0.070131888805492454 0 -0.39162737787251678 0.055103541227890712 0 -0.37254830518738308 0.038631753301114999 0 -0.37334710544339761 0.055220481311926709 0 -0.39162737787251678 0.055103541227890712 0 -0.38374538032175881 0.02852902353256262 0 -0.39274000384386998 0.043972817660280723 0 -0.39162737787251678 0.055103541227890712 0 -0.38374538032175881 0.02852902353256262 0 -0.39162737787251678 0.055103541227890712 0 -0.38374538032175881 0.02852902353256262 0 -0.37254830518738308 0.038631753301114999 0 -0.38374538032175881 0.02852902353256262 0 -0.37065751593827889 0.023669649292763491 0 -0.37254830518738308 0.038631753301114999 0 -0.38374538032175881 0.02852902353256262 0 -0.37586338277100068 0.0019545058372344988 0 -0.37065751593827889 0.023669649292763491 0 -0.38374538032175881 0.02852902353256262 0 -0.37586338277100068 0.0019545058372344988 0 -0.39213866603521441 0.01317680671658694 0 -0.37586338277100068 0.0019545058372344988 0 -0.39213866603521441 0.01317680671658694 0 -0.39562906181429391 8.540701072373599e-05 0 -0.38374538032175881 0.02852902353256262 0 -0.37586338277100068 0.0019545058372344988 0 -0.39213866603521441 0.01317680671658694 0 -0.39562906181429391 8.540701072373599e-05 0 -0.40450910632673021 0.01029598511767797 0 -0.41638703995461551 -0.0072738463822082863 0 -0.39562906181429391 8.540701072373599e-05 0 -0.40450910632673021 0.01029598511767797 0 -0.39213866603521441 0.01317680671658694 0 -0.40450910632673021 0.01029598511767797 0 -0.40094639894228867 0.025019112084735892 0 -0.38374538032175881 0.02852902353256262 0 -0.39213866603521441 0.01317680671658694 0 -0.40094639894228867 0.025019112084735892 0 -0.39950937542327503 0.081678058923218944 0 -0.40739137297403311 0.1082525766185472 0 -0.37385041651091028 0.094977537029620598 0 -0.38289791490575992 0.1227367021696955 0 -0.40739137297403311 0.1082525766185472 0 -0.37385041651091028 0.094977537029620598 0 -0.38289791490575992 0.1227367021696955 0 -0.40739137297403311 0.1082525766185472 0 -0.41632854846925338 0.13422085020438029 0 -0.39950937542327503 0.081678058923218944 0 -0.40739137297403311 0.1082525766185472 0 -0.39950937542327503 0.081678058923218944 0 -0.37490948726365508 0.070131888805492454 0 -0.37385041651091028 0.094977537029620598 0 -0.39162737787251678 0.055103541227890712 0 -0.39950937542327503 0.081678058923218944 0 -0.37490948726365508 0.070131888805492454 0 -0.40839743579800858 0.051158903703687399 0 -0.39162737787251678 0.055103541227890712 0 -0.39950937542327503 0.081678058923218944 0 -0.39162737787251678 0.055103541227890712 0 -0.39950937542327503 0.081678058923218944 0 -0.39950937542327503 0.081678058923218944 0 -0.41531591711374122 0.086881027822749576 0 -0.40739137297403311 0.1082525766185472 0 -0.41531591711374122 0.086881027822749576 0 -0.43191859612960248 0.088007391475483684 0 -0.41823063561697033 0.1032646190538825 0 -0.40839743579800858 0.051158903703687399 0 -0.39950937542327503 0.081678058923218944 0 -0.42054009216064492 0.062881069134277212 0 -0.39950937542327503 0.081678058923218944 0 -0.41531591711374122 0.086881027822749576 0 -0.42054009216064492 0.062881069134277212 0 -0.44578440920489482 0.053117027198969519 0 -0.42054009216064492 0.062881069134277212 0 -0.43183311425022358 0.072727335905712953 0 -0.41531591711374122 0.086881027822749576 0 -0.42054009216064492 0.062881069134277212 0 -0.43183311425022358 0.072727335905712953 0 -0.43183311425022358 0.072727335905712953 0 -0.43191859612960248 0.088007391475483684 0 -0.44560655664223459 0.072750163897084774 0 -0.41531591711374122 0.086881027822749576 0 -0.43183311425022358 0.072727335905712953 0 -0.43191859612960248 0.088007391475483684 0 -0.43191859612960248 0.088007391475483684 0 -0.4315989058611151 0.10092110053372901 0 -0.44538807830884031 0.096867977668906702 0 -0.4315989058611151 0.10092110053372901 0 -0.43085831338904618 0.115544413936643 0 -0.44538807830884031 0.096867977668906702 0 -0.4315989058611151 0.10092110053372901 0 -0.41823063561697033 0.1032646190538825 0 -0.43085831338904618 0.115544413936643 0 -0.43191859612960248 0.088007391475483684 0 -0.4315989058611151 0.10092110053372901 0 -0.41823063561697033 0.1032646190538825 0 -0.43191859612960248 0.088007391475483684 0 -0.41823063561697033 0.1032646190538825 0 -0.41531591711374122 0.086881027822749576 0 -0.40739137297403311 0.1082525766185472 0 -0.41823063561697033 0.1032646190538825 0 -0.40739137297403311 0.1082525766185472 0 -0.41674567154011022 0.1195552595073683 0 -0.41632854846925338 0.13422085020438029 0 -0.40739137297403311 0.1082525766185472 0 -0.41632854846925338 0.13422085020438029 0 -0.40739137297403311 0.1082525766185472 0 -0.41823063561697033 0.1032646190538825 0 -0.41674567154011022 0.1195552595073683 0 -0.41674567154011022 0.1195552595073683 0 -0.43085831338904618 0.115544413936643 0 -0.41632854846925338 0.13422085020438029 0 -0.41823063561697033 0.1032646190538825 0 -0.41674567154011022 0.1195552595073683 0 -0.43085831338904618 0.115544413936643 0 -0.43085831338904618 0.115544413936643 0 -0.43843042777466729 0.12152239094641749 0 -0.41632854846925338 0.13422085020438029 0 -0.43085831338904618 0.115544413936643 0 -0.41632854846925338 0.13422085020438029 0 -0.43085831338904618 0.115544413936643 0 -0.43843042777466729 0.12152239094641749 0 -0.43992122660549587 0.1118493758315052 0 -0.43843042777466729 0.12152239094641749 0 -0.46053230708008103 0.1088239316884544 0 -0.43843042777466729 0.12152239094641749 0 -0.43992122660549587 0.1118493758315052 0 -0.46053230708008103 0.1088239316884544 0 -0.43843042777466729 0.12152239094641749 0 -0.45240891962190249 0.1213330807177856 0 -0.46053230708008103 0.1088239316884544 0 -0.43843042777466729 0.12152239094641749 0 -0.45240891962190249 0.1213330807177856 0 -0.4459562811647842 0.1270706398903004 0 -0.43085831338904618 0.115544413936643 0 -0.44538807830884031 0.096867977668906702 0 -0.43992122660549587 0.1118493758315052 0 -0.44538807830884031 0.096867977668906702 0 -0.44532627883921388 0.1036900184476111 0 -0.43992122660549587 0.1118493758315052 0 -0.44532627883921388 0.1036900184476111 0 -0.46053230708008103 0.1088239316884544 0 -0.43085831338904618 0.115544413936643 0 -0.43992122660549587 0.1118493758315052 0 -0.44538807830884031 0.096867977668906702 0 -0.44538807830884031 0.096867977668906702 0 -0.45289479980376751 0.09491578572076563 0 -0.45358091703311071 0.09950834817063893 0 -0.44538807830884031 0.096867977668906702 0 -0.44532627883921388 0.1036900184476111 0 -0.45358091703311071 0.09950834817063893 0 -0.44538807830884031 0.096867977668906702 0 -0.44532627883921388 0.1036900184476111 0 -0.44532627883921388 0.1036900184476111 0 -0.45494523023913619 0.1030192335792071 0 -0.45358091703311071 0.09950834817063893 0 -0.46555645996469908 0.1077692767093008 0 -0.46634309718558697 0.085212074894934903 0 -0.46053230708008103 0.1088239316884544 0 -0.45494523023913619 0.1030192335792071 0 -0.46034141800413919 0.1000546360101241 0 -0.46555645996469908 0.1077692767093008 0 -0.46634309718558697 0.085212074894934903 0 -0.47259307395541222 0.096044660400932472 0 -0.46034141800413919 0.1000546360101241 0 -0.46555645996469908 0.1077692767093008 0 -0.46634309718558697 0.085212074894934903 0 -0.44532627883921388 0.1036900184476111 0 -0.46053230708008103 0.1088239316884544 0 -0.45494523023913619 0.1030192335792071 0 -0.45289479980376751 0.09491578572076563 0 -0.45358091703311071 0.09950834817063893 0 -0.45802648552422859 0.09398499040525668 0 -0.45494523023913619 0.1030192335792071 0 -0.45358091703311071 0.09950834817063893 0 -0.46034141800413919 0.1000546360101241 0 -0.45358091703311071 0.09950834817063893 0 -0.46034141800413919 0.1000546360101241 0 -0.45802648552422859 0.09398499040525668 0 -0.46053230708008103 0.1088239316884544 0 -0.46034141800413919 0.1000546360101241 0 -0.46555645996469908 0.1077692767093008 0 -0.45240891962190249 0.1213330807177856 0 -0.46053230708008103 0.1088239316884544 0 -0.46476982274381129 0.13032647852366661 0 -0.46555645996469908 0.1077692767093008 0 -0.46476982274381129 0.13032647852366661 0 -0.46053230708008103 0.1088239316884544 0 -0.46555645996469908 0.1077692767093008 0 -0.46476982274381129 0.13032647852366661 0 -0.46555645996469908 0.1077692767093008 0 -0.47273101878895879 0.11635845321407171 0 -0.46476982274381129 0.13032647852366661 0 -0.44578440920489482 0.053117027198969519 0 -0.44560655664223459 0.072750163897084774 0 -0.44578440920489482 0.053117027198969519 0 -0.43183311425022358 0.072727335905712953 0 -0.44560655664223459 0.072750163897084774 0 -0.44560655664223459 0.072750163897084774 0 -0.45487836715590341 0.084669241089681962 0 -0.45690301439207348 0.072191204660537828 0 -0.44538807830884031 0.096867977668906702 0 -0.44560655664223459 0.072750163897084774 0 -0.44538807830884031 0.096867977668906702 0 -0.44560655664223459 0.072750163897084774 0 -0.45487836715590341 0.084669241089681962 0 -0.43191859612960248 0.088007391475483684 0 -0.44538807830884031 0.096867977668906702 0 -0.44560655664223459 0.072750163897084774 0 -0.43191859612960248 0.088007391475483684 0 -0.44560655664223459 0.072750163897084774 0 -0.44538807830884031 0.096867977668906702 0 -0.45487836715590341 0.084669241089681962 0 -0.44538807830884031 0.096867977668906702 0 -0.45289479980376751 0.09491578572076563 0 -0.45487836715590341 0.084669241089681962 0 -0.45802648552422859 0.09398499040525668 0 -0.46634309718558697 0.085212074894934903 0 -0.45487836715590341 0.084669241089681962 0 -0.45289479980376751 0.09491578572076563 0 -0.45802648552422859 0.09398499040525668 0 -0.45487836715590341 0.084669241089681962 0 -0.46034141800413919 0.1000546360101241 0 -0.45802648552422859 0.09398499040525668 0 -0.46634309718558697 0.085212074894934903 0 -0.46634309718558697 0.085212074894934903 0 -0.45487836715590341 0.084669241089681962 0 -0.46436865600296728 0.072470504510458028 0 -0.45487836715590341 0.084669241089681962 0 -0.46436865600296728 0.072470504510458028 0 -0.46155539729252359 0.054972855788364028 0 -0.44560655664223459 0.072750163897084774 0 -0.46634309718558697 0.085212074894934903 0 -0.46712973440647332 0.062654873080568996 0 -0.46155539729252359 0.054972855788364028 0 -0.45690301439207348 0.072191204660537828 0 -0.46712973440647332 0.062654873080568996 0 -0.46634309718558697 0.085212074894934903 0 -0.46712973440647332 0.062654873080568996 0 -0.47002145801389589 0.066639969479013073 0 -0.46155539729252359 0.054972855788364028 0 -0.44560655664223459 0.072750163897084774 0 -0.45690301439207348 0.072191204660537828 0 -0.46634309718558697 0.085212074894934903 0 -0.46436865600296728 0.072470504510458028 0 -0.46712973440647332 0.062654873080568996 0 -0.45487836715590341 0.084669241089681962 0 -0.45690301439207348 0.072191204660537828 0 -0.46436865600296728 0.072470504510458028 0 -0.45690301439207348 0.072191204660537828 0 -0.46436865600296728 0.072470504510458028 0 -0.46712973440647332 0.062654873080568996 0 -0.46712973440647332 0.062654873080568996 0 -0.47002145801389589 0.066639969479013073 0 -0.46634309718558697 0.085212074894934903 0 -0.47002145801389589 0.066639969479013073 0 -0.47598921538597438 0.077777895994494028 0 -0.47443887449724598 0.059127066520884911 0 -0.48148159278886737 0.068106439011092007 0 -0.47002145801389589 0.066639969479013073 0 -0.47443887449724598 0.059127066520884911 0 -0.46712973440647332 0.062654873080568996 0 -0.47002145801389589 0.066639969479013073 0 -0.48148159278886737 0.068106439011092007 0 -0.47002145801389589 0.066639969479013073 0 -0.47598921538597438 0.077777895994494028 0 -0.48148159278886737 0.068106439011092007 0 -0.47598921538597438 0.077777895994494028 0 -0.48543507913077227 0.081767877888082541 0 -0.47598921538597438 0.077777895994494028 0 -0.47578027058444611 0.087279360596152489 0 -0.48543507913077227 0.081767877888082541 0 -0.46634309718558697 0.085212074894934903 0 -0.47598921538597438 0.077777895994494028 0 -0.47578027058444611 0.087279360596152489 0 -0.46634309718558697 0.085212074894934903 0 -0.47578027058444611 0.087279360596152489 0 -0.47259307395541222 0.096044660400932472 0 -0.47578027058444611 0.087279360596152489 0 -0.47259307395541222 0.096044660400932472 0 -0.48136632062955259 0.096265505858871295 0 -0.47578027058444611 0.087279360596152489 0 -0.48543507913077227 0.081767877888082541 0 -0.48136632062955259 0.096265505858871295 0 -0.48543507913077227 0.081767877888082541 0 -0.5 0.06737819374042342 0 -0.5 0.094222554955913695 0 -0.48543507913077227 0.081767877888082541 0 -0.48136632062955259 0.096265505858871295 0 -0.5 0.094222554955913695 0 -0.48148159278886737 0.068106439011092007 0 -0.48543507913077227 0.081767877888082541 0 -0.5 0.06737819374042342 0 -0.48530618946123921 0.055304871483770841 0 -0.48148159278886737 0.068106439011092007 0 -0.5 0.06737819374042342 0 -0.48274324455982037 0.1145082865220797 0 -0.47547200860194239 0.1236574039456306 0 -0.48291680814046861 0.13235031937654029 0 -0.48274324455982037 0.1145082865220797 0 -0.47273101878895879 0.11635845321407171 0 -0.4751135580745211 0.1055308203696808 0 -0.48274324455982037 0.1145082865220797 0 -0.47547200860194239 0.1236574039456306 0 -0.47273101878895879 0.11635845321407171 0 -0.47547200860194239 0.1236574039456306 0 -0.47273101878895879 0.11635845321407171 0 -0.46476982274381129 0.13032647852366661 0 -0.46555645996469908 0.1077692767093008 0 -0.47273101878895879 0.11635845321407171 0 -0.4751135580745211 0.1055308203696808 0 -0.46555645996469908 0.1077692767093008 0 -0.4751135580745211 0.1055308203696808 0 -0.47259307395541222 0.096044660400932472 0 -0.48274324455982037 0.1145082865220797 0 -0.4751135580745211 0.1055308203696808 0 -0.48136632062955259 0.096265505858871295 0 -0.4751135580745211 0.1055308203696808 0 -0.47259307395541222 0.096044660400932472 0 -0.48136632062955259 0.096265505858871295 0 -0.48274324455982037 0.1145082865220797 0 -0.48136632062955259 0.096265505858871295 0 -0.5 0.094222554955913695 0 -0.48274324455982037 0.1145082865220797 0 -0.5 0.094222554955913695 0 -0.5 0.1210669161714039 0 -0.48274324455982037 0.1145082865220797 0 -0.5 0.1210669161714039 0 -0.48291680814046861 0.13235031937654029 0 -0.5 0.1210669161714039 0 -0.48291680814046861 0.13235031937654029 0 -0.5 0.14791127738689411 0 -0.47547200860194239 0.1236574039456306 0 -0.48291680814046861 0.13235031937654029 0 -0.46476982274381129 0.13032647852366661 0 -0.48291680814046861 0.13235031937654029 0 -0.47458555326892399 0.14478824228565679 0 -0.46476982274381129 0.13032647852366661 0 -0.47310427065402588 0.1551779250357771 0 -0.47458555326892399 0.14478824228565679 0 -0.46065194279449362 0.1486267472750317 0 -0.48291680814046861 0.13235031937654029 0 -0.47458555326892399 0.14478824228565679 0 -0.48546301794761693 0.14723566711001199 0 -0.47310427065402588 0.1551779250357771 0 -0.47458555326892399 0.14478824228565679 0 -0.48231724764927197 0.1547790771481751 0 -0.47458555326892399 0.14478824228565679 0 -0.48231724764927197 0.1547790771481751 0 -0.48546301794761693 0.14723566711001199 0 -0.48231724764927197 0.1547790771481751 0 -0.48546301794761693 0.14723566711001199 0 -0.4918893784549096 0.15635995570016351 0 -0.48291680814046861 0.13235031937654029 0 -0.48546301794761693 0.14723566711001199 0 -0.5 0.14791127738689411 0 -0.48546301794761693 0.14723566711001199 0 -0.5 0.14791127738689411 0 -0.4918893784549096 0.15635995570016351 0 -0.5 0.14791127738689411 0 -0.4918893784549096 0.15635995570016351 0 -0.4999999999999975 0.17475563860238419 0 -0.48687755519463782 0.16272260846104369 0 -0.4918893784549096 0.15635995570016351 0 -0.4999999999999975 0.17475563860238419 0 -0.48516222350904659 0.169226963764599 0 -0.48687755519463782 0.16272260846104369 0 -0.4999999999999975 0.17475563860238419 0 -0.48516222350904659 0.169226963764599 0 -0.48687755519463782 0.16272260846104369 0 -0.48516222350904659 0.169226963764599 0 -0.48687755519463782 0.16272260846104369 0 -0.48198371037551802 0.16239006429639749 0 -0.48231724764927197 0.1547790771481751 0 -0.48687755519463782 0.16272260846104369 0 -0.4918893784549096 0.15635995570016351 0 -0.48516222350904659 0.169226963764599 0 -0.4906194135597266 0.18699797343892871 0 -0.47825293418499842 0.19542625398711561 0 -0.48516222350904659 0.169226963764599 0 -0.4999999999999975 0.17475563860238419 0 -0.4906194135597266 0.18699797343892871 0 -0.4999999999999975 0.17475563860238419 0 -0.4906194135597266 0.18699797343892871 0 -0.5 0.20024851796226889 0 -0.48516222350904659 0.169226963764599 0 -0.4999999999999975 0.17475563860238419 0 -0.48516222350904659 0.169226963764599 0 -0.47825293418499842 0.19542625398711561 0 -0.48516222350904659 0.169226963764599 0 -0.48024582597402637 0.16739507450808341 0 -0.47140321785309908 0.19286129303515839 0 -0.48516222350904659 0.169226963764599 0 -0.47825293418499842 0.19542625398711561 0 -0.47140321785309908 0.19286129303515839 0 -0.48024582597402637 0.16739507450808341 0 -0.46825859771964218 0.1775010759170188 0 -0.47140321785309908 0.19286129303515839 0 -0.48024582597402637 0.16739507450808341 0 -0.47140321785309908 0.19286129303515839 0 -0.47310427065402588 0.1551779250357771 0 -0.48198371037551802 0.16239006429639749 0 -0.48024582597402637 0.16739507450808341 0 -0.48231724764927197 0.1547790771481751 0 -0.48687755519463782 0.16272260846104369 0 -0.48198371037551802 0.16239006429639749 0 -0.47310427065402588 0.1551779250357771 0 -0.48231724764927197 0.1547790771481751 0 -0.48198371037551802 0.16239006429639749 0 -0.48198371037551802 0.16239006429639749 0 -0.48024582597402637 0.16739507450808341 0 -0.48516222350904659 0.169226963764599 0 -0.48198371037551802 0.16239006429639749 0 -0.48024582597402637 0.16739507450808341 0 -0.48516222350904659 0.169226963764599 0 -0.48024582597402637 0.16739507450808341 0 -0.48024582597402637 0.16739507450808341 0 -0.46580714396967388 0.16201510548530579 0 -0.46825859771964218 0.1775010759170188 0 -0.48024582597402637 0.16739507450808341 0 -0.46580714396967388 0.16201510548530579 0 -0.47310427065402588 0.1551779250357771 0 -0.48024582597402637 0.16739507450808341 0 -0.46580714396967388 0.16201510548530579 0 -0.47310427065402588 0.1551779250357771 0 -0.46580714396967388 0.16201510548530579 0 -0.46580714396967388 0.16201510548530579 0 -0.44916473440647797 0.15581400985293509 0 -0.46580714396967388 0.16201510548530579 0 -0.44919017314130599 0.1775846896507792 0 -0.44916473440647797 0.15581400985293509 0 -0.46580714396967388 0.16201510548530579 0 -0.44919017314130599 0.1775846896507792 0 -0.46580714396967388 0.16201510548530579 0 -0.46825859771964218 0.1775010759170188 0 -0.44919017314130599 0.1775846896507792 0 -0.46825859771964218 0.1775010759170188 0 -0.45876781025731111 0.18744607689008921 0 -0.44919017314130599 0.1775846896507792 0 -0.46554617956225541 0.1874521028727508 0 -0.46825859771964218 0.1775010759170188 0 -0.47140321785309908 0.19286129303515839 0 -0.46554617956225541 0.1874521028727508 0 -0.46825859771964218 0.1775010759170188 0 -0.45876781025731111 0.18744607689008921 0 -0.44919017314130599 0.1775846896507792 0 -0.43257320231293922 0.19315427381625369 0 -0.44919017314130599 0.1775846896507792 0 -0.44916473440647797 0.15581400985293509 0 -0.43566402663150838 0.16365273107653791 0 -0.44916473440647797 0.15581400985293509 0 -0.43130194472001382 0.15413001894343109 0 -0.43566402663150838 0.16365273107653791 0 -0.44916473440647797 0.15581400985293509 0 -0.44221095551865452 0.14361263256661461 0 -0.43130194472001382 0.15413001894343109 0 -0.44221095551865452 0.14361263256661461 0 -0.4510826484475719 0.1333933879086725 0 -0.46065194279449362 0.1486267472750317 0 -0.44916473440647797 0.15581400985293509 0 -0.44221095551865452 0.14361263256661461 0 -0.46065194279449362 0.1486267472750317 0 -0.44221095551865452 0.14361263256661461 0 -0.44190312881499499 0.13203369998832601 0 -0.4510826484475719 0.1333933879086725 0 -0.44221095551865452 0.14361263256661461 0 -0.44190312881499499 0.13203369998832601 0 -0.43199655043178431 0.1364134141489543 0 -0.43843042777466729 0.12152239094641749 0 -0.44190312881499499 0.13203369998832601 0 -0.4459562811647842 0.1270706398903004 0 -0.44190312881499499 0.13203369998832601 0 -0.4459562811647842 0.1270706398903004 0 -0.4510826484475719 0.1333933879086725 0 -0.45240891962190249 0.1213330807177856 0 -0.4459562811647842 0.1270706398903004 0 -0.4510826484475719 0.1333933879086725 0 -0.4510826484475719 0.1333933879086725 0 -0.46476982274381129 0.13032647852366661 0 -0.46065194279449362 0.1486267472750317 0 -0.45240891962190249 0.1213330807177856 0 -0.4510826484475719 0.1333933879086725 0 -0.46476982274381129 0.13032647852366661 0 -0.47458555326892399 0.14478824228565679 0 -0.46476982274381129 0.13032647852366661 0 -0.46065194279449362 0.1486267472750317 0 -0.46580714396967388 0.16201510548530579 0 -0.44916473440647797 0.15581400985293509 0 -0.46065194279449362 0.1486267472750317 0 -0.47310427065402588 0.1551779250357771 0 -0.46580714396967388 0.16201510548530579 0 -0.46065194279449362 0.1486267472750317 0 -0.47439185818606461 0.24013758992397949 0 -0.48560421726998892 0.23852843717976199 0 -0.47909939784891531 0.25481779002133048 0 -0.47439185818606461 0.24013758992397949 0 -0.47134364486094987 0.22162554420963201 0 -0.46443435553690132 0.24782483443214859 0 -0.47439185818606461 0.24013758992397949 0 -0.46443435553690132 0.24782483443214859 0 -0.47909939784891531 0.25481779002133048 0 -0.47439185818606461 0.24013758992397949 0 -0.48560421726998892 0.23852843717976199 0 -0.47854016846536368 0.23189875060402701 0 -0.48560421726998892 0.23852843717976199 0 -0.5 0.2257413973221537 0 -0.50000000000000311 0.25123427668203852 0 -0.48560421726998892 0.23852843717976199 0 -0.50000000000000311 0.25123427668203852 0 -0.47909939784891531 0.25481779002133048 0 -0.5 0.2257413973221537 0 -0.484292306263576 0.22605497419169349 0 -0.48799340483239861 0.21506210414831531 0 -0.48560421726998892 0.23852843717976199 0 -0.5 0.2257413973221537 0 -0.484292306263576 0.22605497419169349 0 -0.47439185818606461 0.24013758992397949 0 -0.47854016846536368 0.23189875060402701 0 -0.47134364486094987 0.22162554420963201 0 -0.484292306263576 0.22605497419169349 0 -0.47854016846536368 0.23189875060402701 0 -0.47134364486094987 0.22162554420963201 0 -0.484292306263576 0.22605497419169349 0 -0.47134364486094987 0.22162554420963201 0 -0.48799340483239861 0.21506210414831531 0 -0.48560421726998892 0.23852843717976199 0 -0.484292306263576 0.22605497419169349 0 -0.47854016846536368 0.23189875060402701 0 -0.47134364486094987 0.22162554420963201 0 -0.48537851272062521 0.20558981010771829 0 -0.47825293418499842 0.19542625398711561 0 -0.47134364486094987 0.22162554420963201 0 -0.48799340483239861 0.21506210414831531 0 -0.48537851272062521 0.20558981010771829 0 -0.47134364486094987 0.22162554420963201 0 -0.47825293418499842 0.19542625398711561 0 -0.46256060973217172 0.21832751156223351 0 -0.47134364486094987 0.22162554420963201 0 -0.47825293418499842 0.19542625398711561 0 -0.5 0.2257413973221537 0 -0.48799340483239861 0.21506210414831531 0 -0.5 0.20024851796226889 0 -0.48799340483239861 0.21506210414831531 0 -0.48537851272062521 0.20558981010771829 0 -0.5 0.20024851796226889 0 -0.48537851272062521 0.20558981010771829 0 -0.48930257972477881 0.1955866302312595 0 -0.5 0.20024851796226889 0 -0.4906194135597266 0.18699797343892871 0 -0.48930257972477881 0.1955866302312595 0 -0.5 0.20024851796226889 0 -0.4906194135597266 0.18699797343892871 0 -0.48930257972477881 0.1955866302312595 0 -0.47825293418499842 0.19542625398711561 0 -0.47825293418499842 0.19542625398711561 0 -0.47140321785309908 0.19286129303515839 0 -0.46256060973217172 0.21832751156223351 0 -0.48537851272062521 0.20558981010771829 0 -0.48930257972477881 0.1955866302312595 0 -0.47825293418499842 0.19542625398711561 0 -0.46554617956225541 0.1874521028727508 0 -0.47140321785309908 0.19286129303515839 0 -0.46148472118401018 0.19469473135172841 0 -0.46554617956225541 0.1874521028727508 0 -0.45876781025731111 0.18744607689008921 0 -0.46148472118401018 0.19469473135172841 0 -0.47140321785309908 0.19286129303515839 0 -0.46148472118401018 0.19469473135172841 0 -0.45946319435341709 0.2042187430757256 0 -0.46148472118401018 0.19469473135172841 0 -0.45049161623270978 0.1994942135231762 0 -0.45946319435341709 0.2042187430757256 0 -0.45876781025731111 0.18744607689008921 0 -0.46148472118401018 0.19469473135172841 0 -0.45049161623270978 0.1994942135231762 0 -0.45876781025731111 0.18744607689008921 0 -0.44919017314130599 0.1775846896507792 0 -0.45049161623270978 0.1994942135231762 0 -0.44919017314130599 0.1775846896507792 0 -0.45049161623270978 0.1994942135231762 0 -0.43257320231293922 0.19315427381625369 0 -0.45049161623270978 0.1994942135231762 0 -0.43973653171645738 0.21730576875967941 0 -0.45258812935239512 0.21308524855401009 0 -0.45049161623270978 0.1994942135231762 0 -0.43973653171645738 0.21730576875967941 0 -0.43257320231293922 0.19315427381625369 0 -0.47140321785309908 0.19286129303515839 0 -0.45946319435341709 0.2042187430757256 0 -0.46256060973217172 0.21832751156223351 0 -0.47140321785309908 0.19286129303515839 0 -0.46256060973217172 0.21832751156223351 0 -0.45258812935239512 0.21308524855401009 0 -0.45946319435341709 0.2042187430757256 0 -0.46256060973217172 0.21832751156223351 0 -0.45049161623270978 0.1994942135231762 0 -0.45258812935239512 0.21308524855401009 0 -0.45946319435341709 0.2042187430757256 0 -0.46256060973217172 0.21832751156223351 0 -0.45346679179765248 0.2324146278009708 0 -0.45371800161124443 0.2437937300893086 0 -0.46256060973217172 0.21832751156223351 0 -0.46301415293531678 0.23289290507333071 0 -0.45371800161124443 0.2437937300893086 0 -0.47134364486094987 0.22162554420963201 0 -0.46301415293531678 0.23289290507333071 0 -0.46443435553690132 0.24782483443214859 0 -0.46256060973217172 0.21832751156223351 0 -0.45371800161124443 0.2437937300893086 0 -0.47134364486094987 0.22162554420963201 0 -0.46256060973217172 0.21832751156223351 0 -0.46301415293531678 0.23289290507333071 0 -0.45258812935239512 0.21308524855401009 0 -0.46256060973217172 0.21832751156223351 0 -0.45068869472721951 0.22608000584923571 0 -0.46256060973217172 0.21832751156223351 0 -0.45346679179765248 0.2324146278009708 0 -0.45068869472721951 0.22608000584923571 0 -0.43973653171645738 0.21730576875967941 0 -0.45258812935239512 0.21308524855401009 0 -0.45068869472721951 0.22608000584923571 0 -0.43973653171645738 0.21730576875967941 0 -0.4468998611199746 0.24145726370310541 0 -0.43973653171645738 0.21730576875967941 0 -0.45068869472721951 0.22608000584923571 0 -0.4468998611199746 0.24145726370310541 0 -0.43973653171645738 0.21730576875967941 0 -0.4468998611199746 0.24145726370310541 0 -0.43146189561989129 0.22272459543525769 0 -0.45346679179765248 0.2324146278009708 0 -0.45068869472721951 0.22608000584923571 0 -0.4468998611199746 0.24145726370310541 0 -0.4468998611199746 0.24145726370310541 0 -0.44077169072161537 0.2425306692159222 0 -0.45008148582333951 0.26233674299658671 0 -0.4468998611199746 0.24145726370310541 0 -0.44077169072161537 0.2425306692159222 0 -0.43146189561989129 0.22272459543525769 0 -0.45346679179765248 0.2324146278009708 0 -0.4468998611199746 0.24145726370310541 0 -0.45371800161124443 0.2437937300893086 0 -0.44077169072161537 0.2425306692159222 0 -0.44142167977321528 0.25670787682661578 0 -0.43588497190996628 0.25042843610989651 0 -0.47134364486094987 0.22162554420963201 0 -0.46443435553690132 0.24782483443214859 0 -0.46301415293531678 0.23289290507333071 0 -0.45371800161124443 0.2437937300893086 0 -0.46443435553690132 0.24782483443214859 0 -0.40995018577121428 0.23679476339690331 0 -0.42135483006212038 0.24456503597302581 0 -0.4059651703890037 0.24982079629174919 0 -0.40995018577121428 0.23679476339690331 0 -0.41943411735173258 0.23530846989091081 0 -0.42135483006212038 0.24456503597302581 0 -0.42135483006212038 0.24456503597302581 0 -0.43207745955460358 0.2439300842395786 0 -0.42934358693169389 0.2506254408654271 0 -0.43207745955460358 0.2439300842395786 0 -0.43588497190996628 0.25042843610989651 0 -0.42934358693169389 0.2506254408654271 0 -0.44077169072161537 0.2425306692159222 0 -0.43207745955460358 0.2439300842395786 0 -0.43588497190996628 0.25042843610989651 0 -0.44077169072161537 0.2425306692159222 0 -0.43207745955460358 0.2439300842395786 0 -0.42906865324939619 0.23599342009190041 0 -0.42135483006212038 0.24456503597302581 0 -0.43207745955460358 0.2439300842395786 0 -0.42906865324939619 0.23599342009190041 0 -0.41943411735173258 0.23530846989091081 0 -0.42135483006212038 0.24456503597302581 0 -0.42906865324939619 0.23599342009190041 0 -0.44077169072161537 0.2425306692159222 0 -0.42906865324939619 0.23599342009190041 0 -0.43146189561989129 0.22272459543525769 0 -0.41943411735173258 0.23530846989091081 0 -0.42906865324939619 0.23599342009190041 0 -0.42319882079742871 0.22852253186434329 0 -0.42906865324939619 0.23599342009190041 0 -0.42319882079742871 0.22852253186434329 0 -0.43146189561989129 0.22272459543525769 0 -0.44077169072161537 0.2425306692159222 0 -0.43146189561989129 0.22272459543525769 0 -0.42319882079742871 0.22852253186434329 0 -0.43146189561989129 0.22272459543525769 0 -0.41979336103514309 0.2186573826667314 0 -0.42319882079742871 0.22852253186434329 0 -0.41460061002262971 0.22871635725718681 0 -0.41979336103514309 0.2186573826667314 0 -0.41460061002262971 0.22871635725718681 0 -0.41233044547632552 0.21844553038409081 0 -0.41979336103514309 0.2186573826667314 0 -0.40995018577121428 0.23679476339690331 0 -0.41943411735173258 0.23530846989091081 0 -0.41460061002262971 0.22871635725718681 0 -0.41943411735173258 0.23530846989091081 0 -0.42319882079742871 0.22852253186434329 0 -0.41460061002262971 0.22871635725718681 0 -0.40995018577121428 0.23679476339690331 0 -0.41460061002262971 0.22871635725718681 0 -0.40573944514876281 0.22803659493207831 0 -0.41460061002262971 0.22871635725718681 0 -0.41233044547632552 0.21844553038409081 0 -0.40573944514876281 0.22803659493207831 0 -0.41233044547632552 0.21844553038409081 0 -0.40420269282930871 0.2196636628317582 0 -0.40573944514876281 0.22803659493207831 0 -0.4141373504397447 0.210428092875489 0 -0.41979336103514309 0.2186573826667314 0 -0.42215210051816671 0.20291852165459351 0 -0.41233044547632552 0.21844553038409081 0 -0.40673416048405109 0.2076478035701034 0 -0.40420269282930871 0.2196636628317582 0 -0.41233044547632552 0.21844553038409081 0 -0.40673416048405109 0.2076478035701034 0 -0.4141373504397447 0.210428092875489 0 -0.40673416048405109 0.2076478035701034 0 -0.412725009581276 0.20409783570520831 0 -0.4141373504397447 0.210428092875489 0 -0.4141373504397447 0.210428092875489 0 -0.42215210051816671 0.20291852165459351 0 -0.412725009581276 0.20409783570520831 0 -0.4141373504397447 0.210428092875489 0 -0.42215210051816671 0.20291852165459351 0 -0.41233044547632552 0.21844553038409081 0 -0.4141373504397447 0.210428092875489 0 -0.41979336103514309 0.2186573826667314 0 -0.43146189561989129 0.22272459543525769 0 -0.41979336103514309 0.2186573826667314 0 -0.42215210051816671 0.20291852165459351 0 -0.43973653171645738 0.21730576875967941 0 -0.43146189561989129 0.22272459543525769 0 -0.42215210051816671 0.20291852165459351 0 -0.43146189561989129 0.22272459543525769 0 -0.42215210051816671 0.20291852165459351 0 -0.43973653171645738 0.21730576875967941 0 -0.43257320231293922 0.19315427381625369 0 -0.43973653171645738 0.21730576875967941 0 -0.42215210051816671 0.20291852165459351 0 -0.43257320231293922 0.19315427381625369 0 -0.42215210051816671 0.20291852165459351 0 -0.43257320231293922 0.19315427381625369 0 -0.42215210051816671 0.20291852165459351 0 -0.43257320231293922 0.19315427381625369 0 -0.42232034218597297 0.19026181678025669 0 -0.43257320231293922 0.19315427381625369 0 -0.42232034218597297 0.19026181678025669 0 -0.42183473972908359 0.18211940039769439 0 -0.42215210051816671 0.20291852165459351 0 -0.42232034218597297 0.19026181678025669 0 -0.4127213261837015 0.18285507125248579 0 -0.42215210051816671 0.20291852165459351 0 -0.4092812178661035 0.19674248991743529 0 -0.4127213261837015 0.18285507125248579 0 -0.42215210051816671 0.20291852165459351 0 -0.4127213261837015 0.18285507125248579 0 -0.412725009581276 0.20409783570520831 0 -0.42215210051816671 0.20291852165459351 0 -0.4092812178661035 0.19674248991743529 0 -0.40673416048405109 0.2076478035701034 0 -0.412725009581276 0.20409783570520831 0 -0.4092812178661035 0.19674248991743529 0 -0.39581984277341059 0.20425966524013861 0 -0.40870214796446269 0.18018243262920841 0 -0.39581984277341059 0.20425966524013861 0 -0.40870214796446269 0.18018243262920841 0 -0.39539030922568852 0.18718898336649359 0 -0.38636787862627359 0.1952421544789642 0 -0.39581984277341059 0.20425966524013861 0 -0.39539030922568852 0.18718898336649359 0 -0.4092812178661035 0.19674248991743529 0 -0.39581984277341059 0.20425966524013861 0 -0.40870214796446269 0.18018243262920841 0 -0.40673416048405109 0.2076478035701034 0 -0.4092812178661035 0.19674248991743529 0 -0.39581984277341059 0.20425966524013861 0 -0.38636787862627359 0.1952421544789642 0 -0.38527079980056672 0.17630413596394401 0 -0.37201630389582468 0.19477802576388459 0 -0.38636787862627359 0.1952421544789642 0 -0.37800395967672928 0.20988987172074239 0 -0.37201630389582468 0.19477802576388459 0 -0.38636787862627359 0.1952421544789642 0 -0.37800395967672928 0.20988987172074239 0 -0.39581984277341059 0.20425966524013861 0 -0.39581984277341059 0.20425966524013861 0 -0.3829375375823586 0.22833689785106889 0 -0.37800395967672928 0.20988987172074239 0 -0.39581984277341059 0.20425966524013861 0 -0.3829375375823586 0.22833689785106889 0 -0.39581984277341059 0.20425966524013861 0 -0.40420269282930871 0.2196636628317582 0 -0.39501297319893858 0.22964074794560291 0 -0.40673416048405109 0.2076478035701034 0 -0.39581984277341059 0.20425966524013861 0 -0.40420269282930871 0.2196636628317582 0 -0.39581984277341059 0.20425966524013861 0 -0.39501297319893858 0.22964074794560291 0 -0.3829375375823586 0.22833689785106889 0 -0.40420269282930871 0.2196636628317582 0 -0.40573944514876281 0.22803659493207831 0 -0.39501297319893858 0.22964074794560291 0 -0.40995018577121428 0.23679476339690331 0 -0.40573944514876281 0.22803659493207831 0 -0.39501297319893858 0.22964074794560291 0 -0.37800395967672928 0.20988987172074239 0 -0.3829375375823586 0.22833689785106889 0 -0.37038655920818558 0.22357120801157321 0 -0.3829375375823586 0.22833689785106889 0 -0.37237801042727531 0.23677029235194169 0 -0.37038655920818558 0.22357120801157321 0 -0.39501297319893858 0.22964074794560291 0 -0.3829375375823586 0.22833689785106889 0 -0.38702646908577448 0.24703725013213551 0 -0.3829375375823586 0.22833689785106889 0 -0.38702646908577448 0.24703725013213551 0 -0.37237801042727531 0.23677029235194169 0 -0.40995018577121428 0.23679476339690331 0 -0.39501297319893858 0.22964074794560291 0 -0.4059651703890037 0.24982079629174919 0 -0.39501297319893858 0.22964074794560291 0 -0.38702646908577448 0.24703725013213551 0 -0.4059651703890037 0.24982079629174919 0 -0.39501297319893858 0.22964074794560291 0 -0.4059651703890037 0.24982079629174919 0 -0.42158445315551518 0.1561052000182783 0 -0.41632854846925338 0.13422085020438029 0 -0.42391944474909271 0.15174106371585661 0 -0.41070007786744139 0.15463102035075471 0 -0.41632854846925338 0.13422085020438029 0 -0.39975293047086319 0.15552700862154531 0 -0.41632854846925338 0.13422085020438029 0 -0.42354600839533729 0.14155027162256431 0 -0.42391944474909271 0.15174106371585661 0 -0.42158445315551518 0.1561052000182783 0 -0.41632854846925338 0.13422085020438029 0 -0.41632854846925338 0.13422085020438029 0 -0.39975293047086319 0.15552700862154531 0 -0.42158445315551518 0.1561052000182783 0 -0.41070007786744139 0.15463102035075471 0 -0.41632854846925338 0.13422085020438029 0 -0.41632854846925338 0.13422085020438029 0 -0.43199655043178431 0.1364134141489543 0 -0.42354600839533729 0.14155027162256431 0 -0.43843042777466729 0.12152239094641749 0 -0.41632854846925338 0.13422085020438029 0 -0.43199655043178431 0.1364134141489543 0 -0.43843042777466729 0.12152239094641749 0 -0.41632854846925338 0.13422085020438029 0 -0.43843042777466729 0.12152239094641749 0 -0.44190312881499499 0.13203369998832601 0 -0.43199655043178431 0.1364134141489543 0 -0.44221095551865452 0.14361263256661461 0 -0.43109060639359043 0.14503876926669651 0 -0.43130194472001382 0.15413001894343109 0 -0.44221095551865452 0.14361263256661461 0 -0.43199655043178431 0.1364134141489543 0 -0.43109060639359043 0.14503876926669651 0 -0.43199655043178431 0.1364134141489543 0 -0.43109060639359043 0.14503876926669651 0 -0.42354600839533729 0.14155027162256431 0 -0.42746450106450862 0.14811503088713709 0 -0.42354600839533729 0.14155027162256431 0 -0.42391944474909271 0.15174106371585661 0 -0.43109060639359043 0.14503876926669651 0 -0.42746450106450862 0.14811503088713709 0 -0.42354600839533729 0.14155027162256431 0 -0.42158445315551518 0.1561052000182783 0 -0.42391944474909271 0.15174106371585661 0 -0.43130194472001382 0.15413001894343109 0 -0.42158445315551518 0.1561052000182783 0 -0.42391944474909271 0.15174106371585661 0 -0.42746450106450862 0.14811503088713709 0 -0.42391944474909271 0.15174106371585661 0 -0.43130194472001382 0.15413001894343109 0 -0.43109060639359043 0.14503876926669651 0 -0.42746450106450862 0.14811503088713709 0 -0.43130194472001382 0.15413001894343109 0 -0.42158445315551518 0.1561052000182783 0 -0.43566402663150838 0.16365273107653791 0 -0.42707882773422812 0.17462973691726569 0 -0.42158445315551518 0.1561052000182783 0 -0.42707882773422812 0.17462973691726569 0 -0.42158445315551518 0.1561052000182783 0 -0.43130194472001382 0.15413001894343109 0 -0.43566402663150838 0.16365273107653791 0 -0.44919017314130599 0.1775846896507792 0 -0.43566402663150838 0.16365273107653791 0 -0.42707882773422812 0.17462973691726569 0 -0.43257320231293922 0.19315427381625369 0 -0.42707882773422812 0.17462973691726569 0 -0.43257320231293922 0.19315427381625369 0 -0.42707882773422812 0.17462973691726569 0 -0.42183473972908359 0.18211940039769439 0 -0.44919017314130599 0.1775846896507792 0 -0.43257320231293922 0.19315427381625369 0 -0.42707882773422812 0.17462973691726569 0 -0.42707882773422812 0.17462973691726569 0 -0.42183473972908359 0.18211940039769439 0 -0.40870214796446269 0.18018243262920841 0 -0.4092812178661035 0.19674248991743529 0 -0.40870214796446269 0.18018243262920841 0 -0.4127213261837015 0.18285507125248579 0 -0.42232034218597297 0.19026181678025669 0 -0.42183473972908359 0.18211940039769439 0 -0.4127213261837015 0.18285507125248579 0 -0.42183473972908359 0.18211940039769439 0 -0.40870214796446269 0.18018243262920841 0 -0.4127213261837015 0.18285507125248579 0 -0.42158445315551518 0.1561052000182783 0 -0.40870214796446269 0.18018243262920841 0 -0.42158445315551518 0.1561052000182783 0 -0.40870214796446269 0.18018243262920841 0 -0.40785396592336332 0.16361012797783661 0 -0.42158445315551518 0.1561052000182783 0 -0.42707882773422812 0.17462973691726569 0 -0.40870214796446269 0.18018243262920841 0 -0.42158445315551518 0.1561052000182783 0 -0.41070007786744139 0.15463102035075471 0 -0.40785396592336332 0.16361012797783661 0 -0.41070007786744139 0.15463102035075471 0 -0.40785396592336332 0.16361012797783661 0 -0.39975293047086319 0.15552700862154531 0 -0.40870214796446269 0.18018243262920841 0 -0.40785396592336332 0.16361012797783661 0 -0.39851124675272348 0.17087290892463419 0 -0.40785396592336332 0.16361012797783661 0 -0.39851124675272348 0.17087290892463419 0 -0.39975293047086319 0.15552700862154531 0 -0.39851124675272348 0.17087290892463419 0 -0.38749633024927099 0.16327364046022949 0 -0.39975293047086319 0.15552700862154531 0 -0.40870214796446269 0.18018243262920841 0 -0.39795335013238547 0.1789378740252569 0 -0.39539030922568852 0.18718898336649359 0 -0.40870214796446269 0.18018243262920841 0 -0.39851124675272348 0.17087290892463419 0 -0.39795335013238547 0.1789378740252569 0 -0.39851124675272348 0.17087290892463419 0 -0.39795335013238547 0.1789378740252569 0 -0.38527079980056672 0.17630413596394401 0 -0.39795335013238547 0.1789378740252569 0 -0.39539030922568852 0.18718898336649359 0 -0.38527079980056672 0.17630413596394401 0 -0.38636787862627359 0.1952421544789642 0 -0.39539030922568852 0.18718898336649359 0 -0.38527079980056672 0.17630413596394401 0 -0.38527079980056672 0.17630413596394401 0 -0.38749633024927099 0.16327364046022949 0 -0.36420665930653762 0.16416706775605761 0 -0.38974001491566401 0.14949708103496651 0 -0.36420665930653762 0.16416706775605761 0 -0.38749633024927099 0.16327364046022949 0 -0.38974001491566401 0.14949708103496651 0 -0.36420665930653762 0.16416706775605761 0 -0.39851124675272348 0.17087290892463419 0 -0.38527079980056672 0.17630413596394401 0 -0.38749633024927099 0.16327364046022949 0 -0.38289791490575992 0.1227367021696955 0 -0.41632854846925338 0.13422085020438029 0 -0.38974001491566401 0.14949708103496651 0 -0.38749633024927099 0.16327364046022949 0 -0.38974001491566401 0.14949708103496651 0 -0.39975293047086319 0.15552700862154531 0 -0.41632854846925338 0.13422085020438029 0 -0.38974001491566401 0.14949708103496651 0 -0.41632854846925338 0.13422085020438029 0 -0.38974001491566401 0.14949708103496651 0 -0.39975293047086319 0.15552700862154531 0 -0.38289791490575992 0.1227367021696955 0 -0.38974001491566401 0.14949708103496651 0 -0.36026520367256187 0.13749143609449321 0 -0.36026520367256187 0.13749143609449321 0 -0.33567536368962808 0.1294403138358334 0 -0.339761687334313 0.15407462832811369 0 -0.36026520367256187 0.13749143609449321 0 -0.33567536368962808 0.1294403138358334 0 -0.35476289010026918 0.11220892543272699 0 -0.36026520367256187 0.13749143609449321 0 -0.36420665930653762 0.16416706775605761 0 -0.339761687334313 0.15407462832811369 0 -0.38974001491566401 0.14949708103496651 0 -0.36026520367256187 0.13749143609449321 0 -0.36420665930653762 0.16416706775605761 0 -0.38527079980056672 0.17630413596394401 0 -0.36269018246752799 0.1815824989546222 0 -0.37201630389582468 0.19477802576388459 0 -0.38527079980056672 0.17630413596394401 0 -0.36420665930653762 0.16416706775605761 0 -0.36269018246752799 0.1815824989546222 0 -0.36420665930653762 0.16416706775605761 0 -0.36269018246752799 0.1815824989546222 0 -0.33867330369741111 0.17883705447714879 0 -0.36269018246752799 0.1815824989546222 0 -0.33867330369741111 0.17883705447714879 0 -0.35328384563730031 0.19382621081207599 0 -0.36420665930653762 0.16416706775605761 0 -0.33867330369741111 0.17883705447714879 0 -0.36420665930653762 0.16416706775605761 0 -0.33867330369741111 0.17883705447714879 0 -0.339761687334313 0.15407462832811369 0 -0.33867330369741111 0.17883705447714879 0 -0.31670879158506599 0.17127418401382821 0 -0.339761687334313 0.15407462832811369 0 -0.33867330369741111 0.17883705447714879 0 -0.31670879158506599 0.17127418401382821 0 -0.3131399480882846 0.19350704119824 0 -0.33867330369741111 0.17883705447714879 0 -0.3131399480882846 0.19350704119824 0 -0.31670879158506599 0.17127418401382821 0 -0.31658783727898698 0.14667170223893991 0 -0.339761687334313 0.15407462832811369 0 -0.31658783727898698 0.14667170223893991 0 -0.33567536368962808 0.1294403138358334 0 -0.31658783727898698 0.14667170223893991 0 -0.31631020558434592 0.12551755118178659 0 -0.33567536368962808 0.1294403138358334 0 -0.31658783727898698 0.14667170223893991 0 -0.33567536368962808 0.1294403138358334 0 -0.339761687334313 0.15407462832811369 0 -0.35128395450412669 0.24126696948971529 0 -0.3650723950661709 0.24998549435974801 0 -0.34413919195685061 0.25265196040736021 0 -0.35128395450412669 0.24126696948971529 0 -0.3650723950661709 0.24998549435974801 0 -0.3588096185983165 0.23102870437729431 0 -0.35128395450412669 0.24126696948971529 0 -0.33979482615947271 0.2361766713433113 0 -0.34413919195685061 0.25265196040736021 0 -0.35128395450412669 0.24126696948971529 0 -0.34673170897802291 0.23141987360439789 0 -0.33979482615947271 0.2361766713433113 0 -0.35128395450412669 0.24126696948971529 0 -0.3588096185983165 0.23102870437729431 0 -0.34673170897802291 0.23141987360439789 0 -0.38702646908577448 0.24703725013213551 0 -0.3650723950661709 0.24998549435974801 0 -0.37237801042727531 0.23677029235194169 0 -0.3650723950661709 0.24998549435974801 0 -0.37237801042727531 0.23677029235194169 0 -0.3588096185983165 0.23102870437729431 0 -0.37038655920818558 0.22357120801157321 0 -0.3588096185983165 0.23102870437729431 0 -0.35980366975624839 0.2118302737568184 0 -0.37237801042727531 0.23677029235194169 0 -0.37038655920818558 0.22357120801157321 0 -0.3588096185983165 0.23102870437729431 0 -0.3588096185983165 0.23102870437729431 0 -0.34585234665485831 0.22137637041283889 0 -0.35980366975624839 0.2118302737568184 0 -0.3588096185983165 0.23102870437729431 0 -0.34673170897802291 0.23141987360439789 0 -0.34585234665485831 0.22137637041283889 0 -0.34585234665485831 0.22137637041283889 0 -0.35980366975624839 0.2118302737568184 0 -0.34152479775393663 0.20787761672402491 0 -0.35980366975624839 0.2118302737568184 0 -0.35328384563730031 0.19382621081207599 0 -0.34152479775393663 0.20787761672402491 0 -0.37800395967672928 0.20988987172074239 0 -0.35980366975624839 0.2118302737568184 0 -0.37201630389582468 0.19477802576388459 0 -0.37800395967672928 0.20988987172074239 0 -0.37038655920818558 0.22357120801157321 0 -0.35980366975624839 0.2118302737568184 0 -0.36269018246752799 0.1815824989546222 0 -0.37201630389582468 0.19477802576388459 0 -0.35328384563730031 0.19382621081207599 0 -0.35980366975624839 0.2118302737568184 0 -0.37201630389582468 0.19477802576388459 0 -0.35328384563730031 0.19382621081207599 0 -0.35328384563730031 0.19382621081207599 0 -0.33299521106146612 0.19491192508219229 0 -0.34152479775393663 0.20787761672402491 0 -0.33867330369741111 0.17883705447714879 0 -0.33299521106146612 0.19491192508219229 0 -0.3131399480882846 0.19350704119824 0 -0.33867330369741111 0.17883705447714879 0 -0.35328384563730031 0.19382621081207599 0 -0.33299521106146612 0.19491192508219229 0 -0.33299521106146612 0.19491192508219229 0 -0.3131399480882846 0.19350704119824 0 -0.32182273812612783 0.20111807788962141 0 -0.3131399480882846 0.19350704119824 0 -0.32182273812612783 0.20111807788962141 0 -0.31021991081793571 0.206509063368949 0 -0.33299521106146612 0.19491192508219229 0 -0.32182273812612783 0.20111807788962141 0 -0.32784036954228801 0.2094850339258239 0 -0.32182273812612783 0.20111807788962141 0 -0.30807847522554899 0.22029911100287269 0 -0.3181533752542719 0.21300355390394721 0 -0.3285951695688894 0.21976356096486729 0 -0.30807847522554899 0.22029911100287269 0 -0.32182273812612783 0.20111807788962141 0 -0.30807847522554899 0.22029911100287269 0 -0.31021991081793571 0.206509063368949 0 -0.32182273812612783 0.20111807788962141 0 -0.3181533752542719 0.21300355390394721 0 -0.30807847522554899 0.22029911100287269 0 -0.32182273812612783 0.20111807788962141 0 -0.32784036954228801 0.2094850339258239 0 -0.3181533752542719 0.21300355390394721 0 -0.32784036954228801 0.2094850339258239 0 -0.3181533752542719 0.21300355390394721 0 -0.3285951695688894 0.21976356096486729 0 -0.34585234665485831 0.22137637041283889 0 -0.34152479775393663 0.20787761672402491 0 -0.3285951695688894 0.21976356096486729 0 -0.32784036954228801 0.2094850339258239 0 -0.34152479775393663 0.20787761672402491 0 -0.3285951695688894 0.21976356096486729 0 -0.33299521106146612 0.19491192508219229 0 -0.32784036954228801 0.2094850339258239 0 -0.34152479775393663 0.20787761672402491 0 -0.34585234665485831 0.22137637041283889 0 -0.33842231616950208 0.22812203518376881 0 -0.3285951695688894 0.21976356096486729 0 -0.34673170897802291 0.23141987360439789 0 -0.34585234665485831 0.22137637041283889 0 -0.33842231616950208 0.22812203518376881 0 -0.33842231616950208 0.22812203518376881 0 -0.33113752948626729 0.23187369959342891 0 -0.33979482615947271 0.2361766713433113 0 -0.34673170897802291 0.23141987360439789 0 -0.33842231616950208 0.22812203518376881 0 -0.33979482615947271 0.2361766713433113 0 -0.33842231616950208 0.22812203518376881 0 -0.33113752948626729 0.23187369959342891 0 -0.3285951695688894 0.21976356096486729 0 -0.3285951695688894 0.21976356096486729 0 -0.32033646903040952 0.23129670238534189 0 -0.30807847522554899 0.22029911100287269 0 -0.3285951695688894 0.21976356096486729 0 -0.30807847522554899 0.22029911100287269 0 -0.32033646903040952 0.23129670238534189 0 -0.31162433600828698 0.2370693885301344 0 -0.30807847522554899 0.22029911100287269 0 -0.32033646903040952 0.23129670238534189 0 -0.30807847522554899 0.22029911100287269 0 -0.33113752948626729 0.23187369959342891 0 -0.3285951695688894 0.21976356096486729 0 -0.32033646903040952 0.23129670238534189 0 -0.33113752948626729 0.23187369959342891 0 -0.32033646903040952 0.23129670238534189 0 -0.33259446283527072 0.24229429376781031 0 -0.32033646903040952 0.23129670238534189 0 -0.33259446283527072 0.24229429376781031 0 -0.32033646903040952 0.23129670238534189 0 -0.3198698390523787 0.24248957414849839 0 -0.33259446283527072 0.24229429376781031 0 -0.3198698390523787 0.24248957414849839 0 -0.33259446283527072 0.24229429376781031 0 -0.31242753141762769 0.25942866134329529 0 -0.3198698390523787 0.24248957414849839 0 -0.31162433600828698 0.2370693885301344 0 -0.31242753141762769 0.25942866134329529 0 -0.32033646903040952 0.23129670238534189 0 -0.3198698390523787 0.24248957414849839 0 -0.31162433600828698 0.2370693885301344 0 -0.33259446283527072 0.24229429376781031 0 -0.33979482615947271 0.2361766713433113 0 -0.34413919195685061 0.25265196040736021 0 -0.33113752948626729 0.23187369959342891 0 -0.33259446283527072 0.24229429376781031 0 -0.33979482615947271 0.2361766713433113 0 -0.33259446283527072 0.24229429376781031 0 -0.33979482615947271 0.2361766713433113 0 -0.33259446283527072 0.24229429376781031 0 -0.34413919195685061 0.25265196040736021 0 -0.29222907257208403 0.24074557093379831 0 -0.28485116335331812 0.23321920624294809 0 -0.27103680752545423 0.24403107392080631 0 -0.29222907257208403 0.24074557093379831 0 -0.30247996729088872 0.24864381714645439 0 -0.29253527374002541 0.25818464783769479 0 -0.29222907257208403 0.24074557093379831 0 -0.29412999365248849 0.22922493605379091 0 -0.28485116335331812 0.23321920624294809 0 -0.30247996729088872 0.24864381714645439 0 -0.31162433600828698 0.2370693885301344 0 -0.31242753141762769 0.25942866134329529 0 -0.29222907257208403 0.24074557093379831 0 -0.30247996729088872 0.24864381714645439 0 -0.31162433600828698 0.2370693885301344 0 -0.31162433600828698 0.2370693885301344 0 -0.31242753141762769 0.25942866134329529 0 -0.29222907257208403 0.24074557093379831 0 -0.31162433600828698 0.2370693885301344 0 -0.30807847522554899 0.22029911100287269 0 -0.30807847522554899 0.22029911100287269 0 -0.29135546942208101 0.22073563387754769 0 -0.29973814110322339 0.21602431030953129 0 -0.29222907257208403 0.24074557093379831 0 -0.30807847522554899 0.22029911100287269 0 -0.29412999365248849 0.22922493605379091 0 -0.29222907257208403 0.24074557093379831 0 -0.30807847522554899 0.22029911100287269 0 -0.30807847522554899 0.22029911100287269 0 -0.29135546942208101 0.22073563387754769 0 -0.30807847522554899 0.22029911100287269 0 -0.29135546942208101 0.22073563387754769 0 -0.29412999365248849 0.22922493605379091 0 -0.29135546942208101 0.22073563387754769 0 -0.29412999365248849 0.22922493605379091 0 -0.29135546942208101 0.22073563387754769 0 -0.28485116335331812 0.23321920624294809 0 -0.27550447359448282 0.2313588164287973 0 -0.29135546942208101 0.22073563387754769 0 -0.29412999365248849 0.22922493605379091 0 -0.28485116335331812 0.23321920624294809 0 -0.29135546942208101 0.22073563387754769 0 -0.28715566101267859 0.2078853432658945 0 -0.26589619103571299 0.22065056668017691 0 -0.28715566101267859 0.2078853432658945 0 -0.29818582247133602 0.21142364945415471 0 -0.29973814110322339 0.21602431030953129 0 -0.29135546942208101 0.22073563387754769 0 -0.28715566101267859 0.2078853432658945 0 -0.29135546942208101 0.22073563387754769 0 -0.28715566101267859 0.2078853432658945 0 -0.29973814110322339 0.21602431030953129 0 -0.28715566101267859 0.2078853432658945 0 -0.29973814110322339 0.21602431030953129 0 -0.3131399480882846 0.19350704119824 0 -0.28715566101267859 0.2078853432658945 0 -0.29818582247133602 0.21142364945415471 0 -0.3131399480882846 0.19350704119824 0 -0.29818582247133602 0.21142364945415471 0 -0.31021991081793571 0.206509063368949 0 -0.30807847522554899 0.22029911100287269 0 -0.29818582247133602 0.21142364945415471 0 -0.30807847522554899 0.22029911100287269 0 -0.29818582247133602 0.21142364945415471 0 -0.29973814110322339 0.21602431030953129 0 -0.30807847522554899 0.22029911100287269 0 -0.29818582247133602 0.21142364945415471 0 -0.31021991081793571 0.206509063368949 0 -0.3131399480882846 0.19350704119824 0 -0.28715566101267859 0.2078853432658945 0 -0.29458966224305472 0.1906515871984806 0 -0.3131399480882846 0.19350704119824 0 -0.28715566101267859 0.2078853432658945 0 -0.28715566101267859 0.2078853432658945 0 -0.27841278445770201 0.18113447904514979 0 -0.28715566101267859 0.2078853432658945 0 -0.29458966224305472 0.1906515871984806 0 -0.27841278445770201 0.18113447904514979 0 -0.28715566101267859 0.2078853432658945 0 -0.26479929435913158 0.1934241456244519 0 -0.28715566101267859 0.2078853432658945 0 -0.26479929435913158 0.1934241456244519 0 -0.27841278445770201 0.18113447904514979 0 -0.26479929435913158 0.1934241456244519 0 -0.24882679655978021 0.20784342172274001 0 -0.26479929435913158 0.1934241456244519 0 -0.24874787384898819 0.1830412972832951 0 -0.24882679655978021 0.20784342172274001 0 -0.26479929435913158 0.1934241456244519 0 -0.24874787384898819 0.1830412972832951 0 -0.26479929435913158 0.1934241456244519 0 -0.26239525568065108 0.2075379839136256 0 -0.24882679655978021 0.20784342172274001 0 -0.26239525568065108 0.2075379839136256 0 -0.26210488409125532 0.22149916584928939 0 -0.24882679655978021 0.20784342172274001 0 -0.26239525568065108 0.2075379839136256 0 -0.2667425779800478 0.21478786894851509 0 -0.26210488409125532 0.22149916584928939 0 -0.2667425779800478 0.21478786894851509 0 -0.27519480235345251 0.21205107377986629 0 -0.26589619103571299 0.22065056668017691 0 -0.28715566101267859 0.2078853432658945 0 -0.26589619103571299 0.22065056668017691 0 -0.28715566101267859 0.2078853432658945 0 -0.27519480235345251 0.21205107377986629 0 -0.26589619103571299 0.22065056668017691 0 -0.28715566101267859 0.2078853432658945 0 -0.26479929435913158 0.1934241456244519 0 -0.27519480235345251 0.21205107377986629 0 -0.26239525568065108 0.2075379839136256 0 -0.2667425779800478 0.21478786894851509 0 -0.27519480235345251 0.21205107377986629 0 -0.26479929435913158 0.1934241456244519 0 -0.26239525568065108 0.2075379839136256 0 -0.27519480235345251 0.21205107377986629 0 -0.29135546942208101 0.22073563387754769 0 -0.26210488409125532 0.22149916584928939 0 -0.29135546942208101 0.22073563387754769 0 -0.27550447359448282 0.2313588164287973 0 -0.26210488409125532 0.22149916584928939 0 -0.29135546942208101 0.22073563387754769 0 -0.26589619103571299 0.22065056668017691 0 -0.26210488409125532 0.22149916584928939 0 -0.27550447359448282 0.2313588164287973 0 -0.26210488409125532 0.22149916584928939 0 -0.26453794159046717 0.2332653852208951 0 -0.26210488409125532 0.22149916584928939 0 -0.25542566316957921 0.23151948133455191 0 -0.24543730221246171 0.22482866379383809 0 -0.2667425779800478 0.21478786894851509 0 -0.26589619103571299 0.22065056668017691 0 -0.26210488409125532 0.22149916584928939 0 -0.26210488409125532 0.22149916584928939 0 -0.25542566316957921 0.23151948133455191 0 -0.26453794159046717 0.2332653852208951 0 -0.25718231193678831 0.2399436278613554 0 -0.27103680752545423 0.24403107392080631 0 -0.25265335745042522 0.25109173675386448 0 -0.26453794159046717 0.2332653852208951 0 -0.25718231193678831 0.2399436278613554 0 -0.27103680752545423 0.24403107392080631 0 -0.25542566316957921 0.23151948133455191 0 -0.26453794159046717 0.2332653852208951 0 -0.25718231193678831 0.2399436278613554 0 -0.25542566316957921 0.23151948133455191 0 -0.25718231193678831 0.2399436278613554 0 -0.24714809219953521 0.23907318359254359 0 -0.25718231193678831 0.2399436278613554 0 -0.25265335745042522 0.25109173675386448 0 -0.24714809219953521 0.23907318359254359 0 -0.29222907257208403 0.24074557093379831 0 -0.27103680752545423 0.24403107392080631 0 -0.27697126413119733 0.26117658840125102 0 -0.27550447359448282 0.2313588164287973 0 -0.26453794159046717 0.2332653852208951 0 -0.27103680752545423 0.24403107392080631 0 -0.28485116335331812 0.23321920624294809 0 -0.27550447359448282 0.2313588164287973 0 -0.27103680752545423 0.24403107392080631 0 -0.28922318394765723 0.1282620240163202 0 -0.29799548615922328 0.1436934950068865 0 -0.26907918302227551 0.15257615466305041 0 -0.29799548615922328 0.1436934950068865 0 -0.29750031086834589 0.16390309064204639 0 -0.26907918302227551 0.15257615466305041 0 -0.28922318394765723 0.1282620240163202 0 -0.29799548615922328 0.1436934950068865 0 -0.30255080643382048 0.12208388567831011 0 -0.31658783727898698 0.14667170223893991 0 -0.31631020558434592 0.12551755118178659 0 -0.29799548615922328 0.1436934950068865 0 -0.31631020558434592 0.12551755118178659 0 -0.29799548615922328 0.1436934950068865 0 -0.30255080643382048 0.12208388567831011 0 -0.31658783727898698 0.14667170223893991 0 -0.29750031086834589 0.16390309064204639 0 -0.31658783727898698 0.14667170223893991 0 -0.29799548615922328 0.1436934950068865 0 -0.29750031086834589 0.16390309064204639 0 -0.31670879158506599 0.17127418401382821 0 -0.31658783727898698 0.14667170223893991 0 -0.29750031086834589 0.16390309064204639 0 -0.31670879158506599 0.17127418401382821 0 -0.29458966224305472 0.1906515871984806 0 -0.29750031086834589 0.16390309064204639 0 -0.31670879158506599 0.17127418401382821 0 -0.3131399480882846 0.19350704119824 0 -0.29458966224305472 0.1906515871984806 0 -0.29458966224305472 0.1906515871984806 0 -0.29750031086834589 0.16390309064204639 0 -0.27841278445770201 0.18113447904514979 0 -0.29750031086834589 0.16390309064204639 0 -0.27841278445770201 0.18113447904514979 0 -0.29750031086834589 0.16390309064204639 0 -0.27841278445770201 0.18113447904514979 0 -0.26907918302227551 0.15257615466305041 0 -0.27841278445770201 0.18113447904514979 0 -0.26907918302227551 0.15257615466305041 0 -0.27841278445770201 0.18113447904514979 0 -0.26187051524597588 0.174783095380417 0 -0.26907918302227551 0.15257615466305041 0 -0.26479929435913158 0.1934241456244519 0 -0.27841278445770201 0.18113447904514979 0 -0.26187051524597588 0.174783095380417 0 -0.26479929435913158 0.1934241456244519 0 -0.27841278445770201 0.18113447904514979 0 -0.26187051524597588 0.174783095380417 0 -0.24831344054178331 0.1637394002861367 0 -0.24874787384898819 0.1830412972832951 0 -0.26479929435913158 0.1934241456244519 0 -0.26187051524597588 0.174783095380417 0 -0.24874787384898819 0.1830412972832951 0 -0.26187051524597588 0.174783095380417 0 -0.26907918302227551 0.15257615466305041 0 -0.24831344054178331 0.1637394002861367 0 -0.26907918302227551 0.15257615466305041 0 -0.2430235962010098 0.1436194546799206 0 -0.24831344054178331 0.1637394002861367 0 -0.26907918302227551 0.15257615466305041 0 -0.27384433742721043 0.12682403936369091 0 -0.25974558158685063 0.1240178302809503 0 -0.28922318394765723 0.1282620240163202 0 -0.26907918302227551 0.15257615466305041 0 -0.27384433742721043 0.12682403936369091 0 -0.26907918302227551 0.15257615466305041 0 -0.25974558158685063 0.1240178302809503 0 -0.26907918302227551 0.15257615466305041 0 -0.25974558158685063 0.1240178302809503 0 -0.2430235962010098 0.1436194546799206 0 -0.25974558158685063 0.1240178302809503 0 -0.25041198015142918 0.095459505898848926 0 -0.24365668353991851 0.1103158310452878 0 -0.25974558158685063 0.1240178302809503 0 -0.25041198015142918 0.095459505898848926 0 -0.26981758204954459 0.1118607649575829 0 -0.25974558158685063 0.1240178302809503 0 -0.25041198015142918 0.095459505898848926 0 -0.25041198015142918 0.095459505898848926 0 -0.26981758204954459 0.1118607649575829 0 -0.25041198015142918 0.095459505898848926 0 -0.26981758204954459 0.1118607649575829 0 -0.26141704115476638 0.090495698672661995 0 -0.27270662245338573 0.094773093202966646 0 -0.27771663533900859 0.1093615386211543 0 -0.26981758204954459 0.1118607649575829 0 -0.27270662245338573 0.094773093202966646 0 -0.26981758204954459 0.1118607649575829 0 -0.26141704115476638 0.090495698672661995 0 -0.27270662245338573 0.094773093202966646 0 -0.27771663533900859 0.1093615386211543 0 -0.27270662245338573 0.094773093202966646 0 -0.28201734722405941 0.1001153152251959 0 -0.28391015050727519 0.091397655072335673 0 -0.27270662245338573 0.094773093202966646 0 -0.27771663533900859 0.1093615386211543 0 -0.28201734722405941 0.1001153152251959 0 -0.28922318394765723 0.1282620240163202 0 -0.27384433742721043 0.12682403936369091 0 -0.26981758204954459 0.1118607649575829 0 -0.28922318394765723 0.1282620240163202 0 -0.27771663533900859 0.1093615386211543 0 -0.26981758204954459 0.1118607649575829 0 -0.28922318394765723 0.1282620240163202 0 -0.26981758204954459 0.1118607649575829 0 -0.27384433742721043 0.12682403936369091 0 -0.25974558158685063 0.1240178302809503 0 -0.26981758204954459 0.1118607649575829 0 -0.28922318394765723 0.1282620240163202 0 -0.27771663533900859 0.1093615386211543 0 -0.29163236794498149 0.11384250559643171 0 -0.28922318394765723 0.1282620240163202 0 -0.29163236794498149 0.11384250559643171 0 -0.30255080643382048 0.12208388567831011 0 -0.27771663533900859 0.1093615386211543 0 -0.29163236794498149 0.11384250559643171 0 -0.28710431020934818 0.1054463492958697 0 -0.27771663533900859 0.1093615386211543 0 -0.28710431020934818 0.1054463492958697 0 -0.28201734722405941 0.1001153152251959 0 -0.28201734722405941 0.1001153152251959 0 -0.28963430697536802 0.097928250411328466 0 -0.28391015050727519 0.091397655072335673 0 -0.28710431020934818 0.1054463492958697 0 -0.28201734722405941 0.1001153152251959 0 -0.28963430697536802 0.097928250411328466 0 -0.28963430697536802 0.097928250411328466 0 -0.29649147229150119 0.10264475758058909 0 -0.29797457380558318 0.09234957746350464 0 -0.28963430697536802 0.097928250411328466 0 -0.29797457380558318 0.09234957746350464 0 -0.28391015050727519 0.091397655072335673 0 -0.29163236794498149 0.11384250559643171 0 -0.28710431020934818 0.1054463492958697 0 -0.29649147229150119 0.10264475758058909 0 -0.28710431020934818 0.1054463492958697 0 -0.28963430697536802 0.097928250411328466 0 -0.29649147229150119 0.10264475758058909 0 -0.29163236794498149 0.11384250559643171 0 -0.29649147229150119 0.10264475758058909 0 -0.30618539930334221 0.1072157163425189 0 -0.29649147229150119 0.10264475758058909 0 -0.30740316487447289 0.097416456851557032 0 -0.30618539930334221 0.1072157163425189 0 -0.29649147229150119 0.10264475758058909 0 -0.30740316487447289 0.097416456851557032 0 -0.29797457380558318 0.09234957746350464 0 -0.30740316487447289 0.097416456851557032 0 -0.30618539930334221 0.1072157163425189 0 -0.31781828788682848 0.100695581615606 0 -0.30618539930334221 0.1072157163425189 0 -0.30255080643382048 0.12208388567831011 0 -0.31415049402697648 0.112614420479498 0 -0.31631020558434592 0.12551755118178659 0 -0.30255080643382048 0.12208388567831011 0 -0.31415049402697648 0.112614420479498 0 -0.29163236794498149 0.11384250559643171 0 -0.30618539930334221 0.1072157163425189 0 -0.30255080643382048 0.12208388567831011 0 -0.30284047199317288 0.077899882412751739 0 -0.29751546582925409 0.067279444185059045 0 -0.30531520919385668 0.070551786854124249 0 -0.29751546582925409 0.067279444185059045 0 -0.30548701166274927 0.064613420940663246 0 -0.29972433769491791 0.059710592505707219 0 -0.29751546582925409 0.067279444185059045 0 -0.30548701166274927 0.064613420940663246 0 -0.30531520919385668 0.070551786854124249 0 -0.30548701166274927 0.064613420940663246 0 -0.31156094219583857 0.06807936801096974 0 -0.30531520919385668 0.070551786854124249 0 -0.30548701166274927 0.064613420940663246 0 -0.31156094219583857 0.06807936801096974 0 -0.31313423812619018 0.061154500492800801 0 -0.30284047199317288 0.077899882412751739 0 -0.31048181319094897 0.073115490872607478 0 -0.3149128197704954 0.077091396323122813 0 -0.31156094219583857 0.06807936801096974 0 -0.31048181319094897 0.073115490872607478 0 -0.30531520919385668 0.070551786854124249 0 -0.30284047199317288 0.077899882412751739 0 -0.31048181319094897 0.073115490872607478 0 -0.30531520919385668 0.070551786854124249 0 -0.30755526864546712 0.089975295751970608 0 -0.294434772206077 0.083075721610914907 0 -0.32117293484439352 0.085966795437046439 0 -0.30284047199317288 0.077899882412751739 0 -0.294434772206077 0.083075721610914907 0 -0.32117293484439352 0.085966795437046439 0 -0.294434772206077 0.083075721610914907 0 -0.32117293484439352 0.085966795437046439 0 -0.30740316487447289 0.097416456851557032 0 -0.30755526864546712 0.089975295751970608 0 -0.31552525736878428 0.093333074259403404 0 -0.30740316487447289 0.097416456851557032 0 -0.30755526864546712 0.089975295751970608 0 -0.29797457380558318 0.09234957746350464 0 -0.30755526864546712 0.089975295751970608 0 -0.29797457380558318 0.09234957746350464 0 -0.294434772206077 0.083075721610914907 0 -0.294434772206077 0.083075721610914907 0 -0.28391015050727519 0.091397655072335673 0 -0.26769660956776109 0.080184647784779517 0 -0.29797457380558318 0.09234957746350464 0 -0.294434772206077 0.083075721610914907 0 -0.28391015050727519 0.091397655072335673 0 -0.30284047199317288 0.077899882412751739 0 -0.294434772206077 0.083075721610914907 0 -0.28226946233320299 0.070309374938271968 0 -0.294434772206077 0.083075721610914907 0 -0.28226946233320299 0.070309374938271968 0 -0.26769660956776109 0.080184647784779517 0 -0.30284047199317288 0.077899882412751739 0 -0.28226946233320299 0.070309374938271968 0 -0.30284047199317288 0.077899882412751739 0 -0.29751546582925409 0.067279444185059045 0 -0.28226946233320299 0.070309374938271968 0 -0.29751546582925409 0.067279444185059045 0 -0.28226946233320299 0.070309374938271968 0 -0.29022363274236801 0.059216895145030223 0 -0.28226946233320299 0.070309374938271968 0 -0.27744035203432998 0.058756295689662882 0 -0.29022363274236801 0.059216895145030223 0 -0.28226946233320299 0.070309374938271968 0 -0.26169845267323261 0.062718867463793793 0 -0.28226946233320299 0.070309374938271968 0 -0.26169845267323261 0.062718867463793793 0 -0.27744035203432998 0.058756295689662882 0 -0.28226946233320299 0.070309374938271968 0 -0.26769660956776109 0.080184647784779517 0 -0.26169845267323261 0.062718867463793793 0 -0.294434772206077 0.083075721610914907 0 -0.26769660956776109 0.080184647784779517 0 -0.27270662245338573 0.094773093202966646 0 -0.28391015050727519 0.091397655072335673 0 -0.26769660956776109 0.080184647784779517 0 -0.27270662245338573 0.094773093202966646 0 -0.26769660956776109 0.080184647784779517 0 -0.26141704115476638 0.090495698672661995 0 -0.27270662245338573 0.094773093202966646 0 -0.26769660956776109 0.080184647784779517 0 -0.26769660956776109 0.080184647784779517 0 -0.26141704115476638 0.090495698672661995 0 -0.244603698784257 0.07768771817751037 0 -0.26769660956776109 0.080184647784779517 0 -0.244603698784257 0.07768771817751037 0 -0.25041198015142918 0.095459505898848926 0 -0.26141704115476638 0.090495698672661995 0 -0.244603698784257 0.07768771817751037 0 -0.26769660956776109 0.080184647784779517 0 -0.26169845267323261 0.062718867463793793 0 -0.244603698784257 0.07768771817751037 0 -0.26769660956776109 0.080184647784779517 0 -0.26169845267323261 0.062718867463793793 0 -0.26169845267323261 0.062718867463793793 0 -0.25811756134856428 0.052291820901049349 0 -0.2365299022825417 0.052984059993001507 0 -0.26169845267323261 0.062718867463793793 0 -0.25811756134856428 0.052291820901049349 0 -0.25811756134856428 0.052291820901049349 0 -0.25445515451353462 0.041627412758430252 0 -0.25811756134856428 0.052291820901049349 0 -0.25445515451353462 0.041627412758430252 0 -0.2447050572814031 0.047804643256565749 0 -0.25811756134856428 0.052291820901049349 0 -0.2447050572814031 0.047804643256565749 0 -0.25811756134856428 0.052291820901049349 0 -0.25445515451353462 0.041627412758430252 0 -0.2704145169565858 0.045579440051100893 0 -0.25445515451353462 0.041627412758430252 0 -0.2740772217427252 0.029195738567007339 0 -0.2704145169565858 0.045579440051100893 0 -0.2740772217427252 0.029195738567007339 0 -0.28620844944028978 0.047194618168521253 0 -0.25445515451353462 0.041627412758430252 0 -0.2704145169565858 0.045579440051100893 0 -0.2740772217427252 0.029195738567007339 0 -0.25811756134856428 0.052291820901049349 0 -0.2704145169565858 0.045579440051100893 0 -0.27744035203432998 0.058756295689662882 0 -0.26169845267323261 0.062718867463793793 0 -0.25811756134856428 0.052291820901049349 0 -0.27744035203432998 0.058756295689662882 0 -0.2704145169565858 0.045579440051100893 0 -0.27744035203432998 0.058756295689662882 0 -0.28620844944028978 0.047194618168521253 0 -0.25811756134856428 0.052291820901049349 0 -0.27744035203432998 0.058756295689662882 0 -0.26333516374386129 0.00051910053004670942 0 -0.24712558119618661 0.020284737056821159 0 -0.24396522868510681 0.011082239745400501 0 -0.26333516374386129 0.00051910053004670942 0 -0.24712558119618661 0.020284737056821159 0 -0.25244635663921139 -0.01058035858029167 0 -0.26333516374386129 0.00051910053004670942 0 -0.24396522868510681 0.011082239745400501 0 -0.26333516374386129 0.00051910053004670942 0 -0.2740772217427252 0.029195738567007339 0 -0.24712558119618661 0.020284737056821159 0 -0.25445515451353462 0.041627412758430252 0 -0.2740772217427252 0.029195738567007339 0 -0.24712558119618661 0.020284737056821159 0 -0.25445515451353462 0.041627412758430252 0 -0.24712558119618661 0.020284737056821159 0 -0.26333516374386129 0.00051910053004670942 0 -0.2740772217427252 0.029195738567007339 0 -0.28141789439927128 0.0039550589139241482 0 -0.29643305124632008 -0.0074570729062871004 0 -0.28141789439927128 0.0039550589139241482 0 -0.29369928897191439 0.016764064375582161 0 -0.2740772217427252 0.029195738567007339 0 -0.29369928897191439 0.016764064375582161 0 -0.29504326718540053 0.033588916280847723 0 -0.2740772217427252 0.029195738567007339 0 -0.28141789439927128 0.0039550589139241482 0 -0.29369928897191439 0.016764064375582161 0 -0.2740772217427252 0.029195738567007339 0 -0.29369928897191439 0.016764064375582161 0 -0.29369928897191439 0.016764064375582161 0 -0.30311066291720679 0.025944776031556309 0 -0.29504326718540053 0.033588916280847723 0 -0.29369928897191439 0.016764064375582161 0 -0.30311066291720679 0.025944776031556309 0 -0.31088204074588888 0.017956426083854261 0 -0.30311066291720679 0.025944776031556309 0 -0.31215922840072918 0.030311994623399049 0 -0.31088204074588888 0.017956426083854261 0 -0.29369928897191439 0.016764064375582161 0 -0.31088204074588888 0.017956426083854261 0 -0.31332135620110318 0.0043323901841563778 0 -0.29643305124632008 -0.0074570729062871004 0 -0.29369928897191439 0.016764064375582161 0 -0.31332135620110318 0.0043323901841563778 0 -0.29369928897191439 0.016764064375582161 0 -0.31332135620110318 0.0043323901841563778 0 -0.29022363274236801 0.059216895145030223 0 -0.28620844944028978 0.047194618168521253 0 -0.29933831071313571 0.04904953992441391 0 -0.29022363274236801 0.059216895145030223 0 -0.29933831071313571 0.04904953992441391 0 -0.29972433769491791 0.059710592505707219 0 -0.29751546582925409 0.067279444185059045 0 -0.29022363274236801 0.059216895145030223 0 -0.29972433769491791 0.059710592505707219 0 -0.27744035203432998 0.058756295689662882 0 -0.29022363274236801 0.059216895145030223 0 -0.28620844944028978 0.047194618168521253 0 -0.2740772217427252 0.029195738567007339 0 -0.28620844944028978 0.047194618168521253 0 -0.29504326718540053 0.033588916280847723 0 -0.28620844944028978 0.047194618168521253 0 -0.29504326718540053 0.033588916280847723 0 -0.29933831071313571 0.04904953992441391 0 -0.29504326718540053 0.033588916280847723 0 -0.30591119211506601 0.037520972269776187 0 -0.29933831071313571 0.04904953992441391 0 -0.30311066291720679 0.025944776031556309 0 -0.29504326718540053 0.033588916280847723 0 -0.30591119211506601 0.037520972269776187 0 -0.30311066291720679 0.025944776031556309 0 -0.31215922840072918 0.030311994623399049 0 -0.30591119211506601 0.037520972269776187 0 -0.31215922840072918 0.030311994623399049 0 -0.30591119211506601 0.037520972269776187 0 -0.31486300926504551 0.039255802259104723 0 -0.30591119211506601 0.037520972269776187 0 -0.3097715227913056 0.047342480928849823 0 -0.31486300926504551 0.039255802259104723 0 -0.30591119211506601 0.037520972269776187 0 -0.3097715227913056 0.047342480928849823 0 -0.29933831071313571 0.04904953992441391 0 -0.3097715227913056 0.047342480928849823 0 -0.30659727325541569 0.056046230063670127 0 -0.3134181430984328 0.054117855087736783 0 -0.3097715227913056 0.047342480928849823 0 -0.29933831071313571 0.04904953992441391 0 -0.30659727325541569 0.056046230063670127 0 -0.30548701166274927 0.064613420940663246 0 -0.29972433769491791 0.059710592505707219 0 -0.30659727325541569 0.056046230063670127 0 -0.29933831071313571 0.04904953992441391 0 -0.29972433769491791 0.059710592505707219 0 -0.30659727325541569 0.056046230063670127 0 -0.30548701166274927 0.064613420940663246 0 -0.30659727325541569 0.056046230063670127 0 -0.31313423812619018 0.061154500492800801 0 -0.30659727325541569 0.056046230063670127 0 -0.31313423812619018 0.061154500492800801 0 -0.3134181430984328 0.054117855087736783 0 -0.31313423812619018 0.061154500492800801 0 -0.32156062932359991 0.057209671262867079 0 -0.3134181430984328 0.054117855087736783 0 -0.31313423812619018 0.061154500492800801 0 -0.32156062932359991 0.057209671262867079 0 -0.3187676112071991 0.066405761124366997 0 -0.32156062932359991 0.057209671262867079 0 -0.33110046754179889 0.060856433732331253 0 -0.32483291628994237 0.064079481787454484 0 -0.32156062932359991 0.057209671262867079 0 -0.33110046754179889 0.060856433732331253 0 -0.32827086226453323 0.054328863827804177 0 -0.32156062932359991 0.057209671262867079 0 -0.325567022170895 0.047978699549556858 0 -0.32827086226453323 0.054328863827804177 0 -0.32156062932359991 0.057209671262867079 0 -0.325567022170895 0.047978699549556858 0 -0.31782315017249901 0.047660523588708981 0 -0.32156062932359991 0.057209671262867079 0 -0.31782315017249901 0.047660523588708981 0 -0.3134181430984328 0.054117855087736783 0 -0.3097715227913056 0.047342480928849823 0 -0.31782315017249901 0.047660523588708981 0 -0.3134181430984328 0.054117855087736783 0 -0.31782315017249901 0.047660523588708981 0 -0.31486300926504551 0.039255802259104723 0 -0.32293599774655019 0.040258690331810322 0 -0.3097715227913056 0.047342480928849823 0 -0.31782315017249901 0.047660523588708981 0 -0.31486300926504551 0.039255802259104723 0 -0.31486300926504551 0.039255802259104723 0 -0.31997154554175361 0.03235137589521022 0 -0.32293599774655019 0.040258690331810322 0 -0.31215922840072918 0.030311994623399049 0 -0.31486300926504551 0.039255802259104723 0 -0.31997154554175361 0.03235137589521022 0 -0.3275267218542498 0.031572520153036437 0 -0.32293599774655019 0.040258690331810322 0 -0.33127557602994989 0.041732887763516052 0 -0.31997154554175361 0.03235137589521022 0 -0.3275267218542498 0.031572520153036437 0 -0.32293599774655019 0.040258690331810322 0 -0.325567022170895 0.047978699549556858 0 -0.32293599774655019 0.040258690331810322 0 -0.33127557602994989 0.041732887763516052 0 -0.325567022170895 0.047978699549556858 0 -0.31782315017249901 0.047660523588708981 0 -0.32293599774655019 0.040258690331810322 0 -0.33127557602994989 0.041732887763516052 0 -0.33947846719948338 0.042357869020188392 0 -0.33485533002183893 0.051270650766461562 0 -0.33127557602994989 0.041732887763516052 0 -0.33700655617323871 0.033526260828094609 0 -0.33947846719948338 0.042357869020188392 0 -0.3275267218542498 0.031572520153036437 0 -0.33127557602994989 0.041732887763516052 0 -0.33700655617323871 0.033526260828094609 0 -0.33700655617323871 0.033526260828094609 0 -0.33947846719948338 0.042357869020188392 0 -0.34655163946476197 0.036849739340160219 0 -0.33700655617323871 0.033526260828094609 0 -0.3433589372568866 0.027110046983171619 0 -0.34655163946476197 0.036849739340160219 0 -0.34340156728795468 0.060757126218648039 0 -0.33485533002183893 0.051270650766461562 0 -0.34654727878825808 0.048883518365499083 0 -0.33947846719948338 0.042357869020188392 0 -0.33485533002183893 0.051270650766461562 0 -0.34654727878825808 0.048883518365499083 0 -0.34340156728795468 0.060757126218648039 0 -0.33110046754179889 0.060856433732331253 0 -0.33485533002183893 0.051270650766461562 0 -0.33110046754179889 0.060856433732331253 0 -0.33485533002183893 0.051270650766461562 0 -0.32827086226453323 0.054328863827804177 0 -0.325567022170895 0.047978699549556858 0 -0.33485533002183893 0.051270650766461562 0 -0.32827086226453323 0.054328863827804177 0 -0.325567022170895 0.047978699549556858 0 -0.33127557602994989 0.041732887763516052 0 -0.33485533002183893 0.051270650766461562 0 -0.32981813867183951 -0.0061192417712125653 0 -0.32223283422324372 0.010553354425657181 0 -0.33153374954540432 0.0078061539967142768 0 -0.32981813867183951 -0.0061192417712125653 0 -0.31332135620110318 0.0043323901841563778 0 -0.32223283422324372 0.010553354425657181 0 -0.31332135620110318 0.0043323901841563778 0 -0.32223283422324372 0.010553354425657181 0 -0.31088204074588888 0.017956426083854261 0 -0.31332135620110318 0.0043323901841563778 0 -0.32223283422324372 0.010553354425657181 0 -0.32223283422324372 0.010553354425657181 0 -0.32102476297105847 0.02372778650565804 0 -0.33328133040851959 0.0198582321431175 0 -0.31088204074588888 0.017956426083854261 0 -0.32223283422324372 0.010553354425657181 0 -0.32102476297105847 0.02372778650565804 0 -0.31215922840072918 0.030311994623399049 0 -0.31088204074588888 0.017956426083854261 0 -0.32102476297105847 0.02372778650565804 0 -0.31215922840072918 0.030311994623399049 0 -0.31997154554175361 0.03235137589521022 0 -0.32102476297105847 0.02372778650565804 0 -0.3275267218542498 0.031572520153036437 0 -0.32102476297105847 0.02372778650565804 0 -0.33328133040851959 0.0198582321431175 0 -0.31997154554175361 0.03235137589521022 0 -0.3275267218542498 0.031572520153036437 0 -0.32102476297105847 0.02372778650565804 0 -0.3275267218542498 0.031572520153036437 0 -0.33700655617323871 0.033526260828094609 0 -0.33328133040851959 0.0198582321431175 0 -0.33700655617323871 0.033526260828094609 0 -0.3433589372568866 0.027110046983171619 0 -0.33328133040851959 0.0198582321431175 0 -0.3433589372568866 0.027110046983171619 0 -0.33328133040851959 0.0198582321431175 0 -0.34611040069373927 0.0177164707038934 0 -0.32223283422324372 0.010553354425657181 0 -0.33328133040851959 0.0198582321431175 0 -0.33153374954540432 0.0078061539967142768 0 -0.33328133040851959 0.0198582321431175 0 -0.34080269487801462 0.0069322711892949931 0 -0.33153374954540432 0.0078061539967142768 0 -0.33328133040851959 0.0198582321431175 0 -0.34080269487801462 0.0069322711892949931 0 -0.34611040069373927 0.0177164707038934 0 -0.32981813867183951 -0.0061192417712125653 0 -0.34080269487801462 0.0069322711892949931 0 -0.33153374954540432 0.0078061539967142768 0 -0.34385549330821541 -0.0030521141313502899 0 -0.34080269487801462 0.0069322711892949931 0 -0.35848621854042878 0.0035493877830932892 0 -0.34080269487801462 0.0069322711892949931 0 -0.35848621854042878 0.0035493877830932892 0 -0.34611040069373927 0.0177164707038934 0 -0.35848621854042878 0.0035493877830932892 0 -0.35721315989970592 0.018325712826754621 0 -0.34611040069373927 0.0177164707038934 0 -0.35721315989970592 0.018325712826754621 0 -0.34611040069373927 0.0177164707038934 0 -0.35359850442637658 0.028367343527268291 0 -0.3433589372568866 0.027110046983171619 0 -0.34611040069373927 0.0177164707038934 0 -0.35359850442637658 0.028367343527268291 0 -0.3433589372568866 0.027110046983171619 0 -0.35359850442637658 0.028367343527268291 0 -0.34655163946476197 0.036849739340160219 0 -0.35721315989970592 0.018325712826754621 0 -0.35359850442637658 0.028367343527268291 0 -0.37065751593827889 0.023669649292763491 0 -0.35359850442637658 0.028367343527268291 0 -0.37065751593827889 0.023669649292763491 0 -0.35932009294432887 0.04085339731673937 0 -0.37586338277100068 0.0019545058372344988 0 -0.35848621854042878 0.0035493877830932892 0 -0.37065751593827889 0.023669649292763491 0 -0.35848621854042878 0.0035493877830932892 0 -0.35721315989970592 0.018325712826754621 0 -0.37065751593827889 0.023669649292763491 0 -0.35848621854042878 0.0035493877830932892 0 -0.37065751593827889 0.023669649292763491 0 -0.35688377407016297 0.057407419573693143 0 -0.34654727878825808 0.048883518365499083 0 -0.35932009294432887 0.04085339731673937 0 -0.34340156728795468 0.060757126218648039 0 -0.35688377407016297 0.057407419573693143 0 -0.34654727878825808 0.048883518365499083 0 -0.34654727878825808 0.048883518365499083 0 -0.34655163946476197 0.036849739340160219 0 -0.35932009294432887 0.04085339731673937 0 -0.33947846719948338 0.042357869020188392 0 -0.34654727878825808 0.048883518365499083 0 -0.34655163946476197 0.036849739340160219 0 -0.35359850442637658 0.028367343527268291 0 -0.34655163946476197 0.036849739340160219 0 -0.35932009294432887 0.04085339731673937 0 -0.37065751593827889 0.023669649292763491 0 -0.35932009294432887 0.04085339731673937 0 -0.37254830518738308 0.038631753301114999 0 -0.35932009294432887 0.04085339731673937 0 -0.37254830518738308 0.038631753301114999 0 -0.37334710544339761 0.055220481311926709 0 -0.35688377407016297 0.057407419573693143 0 -0.35932009294432887 0.04085339731673937 0 -0.37334710544339761 0.055220481311926709 0 -0.35688377407016297 0.057407419573693143 0 -0.37334710544339761 0.055220481311926709 0 -0.37490948726365508 0.070131888805492454 0 -0.35688377407016297 0.057407419573693143 0 -0.37490948726365508 0.070131888805492454 0 -0.35594632466378873 0.073991316286497077 0 -0.34340156728795468 0.060757126218648039 0 -0.35594632466378873 0.073991316286497077 0 -0.33872160536733958 0.071816056828350308 0 -0.34340156728795468 0.060757126218648039 0 -0.35688377407016297 0.057407419573693143 0 -0.35594632466378873 0.073991316286497077 0 -0.35594632466378873 0.073991316286497077 0 -0.34791109748270971 0.08885786926317793 0 -0.37385041651091028 0.094977537029620598 0 -0.35594632466378873 0.073991316286497077 0 -0.34791109748270971 0.08885786926317793 0 -0.33872160536733958 0.071816056828350308 0 -0.37490948726365508 0.070131888805492454 0 -0.35594632466378873 0.073991316286497077 0 -0.37385041651091028 0.094977537029620598 0 -0.37385041651091028 0.094977537029620598 0 -0.35476289010026918 0.11220892543272699 0 -0.38289791490575992 0.1227367021696955 0 -0.37385041651091028 0.094977537029620598 0 -0.35476289010026918 0.11220892543272699 0 -0.38289791490575992 0.1227367021696955 0 -0.36026520367256187 0.13749143609449321 0 -0.35476289010026918 0.11220892543272699 0 -0.33567536368962808 0.1294403138358334 0 -0.35476289010026918 0.11220892543272699 0 -0.34163087209212989 0.10199623057873949 0 -0.33567536368962808 0.1294403138358334 0 -0.35476289010026918 0.11220892543272699 0 -0.34791109748270971 0.08885786926317793 0 -0.37385041651091028 0.094977537029620598 0 -0.35476289010026918 0.11220892543272699 0 -0.34791109748270971 0.08885786926317793 0 -0.35476289010026918 0.11220892543272699 0 -0.34163087209212989 0.10199623057873949 0 -0.34791109748270971 0.08885786926317793 0 -0.34163087209212989 0.10199623057873949 0 -0.32930074317882951 0.096314301192758772 0 -0.34163087209212989 0.10199623057873949 0 -0.32930074317882951 0.096314301192758772 0 -0.32710306401442563 0.1090607282143677 0 -0.33567536368962808 0.1294403138358334 0 -0.34163087209212989 0.10199623057873949 0 -0.32710306401442563 0.1090607282143677 0 -0.31631020558434592 0.12551755118178659 0 -0.31415049402697648 0.112614420479498 0 -0.32710306401442563 0.1090607282143677 0 -0.31631020558434592 0.12551755118178659 0 -0.33567536368962808 0.1294403138358334 0 -0.32710306401442563 0.1090607282143677 0 -0.32930074317882951 0.096314301192758772 0 -0.32095430581970902 0.094077438126203644 0 -0.31781828788682848 0.100695581615606 0 -0.32930074317882951 0.096314301192758772 0 -0.32710306401442563 0.1090607282143677 0 -0.31781828788682848 0.100695581615606 0 -0.30618539930334221 0.1072157163425189 0 -0.31415049402697648 0.112614420479498 0 -0.31781828788682848 0.100695581615606 0 -0.31415049402697648 0.112614420479498 0 -0.32710306401442563 0.1090607282143677 0 -0.31781828788682848 0.100695581615606 0 -0.30740316487447289 0.097416456851557032 0 -0.31781828788682848 0.100695581615606 0 -0.31552525736878428 0.093333074259403404 0 -0.32095430581970902 0.094077438126203644 0 -0.31781828788682848 0.100695581615606 0 -0.31552525736878428 0.093333074259403404 0 -0.30284047199317288 0.077899882412751739 0 -0.32341148165314287 0.085490389887231552 0 -0.30284047199317288 0.077899882412751739 0 -0.32117293484439352 0.085966795437046439 0 -0.32341148165314287 0.085490389887231552 0 -0.30284047199317288 0.077899882412751739 0 -0.32341148165314287 0.085490389887231552 0 -0.3149128197704954 0.077091396323122813 0 -0.32095430581970902 0.094077438126203644 0 -0.31552525736878428 0.093333074259403404 0 -0.32117293484439352 0.085966795437046439 0 -0.30755526864546712 0.089975295751970608 0 -0.31552525736878428 0.093333074259403404 0 -0.32117293484439352 0.085966795437046439 0 -0.32930074317882951 0.096314301192758772 0 -0.32095430581970902 0.094077438126203644 0 -0.32117293484439352 0.085966795437046439 0 -0.32341148165314287 0.085490389887231552 0 -0.32361050802010838 0.078965254868525958 0 -0.33136909971864598 0.07849122885959664 0 -0.32341148165314287 0.085490389887231552 0 -0.32361050802010838 0.078965254868525958 0 -0.3149128197704954 0.077091396323122813 0 -0.32361050802010838 0.078965254868525958 0 -0.3149128197704954 0.077091396323122813 0 -0.32074054314778788 0.074856383233353183 0 -0.31048181319094897 0.073115490872607478 0 -0.3149128197704954 0.077091396323122813 0 -0.31683459924542751 0.071749583856970764 0 -0.31156094219583857 0.06807936801096974 0 -0.31048181319094897 0.073115490872607478 0 -0.31683459924542751 0.071749583856970764 0 -0.31683459924542751 0.071749583856970764 0 -0.32074054314778788 0.074856383233353183 0 -0.32240554912764807 0.070764036039783179 0 -0.3149128197704954 0.077091396323122813 0 -0.31683459924542751 0.071749583856970764 0 -0.32074054314778788 0.074856383233353183 0 -0.31156094219583857 0.06807936801096974 0 -0.31313423812619018 0.061154500492800801 0 -0.3187676112071991 0.066405761124366997 0 -0.31156094219583857 0.06807936801096974 0 -0.31683459924542751 0.071749583856970764 0 -0.3187676112071991 0.066405761124366997 0 -0.31683459924542751 0.071749583856970764 0 -0.3187676112071991 0.066405761124366997 0 -0.32240554912764807 0.070764036039783179 0 -0.32156062932359991 0.057209671262867079 0 -0.3187676112071991 0.066405761124366997 0 -0.32483291628994237 0.064079481787454484 0 -0.3187676112071991 0.066405761124366997 0 -0.32483291628994237 0.064079481787454484 0 -0.32240554912764807 0.070764036039783179 0 -0.32483291628994237 0.064079481787454484 0 -0.32240554912764807 0.070764036039783179 0 -0.32862066621331543 0.070106157231930977 0 -0.32361050802010838 0.078965254868525958 0 -0.32074054314778788 0.074856383233353183 0 -0.32549730372388908 0.074873426404425666 0 -0.32074054314778788 0.074856383233353183 0 -0.32240554912764807 0.070764036039783179 0 -0.32549730372388908 0.074873426404425666 0 -0.32240554912764807 0.070764036039783179 0 -0.32549730372388908 0.074873426404425666 0 -0.32862066621331543 0.070106157231930977 0 -0.32361050802010838 0.078965254868525958 0 -0.32549730372388908 0.074873426404425666 0 -0.33136909971864598 0.07849122885959664 0 -0.32862066621331543 0.070106157231930977 0 -0.33872160536733958 0.071816056828350308 0 -0.33136909971864598 0.07849122885959664 0 -0.32549730372388908 0.074873426404425666 0 -0.32862066621331543 0.070106157231930977 0 -0.33136909971864598 0.07849122885959664 0 -0.33110046754179889 0.060856433732331253 0 -0.32862066621331543 0.070106157231930977 0 -0.33872160536733958 0.071816056828350308 0 -0.33110046754179889 0.060856433732331253 0 -0.32483291628994237 0.064079481787454484 0 -0.32862066621331543 0.070106157231930977 0 -0.34340156728795468 0.060757126218648039 0 -0.33110046754179889 0.060856433732331253 0 -0.33872160536733958 0.071816056828350308 0 -0.34791109748270971 0.08885786926317793 0 -0.32117293484439352 0.085966795437046439 0 -0.32341148165314287 0.085490389887231552 0 -0.34791109748270971 0.08885786926317793 0 -0.32341148165314287 0.085490389887231552 0 -0.33136909971864598 0.07849122885959664 0 -0.34791109748270971 0.08885786926317793 0 -0.32117293484439352 0.085966795437046439 0 -0.34791109748270971 0.08885786926317793 0 -0.32930074317882951 0.096314301192758772 0 -0.32117293484439352 0.085966795437046439 0 -0.34791109748270971 0.08885786926317793 0 -0.33872160536733958 0.071816056828350308 0 -0.33136909971864598 0.07849122885959664 0 -0.39686066366823802 0.47773795576213229 0 -0.40386299213237398 0.46290472494753138 0 -0.41030074827494478 0.47480563778827489 0 -0.39686066366823802 0.47773795576213229 0 -0.40933669638963999 0.48303281204728171 0 -0.41030074827494478 0.47480563778827489 0 -0.40374002939968823 0.50000000000000044 0 -0.38648750900614248 0.48438560845919698 0 -0.39686066366823802 0.47773795576213229 0 -0.40374002939968823 0.50000000000000044 0 -0.40585483772561098 0.49999999999999911 0 -0.39686066366823802 0.47773795576213229 0 -0.40585483772561098 0.49999999999999911 0 -0.39686066366823802 0.47773795576213229 0 -0.40585483772561098 0.49999999999999911 0 -0.40933669638963999 0.48303281204728171 0 -0.39686066366823802 0.47773795576213229 0 -0.40374002939968823 0.50000000000000044 0 -0.38648750900614248 0.48438560845919698 0 -0.40374002939968823 0.50000000000000044 0 -0.38648750900614248 0.48438560845919698 0 -0.37401875175743488 0.5 0 -0.38648750900614248 0.48438560845919698 0 -0.38375291349838558 0.46981660316827317 0 -0.36923498861259713 0.46877121691839319 0 -0.38648750900614248 0.48438560845919698 0 -0.36923498861259713 0.46877121691839319 0 -0.39686066366823802 0.47773795576213229 0 -0.38648750900614248 0.48438560845919698 0 -0.38375291349838558 0.46981660316827317 0 -0.38375291349838558 0.46981660316827317 0 -0.37752696234133309 0.46276126082490221 0 -0.36923498861259713 0.46877121691839319 0 -0.38786648961086478 0.45547591152426581 0 -0.37507549070465729 0.44757931484736252 0 -0.36925345764348511 0.45698131168867667 0 -0.38786648961086478 0.45547591152426581 0 -0.36925345764348511 0.45698131168867667 0 -0.37752696234133309 0.46276126082490221 0 -0.38786648961086478 0.45547591152426581 0 -0.36925345764348511 0.45698131168867667 0 -0.39686066366823802 0.47773795576213229 0 -0.38375291349838558 0.46981660316827317 0 -0.38786648961086478 0.45547591152426581 0 -0.38375291349838558 0.46981660316827317 0 -0.37752696234133309 0.46276126082490221 0 -0.38786648961086478 0.45547591152426581 0 -0.38786648961086478 0.45547591152426581 0 -0.3801361377889812 0.43634203295628732 0 -0.38786648961086478 0.45547591152426581 0 -0.37507549070465729 0.44757931484736252 0 -0.3801361377889812 0.43634203295628732 0 -0.38786648961086478 0.45547591152426581 0 -0.39886255093347278 0.44379086357250069 0 -0.3801361377889812 0.43634203295628732 0 -0.38786648961086478 0.45547591152426581 0 -0.39886255093347278 0.44379086357250069 0 -0.41320754798004927 0.45121406525441232 0 -0.38786648961086478 0.45547591152426581 0 -0.40386299213237398 0.46290472494753138 0 -0.41665308088932912 0.45314768583167608 0 -0.38786648961086478 0.45547591152426581 0 -0.41665308088932912 0.45314768583167608 0 -0.38786648961086478 0.45547591152426581 0 -0.41665308088932912 0.45314768583167608 0 -0.41320754798004927 0.45121406525441232 0 -0.39686066366823802 0.47773795576213229 0 -0.38786648961086478 0.45547591152426581 0 -0.39686066366823802 0.47773795576213229 0 -0.38786648961086478 0.45547591152426581 0 -0.40386299213237398 0.46290472494753138 0 -0.40386299213237398 0.46290472494753138 0 -0.41500325765897739 0.46730446471875581 0 -0.41030074827494478 0.47480563778827489 0 -0.40386299213237398 0.46290472494753138 0 -0.41500325765897739 0.46730446471875581 0 -0.41436412566290082 0.46120194371195822 0 -0.40386299213237398 0.46290472494753138 0 -0.41665308088932912 0.45314768583167608 0 -0.41436412566290082 0.46120194371195822 0 -0.41665308088932912 0.45314768583167608 0 -0.41436412566290082 0.46120194371195822 0 -0.4219371719709229 0.4614508993498696 0 -0.41500325765897739 0.46730446471875581 0 -0.41436412566290082 0.46120194371195822 0 -0.4219371719709229 0.4614508993498696 0 -0.4096971154168228 0.43801063999386769 0 -0.41320754798004927 0.45121406525441232 0 -0.42373935222032882 0.42694757737165928 0 -0.41320754798004927 0.45121406525441232 0 -0.42373935222032882 0.42694757737165928 0 -0.39886255093347278 0.44379086357250069 0 -0.4096971154168228 0.43801063999386769 0 -0.41320754798004927 0.45121406525441232 0 -0.41665308088932912 0.45314768583167608 0 -0.41320754798004927 0.45121406525441232 0 -0.42872817520818579 0.44101860711582602 0 -0.41320754798004927 0.45121406525441232 0 -0.42872817520818579 0.44101860711582602 0 -0.42373935222032882 0.42694757737165928 0 -0.41665308088932912 0.45314768583167608 0 -0.42872817520818579 0.44101860711582602 0 -0.44543967216779318 0.45081946013908669 0 -0.41665308088932912 0.45314768583167608 0 -0.44543967216779318 0.45081946013908669 0 -0.4219371719709229 0.4614508993498696 0 -0.43174918584241889 0.46067323074885203 0 -0.42433053588976632 0.47958765463871927 0 -0.41665308088932912 0.45314768583167608 0 -0.43174918584241889 0.46067323074885203 0 -0.44543967216779318 0.45081946013908669 0 -0.41665308088932912 0.45314768583167608 0 -0.4219371719709229 0.4614508993498696 0 -0.43174918584241889 0.46067323074885203 0 -0.43174918584241889 0.46067323074885203 0 -0.42433053588976632 0.47958765463871927 0 -0.45185819006354261 0.47261370153444637 0 -0.40585483772561098 0.49999999999999911 0 -0.42433053588976632 0.47958765463871927 0 -0.46076727581575161 0.5 0 -0.41500325765897739 0.46730446471875581 0 -0.42433053588976632 0.47958765463871927 0 -0.41030074827494478 0.47480563778827489 0 -0.41500325765897739 0.46730446471875581 0 -0.4219371719709229 0.4614508993498696 0 -0.42433053588976632 0.47958765463871927 0 -0.42433053588976632 0.47958765463871927 0 -0.40933669638963999 0.48303281204728171 0 -0.41030074827494478 0.47480563778827489 0 -0.40585483772561098 0.49999999999999911 0 -0.42433053588976632 0.47958765463871927 0 -0.40933669638963999 0.48303281204728171 0 -0.42433053588976632 0.47958765463871927 0 -0.45185819006354261 0.47261370153444637 0 -0.46076727581575161 0.5 0 -0.45185819006354261 0.47261370153444637 0 -0.46076727581575161 0.5 0 -0.47665153896279022 0.47608434049056619 0 -0.46076727581575161 0.5 0 -0.5 0.5 0 -0.47665153896279022 0.47608434049056619 0 -0.5 0.5 0 -0.47665153896279022 0.47608434049056619 0 -0.5 0.45389036895754692 0 -0.5 0.45389036895754692 0 -0.47063222893465662 0.45391763196083779 0 -0.48284297528230358 0.43171507812970161 0 -0.47665153896279022 0.47608434049056619 0 -0.5 0.45389036895754692 0 -0.47063222893465662 0.45391763196083779 0 -0.47063222893465662 0.45391763196083779 0 -0.46385998907381581 0.43131381611029979 0 -0.48284297528230358 0.43171507812970161 0 -0.47063222893465662 0.45391763196083779 0 -0.44543967216779318 0.45081946013908669 0 -0.46385998907381581 0.43131381611029979 0 -0.45185819006354261 0.47261370153444637 0 -0.47665153896279022 0.47608434049056619 0 -0.47063222893465662 0.45391763196083779 0 -0.45185819006354261 0.47261370153444637 0 -0.47063222893465662 0.45391763196083779 0 -0.44543967216779318 0.45081946013908669 0 -0.43174918584241889 0.46067323074885203 0 -0.45185819006354261 0.47261370153444637 0 -0.44543967216779318 0.45081946013908669 0 -0.42872817520818579 0.44101860711582602 0 -0.44543967216779318 0.45081946013908669 0 -0.44460122278342862 0.42296424698229529 0 -0.44543967216779318 0.45081946013908669 0 -0.44460122278342862 0.42296424698229529 0 -0.46385998907381581 0.43131381611029979 0 -0.44460122278342862 0.42296424698229529 0 -0.45143598678431018 0.4073267109596882 0 -0.4342711564606081 0.40268108948890641 0 -0.44460122278342862 0.42296424698229529 0 -0.45143598678431018 0.4073267109596882 0 -0.46440188491540169 0.41254821745264852 0 -0.46440188491540169 0.41254821745264852 0 -0.46385998907381581 0.43131381611029979 0 -0.47561252454541658 0.41934418910902821 0 -0.45143598678431018 0.4073267109596882 0 -0.46440188491540169 0.41254821745264852 0 -0.46333434013798103 0.3999115002521515 0 -0.44460122278342862 0.42296424698229529 0 -0.46440188491540169 0.41254821745264852 0 -0.46385998907381581 0.43131381611029979 0 -0.48284297528230358 0.43171507812970161 0 -0.47561252454541658 0.41934418910902821 0 -0.48733135940245392 0.41569651723657469 0 -0.5 0.45389036895754692 0 -0.48284297528230358 0.43171507812970161 0 -0.49999999999999789 0.42048682711064361 0 -0.46385998907381581 0.43131381611029979 0 -0.48284297528230358 0.43171507812970161 0 -0.47561252454541658 0.41934418910902821 0 -0.46440188491540169 0.41254821745264852 0 -0.47704797721322018 0.40170265738379413 0 -0.46440188491540169 0.41254821745264852 0 -0.47704797721322018 0.40170265738379413 0 -0.47962641405310807 0.40544731661591621 0 -0.46440188491540169 0.41254821745264852 0 -0.47561252454541658 0.41934418910902821 0 -0.47962641405310807 0.40544731661591621 0 -0.47561252454541658 0.41934418910902821 0 -0.48733135940245392 0.41569651723657469 0 -0.47962641405310807 0.40544731661591621 0 -0.49999999999999789 0.42048682711064361 0 -0.49545202254750409 0.40515311170273038 0 -0.5 0.40125266866537668 0 -0.48733135940245392 0.41569651723657469 0 -0.49545202254750409 0.40515311170273038 0 -0.47962641405310807 0.40544731661591621 0 -0.48733135940245392 0.41569651723657469 0 -0.49999999999999789 0.42048682711064361 0 -0.49545202254750409 0.40515311170273038 0 -0.49999999999999789 0.42048682711064361 0 -0.49545202254750409 0.40515311170273038 0 -0.48284297528230358 0.43171507812970161 0 -0.48733135940245392 0.41569651723657469 0 -0.49999999999999789 0.42048682711064361 0 -0.49090404509501512 0.38981939629481599 0 -0.47931600999441842 0.38370016494942438 0 -0.48569365219148197 0.372252316690591 0 -0.49090404509501512 0.38981939629481599 0 -0.48569365219148197 0.372252316690591 0 -0.49999999999999989 0.3820185102201098 0 -0.4933007587571494 0.38781790183190912 0 -0.5 0.40125266866537668 0 -0.49090404509501512 0.38981939629481599 0 -0.4933007587571494 0.38781790183190912 0 -0.48569365219148197 0.372252316690591 0 -0.4933007587571494 0.38781790183190912 0 -0.48874595044448488 0.37001859626270051 0 -0.48569365219148197 0.372252316690591 0 -0.49999999999999989 0.3820185102201098 0 -0.4933007587571494 0.38781790183190912 0 -0.48874595044448488 0.37001859626270051 0 -0.4933007587571494 0.38781790183190912 0 -0.48874595044448488 0.37001859626270051 0 -0.49090404509501512 0.38981939629481599 0 -0.4933007587571494 0.38781790183190912 0 -0.49999999999999989 0.3820185102201098 0 -0.4933007587571494 0.38781790183190912 0 -0.49090404509501512 0.38981939629481599 0 -0.49545202254750409 0.40515311170273038 0 -0.47962641405310807 0.40544731661591621 0 -0.49090404509501512 0.38981939629481599 0 -0.4933007587571494 0.38781790183190912 0 -0.5 0.40125266866537668 0 -0.49090404509501512 0.38981939629481599 0 -0.49545202254750409 0.40515311170273038 0 -0.49090404509501512 0.38981939629481599 0 -0.49545202254750409 0.40515311170273038 0 -0.5 0.40125266866537668 0 -0.49090404509501512 0.38981939629481599 0 -0.47704797721322018 0.40170265738379413 0 -0.47931600999441842 0.38370016494942438 0 -0.49090404509501512 0.38981939629481599 0 -0.47704797721322018 0.40170265738379413 0 -0.47962641405310807 0.40544731661591621 0 -0.49090404509501512 0.38981939629481599 0 -0.47704797721322018 0.40170265738379413 0 -0.47704797721322018 0.40170265738379413 0 -0.47962641405310807 0.40544731661591621 0 -0.47704797721322018 0.40170265738379413 0 -0.46648460830468841 0.38636149552412702 0 -0.46333434013798103 0.3999115002521515 0 -0.47704797721322018 0.40170265738379413 0 -0.46648460830468841 0.38636149552412702 0 -0.47704797721322018 0.40170265738379413 0 -0.47931600999441842 0.38370016494942438 0 -0.46648460830468841 0.38636149552412702 0 -0.47931600999441842 0.38370016494942438 0 -0.47357975383493989 0.37360390958299322 0 -0.48569365219148197 0.372252316690591 0 -0.47931600999441842 0.38370016494942438 0 -0.46648460830468841 0.38636149552412702 0 -0.47357975383493989 0.37360390958299322 0 -0.46648460830468841 0.38636149552412702 0 -0.45592123939615908 0.37102033366445808 0 -0.46648460830468841 0.38636149552412702 0 -0.45592123939615908 0.37102033366445808 0 -0.47357975383493989 0.37360390958299322 0 -0.46648460830468841 0.38636149552412702 0 -0.45493917588579758 0.38258921043180349 0 -0.45152303430721741 0.39460258206328358 0 -0.46648460830468841 0.38636149552412702 0 -0.45493917588579758 0.38258921043180349 0 -0.45592123939615908 0.37102033366445808 0 -0.46440188491540169 0.41254821745264852 0 -0.47704797721322018 0.40170265738379413 0 -0.46333434013798103 0.3999115002521515 0 -0.46648460830468841 0.38636149552412702 0 -0.46333434013798103 0.3999115002521515 0 -0.45152303430721741 0.39460258206328358 0 -0.45143598678431018 0.4073267109596882 0 -0.46333434013798103 0.3999115002521515 0 -0.45152303430721741 0.39460258206328358 0 -0.45152303430721741 0.39460258206328358 0 -0.44480296070088537 0.37841460160615248 0 -0.4342711564606081 0.40268108948890641 0 -0.45143598678431018 0.4073267109596882 0 -0.45152303430721741 0.39460258206328358 0 -0.4342711564606081 0.40268108948890641 0 -0.45493917588579758 0.38258921043180349 0 -0.45152303430721741 0.39460258206328358 0 -0.44480296070088537 0.37841460160615248 0 -0.44480296070088537 0.37841460160615248 0 -0.4342711564606081 0.40268108948890641 0 -0.45493917588579758 0.38258921043180349 0 -0.44480296070088537 0.37841460160615248 0 -0.45592123939615908 0.37102033366445808 0 -0.44480296070088537 0.37841460160615248 0 -0.43178432961061008 0.38707270859859672 0 -0.44480296070088537 0.37841460160615248 0 -0.43178432961061008 0.38707270859859672 0 -0.42962067338336979 0.37452387840719609 0 -0.43178432961061008 0.38707270859859672 0 -0.4140570909208412 0.38093864372352348 0 -0.42962067338336979 0.37452387840719609 0 -0.44480296070088537 0.37841460160615248 0 -0.43178432961061008 0.38707270859859672 0 -0.4342711564606081 0.40268108948890641 0 -0.43178432961061008 0.38707270859859672 0 -0.4140570909208412 0.38093864372352348 0 -0.41630864852307609 0.39581164149733411 0 -0.4140570909208412 0.38093864372352348 0 -0.41630864852307609 0.39581164149733411 0 -0.40280719733464881 0.38817868897901597 0 -0.41630864852307609 0.39581164149733411 0 -0.41258923169895018 0.41266007506899111 0 -0.40203757985720312 0.40226706252709249 0 -0.41630864852307609 0.39581164149733411 0 -0.4342711564606081 0.40268108948890641 0 -0.41258923169895018 0.41266007506899111 0 -0.41630864852307609 0.39581164149733411 0 -0.40280719733464881 0.38817868897901597 0 -0.40203757985720312 0.40226706252709249 0 -0.43178432961061008 0.38707270859859672 0 -0.41630864852307609 0.39581164149733411 0 -0.4342711564606081 0.40268108948890641 0 -0.44460122278342862 0.42296424698229529 0 -0.4342711564606081 0.40268108948890641 0 -0.42373935222032882 0.42694757737165928 0 -0.4342711564606081 0.40268108948890641 0 -0.42373935222032882 0.42694757737165928 0 -0.4342711564606081 0.40268108948890641 0 -0.42373935222032882 0.42694757737165928 0 -0.41258923169895018 0.41266007506899111 0 -0.42872817520818579 0.44101860711582602 0 -0.44460122278342862 0.42296424698229529 0 -0.42373935222032882 0.42694757737165928 0 -0.42373935222032882 0.42694757737165928 0 -0.41258923169895018 0.41266007506899111 0 -0.40297901053344021 0.43009005377689868 0 -0.4096971154168228 0.43801063999386769 0 -0.42373935222032882 0.42694757737165928 0 -0.40297901053344021 0.43009005377689868 0 -0.41258923169895018 0.41266007506899111 0 -0.39140667492701431 0.41707264660507748 0 -0.40203757985720312 0.40226706252709249 0 -0.39140667492701431 0.41707264660507748 0 -0.38452603278281061 0.40396159587811831 0 -0.40203757985720312 0.40226706252709249 0 -0.41258923169895018 0.41266007506899111 0 -0.39140667492701431 0.41707264660507748 0 -0.40297901053344021 0.43009005377689868 0 -0.39140667492701431 0.41707264660507748 0 -0.40297901053344021 0.43009005377689868 0 -0.3801361377889812 0.43634203295628732 0 -0.39886255093347278 0.44379086357250069 0 -0.40297901053344021 0.43009005377689868 0 -0.3801361377889812 0.43634203295628732 0 -0.39886255093347278 0.44379086357250069 0 -0.4096971154168228 0.43801063999386769 0 -0.40297901053344021 0.43009005377689868 0 -0.39140667492701431 0.41707264660507748 0 -0.3801361377889812 0.43634203295628732 0 -0.37240578596709772 0.41720815438830888 0 -0.3801361377889812 0.43634203295628732 0 -0.37240578596709772 0.41720815438830888 0 -0.39140667492701431 0.41707264660507748 0 -0.38452603278281061 0.40396159587811831 0 -0.37240578596709772 0.41720815438830888 0 -0.38452603278281061 0.40396159587811831 0 -0.37007597783464391 0.39806814896234288 0 -0.37240578596709772 0.41720815438830888 0 -0.38452603278281061 0.40396159587811831 0 -0.38689856719908589 0.38880993469984221 0 -0.37007597783464391 0.39806814896234288 0 -0.38689856719908589 0.38880993469984221 0 -0.39811762938853862 0.3718316505406784 0 -0.38318417006187039 0.37285460182622238 0 -0.38689856719908589 0.38880993469984221 0 -0.36914281069579841 0.38042266790116719 0 -0.37007597783464391 0.39806814896234288 0 -0.38689856719908589 0.38880993469984221 0 -0.38318417006187039 0.37285460182622238 0 -0.36914281069579841 0.38042266790116719 0 -0.4140570909208412 0.38093864372352348 0 -0.40280719733464881 0.38817868897901597 0 -0.39811762938853862 0.3718316505406784 0 -0.38689856719908589 0.38880993469984221 0 -0.40280719733464881 0.38817868897901597 0 -0.39811762938853862 0.3718316505406784 0 -0.38452603278281061 0.40396159587811831 0 -0.38689856719908589 0.38880993469984221 0 -0.40203757985720312 0.40226706252709249 0 -0.38689856719908589 0.38880993469984221 0 -0.40280719733464881 0.38817868897901597 0 -0.40203757985720312 0.40226706252709249 0 -0.38627767411470659 0.3538347616038886 0 -0.4002148475145082 0.33157088508771498 0 -0.40890607178641791 0.35466235874912361 0 -0.39811762938853862 0.3718316505406784 0 -0.38627767411470659 0.3538347616038886 0 -0.40890607178641791 0.35466235874912361 0 -0.39811762938853862 0.3718316505406784 0 -0.40890607178641791 0.35466235874912361 0 -0.41059569667382961 0.36794499425981347 0 -0.38318417006187039 0.37285460182622238 0 -0.37286605736730882 0.36463254837100689 0 -0.36914281069579841 0.38042266790116719 0 -0.39811762938853862 0.3718316505406784 0 -0.38318417006187039 0.37285460182622238 0 -0.38627767411470659 0.3538347616038886 0 -0.38318417006187039 0.37285460182622238 0 -0.38627767411470659 0.3538347616038886 0 -0.37286605736730882 0.36463254837100689 0 -0.38627767411470659 0.3538347616038886 0 -0.37828998161256222 0.33180206257399458 0 -0.36407850004417402 0.34907735137327478 0 -0.38627767411470659 0.3538347616038886 0 -0.37828998161256222 0.33180206257399458 0 -0.4002148475145082 0.33157088508771498 0 -0.37828998161256222 0.33180206257399458 0 -0.38937104482412449 0.31661790531214551 0 -0.4002148475145082 0.33157088508771498 0 -0.37828998161256222 0.33180206257399458 0 -0.38937104482412449 0.31661790531214551 0 -0.3735935436532194 0.31098543761388697 0 -0.4002148475145082 0.33157088508771498 0 -0.41332781474691349 0.32716427034219708 0 -0.40409370365539138 0.31030018250086372 0 -0.38937104482412449 0.31661790531214551 0 -0.4002148475145082 0.33157088508771498 0 -0.40409370365539138 0.31030018250086372 0 -0.4002148475145082 0.33157088508771498 0 -0.41985164608334091 0.33936295010057321 0 -0.40890607178641791 0.35466235874912361 0 -0.4002148475145082 0.33157088508771498 0 -0.41985164608334091 0.33936295010057321 0 -0.41332781474691349 0.32716427034219708 0 -0.4002148475145082 0.33157088508771498 0 -0.41985164608334091 0.33936295010057321 0 -0.41985164608334091 0.33936295010057321 0 -0.41332781474691349 0.32716427034219708 0 -0.42408722690387451 0.32938139873639249 0 -0.41332781474691349 0.32716427034219708 0 -0.42410403852682621 0.31849010385781279 0 -0.40409370365539138 0.31030018250086372 0 -0.41332781474691349 0.32716427034219708 0 -0.42410403852682621 0.31849010385781279 0 -0.42408722690387451 0.32938139873639249 0 -0.42410403852682621 0.31849010385781279 0 -0.43263138472890811 0.32750575203653332 0 -0.42408722690387451 0.32938139873639249 0 -0.43263138472890811 0.32750575203653332 0 -0.43676074224784017 0.32018278182607851 0 -0.44298012858685892 0.32616482297700611 0 -0.42410403852682621 0.31849010385781279 0 -0.43263138472890811 0.32750575203653332 0 -0.43676074224784017 0.32018278182607851 0 -0.42410403852682621 0.31849010385781279 0 -0.43676074224784017 0.32018278182607851 0 -0.43522193609993831 0.31125234339540903 0 -0.41985164608334091 0.33936295010057321 0 -0.43620158327271691 0.34238151218371871 0 -0.43948844465217329 0.34715501511343178 0 -0.41985164608334091 0.33936295010057321 0 -0.43052125043338352 0.33438391734484602 0 -0.43620158327271691 0.34238151218371871 0 -0.41985164608334091 0.33936295010057321 0 -0.43948844465217329 0.34715501511343178 0 -0.43263138472890811 0.32750575203653332 0 -0.42408722690387451 0.32938139873639249 0 -0.43052125043338352 0.33438391734484602 0 -0.41985164608334091 0.33936295010057321 0 -0.42408722690387451 0.32938139873639249 0 -0.43052125043338352 0.33438391734484602 0 -0.43263138472890811 0.32750575203653332 0 -0.43052125043338352 0.33438391734484602 0 -0.43902472069809351 0.33441901798856682 0 -0.43052125043338352 0.33438391734484602 0 -0.43620158327271691 0.34238151218371871 0 -0.43902472069809351 0.33441901798856682 0 -0.41985164608334091 0.33936295010057321 0 -0.4259847762184153 0.35275997654664792 0 -0.43948844465217329 0.34715501511343178 0 -0.4259847762184153 0.35275997654664792 0 -0.43615699108498968 0.36184611408177791 0 -0.43948844465217329 0.34715501511343178 0 -0.4259847762184153 0.35275997654664792 0 -0.40890607178641791 0.35466235874912361 0 -0.42130199459952072 0.3643473240259289 0 -0.41985164608334091 0.33936295010057321 0 -0.4259847762184153 0.35275997654664792 0 -0.40890607178641791 0.35466235874912361 0 -0.4140570909208412 0.38093864372352348 0 -0.41059569667382961 0.36794499425981347 0 -0.42130199459952072 0.3643473240259289 0 -0.4140570909208412 0.38093864372352348 0 -0.39811762938853862 0.3718316505406784 0 -0.41059569667382961 0.36794499425981347 0 -0.4140570909208412 0.38093864372352348 0 -0.42130199459952072 0.3643473240259289 0 -0.42962067338336979 0.37452387840719609 0 -0.40890607178641791 0.35466235874912361 0 -0.41059569667382961 0.36794499425981347 0 -0.42130199459952072 0.3643473240259289 0 -0.44480296070088537 0.37841460160615248 0 -0.42962067338336979 0.37452387840719609 0 -0.43615699108498968 0.36184611408177791 0 -0.42130199459952072 0.3643473240259289 0 -0.42962067338336979 0.37452387840719609 0 -0.43615699108498968 0.36184611408177791 0 -0.4259847762184153 0.35275997654664792 0 -0.42130199459952072 0.3643473240259289 0 -0.43615699108498968 0.36184611408177791 0 -0.44480296070088537 0.37841460160615248 0 -0.43615699108498968 0.36184611408177791 0 -0.45106992949941849 0.36397478493832258 0 -0.44480296070088537 0.37841460160615248 0 -0.45592123939615908 0.37102033366445808 0 -0.44480296070088537 0.37841460160615248 0 -0.45106992949941849 0.36397478493832258 0 -0.44480296070088537 0.37841460160615248 0 -0.45106992949941849 0.36397478493832258 0 -0.45592123939615908 0.37102033366445808 0 -0.43948844465217329 0.34715501511343178 0 -0.45559583511081297 0.35354657803552691 0 -0.45106992949941849 0.36397478493832258 0 -0.43948844465217329 0.34715501511343178 0 -0.45559583511081297 0.35354657803552691 0 -0.45106992949941849 0.36397478493832258 0 -0.43948844465217329 0.34715501511343178 0 -0.43615699108498968 0.36184611408177791 0 -0.45106992949941849 0.36397478493832258 0 -0.43948844465217329 0.34715501511343178 0 -0.43948844465217329 0.34715501511343178 0 -0.45559583511081297 0.35354657803552691 0 -0.4470196826471094 0.34121352557526002 0 -0.43620158327271691 0.34238151218371871 0 -0.43948844465217329 0.34715501511343178 0 -0.45559583511081297 0.35354657803552691 0 -0.46795488328519008 0.34840769896673718 0 -0.47177747046113971 0.36047506633904902 0 -0.45559583511081297 0.35354657803552691 0 -0.46288753533924221 0.3367456623328639 0 -0.4470196826471094 0.34121352557526002 0 -0.45559583511081297 0.35354657803552691 0 -0.46795488328519008 0.34840769896673718 0 -0.46288753533924221 0.3367456623328639 0 -0.45559583511081297 0.35354657803552691 0 -0.46288753533924221 0.3367456623328639 0 -0.45559583511081297 0.35354657803552691 0 -0.47177747046113971 0.36047506633904902 0 -0.45106992949941849 0.36397478493832258 0 -0.45559583511081297 0.35354657803552691 0 -0.45559583511081297 0.35354657803552691 0 -0.45592123939615908 0.37102033366445808 0 -0.47177747046113971 0.36047506633904902 0 -0.45592123939615908 0.37102033366445808 0 -0.47357975383493989 0.37360390958299322 0 -0.47177747046113971 0.36047506633904902 0 -0.45592123939615908 0.37102033366445808 0 -0.47177747046113971 0.36047506633904902 0 -0.45106992949941849 0.36397478493832258 0 -0.45559583511081297 0.35354657803552691 0 -0.45592123939615908 0.37102033366445808 0 -0.45106992949941849 0.36397478493832258 0 -0.45592123939615908 0.37102033366445808 0 -0.4804832592879591 0.35468523708636313 0 -0.48569365219148197 0.372252316690591 0 -0.47357975383493989 0.37360390958299322 0 -0.4804832592879591 0.35468523708636313 0 -0.48569365219148197 0.372252316690591 0 -0.47357975383493989 0.37360390958299322 0 -0.47177747046113971 0.36047506633904902 0 -0.4804832592879591 0.35468523708636313 0 -0.4804832592879591 0.35468523708636313 0 -0.48419114213182018 0.35221929069349189 0 -0.47533124742781252 0.33731499185828351 0 -0.46795488328519008 0.34840769896673718 0 -0.47177747046113971 0.36047506633904902 0 -0.4804832592879591 0.35468523708636313 0 -0.47177747046113971 0.36047506633904902 0 -0.4804832592879591 0.35468523708636313 0 -0.46795488328519008 0.34840769896673718 0 -0.4804832592879591 0.35468523708636313 0 -0.47533124742781252 0.33731499185828351 0 -0.4804832592879591 0.35468523708636313 0 -0.47533124742781252 0.33731499185828351 0 -0.4804832592879591 0.35468523708636313 0 -0.48419114213182018 0.35221929069349189 0 -0.48419114213182018 0.35221929069349189 0 -0.50000000000000111 0.34170552915420321 0 -0.48419114213182018 0.35221929069349189 0 -0.5 0.36186201968715648 0 -0.50000000000000111 0.34170552915420321 0 -0.4804832592879591 0.35468523708636313 0 -0.48419114213182018 0.35221929069349189 0 -0.48874595044448488 0.37001859626270051 0 -0.48419114213182018 0.35221929069349189 0 -0.5 0.36186201968715648 0 -0.48874595044448488 0.37001859626270051 0 -0.4804832592879591 0.35468523708636313 0 -0.48874595044448488 0.37001859626270051 0 -0.48569365219148197 0.372252316690591 0 -0.49999999999999989 0.3820185102201098 0 -0.5 0.36186201968715648 0 -0.48874595044448488 0.37001859626270051 0 -0.48419114213182018 0.35221929069349189 0 -0.48874595044448488 0.37001859626270051 0 -0.48419114213182018 0.35221929069349189 0 -0.50000000000000111 0.34170552915420321 0 -0.47899471481774902 0.33191266277807169 0 -0.5 0.31548841982054138 0 -0.50000000000000111 0.34170552915420321 0 -0.47899471481774902 0.33191266277807169 0 -0.47533124742781252 0.33731499185828351 0 -0.47017923556767288 0.31994474663020173 0 -0.48419114213182018 0.35221929069349189 0 -0.47899471481774902 0.33191266277807169 0 -0.47899471481774902 0.33191266277807169 0 -0.47533124742781252 0.33731499185828351 0 -0.47017923556767288 0.31994474663020173 0 -0.47533124742781252 0.33731499185828351 0 -0.47017923556767288 0.31994474663020173 0 -0.46288753533924221 0.3367456623328639 0 -0.48419114213182018 0.35221929069349189 0 -0.47899471481774902 0.33191266277807169 0 -0.47533124742781252 0.33731499185828351 0 -0.47899471481774902 0.33191266277807169 0 -0.47017923556767288 0.31994474663020173 0 -0.4737982875036737 0.31160603486265259 0 -0.47899471481774902 0.33191266277807169 0 -0.4737982875036737 0.31160603486265259 0 -0.5 0.31548841982054138 0 -0.47899471481774902 0.33191266277807169 0 -0.4737982875036737 0.31160603486265259 0 -0.47017923556767288 0.31994474663020173 0 -0.4737982875036737 0.31160603486265259 0 -0.47017923556767288 0.31994474663020173 0 -0.45500885706123928 0.32476792987714442 0 -0.46288753533924221 0.3367456623328639 0 -0.47017923556767288 0.31994474663020173 0 -0.45500885706123928 0.32476792987714442 0 -0.4560046482400546 0.3124255769976636 0 -0.47017923556767288 0.31994474663020173 0 -0.46288753533924221 0.3367456623328639 0 -0.46795488328519008 0.34840769896673718 0 -0.47533124742781252 0.33731499185828351 0 -0.46288753533924221 0.3367456623328639 0 -0.45500885706123928 0.32476792987714442 0 -0.46288753533924221 0.3367456623328639 0 -0.44891997680961759 0.33303336779745207 0 -0.46288753533924221 0.3367456623328639 0 -0.4470196826471094 0.34121352557526002 0 -0.44891997680961759 0.33303336779745207 0 -0.44891997680961759 0.33303336779745207 0 -0.43902472069809351 0.33441901798856682 0 -0.44298012858685892 0.32616482297700611 0 -0.43263138472890811 0.32750575203653332 0 -0.43902472069809351 0.33441901798856682 0 -0.44298012858685892 0.32616482297700611 0 -0.4470196826471094 0.34121352557526002 0 -0.44891997680961759 0.33303336779745207 0 -0.43902472069809351 0.33441901798856682 0 -0.43620158327271691 0.34238151218371871 0 -0.43948844465217329 0.34715501511343178 0 -0.4470196826471094 0.34121352557526002 0 -0.43620158327271691 0.34238151218371871 0 -0.4470196826471094 0.34121352557526002 0 -0.43902472069809351 0.33441901798856682 0 -0.45500885706123928 0.32476792987714442 0 -0.44553508997545521 0.317080088336262 0 -0.4560046482400546 0.3124255769976636 0 -0.45500885706123928 0.32476792987714442 0 -0.44891997680961759 0.33303336779745207 0 -0.44298012858685892 0.32616482297700611 0 -0.45500885706123928 0.32476792987714442 0 -0.44553508997545521 0.317080088336262 0 -0.44298012858685892 0.32616482297700611 0 -0.43676074224784017 0.32018278182607851 0 -0.44553508997545521 0.317080088336262 0 -0.44298012858685892 0.32616482297700611 0 -0.43676074224784017 0.32018278182607851 0 -0.44553508997545521 0.317080088336262 0 -0.43522193609993831 0.31125234339540903 0 -0.44495665435693987 0.30504120032753129 0 -0.43522193609993831 0.31125234339540903 0 -0.43264203317394268 0.29897443837663817 0 -0.44553508997545521 0.317080088336262 0 -0.44495665435693987 0.30504120032753129 0 -0.43522193609993831 0.31125234339540903 0 -0.44495665435693987 0.30504120032753129 0 -0.44454804234807171 0.2899705732869986 0 -0.43264203317394268 0.29897443837663817 0 -0.44495665435693987 0.30504120032753129 0 -0.44454804234807171 0.2899705732869986 0 -0.45494042310319532 0.30014973421854629 0 -0.44495665435693987 0.30504120032753129 0 -0.4560046482400546 0.3124255769976636 0 -0.45494042310319532 0.30014973421854629 0 -0.44553508997545521 0.317080088336262 0 -0.44495665435693987 0.30504120032753129 0 -0.4560046482400546 0.3124255769976636 0 -0.44454804234807171 0.2899705732869986 0 -0.44710638341364328 0.27426871373736061 0 -0.43613383213136631 0.28413045418230709 0 -0.44454804234807171 0.2899705732869986 0 -0.46122651992700558 0.28976025358995872 0 -0.4517360340530539 0.27990207481521212 0 -0.44454804234807171 0.2899705732869986 0 -0.4517360340530539 0.27990207481521212 0 -0.44710638341364328 0.27426871373736061 0 -0.44454804234807171 0.2899705732869986 0 -0.46122651992700558 0.28976025358995872 0 -0.44454804234807171 0.2899705732869986 0 -0.46122651992700558 0.28976025358995872 0 -0.45494042310319532 0.30014973421854629 0 -0.4560046482400546 0.3124255769976636 0 -0.45494042310319532 0.30014973421854629 0 -0.46570287774734109 0.30485250011007969 0 -0.46122651992700558 0.28976025358995872 0 -0.45494042310319532 0.30014973421854629 0 -0.46570287774734109 0.30485250011007969 0 -0.46122651992700558 0.28976025358995872 0 -0.46570287774734109 0.30485250011007969 0 -0.47017923556767288 0.31994474663020173 0 -0.4560046482400546 0.3124255769976636 0 -0.46570287774734109 0.30485250011007969 0 -0.47017923556767288 0.31994474663020173 0 -0.46570287774734109 0.30485250011007969 0 -0.4737982875036737 0.31160603486265259 0 -0.48340084867141281 0.28948062986042522 0 -0.46570287774734109 0.30485250011007969 0 -0.4737982875036737 0.31160603486265259 0 -0.48340084867141281 0.28948062986042522 0 -0.47017923556767288 0.31994474663020173 0 -0.46570287774734109 0.30485250011007969 0 -0.4737982875036737 0.31160603486265259 0 -0.46122651992700558 0.28976025358995872 0 -0.48340084867141281 0.28948062986042522 0 -0.46122651992700558 0.28976025358995872 0 -0.48340084867141281 0.28948062986042522 0 -0.4719796028051938 0.27293316048684069 0 -0.46122651992700558 0.28976025358995872 0 -0.46570287774734109 0.30485250011007969 0 -0.48340084867141281 0.28948062986042522 0 -0.48340084867141281 0.28948062986042522 0 -0.49999999999999928 0.28927131048687971 0 -0.48340084867141281 0.28948062986042522 0 -0.49999999999999928 0.28927131048687971 0 -0.49170042433570832 0.27035745327123201 0 -0.5 0.31548841982054138 0 -0.4737982875036737 0.31160603486265259 0 -0.48340084867141281 0.28948062986042522 0 -0.5 0.31548841982054138 0 -0.48340084867141281 0.28948062986042522 0 -0.49999999999999928 0.28927131048687971 0 -0.50000000000000311 0.25123427668203852 0 -0.49170042433570832 0.27035745327123201 0 -0.47909939784891531 0.25481779002133048 0 -0.50000000000000311 0.25123427668203852 0 -0.49170042433570832 0.27035745327123201 0 -0.50000000000000311 0.25123427668203852 0 -0.5 0.27025279358445908 0 -0.49170042433570832 0.27035745327123201 0 -0.48340084867141281 0.28948062986042522 0 -0.49170042433570832 0.27035745327123201 0 -0.49999999999999928 0.28927131048687971 0 -0.5 0.27025279358445908 0 -0.49170042433570832 0.27035745327123201 0 -0.49170042433570832 0.27035745327123201 0 -0.4719796028051938 0.27293316048684069 0 -0.47909939784891531 0.25481779002133048 0 -0.48340084867141281 0.28948062986042522 0 -0.49170042433570832 0.27035745327123201 0 -0.4719796028051938 0.27293316048684069 0 -0.4719796028051938 0.27293316048684069 0 -0.47909939784891531 0.25481779002133048 0 -0.46755006963787971 0.26081431996585269 0 -0.46443435553690132 0.24782483443214859 0 -0.47909939784891531 0.25481779002133048 0 -0.46755006963787971 0.26081431996585269 0 -0.46443435553690132 0.24782483443214859 0 -0.46755006963787971 0.26081431996585269 0 -0.45406319052349181 0.26560875864653172 0 -0.45371800161124443 0.2437937300893086 0 -0.46443435553690132 0.24782483443214859 0 -0.45406319052349181 0.26560875864653172 0 -0.46122651992700558 0.28976025358995872 0 -0.4719796028051938 0.27293316048684069 0 -0.45406319052349181 0.26560875864653172 0 -0.4719796028051938 0.27293316048684069 0 -0.46755006963787971 0.26081431996585269 0 -0.45406319052349181 0.26560875864653172 0 -0.46122651992700558 0.28976025358995872 0 -0.45406319052349181 0.26560875864653172 0 -0.46122651992700558 0.28976025358995872 0 -0.45406319052349181 0.26560875864653172 0 -0.4517360340530539 0.27990207481521212 0 -0.45406319052349181 0.26560875864653172 0 -0.44710638341364328 0.27426871373736061 0 -0.44716884919266953 0.26664303508463272 0 -0.45406319052349181 0.26560875864653172 0 -0.4517360340530539 0.27990207481521212 0 -0.44710638341364328 0.27426871373736061 0 -0.44710638341364328 0.27426871373736061 0 -0.44716884919266953 0.26664303508463272 0 -0.44044262106073412 0.26544066781369408 0 -0.44710638341364328 0.27426871373736061 0 -0.44044262106073412 0.26544066781369408 0 -0.43342634288157411 0.27497864116969323 0 -0.44710638341364328 0.27426871373736061 0 -0.43342634288157411 0.27497864116969323 0 -0.43613383213136631 0.28413045418230709 0 -0.4468998611199746 0.24145726370310541 0 -0.45406319052349181 0.26560875864653172 0 -0.45008148582333951 0.26233674299658671 0 -0.44077169072161537 0.2425306692159222 0 -0.45008148582333951 0.26233674299658671 0 -0.44142167977321528 0.25670787682661578 0 -0.4468998611199746 0.24145726370310541 0 -0.45406319052349181 0.26560875864653172 0 -0.4468998611199746 0.24145726370310541 0 -0.45371800161124443 0.2437937300893086 0 -0.45406319052349181 0.26560875864653172 0 -0.44077169072161537 0.2425306692159222 0 -0.45008148582333951 0.26233674299658671 0 -0.45008148582333951 0.26233674299658671 0 -0.44470887076022841 0.26309077085244992 0 -0.44142167977321528 0.25670787682661578 0 -0.45406319052349181 0.26560875864653172 0 -0.44716884919266953 0.26664303508463272 0 -0.45008148582333951 0.26233674299658671 0 -0.44716884919266953 0.26664303508463272 0 -0.45008148582333951 0.26233674299658671 0 -0.44470887076022841 0.26309077085244992 0 -0.44044262106073412 0.26544066781369408 0 -0.44142167977321528 0.25670787682661578 0 -0.434298426757041 0.25779491856857489 0 -0.44470887076022841 0.26309077085244992 0 -0.44044262106073412 0.26544066781369408 0 -0.44142167977321528 0.25670787682661578 0 -0.44716884919266953 0.26664303508463272 0 -0.44470887076022841 0.26309077085244992 0 -0.44044262106073412 0.26544066781369408 0 -0.44142167977321528 0.25670787682661578 0 -0.43588497190996628 0.25042843610989651 0 -0.434298426757041 0.25779491856857489 0 -0.43588497190996628 0.25042843610989651 0 -0.434298426757041 0.25779491856857489 0 -0.42934358693169389 0.2506254408654271 0 -0.44044262106073412 0.26544066781369408 0 -0.434298426757041 0.25779491856857489 0 -0.42922208071783929 0.26509214944632209 0 -0.434298426757041 0.25779491856857489 0 -0.42922208071783929 0.26509214944632209 0 -0.42310224637473809 0.25640872943605969 0 -0.42922208071783929 0.26509214944632209 0 -0.42310224637473809 0.25640872943605969 0 -0.41691736757906872 0.27000084463789559 0 -0.434298426757041 0.25779491856857489 0 -0.42310224637473809 0.25640872943605969 0 -0.42934358693169389 0.2506254408654271 0 -0.42135483006212038 0.24456503597302581 0 -0.42310224637473809 0.25640872943605969 0 -0.42934358693169389 0.2506254408654271 0 -0.42135483006212038 0.24456503597302581 0 -0.4059651703890037 0.24982079629174919 0 -0.42310224637473809 0.25640872943605969 0 -0.4059651703890037 0.24982079629174919 0 -0.41691736757906872 0.27000084463789559 0 -0.4059651703890037 0.24982079629174919 0 -0.42310224637473809 0.25640872943605969 0 -0.41691736757906872 0.27000084463789559 0 -0.42922208071783929 0.26509214944632209 0 -0.41691736757906872 0.27000084463789559 0 -0.43342634288157411 0.27497864116969323 0 -0.41691736757906872 0.27000084463789559 0 -0.43342634288157411 0.27497864116969323 0 -0.42786956476913779 0.2901808929840396 0 -0.41691736757906872 0.27000084463789559 0 -0.42786956476913779 0.2901808929840396 0 -0.44044262106073412 0.26544066781369408 0 -0.42922208071783929 0.26509214944632209 0 -0.43342634288157411 0.27497864116969323 0 -0.44454804234807171 0.2899705732869986 0 -0.42786956476913779 0.2901808929840396 0 -0.43342634288157411 0.27497864116969323 0 -0.43613383213136631 0.28413045418230709 0 -0.42786956476913779 0.2901808929840396 0 -0.44454804234807171 0.2899705732869986 0 -0.43613383213136631 0.28413045418230709 0 -0.42786956476913779 0.2901808929840396 0 -0.44454804234807171 0.2899705732869986 0 -0.42786956476913779 0.2901808929840396 0 -0.43264203317394268 0.29897443837663817 0 -0.42786956476913779 0.2901808929840396 0 -0.43264203317394268 0.29897443837663817 0 -0.42786956476913779 0.2901808929840396 0 -0.43264203317394268 0.29897443837663817 0 -0.42333641948750872 0.2979669527034563 0 -0.43522193609993831 0.31125234339540903 0 -0.43264203317394268 0.29897443837663817 0 -0.42718409530309731 0.30649666684718568 0 -0.43264203317394268 0.29897443837663817 0 -0.42333641948750872 0.2979669527034563 0 -0.42718409530309731 0.30649666684718568 0 -0.42333641948750872 0.2979669527034563 0 -0.42718409530309731 0.30649666684718568 0 -0.41649808278633649 0.30380791107027721 0 -0.42410403852682621 0.31849010385781279 0 -0.42718409530309731 0.30649666684718568 0 -0.41649808278633649 0.30380791107027721 0 -0.42410403852682621 0.31849010385781279 0 -0.43522193609993831 0.31125234339540903 0 -0.42718409530309731 0.30649666684718568 0 -0.42410403852682621 0.31849010385781279 0 -0.41649808278633649 0.30380791107027721 0 -0.40409370365539138 0.31030018250086372 0 -0.42333641948750872 0.2979669527034563 0 -0.41649808278633649 0.30380791107027721 0 -0.412488321405029 0.29037485423914072 0 -0.41649808278633649 0.30380791107027721 0 -0.40479669634414012 0.29644104921269387 0 -0.40409370365539138 0.31030018250086372 0 -0.41691736757906872 0.27000084463789559 0 -0.42786956476913779 0.2901808929840396 0 -0.412488321405029 0.29037485423914072 0 -0.41691736757906872 0.27000084463789559 0 -0.412488321405029 0.29037485423914072 0 -0.40113936345350198 0.28342834341202522 0 -0.42786956476913779 0.2901808929840396 0 -0.412488321405029 0.29037485423914072 0 -0.42786956476913779 0.2901808929840396 0 -0.42333641948750872 0.2979669527034563 0 -0.412488321405029 0.29037485423914072 0 -0.41649808278633649 0.30380791107027721 0 -0.412488321405029 0.29037485423914072 0 -0.40479669634414012 0.29644104921269387 0 -0.40113936345350198 0.28342834341202522 0 -0.38976401042044201 0.29429395484116311 0 -0.39304847986397728 0.26928363720610832 0 -0.412488321405029 0.29037485423914072 0 -0.40113936345350198 0.28342834341202522 0 -0.40479669634414012 0.29644104921269387 0 -0.40113936345350198 0.28342834341202522 0 -0.40479669634414012 0.29644104921269387 0 -0.38976401042044201 0.29429395484116311 0 -0.38937104482412449 0.31661790531214551 0 -0.40409370365539138 0.31030018250086372 0 -0.38976401042044201 0.29429395484116311 0 -0.40479669634414012 0.29644104921269387 0 -0.40409370365539138 0.31030018250086372 0 -0.38976401042044201 0.29429395484116311 0 -0.38976401042044201 0.29429395484116311 0 -0.37358947601324388 0.29493999002416632 0 -0.3735935436532194 0.31098543761388697 0 -0.38937104482412449 0.31661790531214551 0 -0.38976401042044201 0.29429395484116311 0 -0.3735935436532194 0.31098543761388697 0 -0.38976401042044201 0.29429395484116311 0 -0.37328732560364469 0.27880299853905638 0 -0.37358947601324388 0.29493999002416632 0 -0.38976401042044201 0.29429395484116311 0 -0.39304847986397728 0.26928363720610832 0 -0.37328732560364469 0.27880299853905638 0 -0.37630619323391662 0.26177012605870847 0 -0.39304847986397728 0.26928363720610832 0 -0.37328732560364469 0.27880299853905638 0 -0.38702646908577448 0.24703725013213551 0 -0.37630619323391662 0.26177012605870847 0 -0.39304847986397728 0.26928363720610832 0 -0.38702646908577448 0.24703725013213551 0 -0.3650723950661709 0.24998549435974801 0 -0.37630619323391662 0.26177012605870847 0 -0.4059651703890037 0.24982079629174919 0 -0.41691736757906872 0.27000084463789559 0 -0.39304847986397728 0.26928363720610832 0 -0.38702646908577448 0.24703725013213551 0 -0.4059651703890037 0.24982079629174919 0 -0.39304847986397728 0.26928363720610832 0 -0.41691736757906872 0.27000084463789559 0 -0.40113936345350198 0.28342834341202522 0 -0.39304847986397728 0.26928363720610832 0 -0.35568392107843078 0.26300962704690978 0 -0.34199039336817239 0.28200593273905378 0 -0.34028887527608148 0.26475443469808441 0 -0.35568392107843078 0.26300962704690978 0 -0.34199039336817239 0.28200593273905378 0 -0.35568392107843078 0.26300962704690978 0 -0.3524808780031185 0.28333591072948949 0 -0.34199039336817239 0.28200593273905378 0 -0.34413919195685061 0.25265196040736021 0 -0.35568392107843078 0.26300962704690978 0 -0.3650723950661709 0.24998549435974801 0 -0.34413919195685061 0.25265196040736021 0 -0.35568392107843078 0.26300962704690978 0 -0.34413919195685061 0.25265196040736021 0 -0.35568392107843078 0.26300962704690978 0 -0.34028887527608148 0.26475443469808441 0 -0.3650723950661709 0.24998549435974801 0 -0.37630619323391662 0.26177012605870847 0 -0.35568392107843078 0.26300962704690978 0 -0.3650723950661709 0.24998549435974801 0 -0.35568392107843078 0.26300962704690978 0 -0.35568392107843078 0.26300962704690978 0 -0.37328732560364469 0.27880299853905638 0 -0.35568392107843078 0.26300962704690978 0 -0.37328732560364469 0.27880299853905638 0 -0.3524808780031185 0.28333591072948949 0 -0.37630619323391662 0.26177012605870847 0 -0.35568392107843078 0.26300962704690978 0 -0.37328732560364469 0.27880299853905638 0 -0.37328732560364469 0.27880299853905638 0 -0.37358947601324388 0.29493999002416632 0 -0.36489686727838577 0.28927384340320078 0 -0.37328732560364469 0.27880299853905638 0 -0.36489686727838577 0.28927384340320078 0 -0.3524808780031185 0.28333591072948949 0 -0.37358947601324388 0.29493999002416632 0 -0.36489686727838577 0.28927384340320078 0 -0.36022978949353618 0.30001647432009099 0 -0.3735935436532194 0.31098543761388697 0 -0.36022978949353618 0.30001647432009099 0 -0.35720459419796952 0.31149365195687689 0 -0.37358947601324388 0.29493999002416632 0 -0.3735935436532194 0.31098543761388697 0 -0.36022978949353618 0.30001647432009099 0 -0.36022978949353618 0.30001647432009099 0 -0.3524808780031185 0.28333591072948949 0 -0.34291764600089059 0.3073926938424355 0 -0.36022978949353618 0.30001647432009099 0 -0.35720459419796952 0.31149365195687689 0 -0.34291764600089059 0.3073926938424355 0 -0.3524808780031185 0.28333591072948949 0 -0.34291764600089059 0.3073926938424355 0 -0.3524808780031185 0.28333591072948949 0 -0.33971498455850069 0.29479935667640439 0 -0.34291764600089059 0.3073926938424355 0 -0.36489686727838577 0.28927384340320078 0 -0.36022978949353618 0.30001647432009099 0 -0.3524808780031185 0.28333591072948949 0 -0.3524808780031185 0.28333591072948949 0 -0.34199039336817239 0.28200593273905378 0 -0.33971498455850069 0.29479935667640439 0 -0.34199039336817239 0.28200593273905378 0 -0.32829686565791161 0.30100223843119611 0 -0.32496007643491398 0.28682720805669037 0 -0.34199039336817239 0.28200593273905378 0 -0.33971498455850069 0.29479935667640439 0 -0.32829686565791161 0.30100223843119611 0 -0.34199039336817239 0.28200593273905378 0 -0.32829686565791161 0.30100223843119611 0 -0.33971498455850069 0.29479935667640439 0 -0.34291764600089059 0.3073926938424355 0 -0.32829686565791161 0.30100223843119611 0 -0.34291764600089059 0.3073926938424355 0 -0.32829686565791161 0.30100223843119611 0 -0.32979306590127822 0.31496073833808758 0 -0.32829686565791161 0.30100223843119611 0 -0.31387806910430871 0.29980858319665687 0 -0.3146033379476495 0.31999854412333761 0 -0.31387806910430871 0.29980858319665687 0 -0.3146033379476495 0.31999854412333761 0 -0.32829686565791161 0.30100223843119611 0 -0.3146033379476495 0.31999854412333761 0 -0.32979306590127822 0.31496073833808758 0 -0.32829686565791161 0.30100223843119611 0 -0.3146033379476495 0.31999854412333761 0 -0.31387806910430871 0.29980858319665687 0 -0.32496007643491398 0.28682720805669037 0 -0.31315280026096909 0.27961862226997602 0 -0.31387806910430871 0.29980858319665687 0 -0.31315280026096909 0.27961862226997602 0 -0.32829686565791161 0.30100223843119611 0 -0.31387806910430871 0.29980858319665687 0 -0.32496007643491398 0.28682720805669037 0 -0.31315280026096909 0.27961862226997602 0 -0.31242753141762769 0.25942866134329529 0 -0.31315280026096909 0.27961862226997602 0 -0.32748225378320839 0.27170066364656892 0 -0.31242753141762769 0.25942866134329529 0 -0.32496007643491398 0.28682720805669037 0 -0.31315280026096909 0.27961862226997602 0 -0.32748225378320839 0.27170066364656892 0 -0.34199039336817239 0.28200593273905378 0 -0.32748225378320839 0.27170066364656892 0 -0.34028887527608148 0.26475443469808441 0 -0.34199039336817239 0.28200593273905378 0 -0.32496007643491398 0.28682720805669037 0 -0.32748225378320839 0.27170066364656892 0 -0.33259446283527072 0.24229429376781031 0 -0.34413919195685061 0.25265196040736021 0 -0.33138646305380809 0.25816600277262369 0 -0.34413919195685061 0.25265196040736021 0 -0.34028887527608148 0.26475443469808441 0 -0.33138646305380809 0.25816600277262369 0 -0.32748225378320839 0.27170066364656892 0 -0.34028887527608148 0.26475443469808441 0 -0.33138646305380809 0.25816600277262369 0 -0.33259446283527072 0.24229429376781031 0 -0.33138646305380809 0.25816600277262369 0 -0.31242753141762769 0.25942866134329529 0 -0.33259446283527072 0.24229429376781031 0 -0.31242753141762769 0.25942866134329529 0 -0.32748225378320839 0.27170066364656892 0 -0.33138646305380809 0.25816600277262369 0 -0.31242753141762769 0.25942866134329529 0 -0.30247996729088872 0.24864381714645439 0 -0.31242753141762769 0.25942866134329529 0 -0.29253527374002541 0.25818464783769479 0 -0.31242753141762769 0.25942866134329529 0 -0.29981968791688901 0.2701406244279092 0 -0.29253527374002541 0.25818464783769479 0 -0.31242753141762769 0.25942866134329529 0 -0.29981968791688901 0.2701406244279092 0 -0.30994005342502018 0.28017959537998882 0 -0.28721184441615061 0.28085258751252362 0 -0.31315280026096909 0.27961862226997602 0 -0.31242753141762769 0.25942866134329529 0 -0.29981968791688901 0.2701406244279092 0 -0.30994005342502018 0.28017959537998882 0 -0.29981968791688901 0.2701406244279092 0 -0.28721184441615061 0.28085258751252362 0 -0.31315280026096909 0.27961862226997602 0 -0.30994005342502018 0.28017959537998882 0 -0.29981968791688901 0.2701406244279092 0 -0.28721184441615061 0.28085258751252362 0 -0.29253527374002541 0.25818464783769479 0 -0.27697126413119733 0.26117658840125102 0 -0.29981968791688901 0.2701406244279092 0 -0.28721184441615061 0.28085258751252362 0 -0.29253527374002541 0.25818464783769479 0 -0.29981968791688901 0.2701406244279092 0 -0.28721184441615061 0.28085258751252362 0 -0.29222907257208403 0.24074557093379831 0 -0.27697126413119733 0.26117658840125102 0 -0.29222907257208403 0.24074557093379831 0 -0.29253527374002541 0.25818464783769479 0 -0.27697126413119733 0.26117658840125102 0 -0.27103680752545423 0.24403107392080631 0 -0.27697126413119733 0.26117658840125102 0 -0.26229004229316921 0.26104480872743452 0 -0.28721184441615061 0.28085258751252362 0 -0.27697126413119733 0.26117658840125102 0 -0.26171345569030929 0.28160760586870281 0 -0.27697126413119733 0.26117658840125102 0 -0.26171345569030929 0.28160760586870281 0 -0.27697126413119733 0.26117658840125102 0 -0.26229004229316921 0.26104480872743452 0 -0.26171345569030929 0.28160760586870281 0 -0.28721184441615061 0.28085258751252362 0 -0.26171345569030929 0.28160760586870281 0 -0.26171345569030929 0.28160760586870281 0 -0.24357244021055369 0.28214476921004727 0 -0.24907532666845869 0.26731703869254703 0 -0.26229004229316921 0.26104480872743452 0 -0.26171345569030929 0.28160760586870281 0 -0.24907532666845869 0.26731703869254703 0 -0.27103680752545423 0.24403107392080631 0 -0.26229004229316921 0.26104480872743452 0 -0.25265335745042522 0.25109173675386448 0 -0.26229004229316921 0.26104480872743452 0 -0.25265335745042522 0.25109173675386448 0 -0.24907532666845869 0.26731703869254703 0 -0.26525122684953722 0.30241966598549341 0 -0.25176489436465621 0.29492925891002708 0 -0.24724126437382779 0.31100423139068861 0 -0.26525122684953722 0.30241966598549341 0 -0.26693039435321081 0.31897908848980672 0 -0.24724126437382779 0.31100423139068861 0 -0.26525122684953722 0.30241966598549341 0 -0.25176489436465621 0.29492925891002708 0 -0.26171345569030929 0.28160760586870281 0 -0.25176489436465621 0.29492925891002708 0 -0.26171345569030929 0.28160760586870281 0 -0.24357244021055369 0.28214476921004727 0 -0.26171345569030929 0.28160760586870281 0 -0.24357244021055369 0.28214476921004727 0 -0.25176489436465621 0.29492925891002708 0 -0.26171345569030929 0.28160760586870281 0 -0.28721184441615061 0.28085258751252362 0 -0.26171345569030929 0.28160760586870281 0 -0.27545043056744062 0.29084540118941821 0 -0.26525122684953722 0.30241966598549341 0 -0.26171345569030929 0.28160760586870281 0 -0.27545043056744062 0.29084540118941821 0 -0.26525122684953722 0.30241966598549341 0 -0.28674797061937851 0.310740249972982 0 -0.26693039435321081 0.31897908848980672 0 -0.26525122684953722 0.30241966598549341 0 -0.27545043056744062 0.29084540118941821 0 -0.28674797061937851 0.310740249972982 0 -0.28674797061937851 0.310740249972982 0 -0.29446951690701861 0.28438643284697301 0 -0.28674797061937851 0.310740249972982 0 -0.29446951690701861 0.28438643284697301 0 -0.30165678087701092 0.30399859625666159 0 -0.28674797061937851 0.310740249972982 0 -0.30165678087701092 0.30399859625666159 0 -0.30052462287960863 0.31828724163511718 0 -0.27545043056744062 0.29084540118941821 0 -0.28674797061937851 0.310740249972982 0 -0.29446951690701861 0.28438643284697301 0 -0.28721184441615061 0.28085258751252362 0 -0.27545043056744062 0.29084540118941821 0 -0.29446951690701861 0.28438643284697301 0 -0.28721184441615061 0.28085258751252362 0 -0.27545043056744062 0.29084540118941821 0 -0.28721184441615061 0.28085258751252362 0 -0.29446951690701861 0.28438643284697301 0 -0.29939114166817721 0.28350412710082229 0 -0.29446951690701861 0.28438643284697301 0 -0.30594315192451937 0.28859789266380581 0 -0.30165678087701092 0.30399859625666159 0 -0.30994005342502018 0.28017959537998882 0 -0.28721184441615061 0.28085258751252362 0 -0.29939114166817721 0.28350412710082229 0 -0.31387806910430871 0.29980858319665687 0 -0.31315280026096909 0.27961862226997602 0 -0.30594315192451937 0.28859789266380581 0 -0.29446951690701861 0.28438643284697301 0 -0.29939114166817721 0.28350412710082229 0 -0.30594315192451937 0.28859789266380581 0 -0.31315280026096909 0.27961862226997602 0 -0.30994005342502018 0.28017959537998882 0 -0.30594315192451937 0.28859789266380581 0 -0.30994005342502018 0.28017959537998882 0 -0.29939114166817721 0.28350412710082229 0 -0.30594315192451937 0.28859789266380581 0 -0.31387806910430871 0.29980858319665687 0 -0.30165678087701092 0.30399859625666159 0 -0.3146033379476495 0.31999854412333761 0 -0.31387806910430871 0.29980858319665687 0 -0.30594315192451937 0.28859789266380581 0 -0.30165678087701092 0.30399859625666159 0 -0.30165678087701092 0.30399859625666159 0 -0.30052462287960863 0.31828724163511718 0 -0.3146033379476495 0.31999854412333761 0 -0.30052462287960863 0.31828724163511718 0 -0.30774711505369418 0.32950981899295939 0 -0.3146033379476495 0.31999854412333761 0 -0.30774711505369418 0.32950981899295939 0 -0.3146033379476495 0.31999854412333761 0 -0.30052462287960863 0.31828724163511718 0 -0.30774711505369418 0.32950981899295939 0 -0.29445712932066209 0.33213860239632448 0 -0.30774711505369418 0.32950981899295939 0 -0.30406046447976071 0.33847951029436152 0 -0.31537570979153712 0.34149975362956669 0 -0.30406046447976071 0.33847951029436152 0 -0.30600619351982561 0.34903062025954862 0 -0.31537570979153712 0.34149975362956669 0 -0.30774711505369418 0.32950981899295939 0 -0.30406046447976071 0.33847951029436152 0 -0.29445712932066209 0.33213860239632448 0 -0.30406046447976071 0.33847951029436152 0 -0.29445712932066209 0.33213860239632448 0 -0.29739634451355901 0.34451730938059599 0 -0.29445712932066209 0.33213860239632448 0 -0.28878134481390388 0.34546222063730597 0 -0.29739634451355901 0.34451730938059599 0 -0.29445712932066209 0.33213860239632448 0 -0.27902642433173852 0.33709406709899109 0 -0.28878134481390388 0.34546222063730597 0 -0.28674797061937851 0.310740249972982 0 -0.30052462287960863 0.31828724163511718 0 -0.29445712932066209 0.33213860239632448 0 -0.28674797061937851 0.310740249972982 0 -0.29445712932066209 0.33213860239632448 0 -0.27902642433173852 0.33709406709899109 0 -0.28674797061937851 0.310740249972982 0 -0.27902642433173852 0.33709406709899109 0 -0.28674797061937851 0.310740249972982 0 -0.26693039435321081 0.31897908848980672 0 -0.27902642433173852 0.33709406709899109 0 -0.26693039435321081 0.31897908848980672 0 -0.27902642433173852 0.33709406709899109 0 -0.25635578808319709 0.33248488659275199 0 -0.25635578808319709 0.33248488659275199 0 -0.26076068202118458 0.34900636599656493 0 -0.24531804091642909 0.34677646153151481 0 -0.27902642433173852 0.33709406709899109 0 -0.25635578808319709 0.33248488659275199 0 -0.26076068202118458 0.34900636599656493 0 -0.26693039435321081 0.31897908848980672 0 -0.25635578808319709 0.33248488659275199 0 -0.24724126437382779 0.31100423139068861 0 -0.25207376591612241 0.37475543941028922 0 -0.27130487804409831 0.36344788422500002 0 -0.26535844899663491 0.38374318491115073 0 -0.25207376591612241 0.37475543941028922 0 -0.27130487804409831 0.36344788422500002 0 -0.24781565924486029 0.35925588195421643 0 -0.27130487804409831 0.36344788422500002 0 -0.24781565924486029 0.35925588195421643 0 -0.26076068202118458 0.34900636599656493 0 -0.27130487804409831 0.36344788422500002 0 -0.24781565924486029 0.35925588195421643 0 -0.26076068202118458 0.34900636599656493 0 -0.24531804091642909 0.34677646153151481 0 -0.24781565924486029 0.35925588195421643 0 -0.27902642433173852 0.33709406709899109 0 -0.27130487804409831 0.36344788422500002 0 -0.27902642433173852 0.33709406709899109 0 -0.27130487804409831 0.36344788422500002 0 -0.28443922574782948 0.35566549521228152 0 -0.27902642433173852 0.33709406709899109 0 -0.26076068202118458 0.34900636599656493 0 -0.27130487804409831 0.36344788422500002 0 -0.27130487804409831 0.36344788422500002 0 -0.26535844899663491 0.38374318491115073 0 -0.27130487804409831 0.36344788422500002 0 -0.28670652730789281 0.36619653879880287 0 -0.28670652730789281 0.36619653879880287 0 -0.26535844899663491 0.38374318491115073 0 -0.27130487804409831 0.36344788422500002 0 -0.28670652730789281 0.36619653879880287 0 -0.28443922574782948 0.35566549521228152 0 -0.27130487804409831 0.36344788422500002 0 -0.28670652730789281 0.36619653879880287 0 -0.26535844899663491 0.38374318491115073 0 -0.28670652730789281 0.36619653879880287 0 -0.30670654260239189 0.36976584053875061 0 -0.28331624864815941 0.38652502253923993 0 -0.28670652730789281 0.36619653879880287 0 -0.30670654260239189 0.36976584053875061 0 -0.28670652730789281 0.36619653879880287 0 -0.29192461231185718 0.36190763327701581 0 -0.28443922574782948 0.35566549521228152 0 -0.29192461231185718 0.36190763327701581 0 -0.29579968708858062 0.35415548152791398 0 -0.2987395742210785 0.36299525588189069 0 -0.28670652730789281 0.36619653879880287 0 -0.29192461231185718 0.36190763327701581 0 -0.2987395742210785 0.36299525588189069 0 -0.28670652730789281 0.36619653879880287 0 -0.29192461231185718 0.36190763327701581 0 -0.27902642433173852 0.33709406709899109 0 -0.28878134481390388 0.34546222063730597 0 -0.28443922574782948 0.35566549521228152 0 -0.28878134481390388 0.34546222063730597 0 -0.28443922574782948 0.35566549521228152 0 -0.29579968708858062 0.35415548152791398 0 -0.29192461231185718 0.36190763327701581 0 -0.28443922574782948 0.35566549521228152 0 -0.29579968708858062 0.35415548152791398 0 -0.28878134481390388 0.34546222063730597 0 -0.29579968708858062 0.35415548152791398 0 -0.29739634451355901 0.34451730938059599 0 -0.30406046447976071 0.33847951029436152 0 -0.29739634451355901 0.34451730938059599 0 -0.30600619351982561 0.34903062025954862 0 -0.29579968708858062 0.35415548152791398 0 -0.29739634451355901 0.34451730938059599 0 -0.30600619351982561 0.34903062025954862 0 -0.29579968708858062 0.35415548152791398 0 -0.30491533890321082 0.35849200870597819 0 -0.30600619351982561 0.34903062025954862 0 -0.29579968708858062 0.35415548152791398 0 -0.30491533890321082 0.35849200870597819 0 -0.2987395742210785 0.36299525588189069 0 -0.30491533890321082 0.35849200870597819 0 -0.30600619351982561 0.34903062025954862 0 -0.31614808163542679 0.36300096313579577 0 -0.28670652730789281 0.36619653879880287 0 -0.2987395742210785 0.36299525588189069 0 -0.30670654260239189 0.36976584053875061 0 -0.30491533890321082 0.35849200870597819 0 -0.2987395742210785 0.36299525588189069 0 -0.30670654260239189 0.36976584053875061 0 -0.30670654260239189 0.36976584053875061 0 -0.31614808163542679 0.36300096313579577 0 -0.30491533890321082 0.35849200870597819 0 -0.30670654260239189 0.36976584053875061 0 -0.31614808163542679 0.36300096313579577 0 -0.30670654260239189 0.36976584053875061 0 -0.316453578166357 0.37150534475839903 0 -0.30670654260239189 0.36976584053875061 0 -0.316453578166357 0.37150534475839903 0 -0.30995066502310192 0.37976565071609047 0 -0.316453578166357 0.37150534475839903 0 -0.33453893464919188 0.37473294700826421 0 -0.30670654260239189 0.36976584053875061 0 -0.316453578166357 0.37150534475839903 0 -0.31614808163542679 0.36300096313579577 0 -0.316453578166357 0.37150534475839903 0 -0.32735487676218772 0.36452673703964322 0 -0.33453893464919188 0.37473294700826421 0 -0.316453578166357 0.37150534475839903 0 -0.31614808163542679 0.36300096313579577 0 -0.316453578166357 0.37150534475839903 0 -0.31614808163542679 0.36300096313579577 0 -0.32735487676218772 0.36452673703964322 0 -0.31614808163542679 0.36300096313579577 0 -0.32735487676218772 0.36452673703964322 0 -0.33036115878603978 0.35281727124974332 0 -0.32735487676218772 0.36452673703964322 0 -0.33453893464919188 0.37473294700826421 0 -0.33722058835921198 0.36024683628409843 0 -0.33453893464919188 0.37473294700826421 0 -0.33722058835921198 0.36024683628409843 0 -0.34881025615644329 0.3620765690523769 0 -0.33036115878603978 0.35281727124974332 0 -0.32379118199643481 0.35550626006832708 0 -0.33335441399866272 0.33144947695538141 0 -0.33036115878603978 0.35281727124974332 0 -0.33335441399866272 0.33144947695538141 0 -0.34503771544219741 0.34708065707046443 0 -0.33722058835921198 0.36024683628409843 0 -0.33036115878603978 0.35281727124974332 0 -0.34503771544219741 0.34708065707046443 0 -0.33722058835921198 0.36024683628409843 0 -0.34881025615644329 0.3620765690523769 0 -0.34503771544219741 0.34708065707046443 0 -0.32735487676218772 0.36452673703964322 0 -0.33722058835921198 0.36024683628409843 0 -0.33036115878603978 0.35281727124974332 0 -0.31614808163542679 0.36300096313579577 0 -0.32379118199643481 0.35550626006832708 0 -0.31537570979153712 0.34149975362956669 0 -0.31614808163542679 0.36300096313579577 0 -0.31537570979153712 0.34149975362956669 0 -0.30600619351982561 0.34903062025954862 0 -0.31614808163542679 0.36300096313579577 0 -0.31537570979153712 0.34149975362956669 0 -0.31614808163542679 0.36300096313579577 0 -0.33036115878603978 0.35281727124974332 0 -0.32379118199643481 0.35550626006832708 0 -0.31614808163542679 0.36300096313579577 0 -0.33036115878603978 0.35281727124974332 0 -0.30774711505369418 0.32950981899295939 0 -0.31537570979153712 0.34149975362956669 0 -0.3146033379476495 0.31999854412333761 0 -0.31537570979153712 0.34149975362956669 0 -0.3146033379476495 0.31999854412333761 0 -0.33335441399866272 0.33144947695538141 0 -0.31537570979153712 0.34149975362956669 0 -0.3146033379476495 0.31999854412333761 0 -0.32379118199643481 0.35550626006832708 0 -0.31537570979153712 0.34149975362956669 0 -0.33335441399866272 0.33144947695538141 0 -0.3146033379476495 0.31999854412333761 0 -0.32979306590127822 0.31496073833808758 0 -0.33335441399866272 0.33144947695538141 0 -0.34291764600089059 0.3073926938424355 0 -0.33335441399866272 0.33144947695538141 0 -0.34291764600089059 0.3073926938424355 0 -0.32979306590127822 0.31496073833808758 0 -0.33335441399866272 0.33144947695538141 0 -0.32379118199643481 0.35550626006832708 0 -0.33335441399866272 0.33144947695538141 0 -0.35575471089239102 0.32665753248150459 0 -0.36407850004417402 0.34907735137327478 0 -0.34503771544219741 0.34708065707046443 0 -0.33335441399866272 0.33144947695538141 0 -0.35575471089239102 0.32665753248150459 0 -0.34503771544219741 0.34708065707046443 0 -0.35720459419796952 0.31149365195687689 0 -0.34291764600089059 0.3073926938424355 0 -0.35575471089239102 0.32665753248150459 0 -0.34291764600089059 0.3073926938424355 0 -0.33335441399866272 0.33144947695538141 0 -0.35575471089239102 0.32665753248150459 0 -0.3735935436532194 0.31098543761388697 0 -0.35720459419796952 0.31149365195687689 0 -0.35575471089239102 0.32665753248150459 0 -0.37828998161256222 0.33180206257399458 0 -0.3735935436532194 0.31098543761388697 0 -0.35575471089239102 0.32665753248150459 0 -0.37828998161256222 0.33180206257399458 0 -0.35575471089239102 0.32665753248150459 0 -0.36407850004417402 0.34907735137327478 0 -0.38627767411470659 0.3538347616038886 0 -0.36407850004417402 0.34907735137327478 0 -0.37286605736730882 0.36463254837100689 0 -0.37286605736730882 0.36463254837100689 0 -0.36108168483506042 0.36673472507096622 0 -0.36914281069579841 0.38042266790116719 0 -0.36407850004417402 0.34907735137327478 0 -0.37286605736730882 0.36463254837100689 0 -0.36108168483506042 0.36673472507096622 0 -0.36108168483506042 0.36673472507096622 0 -0.34881025615644329 0.3620765690523769 0 -0.35262429113202731 0.37796054925812689 0 -0.33453893464919188 0.37473294700826421 0 -0.34881025615644329 0.3620765690523769 0 -0.35262429113202731 0.37796054925812689 0 -0.36407850004417402 0.34907735137327478 0 -0.34881025615644329 0.3620765690523769 0 -0.34503771544219741 0.34708065707046443 0 -0.36407850004417402 0.34907735137327478 0 -0.36108168483506042 0.36673472507096622 0 -0.34881025615644329 0.3620765690523769 0 -0.34431021693436947 0.405099134311388 0 -0.37007597783464391 0.39806814896234288 0 -0.34431021693436947 0.405099134311388 0 -0.35548932322215282 0.39014386739862772 0 -0.34019829950094138 0.38787316159784879 0 -0.34431021693436947 0.405099134311388 0 -0.35548932322215282 0.39014386739862772 0 -0.37007597783464391 0.39806814896234288 0 -0.34431021693436947 0.405099134311388 0 -0.37007597783464391 0.39806814896234288 0 -0.35755465366588879 0.41301758651882858 0 -0.35262429113202731 0.37796054925812689 0 -0.35548932322215282 0.39014386739862772 0 -0.36914281069579841 0.38042266790116719 0 -0.35262429113202731 0.37796054925812689 0 -0.35548932322215282 0.39014386739862772 0 -0.34019829950094138 0.38787316159784879 0 -0.36108168483506042 0.36673472507096622 0 -0.35262429113202731 0.37796054925812689 0 -0.36914281069579841 0.38042266790116719 0 -0.35548932322215282 0.39014386739862772 0 -0.36914281069579841 0.38042266790116719 0 -0.37007597783464391 0.39806814896234288 0 -0.37240578596709772 0.41720815438830888 0 -0.36132594428705439 0.42913468065574512 0 -0.35755465366588879 0.41301758651882858 0 -0.37007597783464391 0.39806814896234288 0 -0.37240578596709772 0.41720815438830888 0 -0.35755465366588879 0.41301758651882858 0 -0.3801361377889812 0.43634203295628732 0 -0.36132594428705439 0.42913468065574512 0 -0.36414434464906131 0.4432442600246943 0 -0.3801361377889812 0.43634203295628732 0 -0.37240578596709772 0.41720815438830888 0 -0.36132594428705439 0.42913468065574512 0 -0.36132594428705439 0.42913468065574512 0 -0.34777911104724007 0.43735030512530121 0 -0.36414434464906131 0.4432442600246943 0 -0.36132594428705439 0.42913468065574512 0 -0.34819134994303857 0.42540468855761648 0 -0.35755465366588879 0.41301758651882858 0 -0.36132594428705439 0.42913468065574512 0 -0.34819134994303857 0.42540468855761648 0 -0.34777911104724007 0.43735030512530121 0 -0.34819134994303857 0.42540468855761648 0 -0.34777911104724007 0.43735030512530121 0 -0.33696519536256131 0.43061528074779409 0 -0.34819134994303857 0.42540468855761648 0 -0.35755465366588879 0.41301758651882858 0 -0.33733184535244809 0.4169055897404137 0 -0.34431021693436947 0.405099134311388 0 -0.35755465366588879 0.41301758651882858 0 -0.33733184535244809 0.4169055897404137 0 -0.33733184535244809 0.4169055897404137 0 -0.33014952405895759 0.42431608600908299 0 -0.31854445603409509 0.41213011966043311 0 -0.34431021693436947 0.405099134311388 0 -0.31854445603409509 0.41213011966043311 0 -0.34431021693436947 0.405099134311388 0 -0.33733184535244809 0.4169055897404137 0 -0.31854445603409509 0.41213011966043311 0 -0.34777911104724007 0.43735030512530121 0 -0.33696519536256131 0.43061528074779409 0 -0.33472994782550619 0.43754243383678548 0 -0.34819134994303857 0.42540468855761648 0 -0.33733184535244809 0.4169055897404137 0 -0.33696519536256131 0.43061528074779409 0 -0.33733184535244809 0.4169055897404137 0 -0.33696519536256131 0.43061528074779409 0 -0.33014952405895759 0.42431608600908299 0 -0.33014952405895759 0.42431608600908299 0 -0.32179507864527651 0.42583573201571467 0 -0.33472994782550619 0.43754243383678548 0 -0.32179507864527651 0.42583573201571467 0 -0.33472994782550619 0.43754243383678548 0 -0.33696519536256131 0.43061528074779409 0 -0.33014952405895759 0.42431608600908299 0 -0.33472994782550619 0.43754243383678548 0 -0.33696519536256131 0.43061528074779409 0 -0.33472994782550619 0.43754243383678548 0 -0.32179507864527651 0.42583573201571467 0 -0.30627006042434102 0.43003077810682833 0 -0.31739670311140311 0.44336459826936409 0 -0.32179507864527651 0.42583573201571467 0 -0.31739670311140311 0.44336459826936409 0 -0.33472994782550619 0.43754243383678548 0 -0.32179507864527651 0.42583573201571467 0 -0.31854445603409509 0.41213011966043311 0 -0.30627006042434102 0.43003077810682833 0 -0.33014952405895759 0.42431608600908299 0 -0.32179507864527651 0.42583573201571467 0 -0.31854445603409509 0.41213011966043311 0 -0.31854445603409509 0.41213011966043311 0 -0.32912282517242769 0.39777187684704118 0 -0.31711487150776257 0.38991436211334968 0 -0.34431021693436947 0.405099134311388 0 -0.32912282517242769 0.39777187684704118 0 -0.34019829950094138 0.38787316159784879 0 -0.34431021693436947 0.405099134311388 0 -0.31854445603409509 0.41213011966043311 0 -0.32912282517242769 0.39777187684704118 0 -0.33453893464919188 0.37473294700826421 0 -0.35262429113202731 0.37796054925812689 0 -0.34019829950094138 0.38787316159784879 0 -0.32912282517242769 0.39777187684704118 0 -0.34019829950094138 0.38787316159784879 0 -0.32510420589547939 0.38153059476364498 0 -0.33453893464919188 0.37473294700826421 0 -0.35262429113202731 0.37796054925812689 0 -0.33453893464919188 0.37473294700826421 0 -0.34019829950094138 0.38787316159784879 0 -0.32510420589547939 0.38153059476364498 0 -0.32912282517242769 0.39777187684704118 0 -0.31711487150776257 0.38991436211334968 0 -0.32510420589547939 0.38153059476364498 0 -0.316453578166357 0.37150534475839903 0 -0.31711487150776257 0.38991436211334968 0 -0.30995066502310192 0.37976565071609047 0 -0.316453578166357 0.37150534475839903 0 -0.31711487150776257 0.38991436211334968 0 -0.32510420589547939 0.38153059476364498 0 -0.316453578166357 0.37150534475839903 0 -0.31711487150776257 0.38991436211334968 0 -0.316453578166357 0.37150534475839903 0 -0.33453893464919188 0.37473294700826421 0 -0.32510420589547939 0.38153059476364498 0 -0.30670654260239189 0.36976584053875061 0 -0.30995066502310192 0.37976565071609047 0 -0.30109314715502278 0.38542823944211169 0 -0.31711487150776257 0.38991436211334968 0 -0.30995066502310192 0.37976565071609047 0 -0.30109314715502278 0.38542823944211169 0 -0.30670654260239189 0.36976584053875061 0 -0.30109314715502278 0.38542823944211169 0 -0.28331624864815941 0.38652502253923993 0 -0.31711487150776257 0.38991436211334968 0 -0.30109314715502278 0.38542823944211169 0 -0.29947749033837778 0.40036204469031111 0 -0.31854445603409509 0.41213011966043311 0 -0.31711487150776257 0.38991436211334968 0 -0.29947749033837778 0.40036204469031111 0 -0.30109314715502278 0.38542823944211169 0 -0.29947749033837778 0.40036204469031111 0 -0.28331624864815941 0.38652502253923993 0 -0.29947749033837778 0.40036204469031111 0 -0.28331624864815941 0.38652502253923993 0 -0.27808354444609729 0.40497648948987358 0 -0.30670654260239189 0.36976584053875061 0 -0.28331624864815941 0.38652502253923993 0 -0.28670652730789281 0.36619653879880287 0 -0.28331624864815941 0.38652502253923993 0 -0.26535844899663491 0.38374318491115073 0 -0.28331624864815941 0.38652502253923993 0 -0.25978981881287472 0.40274904928575922 0 -0.28331624864815941 0.38652502253923993 0 -0.27808354444609729 0.40497648948987358 0 -0.25978981881287472 0.40274904928575922 0 -0.28331624864815941 0.38652502253923993 0 -0.25978981881287472 0.40274904928575922 0 -0.26535844899663491 0.38374318491115073 0 -0.25978981881287472 0.40274904928575922 0 -0.2517814801222712 0.39490251572507368 0 -0.26535844899663491 0.38374318491115073 0 -0.25978981881287472 0.40274904928575922 0 -0.26535844899663491 0.38374318491115073 0 -0.2517814801222712 0.39490251572507368 0 -0.25064852575760788 0.38469994987524803 0 -0.26535844899663491 0.38374318491115073 0 -0.25207376591612241 0.37475543941028922 0 -0.25064852575760788 0.38469994987524803 0 -0.26535844899663491 0.38374318491115073 0 -0.2517814801222712 0.39490251572507368 0 -0.26535844899663491 0.38374318491115073 0 -0.26138900758400219 0.43650205706185108 0 -0.26298055422288702 0.4205021834214519 0 -0.2478775639996767 0.43602787735303022 0 -0.2518299334140468 0.41996441296360842 0 -0.26298055422288702 0.4205021834214519 0 -0.2478775639996767 0.43602787735303022 0 -0.26298055422288702 0.4205021834214519 0 -0.2478775639996767 0.43602787735303022 0 -0.25978981881287472 0.40274904928575922 0 -0.2518299334140468 0.41996441296360842 0 -0.26298055422288702 0.4205021834214519 0 -0.27808354444609729 0.40497648948987358 0 -0.26298055422288702 0.4205021834214519 0 -0.27865223062507988 0.42121714253260018 0 -0.27808354444609729 0.40497648948987358 0 -0.25978981881287472 0.40274904928575922 0 -0.26298055422288702 0.4205021834214519 0 -0.27808354444609729 0.40497648948987358 0 -0.26298055422288702 0.4205021834214519 0 -0.26298055422288702 0.4205021834214519 0 -0.27865223062507988 0.42121714253260018 0 -0.27489559041244133 0.43590525355383852 0 -0.26138900758400219 0.43650205706185108 0 -0.26298055422288702 0.4205021834214519 0 -0.27489559041244133 0.43590525355383852 0 -0.29123722882486658 0.437118644252111 0 -0.29277869513382049 0.41916110500947817 0 -0.30627006042434102 0.43003077810682833 0 -0.27865223062507988 0.42121714253260018 0 -0.27489559041244133 0.43590525355383852 0 -0.29123722882486658 0.437118644252111 0 -0.27865223062507988 0.42121714253260018 0 -0.29123722882486658 0.437118644252111 0 -0.29277869513382049 0.41916110500947817 0 -0.29947749033837778 0.40036204469031111 0 -0.27808354444609729 0.40497648948987358 0 -0.29277869513382049 0.41916110500947817 0 -0.27808354444609729 0.40497648948987358 0 -0.27865223062507988 0.42121714253260018 0 -0.29277869513382049 0.41916110500947817 0 -0.31854445603409509 0.41213011966043311 0 -0.29277869513382049 0.41916110500947817 0 -0.31854445603409509 0.41213011966043311 0 -0.29947749033837778 0.40036204469031111 0 -0.29277869513382049 0.41916110500947817 0 -0.31854445603409509 0.41213011966043311 0 -0.29277869513382049 0.41916110500947817 0 -0.30627006042434102 0.43003077810682833 0 -0.29123722882486658 0.437118644252111 0 -0.30627006042434102 0.43003077810682833 0 -0.30186312040016061 0.44907633511896228 0 -0.30186312040016061 0.44907633511896228 0 -0.31276511368983051 0.45991761084631011 0 -0.31739670311140311 0.44336459826936409 0 -0.30627006042434102 0.43003077810682833 0 -0.30186312040016061 0.44907633511896228 0 -0.31739670311140311 0.44336459826936409 0 -0.30186312040016061 0.44907633511896228 0 -0.29946459427802019 0.46921723299609558 0 -0.31276511368983051 0.45991761084631011 0 -0.30186312040016061 0.44907633511896228 0 -0.28276180758415659 0.45763949315824942 0 -0.29946459427802019 0.46921723299609558 0 -0.27489559041244133 0.43590525355383852 0 -0.29123722882486658 0.437118644252111 0 -0.28276180758415659 0.45763949315824942 0 -0.29123722882486658 0.437118644252111 0 -0.30186312040016061 0.44907633511896228 0 -0.28276180758415659 0.45763949315824942 0 -0.27489559041244133 0.43590525355383852 0 -0.28276180758415659 0.45763949315824942 0 -0.26526128982827502 0.45074709689295372 0 -0.26138900758400219 0.43650205706185108 0 -0.27489559041244133 0.43590525355383852 0 -0.26526128982827502 0.45074709689295372 0 -0.28276180758415659 0.45763949315824942 0 -0.26832183076130078 0.46270492286451631 0 -0.27124968621564038 0.47791131114214702 0 -0.28276180758415659 0.45763949315824942 0 -0.26832183076130078 0.46270492286451631 0 -0.26526128982827502 0.45074709689295372 0 -0.26832183076130078 0.46270492286451631 0 -0.2538441374005192 0.46419532409276781 0 -0.26526128982827502 0.45074709689295372 0 -0.2538441374005192 0.46419532409276781 0 -0.25047570145932352 0.44829845483618741 0 -0.26526128982827502 0.45074709689295372 0 -0.26832183076130078 0.46270492286451631 0 -0.2538441374005192 0.46419532409276781 0 -0.27124968621564038 0.47791131114214702 0 -0.26138900758400219 0.43650205706185108 0 -0.25047570145932352 0.44829845483618741 0 -0.2478775639996767 0.43602787735303022 0 -0.26138900758400219 0.43650205706185108 0 -0.25047570145932352 0.44829845483618741 0 -0.26526128982827502 0.45074709689295372 0 -0.26175670617293179 0.5 0 -0.25098910503429528 0.47846852912753879 0 -0.27124968621564038 0.47791131114214702 0 -0.26175670617293179 0.5 0 -0.25098910503429528 0.47846852912753879 0 -0.24256099994576011 0.4880969360860925 0 -0.2538441374005192 0.46419532409276781 0 -0.25098910503429528 0.47846852912753879 0 -0.27124968621564038 0.47791131114214702 0 -0.28276180758415659 0.45763949315824942 0 -0.27124968621564038 0.47791131114214702 0 -0.28883920516244682 0.48110293273333932 0 -0.26175670617293179 0.5 0 -0.27124968621564038 0.47791131114214702 0 -0.28816645132293012 0.5 0 -0.27124968621564038 0.47791131114214702 0 -0.28816645132293012 0.5 0 -0.28883920516244682 0.48110293273333932 0 -0.28816645132293012 0.5 0 -0.28883920516244682 0.48110293273333932 0 -0.30246929726038829 0.48610628133960321 0 -0.28276180758415659 0.45763949315824942 0 -0.28883920516244682 0.48110293273333932 0 -0.29946459427802019 0.46921723299609558 0 -0.29946459427802019 0.46921723299609558 0 -0.32129411359045418 0.47918081127892809 0 -0.31276511368983051 0.45991761084631011 0 -0.29946459427802019 0.46921723299609558 0 -0.30246929726038829 0.48610628133960321 0 -0.32129411359045418 0.47918081127892809 0 -0.28883920516244682 0.48110293273333932 0 -0.29946459427802019 0.46921723299609558 0 -0.30246929726038829 0.48610628133960321 0 -0.28816645132293012 0.5 0 -0.30246929726038829 0.48610628133960321 0 -0.31457619647292828 0.49999999999999939 0 -0.30246929726038829 0.48610628133960321 0 -0.31457619647292828 0.49999999999999939 0 -0.32129411359045418 0.47918081127892809 0 -0.31457619647292828 0.49999999999999939 0 -0.32129411359045418 0.47918081127892809 0 -0.34429747411518158 0.5 0 -0.31457619647292828 0.49999999999999939 0 -0.32129411359045418 0.47918081127892809 0 -0.32129411359045418 0.47918081127892809 0 -0.34429747411518158 0.5 0 -0.34462364687746599 0.47486493033092109 0 -0.32129411359045418 0.47918081127892809 0 -0.32801203070798018 0.45836162255785678 0 -0.34462364687746599 0.47486493033092109 0 -0.32129411359045418 0.47918081127892809 0 -0.32801203070798018 0.45836162255785678 0 -0.32129411359045418 0.47918081127892809 0 -0.32801203070798018 0.45836162255785678 0 -0.31276511368983051 0.45991761084631011 0 -0.32801203070798018 0.45836162255785678 0 -0.31276511368983051 0.45991761084631011 0 -0.31739670311140311 0.44336459826936409 0 -0.32801203070798018 0.45836162255785678 0 -0.31739670311140311 0.44336459826936409 0 -0.33472994782550619 0.43754243383678548 0 -0.32801203070798018 0.45836162255785678 0 -0.33472994782550619 0.43754243383678548 0 -0.32801203070798018 0.45836162255785678 0 -0.33472994782550619 0.43754243383678548 0 -0.35198246821905171 0.45315682537758939 0 -0.33472994782550619 0.43754243383678548 0 -0.35198246821905171 0.45315682537758939 0 -0.32801203070798018 0.45836162255785678 0 -0.35198246821905171 0.45315682537758939 0 -0.34462364687746599 0.47486493033092109 0 -0.35198246821905171 0.45315682537758939 0 -0.36923498861259713 0.46877121691839319 0 -0.34462364687746599 0.47486493033092109 0 -0.34777911104724007 0.43735030512530121 0 -0.33472994782550619 0.43754243383678548 0 -0.35198246821905171 0.45315682537758939 0 -0.34777911104724007 0.43735030512530121 0 -0.35198246821905171 0.45315682537758939 0 -0.36414434464906131 0.4432442600246943 0 -0.37507549070465729 0.44757931484736252 0 -0.3801361377889812 0.43634203295628732 0 -0.36414434464906131 0.4432442600246943 0 -0.35198246821905171 0.45315682537758939 0 -0.36414434464906131 0.4432442600246943 0 -0.36925345764348511 0.45698131168867667 0 -0.37507549070465729 0.44757931484736252 0 -0.36414434464906131 0.4432442600246943 0 -0.36925345764348511 0.45698131168867667 0 -0.35198246821905171 0.45315682537758939 0 -0.36925345764348511 0.45698131168867667 0 -0.36923498861259713 0.46877121691839319 0 -0.35198246821905171 0.45315682537758939 0 -0.36923498861259713 0.46877121691839319 0 -0.37752696234133309 0.46276126082490221 0 -0.36925345764348511 0.45698131168867667 0 -0.36923498861259713 0.46877121691839319 0 -0.38648750900614248 0.48438560845919698 0 -0.36923498861259713 0.46877121691839319 0 -0.36028785893007548 0.48612256836565693 0 -0.36028785893007548 0.48612256836565693 0 -0.37401875175743488 0.5 0 -0.34429747411518158 0.5 0 -0.38648750900614248 0.48438560845919698 0 -0.36028785893007548 0.48612256836565693 0 -0.37401875175743488 0.5 0 -0.36028785893007548 0.48612256836565693 0 -0.34429747411518158 0.5 0 -0.34462364687746599 0.47486493033092109 0 -0.36923498861259713 0.46877121691839319 0 -0.36028785893007548 0.48612256836565693 0 -0.34462364687746599 0.47486493033092109 0 -0.153768865275727 0.47640469348188008 0 -0.14359783365883949 0.48776660279468731 0 -0.15939768319280251 0.48840094722776828 0 -0.153768865275727 0.47640469348188008 0 -0.14359783365883949 0.48776660279468731 0 -0.14053518983319069 0.47724109030250977 0 -0.153768865275727 0.47640469348188008 0 -0.14053518983319069 0.47724109030250977 0 -0.1435082131116901 0.46754334196099678 0 -0.153768865275727 0.47640469348188008 0 -0.1435082131116901 0.46754334196099678 0 -0.15482171351020091 0.46342421843181508 0 -0.1531617291500279 0.5 0 -0.14359783365883949 0.48776660279468731 0 -0.15939768319280251 0.48840094722776828 0 -0.1531617291500279 0.5 0 -0.14359783365883949 0.48776660279468731 0 -0.13072716435958551 0.5 0 -0.13072716435958551 0.5 0 -0.13025054025300761 0.4826643573959446 0 -0.1149921912092071 0.48466225520027822 0 -0.14359783365883949 0.48776660279468731 0 -0.13072716435958551 0.5 0 -0.13025054025300761 0.4826643573959446 0 -0.14359783365883949 0.48776660279468731 0 -0.13025054025300761 0.4826643573959446 0 -0.14053518983319069 0.47724109030250977 0 -0.13025054025300761 0.4826643573959446 0 -0.14053518983319069 0.47724109030250977 0 -0.13118830386020741 0.47279695520388898 0 -0.14053518983319069 0.47724109030250977 0 -0.13118830386020741 0.47279695520388898 0 -0.1435082131116901 0.46754334196099678 0 -0.13025054025300761 0.4826643573959446 0 -0.13118830386020741 0.47279695520388898 0 -0.1202814620937747 0.47400449053672777 0 -0.12695833985532259 0.45756942101487302 0 -0.13369083520311251 0.46329976234507819 0 -0.122377696522578 0.46366266860828159 0 -0.13118830386020741 0.47279695520388898 0 -0.13369083520311251 0.46329976234507819 0 -0.122377696522578 0.46366266860828159 0 -0.12695833985532259 0.45756942101487302 0 -0.1344623132418564 0.45625755424693998 0 -0.1230046864836971 0.44912249390313519 0 -0.12695833985532259 0.45756942101487302 0 -0.1344623132418564 0.45625755424693998 0 -0.13369083520311251 0.46329976234507819 0 -0.1344623132418564 0.45625755424693998 0 -0.13369083520311251 0.46329976234507819 0 -0.14153560936209869 0.46036267515722518 0 -0.13369083520311251 0.46329976234507819 0 -0.1435082131116901 0.46754334196099678 0 -0.14153560936209869 0.46036267515722518 0 -0.13118830386020741 0.47279695520388898 0 -0.13369083520311251 0.46329976234507819 0 -0.1435082131116901 0.46754334196099678 0 -0.1344623132418564 0.45625755424693998 0 -0.1468950445197322 0.45349448995471048 0 -0.1230046864836971 0.44912249390313519 0 -0.1468950445197322 0.45349448995471048 0 -0.1230046864836971 0.44912249390313519 0 -0.127110104771292 0.44628913160647932 0 -0.14101498282671859 0.44360009119965232 0 -0.1500852699138982 0.4490054649617215 0 -0.127110104771292 0.44628913160647932 0 -0.1468950445197322 0.45349448995471048 0 -0.1230046864836971 0.44912249390313519 0 -0.127110104771292 0.44628913160647932 0 -0.1500852699138982 0.4490054649617215 0 -0.12958539990051529 0.43975039999026672 0 -0.127110104771292 0.44628913160647932 0 -0.12582028798773601 0.43557595697160212 0 -0.12958539990051529 0.43975039999026672 0 -0.13393562983705831 0.44040169697121079 0 -0.132912812236476 0.43527140001113562 0 -0.12958539990051529 0.43975039999026672 0 -0.127110104771292 0.44628913160647932 0 -0.13393562983705831 0.44040169697121079 0 -0.127110104771292 0.44628913160647932 0 -0.13393562983705831 0.44040169697121079 0 -0.14101498282671859 0.44360009119965232 0 -0.13393562983705831 0.44040169697121079 0 -0.14101498282671859 0.44360009119965232 0 -0.13995312146935249 0.43618282804812081 0 -0.127110104771292 0.44628913160647932 0 -0.1500852699138982 0.4490054649617215 0 -0.1468950445197322 0.45349448995471048 0 -0.14101498282671859 0.44360009119965232 0 -0.1481806454488013 0.44307310748348427 0 -0.1500852699138982 0.4490054649617215 0 -0.1449541789038758 0.43967853181970051 0 -0.1511481773586158 0.43896487449238369 0 -0.14690829342226269 0.43487464608378712 0 -0.1449541789038758 0.43967853181970051 0 -0.1481806454488013 0.44307310748348427 0 -0.1511481773586158 0.43896487449238369 0 -0.1449541789038758 0.43967853181970051 0 -0.14101498282671859 0.44360009119965232 0 -0.13995312146935249 0.43618282804812081 0 -0.1449541789038758 0.43967853181970051 0 -0.14101498282671859 0.44360009119965232 0 -0.1481806454488013 0.44307310748348427 0 -0.1500852699138982 0.4490054649617215 0 -0.15422841927300729 0.44328056362217211 0 -0.16254422361799559 0.44502885110952839 0 -0.1481806454488013 0.44307310748348427 0 -0.15422841927300729 0.44328056362217211 0 -0.1511481773586158 0.43896487449238369 0 -0.1481806454488013 0.44307310748348427 0 -0.1500852699138982 0.4490054649617215 0 -0.15422841927300729 0.44328056362217211 0 -0.15422841927300729 0.44328056362217211 0 -0.1511481773586158 0.43896487449238369 0 -0.15847898142472011 0.43872288433626788 0 -0.1500852699138982 0.4490054649617215 0 -0.1468950445197322 0.45349448995471048 0 -0.1707854025557673 0.45786648600628582 0 -0.14669014512593051 0.46120618137618691 0 -0.1435082131116901 0.46754334196099678 0 -0.15482171351020091 0.46342421843181508 0 -0.14669014512593051 0.46120618137618691 0 -0.1435082131116901 0.46754334196099678 0 -0.14153560936209869 0.46036267515722518 0 -0.1344623132418564 0.45625755424693998 0 -0.14153560936209869 0.46036267515722518 0 -0.1468950445197322 0.45349448995471048 0 -0.14669014512593051 0.46120618137618691 0 -0.14153560936209869 0.46036267515722518 0 -0.1468950445197322 0.45349448995471048 0 -0.14669014512593051 0.46120618137618691 0 -0.1468950445197322 0.45349448995471048 0 -0.15482171351020091 0.46342421843181508 0 -0.15482171351020091 0.46342421843181508 0 -0.1707854025557673 0.45786648600628582 0 -0.1660443679129977 0.46995405534097329 0 -0.1468950445197322 0.45349448995471048 0 -0.1707854025557673 0.45786648600628582 0 -0.1468950445197322 0.45349448995471048 0 -0.15482171351020091 0.46342421843181508 0 -0.1707854025557673 0.45786648600628582 0 -0.1707854025557673 0.45786648600628582 0 -0.17592854246920961 0.47109495307096161 0 -0.1660443679129977 0.46995405534097329 0 -0.1500852699138982 0.4490054649617215 0 -0.1707854025557673 0.45786648600628582 0 -0.16254422361799559 0.44502885110952839 0 -0.1707854025557673 0.45786648600628582 0 -0.16254422361799559 0.44502885110952839 0 -0.1736161744262894 0.44217550981888187 0 -0.16254422361799559 0.44502885110952839 0 -0.15847898142472011 0.43872288433626788 0 -0.16729889150648281 0.43435965771143392 0 -0.15422841927300729 0.44328056362217211 0 -0.16254422361799559 0.44502885110952839 0 -0.15847898142472011 0.43872288433626788 0 -0.16254422361799559 0.44502885110952839 0 -0.1736161744262894 0.44217550981888187 0 -0.16729889150648281 0.43435965771143392 0 -0.1707854025557673 0.45786648600628582 0 -0.18315223149483401 0.44607518492651488 0 -0.18862269814072019 0.45245227963688373 0 -0.1707854025557673 0.45786648600628582 0 -0.1736161744262894 0.44217550981888187 0 -0.18315223149483401 0.44607518492651488 0 -0.1736161744262894 0.44217550981888187 0 -0.18315223149483401 0.44607518492651488 0 -0.1822137837236649 0.43653078766584902 0 -0.18315223149483401 0.44607518492651488 0 -0.19068832202536251 0.4401955184129458 0 -0.1822137837236649 0.43653078766584902 0 -0.1707854025557673 0.45786648600628582 0 -0.18449816443620831 0.46824027911932159 0 -0.19467576059180239 0.46223848205786039 0 -0.1707854025557673 0.45786648600628582 0 -0.19467576059180239 0.46223848205786039 0 -0.18862269814072019 0.45245227963688373 0 -0.1707854025557673 0.45786648600628582 0 -0.19467576059180239 0.46223848205786039 0 -0.1707854025557673 0.45786648600628582 0 -0.18449816443620831 0.46824027911932159 0 -0.17592854246920961 0.47109495307096161 0 -0.18449816443620831 0.46824027911932159 0 -0.1861770803672099 0.47714459515158392 0 -0.17592854246920961 0.47109495307096161 0 -0.1861770803672099 0.47714459515158392 0 -0.17213769707386509 0.48226934973664343 0 -0.18918035391480009 0.49120182897353748 0 -0.1861770803672099 0.47714459515158392 0 -0.17213769707386509 0.48226934973664343 0 -0.17592854246920961 0.47109495307096161 0 -0.17213769707386509 0.48226934973664343 0 -0.17592854246920961 0.47109495307096161 0 -0.1660443679129977 0.46995405534097329 0 -0.153768865275727 0.47640469348188008 0 -0.17213769707386509 0.48226934973664343 0 -0.1660443679129977 0.46995405534097329 0 -0.153768865275727 0.47640469348188008 0 -0.17213769707386509 0.48226934973664343 0 -0.15939768319280251 0.48840094722776828 0 -0.153768865275727 0.47640469348188008 0 -0.15482171351020091 0.46342421843181508 0 -0.1660443679129977 0.46995405534097329 0 -0.17213769707386509 0.48226934973664343 0 -0.15939768319280251 0.48840094722776828 0 -0.17559629394047041 0.49999999999999772 0 -0.1531617291500279 0.5 0 -0.15939768319280251 0.48840094722776828 0 -0.17559629394047041 0.49999999999999772 0 -0.17213769707386509 0.48226934973664343 0 -0.17559629394047041 0.49999999999999772 0 -0.18918035391480009 0.49120182897353748 0 -0.17559629394047041 0.49999999999999772 0 -0.18564715116575581 0.50000000000000067 0 -0.18918035391480009 0.49120182897353748 0 -0.17559629394047041 0.49999999999999772 0 -0.18918035391480009 0.49120182897353748 0 -0.18564715116575581 0.50000000000000067 0 -0.2027058877044558 0.4973204257565712 0 -0.20300707322196659 0.48220017153781441 0 -0.18564715116575581 0.50000000000000067 0 -0.20300707322196659 0.48220017153781441 0 -0.18564715116575581 0.50000000000000067 0 -0.18918035391480009 0.49120182897353748 0 -0.20300707322196659 0.48220017153781441 0 -0.18564715116575581 0.50000000000000067 0 -0.20183977687189031 0.5 0 -0.2027058877044558 0.4973204257565712 0 -0.18918035391480009 0.49120182897353748 0 -0.20300707322196659 0.48220017153781441 0 -0.2027058877044558 0.4973204257565712 0 -0.20300707322196659 0.48220017153781441 0 -0.18918035391480009 0.49120182897353748 0 -0.20300707322196659 0.48220017153781441 0 -0.19624697403693089 0.47978460404103901 0 -0.18449816443620831 0.46824027911932159 0 -0.1861770803672099 0.47714459515158392 0 -0.19357521510708589 0.47228428142443862 0 -0.1861770803672099 0.47714459515158392 0 -0.19357521510708589 0.47228428142443862 0 -0.19624697403693089 0.47978460404103901 0 -0.1861770803672099 0.47714459515158392 0 -0.18918035391480009 0.49120182897353748 0 -0.19624697403693089 0.47978460404103901 0 -0.20300707322196659 0.48220017153781441 0 -0.19624697403693089 0.47978460404103901 0 -0.20313235803842791 0.47591056541635762 0 -0.20300707322196659 0.48220017153781441 0 -0.20313235803842791 0.47591056541635762 0 -0.19357521510708589 0.47228428142443862 0 -0.19624697403693089 0.47978460404103901 0 -0.20313235803842791 0.47591056541635762 0 -0.20313235803842791 0.47591056541635762 0 -0.19467576059180239 0.46223848205786039 0 -0.19357521510708589 0.47228428142443862 0 -0.20313235803842791 0.47591056541635762 0 -0.19467576059180239 0.46223848205786039 0 -0.20544445213142229 0.47964861057833019 0 -0.2231833763186428 0.4691786336187691 0 -0.21819387438225851 0.46654235646934072 0 -0.20544445213142229 0.47964861057833019 0 -0.2231833763186428 0.4691786336187691 0 -0.20313235803842791 0.47591056541635762 0 -0.21819387438225851 0.46654235646934072 0 -0.20337299300993089 0.46383009762655131 0 -0.20313235803842791 0.47591056541635762 0 -0.20337299300993089 0.46383009762655131 0 -0.20313235803842791 0.47591056541635762 0 -0.20544445213142229 0.47964861057833019 0 -0.21819387438225851 0.46654235646934072 0 -0.20300707322196659 0.48220017153781441 0 -0.20313235803842791 0.47591056541635762 0 -0.20544445213142229 0.47964861057833019 0 -0.20313235803842791 0.47591056541635762 0 -0.20544445213142229 0.47964861057833019 0 -0.20300707322196659 0.48220017153781441 0 -0.20544445213142229 0.47964861057833019 0 -0.20544445213142229 0.47964861057833019 0 -0.21819387438225851 0.46654235646934072 0 -0.20183977687189031 0.5 0 -0.2027058877044558 0.4973204257565712 0 -0.2180324025780247 0.49999999999999989 0 -0.2027058877044558 0.4973204257565712 0 -0.20300707322196659 0.48220017153781441 0 -0.20544445213142229 0.47964861057833019 0 -0.20544445213142229 0.47964861057833019 0 -0.2180324025780247 0.49999999999999989 0 -0.2027058877044558 0.4973204257565712 0 -0.20544445213142229 0.47964861057833019 0 -0.2180324025780247 0.49999999999999989 0 -0.20544445213142229 0.47964861057833019 0 -0.2180324025780247 0.49999999999999989 0 -0.22926516867078769 0.48458931680938511 0 -0.2180324025780247 0.49999999999999989 0 -0.22926516867078769 0.48458931680938511 0 -0.23534696102293351 0.50000000000000067 0 -0.22926516867078769 0.48458931680938511 0 -0.23534696102293351 0.50000000000000067 0 -0.22926516867078769 0.48458931680938511 0 -0.2231833763186428 0.4691786336187691 0 -0.20544445213142229 0.47964861057833019 0 -0.22926516867078769 0.48458931680938511 0 -0.2231833763186428 0.4691786336187691 0 -0.22926516867078769 0.48458931680938511 0 -0.2231833763186428 0.4691786336187691 0 -0.2312483009038698 0.47263826583406859 0 -0.22926516867078769 0.48458931680938511 0 -0.2312483009038698 0.47263826583406859 0 -0.23721664183907329 0.47600542610047469 0 -0.22926516867078769 0.48458931680938511 0 -0.23721664183907329 0.47600542610047469 0 -0.24256099994576011 0.4880969360860925 0 -0.23488978011482531 0.46888248591338239 0 -0.23721664183907329 0.47600542610047469 0 -0.24127145996452801 0.46709353347628668 0 -0.2312483009038698 0.47263826583406859 0 -0.23488978011482531 0.46888248591338239 0 -0.23721664183907329 0.47600542610047469 0 -0.2538441374005192 0.46419532409276781 0 -0.25098910503429528 0.47846852912753879 0 -0.24127145996452801 0.46709353347628668 0 -0.25098910503429528 0.47846852912753879 0 -0.23721664183907329 0.47600542610047469 0 -0.24127145996452801 0.46709353347628668 0 -0.25098910503429528 0.47846852912753879 0 -0.23721664183907329 0.47600542610047469 0 -0.24256099994576011 0.4880969360860925 0 -0.26175670617293179 0.5 0 -0.24256099994576011 0.4880969360860925 0 -0.23534696102293351 0.50000000000000067 0 -0.22926516867078769 0.48458931680938511 0 -0.24256099994576011 0.4880969360860925 0 -0.23534696102293351 0.50000000000000067 0 -0.25047570145932352 0.44829845483618741 0 -0.2327745737764664 0.45155357128460849 0 -0.2478775639996767 0.43602787735303022 0 -0.25047570145932352 0.44829845483618741 0 -0.24301422012366319 0.45633452399873009 0 -0.2327745737764664 0.45155357128460849 0 -0.2327745737764664 0.45155357128460849 0 -0.2478775639996767 0.43602787735303022 0 -0.23465511725808119 0.43579847891241491 0 -0.2327745737764664 0.45155357128460849 0 -0.2478775639996767 0.43602787735303022 0 -0.2538441374005192 0.46419532409276781 0 -0.25047570145932352 0.44829845483618741 0 -0.24301422012366319 0.45633452399873009 0 -0.2538441374005192 0.46419532409276781 0 -0.24301422012366319 0.45633452399873009 0 -0.24127145996452801 0.46709353347628668 0 -0.23488978011482531 0.46888248591338239 0 -0.24127145996452801 0.46709353347628668 0 -0.23129816831329389 0.46392281702579857 0 -0.24301422012366319 0.45633452399873009 0 -0.24127145996452801 0.46709353347628668 0 -0.23129816831329389 0.46392281702579857 0 -0.24301422012366319 0.45633452399873009 0 -0.23129816831329389 0.46392281702579857 0 -0.24301422012366319 0.45633452399873009 0 -0.23129816831329389 0.46392281702579857 0 -0.2327745737764664 0.45155357128460849 0 -0.22100323620756679 0.46365436599870219 0 -0.2327745737764664 0.45155357128460849 0 -0.23129816831329389 0.46392281702579857 0 -0.2327745737764664 0.45155357128460849 0 -0.23129816831329389 0.46392281702579857 0 -0.22100323620756679 0.46365436599870219 0 -0.2327745737764664 0.45155357128460849 0 -0.2312483009038698 0.47263826583406859 0 -0.23488978011482531 0.46888248591338239 0 -0.23129816831329389 0.46392281702579857 0 -0.2231833763186428 0.4691786336187691 0 -0.2312483009038698 0.47263826583406859 0 -0.23129816831329389 0.46392281702579857 0 -0.2231833763186428 0.4691786336187691 0 -0.23129816831329389 0.46392281702579857 0 -0.2231833763186428 0.4691786336187691 0 -0.23129816831329389 0.46392281702579857 0 -0.22100323620756679 0.46365436599870219 0 -0.2231833763186428 0.4691786336187691 0 -0.22100323620756679 0.46365436599870219 0 -0.2231833763186428 0.4691786336187691 0 -0.22100323620756679 0.46365436599870219 0 -0.2209831589267017 0.46705280260818161 0 -0.2231833763186428 0.4691786336187691 0 -0.2209831589267017 0.46705280260818161 0 -0.21819387438225851 0.46654235646934072 0 -0.22100323620756679 0.46365436599870219 0 -0.2209831589267017 0.46705280260818161 0 -0.21819387438225851 0.46654235646934072 0 -0.22100323620756679 0.46365436599870219 0 -0.21819387438225851 0.46654235646934072 0 -0.2209831589267017 0.46705280260818161 0 -0.21819387438225851 0.46654235646934072 0 -0.22100323620756679 0.46365436599870219 0 -0.2246431613007614 0.44370538353613098 0 -0.21101003259456269 0.43833253880987749 0 -0.22100323620756679 0.46365436599870219 0 -0.2327745737764664 0.45155357128460849 0 -0.2246431613007614 0.44370538353613098 0 -0.2327745737764664 0.45155357128460849 0 -0.2246431613007614 0.44370538353613098 0 -0.23465511725808119 0.43579847891241491 0 -0.2327745737764664 0.45155357128460849 0 -0.23465511725808119 0.43579847891241491 0 -0.22100323620756679 0.46365436599870219 0 -0.21101003259456269 0.43833253880987749 0 -0.21179367317574779 0.45647645885686111 0 -0.22100323620756679 0.46365436599870219 0 -0.21101003259456269 0.43833253880987749 0 -0.21101003259456269 0.43833253880987749 0 -0.20377766553260901 0.44351454105931221 0 -0.21179367317574779 0.45647645885686111 0 -0.21101003259456269 0.43833253880987749 0 -0.20377766553260901 0.44351454105931221 0 -0.20377766553260901 0.44351454105931221 0 -0.21179367317574779 0.45647645885686111 0 -0.20337299300993089 0.46383009762655131 0 -0.20377766553260901 0.44351454105931221 0 -0.20337299300993089 0.46383009762655131 0 -0.22100323620756679 0.46365436599870219 0 -0.21819387438225851 0.46654235646934072 0 -0.21179367317574779 0.45647645885686111 0 -0.21819387438225851 0.46654235646934072 0 -0.21179367317574779 0.45647645885686111 0 -0.20337299300993089 0.46383009762655131 0 -0.21819387438225851 0.46654235646934072 0 -0.20337299300993089 0.46383009762655131 0 -0.20337299300993089 0.46383009762655131 0 -0.19623902183178851 0.4544520114353594 0 -0.20051516821815921 0.44585212545974728 0 -0.20337299300993089 0.46383009762655131 0 -0.19467576059180239 0.46223848205786039 0 -0.20313235803842791 0.47591056541635762 0 -0.20337299300993089 0.46383009762655131 0 -0.19467576059180239 0.46223848205786039 0 -0.20337299300993089 0.46383009762655131 0 -0.19623902183178851 0.4544520114353594 0 -0.19467576059180239 0.46223848205786039 0 -0.19467576059180239 0.46223848205786039 0 -0.18862269814072019 0.45245227963688373 0 -0.19623902183178851 0.4544520114353594 0 -0.19467576059180239 0.46223848205786039 0 -0.18862269814072019 0.45245227963688373 0 -0.18449816443620831 0.46824027911932159 0 -0.19357521510708589 0.47228428142443862 0 -0.19467576059180239 0.46223848205786039 0 -0.20377766553260901 0.44351454105931221 0 -0.20337299300993089 0.46383009762655131 0 -0.20051516821815921 0.44585212545974728 0 -0.20377766553260901 0.44351454105931221 0 -0.19678485396909939 0.44277251349788882 0 -0.1959561059721672 0.43706985453919539 0 -0.19678485396909939 0.44277251349788882 0 -0.20051516821815921 0.44585212545974728 0 -0.1929870080971999 0.4472305280182437 0 -0.20377766553260901 0.44351454105931221 0 -0.19678485396909939 0.44277251349788882 0 -0.20051516821815921 0.44585212545974728 0 -0.20377766553260901 0.44351454105931221 0 -0.20051516821815921 0.44585212545974728 0 -0.19623902183178851 0.4544520114353594 0 -0.20051516821815921 0.44585212545974728 0 -0.1929870080971999 0.4472305280182437 0 -0.18315223149483401 0.44607518492651488 0 -0.1929870080971999 0.4472305280182437 0 -0.18862269814072019 0.45245227963688373 0 -0.19623902183178851 0.4544520114353594 0 -0.1929870080971999 0.4472305280182437 0 -0.18862269814072019 0.45245227963688373 0 -0.18315223149483401 0.44607518492651488 0 -0.1929870080971999 0.4472305280182437 0 -0.19068832202536251 0.4401955184129458 0 -0.19678485396909939 0.44277251349788882 0 -0.1929870080971999 0.4472305280182437 0 -0.19068832202536251 0.4401955184129458 0 -0.19678485396909939 0.44277251349788882 0 -0.19068832202536251 0.4401955184129458 0 -0.1959561059721672 0.43706985453919539 0 -0.19068832202536251 0.4401955184129458 0 -0.18968369473282751 0.43121728137407828 0 -0.1959561059721672 0.43706985453919539 0 -0.19068832202536251 0.4401955184129458 0 -0.18968369473282751 0.43121728137407828 0 -0.1822137837236649 0.43653078766584902 0 -0.18968369473282751 0.43121728137407828 0 -0.19805148097668501 0.4300818747166959 0 -0.1959561059721672 0.43706985453919539 0 -0.20377766553260901 0.44351454105931221 0 -0.19805148097668501 0.4300818747166959 0 -0.20422343254502889 0.42113593997041449 0 -0.18968369473282751 0.43121728137407828 0 -0.1934366741931948 0.42239406227451598 0 -0.1871034108899538 0.42490528297843883 0 -0.1934366741931948 0.42239406227451598 0 -0.18407172543391909 0.41839536844202158 0 -0.1871034108899538 0.42490528297843883 0 -0.18968369473282751 0.43121728137407828 0 -0.1934366741931948 0.42239406227451598 0 -0.19805148097668501 0.4300818747166959 0 -0.1934366741931948 0.42239406227451598 0 -0.19805148097668501 0.4300818747166959 0 -0.20422343254502889 0.42113593997041449 0 -0.20377766553260901 0.44351454105931221 0 -0.19805148097668501 0.4300818747166959 0 -0.1959561059721672 0.43706985453919539 0 -0.19180135020405231 0.41304686180635353 0 -0.1983824670458777 0.40633548911270401 0 -0.18867256025651291 0.40181004420432842 0 -0.1934366741931948 0.42239406227451598 0 -0.19180135020405231 0.41304686180635353 0 -0.18407172543391909 0.41839536844202158 0 -0.1983824670458777 0.40633548911270401 0 -0.2042835375567541 0.41811852045897308 0 -0.20422343254502889 0.42113593997041449 0 -0.1934366741931948 0.42239406227451598 0 -0.19180135020405231 0.41304686180635353 0 -0.20422343254502889 0.42113593997041449 0 -0.1983824670458777 0.40633548911270401 0 -0.20422343254502889 0.42113593997041449 0 -0.19180135020405231 0.41304686180635353 0 -0.1983824670458777 0.40633548911270401 0 -0.20422343254502889 0.42113593997041449 0 -0.1983824670458777 0.40633548911270401 0 -0.20735772026178401 0.40920976037325202 0 -0.2042835375567541 0.41811852045897308 0 -0.21057777313390019 0.41677234085982429 0 -0.20422343254502889 0.42113593997041449 0 -0.2136908783521255 0.42470843168077671 0 -0.20735772026178401 0.40920976037325202 0 -0.21057777313390019 0.41677234085982429 0 -0.2042835375567541 0.41811852045897308 0 -0.21057777313390019 0.41677234085982429 0 -0.2042835375567541 0.41811852045897308 0 -0.20422343254502889 0.42113593997041449 0 -0.2042835375567541 0.41811852045897308 0 -0.20422343254502889 0.42113593997041449 0 -0.21057777313390019 0.41677234085982429 0 -0.2136908783521255 0.42470843168077671 0 -0.21887030682000569 0.41811337608871513 0 -0.21057777313390019 0.41677234085982429 0 -0.21595674190496419 0.40635786823828818 0 -0.21887030682000569 0.41811337608871513 0 -0.20735772026178401 0.40920976037325202 0 -0.21057777313390019 0.41677234085982429 0 -0.21595674190496419 0.40635786823828818 0 -0.21101003259456269 0.43833253880987749 0 -0.20422343254502889 0.42113593997041449 0 -0.20377766553260901 0.44351454105931221 0 -0.20422343254502889 0.42113593997041449 0 -0.21101003259456269 0.43833253880987749 0 -0.20422343254502889 0.42113593997041449 0 -0.2136908783521255 0.42470843168077671 0 -0.21101003259456269 0.43833253880987749 0 -0.20377766553260901 0.44351454105931221 0 -0.20422343254502889 0.42113593997041449 0 -0.21101003259456269 0.43833253880987749 0 -0.2237728466671309 0.42918796267505149 0 -0.21101003259456269 0.43833253880987749 0 -0.2136908783521255 0.42470843168077671 0 -0.2237728466671309 0.42918796267505149 0 -0.2237728466671309 0.42918796267505149 0 -0.23653566073969581 0.42004338654022111 0 -0.23465511725808119 0.43579847891241491 0 -0.2246431613007614 0.44370538353613098 0 -0.21101003259456269 0.43833253880987749 0 -0.2237728466671309 0.42918796267505149 0 -0.2246431613007614 0.44370538353613098 0 -0.2237728466671309 0.42918796267505149 0 -0.23465511725808119 0.43579847891241491 0 -0.2237728466671309 0.42918796267505149 0 -0.23653566073969581 0.42004338654022111 0 -0.2237728466671309 0.42918796267505149 0 -0.2268836525306531 0.4178582563497793 0 -0.23653566073969581 0.42004338654022111 0 -0.2136908783521255 0.42470843168077671 0 -0.2237728466671309 0.42918796267505149 0 -0.21887030682000569 0.41811337608871513 0 -0.21887030682000569 0.41811337608871513 0 -0.22526363842119121 0.40928573225377579 0 -0.2268836525306531 0.4178582563497793 0 -0.2237728466671309 0.42918796267505149 0 -0.21887030682000569 0.41811337608871513 0 -0.2268836525306531 0.4178582563497793 0 -0.21595674190496419 0.40635786823828818 0 -0.21887030682000569 0.41811337608871513 0 -0.22526363842119121 0.40928573225377579 0 -0.23215934852406131 0.4110305528300412 0 -0.23820451124790659 0.40606184653899569 0 -0.23244858498933019 0.40219792238047147 0 -0.22526363842119121 0.40928573225377579 0 -0.23215934852406131 0.4110305528300412 0 -0.2268836525306531 0.4178582563497793 0 -0.22526363842119121 0.40928573225377579 0 -0.23215934852406131 0.4110305528300412 0 -0.23244858498933019 0.40219792238047147 0 -0.23215934852406131 0.4110305528300412 0 -0.2268836525306531 0.4178582563497793 0 -0.23653566073969581 0.42004338654022111 0 -0.25978981881287472 0.40274904928575922 0 -0.23653566073969581 0.42004338654022111 0 -0.25978981881287472 0.40274904928575922 0 -0.23653566073969581 0.42004338654022111 0 -0.23820451124790659 0.40606184653899569 0 -0.25978981881287472 0.40274904928575922 0 -0.2518299334140468 0.41996441296360842 0 -0.23653566073969581 0.42004338654022111 0 -0.23215934852406131 0.4110305528300412 0 -0.23653566073969581 0.42004338654022111 0 -0.23820451124790659 0.40606184653899569 0 -0.23653566073969581 0.42004338654022111 0 -0.23820451124790659 0.40606184653899569 0 -0.23215934852406131 0.4110305528300412 0 -0.23820451124790659 0.40606184653899569 0 -0.2518299334140468 0.41996441296360842 0 -0.23653566073969581 0.42004338654022111 0 -0.2478775639996767 0.43602787735303022 0 -0.23653566073969581 0.42004338654022111 0 -0.23465511725808119 0.43579847891241491 0 -0.23653566073969581 0.42004338654022111 0 -0.2478775639996767 0.43602787735303022 0 -0.23465511725808119 0.43579847891241491 0 -0.2405405859788288 0.38649033780556008 0 -0.22586163257625891 0.38591428848175652 0 -0.2367744974747035 0.3708953976905594 0 -0.25207376591612241 0.37475543941028922 0 -0.25064852575760788 0.38469994987524803 0 -0.2405405859788288 0.38649033780556008 0 -0.25207376591612241 0.37475543941028922 0 -0.2405405859788288 0.38649033780556008 0 -0.2367744974747035 0.3708953976905594 0 -0.2517814801222712 0.39490251572507368 0 -0.25064852575760788 0.38469994987524803 0 -0.2405405859788288 0.38649033780556008 0 -0.25978981881287472 0.40274904928575922 0 -0.2517814801222712 0.39490251572507368 0 -0.23820451124790659 0.40606184653899569 0 -0.2517814801222712 0.39490251572507368 0 -0.2405405859788288 0.38649033780556008 0 -0.23820451124790659 0.40606184653899569 0 -0.2405405859788288 0.38649033780556008 0 -0.23820451124790659 0.40606184653899569 0 -0.2405405859788288 0.38649033780556008 0 -0.23820451124790659 0.40606184653899569 0 -0.23244858498933019 0.40219792238047147 0 -0.2517814801222712 0.39490251572507368 0 -0.23820451124790659 0.40606184653899569 0 -0.2405405859788288 0.38649033780556008 0 -0.23244858498933019 0.40219792238047147 0 -0.22607484077466319 0.39812114247398461 0 -0.22526363842119121 0.40928573225377579 0 -0.23244858498933019 0.40219792238047147 0 -0.22607484077466319 0.39812114247398461 0 -0.21595674190496419 0.40635786823828818 0 -0.22526363842119121 0.40928573225377579 0 -0.22607484077466319 0.39812114247398461 0 -0.21595674190496419 0.40635786823828818 0 -0.22607484077466319 0.39812114247398461 0 -0.21778417312926451 0.39606560655835188 0 -0.22607484077466319 0.39812114247398461 0 -0.22586163257625891 0.38591428848175652 0 -0.21778417312926451 0.39606560655835188 0 -0.22586163257625891 0.38591428848175652 0 -0.21940001974791709 0.37519778804569109 0 -0.21102711482777459 0.38910018345532049 0 -0.22586163257625891 0.38591428848175652 0 -0.21940001974791709 0.37519778804569109 0 -0.2367744974747035 0.3708953976905594 0 -0.2405405859788288 0.38649033780556008 0 -0.22607484077466319 0.39812114247398461 0 -0.22586163257625891 0.38591428848175652 0 -0.21940001974791709 0.37519778804569109 0 -0.1958669187474586 0.37589616792583641 0 -0.21940001974791709 0.37519778804569109 0 -0.21102711482777459 0.38910018345532049 0 -0.20385355333181629 0.38231752022672422 0 -0.21940001974791709 0.37519778804569109 0 -0.20385355333181629 0.38231752022672422 0 -0.1958669187474586 0.37589616792583641 0 -0.22586163257625891 0.38591428848175652 0 -0.21102711482777459 0.38910018345532049 0 -0.21778417312926451 0.39606560655835188 0 -0.21102711482777459 0.38910018345532049 0 -0.20385355333181629 0.38231752022672422 0 -0.2005982233636481 0.38834601974443972 0 -0.21595674190496419 0.40635786823828818 0 -0.21778417312926451 0.39606560655835188 0 -0.20866141383211709 0.40060352752766393 0 -0.21102711482777459 0.38910018345532049 0 -0.21778417312926451 0.39606560655835188 0 -0.20866141383211709 0.40060352752766393 0 -0.21102711482777459 0.38910018345532049 0 -0.20181493719413271 0.39561307801374751 0 -0.2005982233636481 0.38834601974443972 0 -0.21102711482777459 0.38910018345532049 0 -0.20866141383211709 0.40060352752766393 0 -0.20181493719413271 0.39561307801374751 0 -0.1983824670458777 0.40633548911270401 0 -0.20735772026178401 0.40920976037325202 0 -0.20866141383211709 0.40060352752766393 0 -0.20735772026178401 0.40920976037325202 0 -0.21595674190496419 0.40635786823828818 0 -0.20866141383211709 0.40060352752766393 0 -0.1983824670458777 0.40633548911270401 0 -0.20866141383211709 0.40060352752766393 0 -0.20181493719413271 0.39561307801374751 0 -0.1983824670458777 0.40633548911270401 0 -0.19254150154672681 0.39153503825499342 0 -0.20181493719413271 0.39561307801374751 0 -0.19254150154672681 0.39153503825499342 0 -0.2005982233636481 0.38834601974443972 0 -0.1983824670458777 0.40633548911270401 0 -0.20181493719413271 0.39561307801374751 0 -0.19254150154672681 0.39153503825499342 0 -0.19254150154672681 0.39153503825499342 0 -0.18867256025651291 0.40181004420432842 0 -0.18303769885073101 0.39627328402172929 0 -0.1983824670458777 0.40633548911270401 0 -0.19254150154672681 0.39153503825499342 0 -0.18867256025651291 0.40181004420432842 0 -0.20385355333181629 0.38231752022672422 0 -0.1958669187474586 0.37589616792583641 0 -0.19375400991779021 0.38316427877141312 0 -0.20385355333181629 0.38231752022672422 0 -0.2005982233636481 0.38834601974443972 0 -0.19375400991779021 0.38316427877141312 0 -0.19254150154672681 0.39153503825499342 0 -0.2005982233636481 0.38834601974443972 0 -0.19375400991779021 0.38316427877141312 0 -0.19254150154672681 0.39153503825499342 0 -0.19375400991779021 0.38316427877141312 0 -0.18304776420859681 0.38602022499877869 0 -0.1958669187474586 0.37589616792583641 0 -0.19375400991779021 0.38316427877141312 0 -0.18304776420859681 0.38602022499877869 0 -0.1958669187474586 0.37589616792583641 0 -0.19375400991779021 0.38316427877141312 0 -0.18304776420859681 0.38602022499877869 0 -0.1668383770042314 0.37675763320841932 0 -0.17037579849534151 0.3961088544862903 0 -0.1958669187474586 0.37589616792583641 0 -0.18304776420859681 0.38602022499877869 0 -0.1668383770042314 0.37675763320841932 0 -0.1958669187474586 0.37589616792583641 0 -0.1668383770042314 0.37675763320841932 0 -0.1668383770042314 0.37675763320841932 0 -0.17037579849534151 0.3961088544862903 0 -0.15300147296913111 0.39036598132963402 0 -0.17037579849534151 0.3961088544862903 0 -0.15828345579693431 0.40896623608666882 0 -0.15300147296913111 0.39036598132963402 0 -0.17037579849534151 0.3961088544862903 0 -0.17074809084545209 0.41293747295945682 0 -0.15828345579693431 0.40896623608666882 0 -0.17037579849534151 0.3961088544862903 0 -0.18055086974647699 0.40589225816425561 0 -0.17074809084545209 0.41293747295945682 0 -0.17037579849534151 0.3961088544862903 0 -0.18303769885073101 0.39627328402172929 0 -0.18055086974647699 0.40589225816425561 0 -0.18304776420859681 0.38602022499877869 0 -0.17037579849534151 0.3961088544862903 0 -0.18303769885073101 0.39627328402172929 0 -0.19254150154672681 0.39153503825499342 0 -0.18304776420859681 0.38602022499877869 0 -0.18303769885073101 0.39627328402172929 0 -0.18867256025651291 0.40181004420432842 0 -0.18303769885073101 0.39627328402172929 0 -0.18055086974647699 0.40589225816425561 0 -0.19180135020405231 0.41304686180635353 0 -0.18867256025651291 0.40181004420432842 0 -0.18055086974647699 0.40589225816425561 0 -0.19180135020405231 0.41304686180635353 0 -0.18055086974647699 0.40589225816425561 0 -0.18407172543391909 0.41839536844202158 0 -0.18407172543391909 0.41839536844202158 0 -0.17167535648701729 0.42477455418688231 0 -0.17074809084545209 0.41293747295945682 0 -0.18055086974647699 0.40589225816425561 0 -0.18407172543391909 0.41839536844202158 0 -0.17074809084545209 0.41293747295945682 0 -0.18968369473282751 0.43121728137407828 0 -0.1822137837236649 0.43653078766584902 0 -0.18122154919987399 0.42761441982313941 0 -0.18407172543391909 0.41839536844202158 0 -0.18122154919987399 0.42761441982313941 0 -0.1871034108899538 0.42490528297843883 0 -0.18968369473282751 0.43121728137407828 0 -0.18122154919987399 0.42761441982313941 0 -0.1871034108899538 0.42490528297843883 0 -0.18407172543391909 0.41839536844202158 0 -0.18122154919987399 0.42761441982313941 0 -0.17167535648701729 0.42477455418688231 0 -0.18122154919987399 0.42761441982313941 0 -0.17504857329839901 0.43275861270303012 0 -0.17167535648701729 0.42477455418688231 0 -0.1822137837236649 0.43653078766584902 0 -0.18122154919987399 0.42761441982313941 0 -0.17504857329839901 0.43275861270303012 0 -0.1736161744262894 0.44217550981888187 0 -0.17504857329839901 0.43275861270303012 0 -0.16729889150648281 0.43435965771143392 0 -0.1736161744262894 0.44217550981888187 0 -0.1822137837236649 0.43653078766584902 0 -0.17504857329839901 0.43275861270303012 0 -0.17504857329839901 0.43275861270303012 0 -0.16729889150648281 0.43435965771143392 0 -0.17167535648701729 0.42477455418688231 0 -0.16729889150648281 0.43435965771143392 0 -0.17167535648701729 0.42477455418688231 0 -0.16204132650814901 0.42228574621133491 0 -0.16729889150648281 0.43435965771143392 0 -0.16204132650814901 0.42228574621133491 0 -0.15433433358722209 0.43133910227448807 0 -0.15847898142472011 0.43872288433626788 0 -0.16729889150648281 0.43435965771143392 0 -0.15433433358722209 0.43133910227448807 0 -0.17167535648701729 0.42477455418688231 0 -0.16204132650814901 0.42228574621133491 0 -0.17074809084545209 0.41293747295945682 0 -0.16204132650814901 0.42228574621133491 0 -0.17074809084545209 0.41293747295945682 0 -0.15828345579693431 0.40896623608666882 0 -0.16204132650814901 0.42228574621133491 0 -0.15828345579693431 0.40896623608666882 0 -0.15026575271497969 0.41893138449417339 0 -0.15828345579693431 0.40896623608666882 0 -0.15026575271497969 0.41893138449417339 0 -0.1419054666834583 0.4039637388268994 0 -0.15026575271497969 0.41893138449417339 0 -0.140878277921867 0.41882558978140699 0 -0.1419054666834583 0.4039637388268994 0 -0.15433433358722209 0.43133910227448807 0 -0.1441516557922477 0.42820789378424268 0 -0.14690829342226269 0.43487464608378712 0 -0.1511481773586158 0.43896487449238369 0 -0.15433433358722209 0.43133910227448807 0 -0.14690829342226269 0.43487464608378712 0 -0.1511481773586158 0.43896487449238369 0 -0.15847898142472011 0.43872288433626788 0 -0.15433433358722209 0.43133910227448807 0 -0.16204132650814901 0.42228574621133491 0 -0.15026575271497969 0.41893138449417339 0 -0.15433433358722209 0.43133910227448807 0 -0.15026575271497969 0.41893138449417339 0 -0.15433433358722209 0.43133910227448807 0 -0.1441516557922477 0.42820789378424268 0 -0.15026575271497969 0.41893138449417339 0 -0.140878277921867 0.41882558978140699 0 -0.1441516557922477 0.42820789378424268 0 -0.1441516557922477 0.42820789378424268 0 -0.14690829342226269 0.43487464608378712 0 -0.13995312146935249 0.43618282804812081 0 -0.1449541789038758 0.43967853181970051 0 -0.14690829342226269 0.43487464608378712 0 -0.13995312146935249 0.43618282804812081 0 -0.1441516557922477 0.42820789378424268 0 -0.13995312146935249 0.43618282804812081 0 -0.13326097338784809 0.42716341172911848 0 -0.132912812236476 0.43527140001113562 0 -0.13995312146935249 0.43618282804812081 0 -0.13326097338784809 0.42716341172911848 0 -0.13393562983705831 0.44040169697121079 0 -0.132912812236476 0.43527140001113562 0 -0.13995312146935249 0.43618282804812081 0 -0.140878277921867 0.41882558978140699 0 -0.1441516557922477 0.42820789378424268 0 -0.13326097338784809 0.42716341172911848 0 -0.13326097338784809 0.42716341172911848 0 -0.12978557415322589 0.41426576889006111 0 -0.1227193297556799 0.42476817897396668 0 -0.13326097338784809 0.42716341172911848 0 -0.12582028798773601 0.43557595697160212 0 -0.1227193297556799 0.42476817897396668 0 -0.132912812236476 0.43527140001113562 0 -0.13326097338784809 0.42716341172911848 0 -0.12582028798773601 0.43557595697160212 0 -0.12958539990051529 0.43975039999026672 0 -0.132912812236476 0.43527140001113562 0 -0.12582028798773601 0.43557595697160212 0 -0.140878277921867 0.41882558978140699 0 -0.12978557415322589 0.41426576889006111 0 -0.1419054666834583 0.4039637388268994 0 -0.140878277921867 0.41882558978140699 0 -0.13326097338784809 0.42716341172911848 0 -0.12978557415322589 0.41426576889006111 0 -0.13780983526100399 0.37761909849100239 0 -0.1419054666834583 0.4039637388268994 0 -0.1247521518573156 0.39928047957912749 0 -0.12978557415322589 0.41426576889006111 0 -0.1419054666834583 0.4039637388268994 0 -0.1247521518573156 0.39928047957912749 0 -0.13780983526100399 0.37761909849100239 0 -0.11916959206772031 0.38337544894601627 0 -0.1247521518573156 0.39928047957912749 0 -0.1668383770042314 0.37675763320841932 0 -0.13780983526100399 0.37761909849100239 0 -0.1668383770042314 0.37675763320841932 0 -0.13780983526100399 0.37761909849100239 0 -0.15300147296913111 0.39036598132963402 0 -0.13780983526100399 0.37761909849100239 0 -0.15300147296913111 0.39036598132963402 0 -0.1419054666834583 0.4039637388268994 0 -0.15828345579693431 0.40896623608666882 0 -0.15300147296913111 0.39036598132963402 0 -0.1419054666834583 0.4039637388268994 0 -0.15106532664544639 0.3604062938787761 0 -0.13318469579337719 0.3514936482335298 0 -0.15493664822140221 0.34260344582229979 0 -0.1668383770042314 0.37675763320841932 0 -0.13780983526100399 0.37761909849100239 0 -0.15106532664544639 0.3604062938787761 0 -0.13780983526100399 0.37761909849100239 0 -0.15106532664544639 0.3604062938787761 0 -0.13318469579337719 0.3514936482335298 0 -0.13780983526100399 0.37761909849100239 0 -0.13318469579337719 0.3514936482335298 0 -0.1108752042995866 0.36493926216963751 0 -0.13318469579337719 0.3514936482335298 0 -0.13831219433664821 0.33161104637173239 0 -0.1172582106311677 0.34431557716721062 0 -0.13831219433664821 0.33161104637173239 0 -0.13253179364574719 0.31282949071043931 0 -0.15045161757297729 0.31615807679644048 0 -0.13831219433664821 0.33161104637173239 0 -0.13253179364574719 0.31282949071043931 0 -0.1160963406131106 0.32766670265155762 0 -0.13831219433664821 0.33161104637173239 0 -0.15045161757297729 0.31615807679644048 0 -0.1555111526406977 0.32915883480520702 0 -0.13318469579337719 0.3514936482335298 0 -0.13831219433664821 0.33161104637173239 0 -0.15493664822140221 0.34260344582229979 0 -0.13831219433664821 0.33161104637173239 0 -0.1555111526406977 0.32915883480520702 0 -0.15493664822140221 0.34260344582229979 0 -0.15493664822140221 0.34260344582229979 0 -0.16994690125192519 0.33103620750514412 0 -0.17217536721272581 0.35002885398903782 0 -0.1555111526406977 0.32915883480520702 0 -0.15493664822140221 0.34260344582229979 0 -0.16994690125192519 0.33103620750514412 0 -0.15045161757297729 0.31615807679644048 0 -0.1555111526406977 0.32915883480520702 0 -0.16814297346184071 0.3117745278086424 0 -0.1555111526406977 0.32915883480520702 0 -0.16994690125192519 0.33103620750514412 0 -0.16814297346184071 0.3117745278086424 0 -0.16994690125192519 0.33103620750514412 0 -0.18731870024529571 0.32555677684796819 0 -0.16814297346184071 0.3117745278086424 0 -0.18731870024529571 0.32555677684796819 0 -0.16814297346184071 0.3117745278086424 0 -0.18731870024529571 0.32555677684796819 0 -0.18764608293861029 0.31326390200387261 0 -0.16814297346184071 0.3117745278086424 0 -0.16994690125192519 0.33103620750514412 0 -0.18731870024529571 0.32555677684796819 0 -0.17998715596143849 0.33675684090721841 0 -0.18731870024529571 0.32555677684796819 0 -0.17998715596143849 0.33675684090721841 0 -0.18896120454558091 0.34595306227004918 0 -0.16994690125192519 0.33103620750514412 0 -0.17998715596143849 0.33675684090721841 0 -0.17217536721272581 0.35002885398903782 0 -0.17217536721272581 0.35002885398903782 0 -0.182683583674702 0.36215198235178819 0 -0.18896120454558091 0.34595306227004918 0 -0.17998715596143849 0.33675684090721841 0 -0.17217536721272581 0.35002885398903782 0 -0.18896120454558091 0.34595306227004918 0 -0.15106532664544639 0.3604062938787761 0 -0.15493664822140221 0.34260344582229979 0 -0.17217536721272581 0.35002885398903782 0 -0.1668383770042314 0.37675763320841932 0 -0.15106532664544639 0.3604062938787761 0 -0.17217536721272581 0.35002885398903782 0 -0.1958669187474586 0.37589616792583641 0 -0.1668383770042314 0.37675763320841932 0 -0.182683583674702 0.36215198235178819 0 -0.1668383770042314 0.37675763320841932 0 -0.17217536721272581 0.35002885398903782 0 -0.182683583674702 0.36215198235178819 0 -0.1958669187474586 0.37589616792583641 0 -0.182683583674702 0.36215198235178819 0 -0.19324022449944339 0.36522089806925051 0 -0.1958669187474586 0.37589616792583641 0 -0.20118067288810551 0.35761759690656492 0 -0.1958669187474586 0.37589616792583641 0 -0.19324022449944339 0.36522089806925051 0 -0.20118067288810551 0.35761759690656492 0 -0.1958669187474586 0.37589616792583641 0 -0.20118067288810551 0.35761759690656492 0 -0.2080578303445326 0.36707894866537338 0 -0.19324022449944339 0.36522089806925051 0 -0.18896120454558091 0.34595306227004918 0 -0.20118067288810551 0.35761759690656492 0 -0.18896120454558091 0.34595306227004918 0 -0.20118067288810551 0.35761759690656492 0 -0.2064944270287512 0.33933902588729309 0 -0.182683583674702 0.36215198235178819 0 -0.19324022449944339 0.36522089806925051 0 -0.18896120454558091 0.34595306227004918 0 -0.20118067288810551 0.35761759690656492 0 -0.2064944270287512 0.33933902588729309 0 -0.20118067288810551 0.35761759690656492 0 -0.2154926198005877 0.3458063340152091 0 -0.2064944270287512 0.33933902588729309 0 -0.20118067288810551 0.35761759690656492 0 -0.2154926198005877 0.3458063340152091 0 -0.21578370999464941 0.35960424178340111 0 -0.2154926198005877 0.3458063340152091 0 -0.21578370999464941 0.35960424178340111 0 -0.22492832379853581 0.3480876822095923 0 -0.21940001974791709 0.37519778804569109 0 -0.1958669187474586 0.37589616792583641 0 -0.2080578303445326 0.36707894866537338 0 -0.20118067288810551 0.35761759690656492 0 -0.2080578303445326 0.36707894866537338 0 -0.21578370999464941 0.35960424178340111 0 -0.21940001974791709 0.37519778804569109 0 -0.2080578303445326 0.36707894866537338 0 -0.21578370999464941 0.35960424178340111 0 -0.2272870924982546 0.3618655461126527 0 -0.23685146514321151 0.35458463885641911 0 -0.2367744974747035 0.3708953976905594 0 -0.21940001974791709 0.37519778804569109 0 -0.2272870924982546 0.3618655461126527 0 -0.2367744974747035 0.3708953976905594 0 -0.21940001974791709 0.37519778804569109 0 -0.21578370999464941 0.35960424178340111 0 -0.2272870924982546 0.3618655461126527 0 -0.21578370999464941 0.35960424178340111 0 -0.2272870924982546 0.3618655461126527 0 -0.22492832379853581 0.3480876822095923 0 -0.22492832379853581 0.3480876822095923 0 -0.23685146514321151 0.35458463885641911 0 -0.23261966461080691 0.34099854669676322 0 -0.2272870924982546 0.3618655461126527 0 -0.22492832379853581 0.3480876822095923 0 -0.23685146514321151 0.35458463885641911 0 -0.23685146514321151 0.35458463885641911 0 -0.24531804091642909 0.34677646153151481 0 -0.23261966461080691 0.34099854669676322 0 -0.23685146514321151 0.35458463885641911 0 -0.24531804091642909 0.34677646153151481 0 -0.24781565924486029 0.35925588195421643 0 -0.23685146514321151 0.35458463885641911 0 -0.24781565924486029 0.35925588195421643 0 -0.2367744974747035 0.3708953976905594 0 -0.25207376591612241 0.37475543941028922 0 -0.24781565924486029 0.35925588195421643 0 -0.2367744974747035 0.3708953976905594 0 -0.2386891688545518 0.32541161853814132 0 -0.23206029679267459 0.304046775544768 0 -0.24724126437382779 0.31100423139068861 0 -0.2386891688545518 0.32541161853814132 0 -0.23206029679267459 0.304046775544768 0 -0.25635578808319709 0.33248488659275199 0 -0.2386891688545518 0.32541161853814132 0 -0.24724126437382779 0.31100423139068861 0 -0.24531804091642909 0.34677646153151481 0 -0.2386891688545518 0.32541161853814132 0 -0.23261966461080691 0.34099854669676322 0 -0.24531804091642909 0.34677646153151481 0 -0.2386891688545518 0.32541161853814132 0 -0.25635578808319709 0.33248488659275199 0 -0.24531804091642909 0.34677646153151481 0 -0.2386891688545518 0.32541161853814132 0 -0.2386891688545518 0.32541161853814132 0 -0.23261966461080691 0.34099854669676322 0 -0.2224775869731016 0.33372414401907369 0 -0.22492832379853581 0.3480876822095923 0 -0.23261966461080691 0.34099854669676322 0 -0.2224775869731016 0.33372414401907369 0 -0.2154926198005877 0.3458063340152091 0 -0.22492832379853581 0.3480876822095923 0 -0.2224775869731016 0.33372414401907369 0 -0.2224775869731016 0.33372414401907369 0 -0.22621333204474489 0.31709296688604999 0 -0.21240438453927979 0.31900959866544282 0 -0.2386891688545518 0.32541161853814132 0 -0.22621333204474489 0.31709296688604999 0 -0.23206029679267459 0.304046775544768 0 -0.2386891688545518 0.32541161853814132 0 -0.2224775869731016 0.33372414401907369 0 -0.22621333204474489 0.31709296688604999 0 -0.21240438453927979 0.31900959866544282 0 -0.2064944270287512 0.33933902588729309 0 -0.20121812214341939 0.32490128929293371 0 -0.21240438453927979 0.31900959866544282 0 -0.1982759822545534 0.31535376373388191 0 -0.20121812214341939 0.32490128929293371 0 -0.21240438453927979 0.31900959866544282 0 -0.1982759822545534 0.31535376373388191 0 -0.20403268621352169 0.30355726673911732 0 -0.21240438453927979 0.31900959866544282 0 -0.2064944270287512 0.33933902588729309 0 -0.2154926198005877 0.3458063340152091 0 -0.2224775869731016 0.33372414401907369 0 -0.2064944270287512 0.33933902588729309 0 -0.2224775869731016 0.33372414401907369 0 -0.21240438453927979 0.31900959866544282 0 -0.2064944270287512 0.33933902588729309 0 -0.2154926198005877 0.3458063340152091 0 -0.2064944270287512 0.33933902588729309 0 -0.18731870024529571 0.32555677684796819 0 -0.18896120454558091 0.34595306227004918 0 -0.2064944270287512 0.33933902588729309 0 -0.18731870024529571 0.32555677684796819 0 -0.2064944270287512 0.33933902588729309 0 -0.18731870024529571 0.32555677684796819 0 -0.2064944270287512 0.33933902588729309 0 -0.20121812214341939 0.32490128929293371 0 -0.18731870024529571 0.32555677684796819 0 -0.1982759822545534 0.31535376373388191 0 -0.20121812214341939 0.32490128929293371 0 -0.18731870024529571 0.32555677684796819 0 -0.1982759822545534 0.31535376373388191 0 -0.18764608293861029 0.31326390200387261 0 -0.1982759822545534 0.31535376373388191 0 -0.18764608293861029 0.31326390200387261 0 -0.19057421272114619 0.29993472301738672 0 -0.1982759822545534 0.31535376373388191 0 -0.19057421272114619 0.29993472301738672 0 -0.20403268621352169 0.30355726673911732 0 -0.19057421272114619 0.29993472301738672 0 -0.2001597999871533 0.28343023632764702 0 -0.20403268621352169 0.30355726673911732 0 -0.2001597999871533 0.28343023632764702 0 -0.19864896352875491 0.27856081308021829 0 -0.1748881752435085 0.28417854010389948 0 -0.2001597999871533 0.28343023632764702 0 -0.1748881752435085 0.28417854010389948 0 -0.19057421272114619 0.29993472301738672 0 -0.2001597999871533 0.28343023632764702 0 -0.1748881752435085 0.28417854010389948 0 -0.2001597999871533 0.28343023632764702 0 -0.22543142473079811 0.2826819325513944 0 -0.2001597999871533 0.28343023632764702 0 -0.2183143420498081 0.29868017144359232 0 -0.20403268621352169 0.30355726673911732 0 -0.2001597999871533 0.28343023632764702 0 -0.2183143420498081 0.29868017144359232 0 -0.22543142473079811 0.2826819325513944 0 -0.21240438453927979 0.31900959866544282 0 -0.2183143420498081 0.29868017144359232 0 -0.21240438453927979 0.31900959866544282 0 -0.2183143420498081 0.29868017144359232 0 -0.20403268621352169 0.30355726673911732 0 -0.22621333204474489 0.31709296688604999 0 -0.21240438453927979 0.31900959866544282 0 -0.2183143420498081 0.29868017144359232 0 -0.22621333204474489 0.31709296688604999 0 -0.2183143420498081 0.29868017144359232 0 -0.23206029679267459 0.304046775544768 0 -0.2183143420498081 0.29868017144359232 0 -0.23206029679267459 0.304046775544768 0 -0.22543142473079811 0.2826819325513944 0 -0.23206029679267459 0.304046775544768 0 -0.22543142473079811 0.2826819325513944 0 -0.23932070999576571 0.29388648509867482 0 -0.23206029679267459 0.304046775544768 0 -0.22543142473079811 0.2826819325513944 0 -0.22543142473079811 0.2826819325513944 0 -0.24357244021055369 0.28214476921004727 0 -0.22543142473079811 0.2826819325513944 0 -0.23932070999576571 0.29388648509867482 0 -0.24357244021055369 0.28214476921004727 0 -0.25176489436465621 0.29492925891002708 0 -0.23932070999576571 0.29388648509867482 0 -0.24357244021055369 0.28214476921004727 0 -0.25176489436465621 0.29492925891002708 0 -0.23932070999576571 0.29388648509867482 0 -0.24724126437382779 0.31100423139068861 0 -0.23206029679267459 0.304046775544768 0 -0.23932070999576571 0.29388648509867482 0 -0.24724126437382779 0.31100423139068861 0 -0.25265335745042522 0.25109173675386448 0 -0.24282897534573911 0.25765759540843941 0 -0.24907532666845869 0.26731703869254703 0 -0.23910839462952951 0.26496549555304938 0 -0.24282897534573911 0.25765759540843941 0 -0.2314953657357702 0.25921239392308237 0 -0.24282897534573911 0.25765759540843941 0 -0.2314953657357702 0.25921239392308237 0 -0.23934874357292579 0.2480449370432222 0 -0.25265335745042522 0.25109173675386448 0 -0.24282897534573911 0.25765759540843941 0 -0.23934874357292579 0.2480449370432222 0 -0.23910839462952951 0.26496549555304938 0 -0.24282897534573911 0.25765759540843941 0 -0.24907532666845869 0.26731703869254703 0 -0.22543142473079811 0.2826819325513944 0 -0.24357244021055369 0.28214476921004727 0 -0.24055658283113199 0.27315700544285632 0 -0.23910839462952951 0.26496549555304938 0 -0.24907532666845869 0.26731703869254703 0 -0.24055658283113199 0.27315700544285632 0 -0.24357244021055369 0.28214476921004727 0 -0.24907532666845869 0.26731703869254703 0 -0.24055658283113199 0.27315700544285632 0 -0.23910839462952951 0.26496549555304938 0 -0.24055658283113199 0.27315700544285632 0 -0.23136756811449349 0.27082520317738668 0 -0.23136756811449349 0.27082520317738668 0 -0.22240975181400141 0.27294308605653722 0 -0.2314953657357702 0.25921239392308237 0 -0.23136756811449349 0.27082520317738668 0 -0.22240975181400141 0.27294308605653722 0 -0.22543142473079811 0.2826819325513944 0 -0.24055658283113199 0.27315700544285632 0 -0.23136756811449349 0.27082520317738668 0 -0.22543142473079811 0.2826819325513944 0 -0.22240975181400141 0.27294308605653722 0 -0.22543142473079811 0.2826819325513944 0 -0.23136756811449349 0.27082520317738668 0 -0.22240975181400141 0.27294308605653722 0 -0.22240975181400141 0.27294308605653722 0 -0.2314953657357702 0.25921239392308237 0 -0.21756598056284651 0.25733161983562519 0 -0.22240975181400141 0.27294308605653722 0 -0.21756598056284651 0.25733161983562519 0 -0.23910839462952951 0.26496549555304938 0 -0.23136756811449349 0.27082520317738668 0 -0.2314953657357702 0.25921239392308237 0 -0.2314953657357702 0.25921239392308237 0 -0.22830434625702359 0.2468110332162354 0 -0.23934874357292579 0.2480449370432222 0 -0.2314953657357702 0.25921239392308237 0 -0.21756598056284651 0.25733161983562519 0 -0.22830434625702359 0.2468110332162354 0 -0.22240975181400141 0.27294308605653722 0 -0.21756598056284651 0.25733161983562519 0 -0.2049875981954172 0.26500710788335319 0 -0.21756598056284651 0.25733161983562519 0 -0.2049875981954172 0.26500710788335319 0 -0.2021388689083978 0.24999125155618579 0 -0.2001597999871533 0.28343023632764702 0 -0.22543142473079811 0.2826819325513944 0 -0.22240975181400141 0.27294308605653722 0 -0.22240975181400141 0.27294308605653722 0 -0.2049875981954172 0.26500710788335319 0 -0.19864896352875491 0.27856081308021829 0 -0.2001597999871533 0.28343023632764702 0 -0.22240975181400141 0.27294308605653722 0 -0.19864896352875491 0.27856081308021829 0 -0.22240975181400141 0.27294308605653722 0 -0.19864896352875491 0.27856081308021829 0 -0.2049875981954172 0.26500710788335319 0 -0.19864896352875491 0.27856081308021829 0 -0.1841744261630856 0.26620876888819961 0 -0.18897318159134591 0.25305656382600289 0 -0.1841744261630856 0.26620876888819961 0 -0.2021388689083978 0.24999125155618579 0 -0.1841744261630856 0.26620876888819961 0 -0.2021388689083978 0.24999125155618579 0 -0.2049875981954172 0.26500710788335319 0 -0.1841744261630856 0.26620876888819961 0 -0.2021388689083978 0.24999125155618579 0 -0.18897318159134591 0.25305656382600289 0 -0.1727055712125449 0.25050919978384217 0 -0.1841744261630856 0.26620876888819961 0 -0.1727055712125449 0.25050919978384217 0 -0.16690448961647231 0.26280236223432879 0 -0.1841744261630856 0.26620876888819961 0 -0.16690448961647231 0.26280236223432879 0 -0.15772669448088769 0.25199779342224932 0 -0.1593883814275035 0.2726128432008702 0 -0.1727055712125449 0.25050919978384217 0 -0.16690448961647231 0.26280236223432879 0 -0.15772669448088769 0.25199779342224932 0 -0.15772669448088769 0.25199779342224932 0 -0.1593883814275035 0.2726128432008702 0 -0.16690448961647231 0.26280236223432879 0 -0.1593883814275035 0.2726128432008702 0 -0.16620998341777291 0.28242628622021287 0 -0.1593883814275035 0.2726128432008702 0 -0.16035532700687211 0.28460886404727531 0 -0.15321481579874721 0.27664994172602242 0 -0.1593883814275035 0.2726128432008702 0 -0.16620998341777291 0.28242628622021287 0 -0.16035532700687211 0.28460886404727531 0 -0.1593883814275035 0.2726128432008702 0 -0.16620998341777291 0.28242628622021287 0 -0.1593883814275035 0.2726128432008702 0 -0.16035532700687211 0.28460886404727531 0 -0.1841744261630856 0.26620876888819961 0 -0.1748881752435085 0.28417854010389948 0 -0.16620998341777291 0.28242628622021287 0 -0.16690448961647231 0.26280236223432879 0 -0.1841744261630856 0.26620876888819961 0 -0.16620998341777291 0.28242628622021287 0 -0.19864896352875491 0.27856081308021829 0 -0.1841744261630856 0.26620876888819961 0 -0.1748881752435085 0.28417854010389948 0 -0.1841744261630856 0.26620876888819961 0 -0.16620998341777291 0.28242628622021287 0 -0.19057421272114619 0.29993472301738672 0 -0.1748881752435085 0.28417854010389948 0 -0.17806355518373251 0.29947863715875278 0 -0.19864896352875491 0.27856081308021829 0 -0.1748881752435085 0.28417854010389948 0 -0.17806355518373251 0.29947863715875278 0 -0.1675784805035343 0.28439498333747321 0 -0.1748881752435085 0.28417854010389948 0 -0.17806355518373251 0.29947863715875278 0 -0.1675784805035343 0.28439498333747321 0 -0.17806355518373251 0.29947863715875278 0 -0.16814297346184071 0.3117745278086424 0 -0.16951154959685019 0.29520020273779313 0 -0.18764608293861029 0.31326390200387261 0 -0.17806355518373251 0.29947863715875278 0 -0.16814297346184071 0.3117745278086424 0 -0.18764608293861029 0.31326390200387261 0 -0.17806355518373251 0.29947863715875278 0 -0.18764608293861029 0.31326390200387261 0 -0.19057421272114619 0.29993472301738672 0 -0.17806355518373251 0.29947863715875278 0 -0.16814297346184071 0.3117745278086424 0 -0.16087769704454849 0.2910894375100484 0 -0.1489672466783831 0.29799227876932027 0 -0.16814297346184071 0.3117745278086424 0 -0.16951154959685019 0.29520020273779313 0 -0.16087769704454849 0.2910894375100484 0 -0.16814297346184071 0.3117745278086424 0 -0.1489672466783831 0.29799227876932027 0 -0.1748881752435085 0.28417854010389948 0 -0.16620998341777291 0.28242628622021287 0 -0.1675784805035343 0.28439498333747321 0 -0.16508708314986309 0.28896590442111242 0 -0.1675784805035343 0.28439498333747321 0 -0.1605608583680177 0.2875465098493189 0 -0.1675784805035343 0.28439498333747321 0 -0.1605608583680177 0.2875465098493189 0 -0.16620998341777291 0.28242628622021287 0 -0.16390885763351931 0.28450364246322901 0 -0.1675784805035343 0.28439498333747321 0 -0.16390885763351931 0.28450364246322901 0 -0.16620998341777291 0.28242628622021287 0 -0.1675784805035343 0.28439498333747321 0 -0.16390885763351931 0.28450364246322901 0 -0.16620998341777291 0.28242628622021287 0 -0.1675784805035343 0.28439498333747321 0 -0.1748881752435085 0.28417854010389948 0 -0.1675784805035343 0.28439498333747321 0 -0.17806355518373251 0.29947863715875278 0 -0.1675784805035343 0.28439498333747321 0 -0.16951154959685019 0.29520020273779313 0 -0.16508708314986309 0.28896590442111242 0 -0.1675784805035343 0.28439498333747321 0 -0.16951154959685019 0.29520020273779313 0 -0.16508708314986309 0.28896590442111242 0 -0.16951154959685019 0.29520020273779313 0 -0.16087769704454849 0.2910894375100484 0 -0.16087769704454849 0.2910894375100484 0 -0.1605608583680177 0.2875465098493189 0 -0.1489672466783831 0.29799227876932027 0 -0.16508708314986309 0.28896590442111242 0 -0.16087769704454849 0.2910894375100484 0 -0.1605608583680177 0.2875465098493189 0 -0.16087769704454849 0.2910894375100484 0 -0.1605608583680177 0.2875465098493189 0 -0.1675784805035343 0.28439498333747321 0 -0.1605608583680177 0.2875465098493189 0 -0.16390885763351931 0.28450364246322901 0 -0.1605608583680177 0.2875465098493189 0 -0.16035532700687211 0.28460886404727531 0 -0.1605608583680177 0.2875465098493189 0 -0.16390885763351931 0.28450364246322901 0 -0.16035532700687211 0.28460886404727531 0 -0.1605608583680177 0.2875465098493189 0 -0.16390885763351931 0.28450364246322901 0 -0.16620998341777291 0.28242628622021287 0 -0.16390885763351931 0.28450364246322901 0 -0.16035532700687211 0.28460886404727531 0 -0.16390885763351931 0.28450364246322901 0 -0.16035532700687211 0.28460886404727531 0 -0.1605608583680177 0.2875465098493189 0 -0.14403122460354201 0.29444459130654987 0 -0.1489672466783831 0.29799227876932027 0 -0.1605608583680177 0.2875465098493189 0 -0.14403122460354201 0.29444459130654987 0 -0.13942991932322149 0.29256188160354463 0 -0.16035532700687211 0.28460886404727531 0 -0.1308448383469821 0.28548268242370578 0 -0.16035532700687211 0.28460886404727531 0 -0.13942991932322149 0.29256188160354463 0 -0.1308448383469821 0.28548268242370578 0 -0.1605608583680177 0.2875465098493189 0 -0.13942991932322149 0.29256188160354463 0 -0.1605608583680177 0.2875465098493189 0 -0.16035532700687211 0.28460886404727531 0 -0.13942991932322149 0.29256188160354463 0 -0.16035532700687211 0.28460886404727531 0 -0.1308448383469821 0.28548268242370578 0 -0.14539073657344981 0.27932610585891871 0 -0.1605608583680177 0.2875465098493189 0 -0.1489672466783831 0.29799227876932027 0 -0.14403122460354201 0.29444459130654987 0 -0.1489672466783831 0.29799227876932027 0 -0.13253179364574719 0.31282949071043931 0 -0.14403122460354201 0.29444459130654987 0 -0.1489672466783831 0.29799227876932027 0 -0.15045161757297729 0.31615807679644048 0 -0.16814297346184071 0.3117745278086424 0 -0.1489672466783831 0.29799227876932027 0 -0.13253179364574719 0.31282949071043931 0 -0.15045161757297729 0.31615807679644048 0 -0.1489672466783831 0.29799227876932027 0 -0.13253179364574719 0.31282949071043931 0 -0.1489672466783831 0.29799227876932027 0 -0.13253179364574719 0.31282949071043931 0 -0.14403122460354201 0.29444459130654987 0 -0.13942991932322149 0.29256188160354463 0 -0.13253179364574719 0.31282949071043931 0 -0.13942991932322149 0.29256188160354463 0 -0.11829463280355899 0.29755886523933051 0 -0.13942991932322149 0.29256188160354463 0 -0.11829463280355899 0.29755886523933051 0 -0.13942991932322149 0.29256188160354463 0 -0.1308448383469821 0.28548268242370578 0 -0.11829463280355899 0.29755886523933051 0 -0.1308448383469821 0.28548268242370578 0 -0.12511829780941189 0.2760543428784511 0 -0.13533046120958039 0.27654134182140938 0 -0.12511829780941189 0.2760543428784511 0 -0.13533046120958039 0.27654134182140938 0 -0.13365535822458161 0.26924608885960299 0 -0.12511829780941189 0.2760543428784511 0 -0.13365535822458161 0.26924608885960299 0 -0.1275545426262219 0.25622480739562009 0 -0.1308448383469821 0.28548268242370578 0 -0.13533046120958039 0.27654134182140938 0 -0.14539073657344981 0.27932610585891871 0 -0.13533046120958039 0.27654134182140938 0 -0.14539073657344981 0.27932610585891871 0 -0.14066094302400209 0.27193931692055212 0 -0.13365535822458161 0.26924608885960299 0 -0.13923907678628031 0.26321474993417138 0 -0.14066094302400209 0.27193931692055212 0 -0.13533046120958039 0.27654134182140938 0 -0.13365535822458161 0.26924608885960299 0 -0.14066094302400209 0.27193931692055212 0 -0.1275545426262219 0.25622480739562009 0 -0.13923907678628031 0.26321474993417138 0 -0.1470896434455701 0.25492008355763379 0 -0.13365535822458161 0.26924608885960299 0 -0.1275545426262219 0.25622480739562009 0 -0.13923907678628031 0.26321474993417138 0 -0.13923907678628031 0.26321474993417138 0 -0.1470896434455701 0.25492008355763379 0 -0.14772481818716929 0.27005195379702501 0 -0.15772669448088769 0.25199779342224932 0 -0.1593883814275035 0.2726128432008702 0 -0.1470896434455701 0.25492008355763379 0 -0.1593883814275035 0.2726128432008702 0 -0.1470896434455701 0.25492008355763379 0 -0.1593883814275035 0.2726128432008702 0 -0.1470896434455701 0.25492008355763379 0 -0.14772481818716929 0.27005195379702501 0 -0.1593883814275035 0.2726128432008702 0 -0.15321481579874721 0.27664994172602242 0 -0.14772481818716929 0.27005195379702501 0 -0.16035532700687211 0.28460886404727531 0 -0.15321481579874721 0.27664994172602242 0 -0.14539073657344981 0.27932610585891871 0 -0.15321481579874721 0.27664994172602242 0 -0.14539073657344981 0.27932610585891871 0 -0.14772481818716929 0.27005195379702501 0 -0.14539073657344981 0.27932610585891871 0 -0.14772481818716929 0.27005195379702501 0 -0.14066094302400209 0.27193931692055212 0 -0.13923907678628031 0.26321474993417138 0 -0.14772481818716929 0.27005195379702501 0 -0.14066094302400209 0.27193931692055212 0 -0.097486038469424191 0.26030024180295708 0 -0.1117590346231158 0.27649721535772892 0 -0.092505333831868639 0.27835246372221167 0 -0.097486038469424191 0.26030024180295708 0 -0.11203473163522031 0.25573614939556721 0 -0.1117590346231158 0.27649721535772892 0 -0.097486038469424191 0.26030024180295708 0 -0.11203473163522031 0.25573614939556721 0 -0.10492096951598121 0.24065333376338199 0 -0.1275545426262219 0.25622480739562009 0 -0.11203473163522031 0.25573614939556721 0 -0.1117590346231158 0.27649721535772892 0 -0.1275545426262219 0.25622480739562009 0 -0.11203473163522031 0.25573614939556721 0 -0.1203586633445525 0.2418752357480258 0 -0.12511829780941189 0.2760543428784511 0 -0.1275545426262219 0.25622480739562009 0 -0.1117590346231158 0.27649721535772892 0 -0.1275545426262219 0.25622480739562009 0 -0.1117590346231158 0.27649721535772892 0 -0.12511829780941189 0.2760543428784511 0 -0.1117590346231158 0.27649721535772892 0 -0.1174556933926752 0.28658911496604861 0 -0.1308448383469821 0.28548268242370578 0 -0.12511829780941189 0.2760543428784511 0 -0.1174556933926752 0.28658911496604861 0 -0.1174556933926752 0.28658911496604861 0 -0.11829463280355899 0.29755886523933051 0 -0.095963526620009745 0.29676962331983758 0 -0.1308448383469821 0.28548268242370578 0 -0.1174556933926752 0.28658911496604861 0 -0.11829463280355899 0.29755886523933051 0 -0.13253179364574719 0.31282949071043931 0 -0.1123217857956757 0.3110253028666094 0 -0.11829463280355899 0.29755886523933051 0 -0.1123217857956757 0.3110253028666094 0 -0.095963526620009745 0.29676962331983758 0 -0.098722635295951919 0.32030183241188193 0 -0.1123217857956757 0.3110253028666094 0 -0.11829463280355899 0.29755886523933051 0 -0.095963526620009745 0.29676962331983758 0 -0.1117590346231158 0.27649721535772892 0 -0.1174556933926752 0.28658911496604861 0 -0.095963526620009745 0.29676962331983758 0 -0.1117590346231158 0.27649721535772892 0 -0.095963526620009745 0.29676962331983758 0 -0.092505333831868639 0.27835246372221167 0 -0.1117590346231158 0.27649721535772892 0 -0.095963526620009745 0.29676962331983758 0 -0.081676514181494075 0.29351993848484559 0 -0.074011714520811553 0.2810327441599908 0 -0.092505333831868639 0.27835246372221167 0 -0.095963526620009745 0.29676962331983758 0 -0.081676514181494075 0.29351993848484559 0 -0.092505333831868639 0.27835246372221167 0 -0.095963526620009745 0.29676962331983758 0 -0.080168018616903688 0.31704203128194619 0 -0.098722635295951919 0.32030183241188193 0 -0.095963526620009745 0.29676962331983758 0 -0.080168018616903688 0.31704203128194619 0 -0.095963526620009745 0.29676962331983758 0 -0.081676514181494075 0.29351993848484559 0 -0.080168018616903688 0.31704203128194619 0 -0.081676514181494075 0.29351993848484559 0 -0.071910637466084337 0.30444270498077031 0 -0.080168018616903688 0.31704203128194619 0 -0.071910637466084337 0.30444270498077031 0 -0.059933186322384951 0.29584476508098417 0 -0.056598664798972617 0.30854627231786053 0 -0.071910637466084337 0.30444270498077031 0 -0.056598664798972617 0.30854627231786053 0 -0.064864298737061885 0.31805670369247141 0 -0.074011714520811553 0.2810327441599908 0 -0.059933186322384951 0.29584476508098417 0 -0.05643892896494012 0.28342130962406648 0 -0.071910637466084337 0.30444270498077031 0 -0.074011714520811553 0.2810327441599908 0 -0.059933186322384951 0.29584476508098417 0 -0.071910637466084337 0.30444270498077031 0 -0.074011714520811553 0.2810327441599908 0 -0.081676514181494075 0.29351993848484559 0 -0.071910637466084337 0.30444270498077031 0 -0.074011714520811553 0.2810327441599908 0 -0.074011714520811553 0.2810327441599908 0 -0.076112791575538755 0.25762278333921151 0 -0.074011714520811553 0.2810327441599908 0 -0.062298398948024657 0.27071167799058082 0 -0.05643892896494012 0.28342130962406648 0 -0.074011714520811553 0.2810327441599908 0 -0.076112791575538755 0.25762278333921151 0 -0.062298398948024657 0.27071167799058082 0 -0.074011714520811553 0.2810327441599908 0 -0.092505333831868639 0.27835246372221167 0 -0.076112791575538755 0.25762278333921151 0 -0.097486038469424191 0.26030024180295708 0 -0.076112791575538755 0.25762278333921151 0 -0.089445423833849957 0.24623243253668231 0 -0.097486038469424191 0.26030024180295708 0 -0.092505333831868639 0.27835246372221167 0 -0.076112791575538755 0.25762278333921151 0 -0.076112791575538755 0.25762278333921151 0 -0.062298398948024657 0.27071167799058082 0 -0.065193502800950487 0.24850912018109891 0 -0.052005180078702612 0.2611858004740405 0 -0.062298398948024657 0.27071167799058082 0 -0.065193502800950487 0.24850912018109891 0 -0.052005180078702612 0.2611858004740405 0 -0.065193502800950487 0.24850912018109891 0 -0.05307390100616708 0.24678158754836091 0 -0.052005180078702612 0.2611858004740405 0 -0.04465905322569709 0.24829368723303011 0 -0.05307390100616708 0.24678158754836091 0 -0.062298398948024657 0.27071167799058082 0 -0.048161174369395897 0.27581192352345102 0 -0.05643892896494012 0.28342130962406648 0 -0.052005180078702612 0.2611858004740405 0 -0.062298398948024657 0.27071167799058082 0 -0.048161174369395897 0.27581192352345102 0 -0.048161174369395897 0.27581192352345102 0 -0.039029718335340809 0.2690189808700667 0 -0.034988958937094403 0.28197767547500763 0 -0.052005180078702612 0.2611858004740405 0 -0.048161174369395897 0.27581192352345102 0 -0.039029718335340809 0.2690189808700667 0 -0.039029718335340809 0.2690189808700667 0 -0.02778340432653599 0.26386490528670109 0 -0.02876926241144051 0.27749649468310728 0 -0.039029718335340809 0.2690189808700667 0 -0.02876926241144051 0.27749649468310728 0 -0.034988958937094403 0.28197767547500763 0 -0.02778340432653599 0.26386490528670109 0 -0.039316470176893333 0.24038030446425521 0 -0.039560235199694357 0.25517536691588882 0 -0.02778340432653599 0.26386490528670109 0 -0.039316470176893333 0.24038030446425521 0 -0.052005180078702612 0.2611858004740405 0 -0.039560235199694357 0.25517536691588882 0 -0.04465905322569709 0.24829368723303011 0 -0.052005180078702612 0.2611858004740405 0 -0.039029718335340809 0.2690189808700667 0 -0.039560235199694357 0.25517536691588882 0 -0.039029718335340809 0.2690189808700667 0 -0.039560235199694357 0.25517536691588882 0 -0.02778340432653599 0.26386490528670109 0 -0.02778340432653599 0.26386490528670109 0 -0.01716914486276995 0.26604702125705609 0 -0.031830075697095631 0.24184151100741449 0 -0.01716914486276995 0.26604702125705609 0 -0.031830075697095631 0.24184151100741449 0 -0.01716914486276995 0.26604702125705609 0 -0.031830075697095631 0.24184151100741449 0 -0.017992643477075129 0.24957489420802409 0 -0.02778340432653599 0.26386490528670109 0 -0.016250338476178561 0.28734950610914722 0 -0.02778340432653599 0.26386490528670109 0 -0.02876926241144051 0.27749649468310728 0 -0.016250338476178561 0.28734950610914722 0 -0.02778340432653599 0.26386490528670109 0 -0.01716914486276995 0.26604702125705609 0 -0.016250338476178561 0.28734950610914722 0 -0.01716914486276995 0.26604702125705609 0 -0.0025082140284442898 0.29025253150669778 0 -0.01716914486276995 0.26604702125705609 0 -0.0030242111910691451 0.27415784458153852 0 -0.0025082140284442898 0.29025253150669778 0 -0.01716914486276995 0.26604702125705609 0 -0.0025082140284442898 0.29025253150669778 0 -0.016250338476178561 0.28734950610914722 0 -0.01716914486276995 0.26604702125705609 0 -0.0030242111910691451 0.27415784458153852 0 -0.0070388551701225481 0.26429843528864022 0 -0.0030242111910691451 0.27415784458153852 0 -0.0070388551701225481 0.26429843528864022 0 0.003905588941896832 0.26182209175970711 0 -0.0070388551701225481 0.26429843528864022 0 -0.0053138308958045541 0.25725821092316159 0 0.003905588941896832 0.26182209175970711 0 -0.01716914486276995 0.26604702125705609 0 -0.01141932576701403 0.25769981683164922 0 -0.017992643477075129 0.24957489420802409 0 -0.0053138308958045541 0.25725821092316159 0 0.00034173235196240039 0.25169171842839061 0 0.003905588941896832 0.26182209175970711 0 -0.0053138308958045541 0.25725821092316159 0 -0.0084954783913720449 0.2490669269363194 0 0.00034173235196240039 0.25169171842839061 0 -0.01141932576701403 0.25769981683164922 0 -0.0084954783913720449 0.2490669269363194 0 -0.017992643477075129 0.24957489420802409 0 -0.0053138308958045541 0.25725821092316159 0 -0.01141932576701403 0.25769981683164922 0 -0.0084954783913720449 0.2490669269363194 0 -0.01716914486276995 0.26604702125705609 0 -0.0070388551701225481 0.26429843528864022 0 -0.01141932576701403 0.25769981683164922 0 -0.0070388551701225481 0.26429843528864022 0 -0.0053138308958045541 0.25725821092316159 0 -0.01141932576701403 0.25769981683164922 0 -0.01397790380638198 0.30895499597260923 0 -0.0066953893168378471 0.30245822206907802 0 -0.017989414597368789 0.29833253601236032 0 -0.01397790380638198 0.30895499597260923 0 -0.0066953893168378471 0.30245822206907802 0 -0.0050279189580847783 0.31667723503137363 0 -0.0066953893168378471 0.30245822206907802 0 -0.016250338476178561 0.28734950610914722 0 -0.017989414597368789 0.29833253601236032 0 -0.0066953893168378471 0.30245822206907802 0 -0.0025082140284442898 0.29025253150669778 0 -0.016250338476178561 0.28734950610914722 0 -0.016250338476178561 0.28734950610914722 0 -0.028485453203630051 0.29466041058067288 0 -0.017989414597368789 0.29833253601236032 0 -0.02876926241144051 0.27749649468310728 0 -0.027123503257085881 0.2853710217119837 0 -0.034988958937094403 0.28197767547500763 0 -0.02876926241144051 0.27749649468310728 0 -0.016250338476178561 0.28734950610914722 0 -0.027123503257085881 0.2853710217119837 0 -0.027123503257085881 0.2853710217119837 0 -0.028485453203630051 0.29466041058067288 0 -0.034988958937094403 0.28197767547500763 0 -0.016250338476178561 0.28734950610914722 0 -0.027123503257085881 0.2853710217119837 0 -0.028485453203630051 0.29466041058067288 0 -0.01397790380638198 0.30895499597260923 0 -0.029653077822133361 0.30668324753390069 0 -0.022863511246220838 0.31642661020244239 0 -0.028485453203630051 0.29466041058067288 0 -0.017989414597368789 0.29833253601236032 0 -0.029653077822133361 0.30668324753390069 0 -0.01397790380638198 0.30895499597260923 0 -0.017989414597368789 0.29833253601236032 0 -0.029653077822133361 0.30668324753390069 0 -0.029653077822133361 0.30668324753390069 0 -0.04331836559679518 0.30038735807175349 0 -0.043931634079397958 0.31121694856205162 0 -0.029653077822133361 0.30668324753390069 0 -0.043931634079397958 0.31121694856205162 0 -0.036173228976101063 0.31880798558349588 0 -0.028485453203630051 0.29466041058067288 0 -0.029653077822133361 0.30668324753390069 0 -0.04331836559679518 0.30038735807175349 0 -0.028485453203630051 0.29466041058067288 0 -0.04331836559679518 0.30038735807175349 0 -0.044205860952272837 0.28855609670694421 0 -0.028485453203630051 0.29466041058067288 0 -0.034988958937094403 0.28197767547500763 0 -0.044205860952272837 0.28855609670694421 0 -0.048161174369395897 0.27581192352345102 0 -0.034988958937094403 0.28197767547500763 0 -0.044205860952272837 0.28855609670694421 0 -0.04331836559679518 0.30038735807175349 0 -0.044205860952272837 0.28855609670694421 0 -0.059933186322384951 0.29584476508098417 0 -0.044205860952272837 0.28855609670694421 0 -0.059933186322384951 0.29584476508098417 0 -0.05643892896494012 0.28342130962406648 0 -0.048161174369395897 0.27581192352345102 0 -0.044205860952272837 0.28855609670694421 0 -0.05643892896494012 0.28342130962406648 0 -0.04331836559679518 0.30038735807175349 0 -0.059933186322384951 0.29584476508098417 0 -0.056598664798972617 0.30854627231786053 0 -0.04331836559679518 0.30038735807175349 0 -0.043931634079397958 0.31121694856205162 0 -0.056598664798972617 0.30854627231786053 0 -0.051271662189551107 0.32293807063772523 0 -0.064372510613797645 0.33731443924405491 0 -0.064864298737061885 0.31805670369247141 0 -0.056598664798972617 0.30854627231786053 0 -0.051271662189551107 0.32293807063772523 0 -0.064864298737061885 0.31805670369247141 0 -0.043931634079397958 0.31121694856205162 0 -0.056598664798972617 0.30854627231786053 0 -0.051271662189551107 0.32293807063772523 0 -0.051271662189551107 0.32293807063772523 0 -0.048705704471300168 0.34072075782036981 0 -0.064372510613797645 0.33731443924405491 0 -0.051271662189551107 0.32293807063772523 0 -0.048705704471300168 0.34072075782036981 0 -0.039687963425040919 0.33251325960295569 0 -0.042826462177681983 0.34297811357314689 0 -0.039687963425040919 0.33251325960295569 0 -0.037009843579509913 0.34163581838841589 0 -0.048705704471300168 0.34072075782036981 0 -0.042826462177681983 0.34297811357314689 0 -0.039687963425040919 0.33251325960295569 0 -0.039687963425040919 0.33251325960295569 0 -0.031462579726050502 0.33612809722853892 0 -0.027474106893159319 0.32615738833970259 0 -0.039687963425040919 0.33251325960295569 0 -0.031462579726050502 0.33612809722853892 0 -0.037009843579509913 0.34163581838841589 0 -0.031462579726050502 0.33612809722853892 0 -0.037009843579509913 0.34163581838841589 0 -0.029404085501048161 0.3438895470492393 0 -0.043931634079397958 0.31121694856205162 0 -0.051271662189551107 0.32293807063772523 0 -0.036173228976101063 0.31880798558349588 0 -0.051271662189551107 0.32293807063772523 0 -0.039687963425040919 0.33251325960295569 0 -0.036173228976101063 0.31880798558349588 0 -0.039687963425040919 0.33251325960295569 0 -0.036173228976101063 0.31880798558349588 0 -0.027474106893159319 0.32615738833970259 0 -0.029653077822133361 0.30668324753390069 0 -0.036173228976101063 0.31880798558349588 0 -0.022863511246220838 0.31642661020244239 0 -0.01397790380638198 0.30895499597260923 0 -0.022863511246220838 0.31642661020244239 0 -0.01393326654870416 0.32436665901149692 0 -0.022863511246220838 0.31642661020244239 0 -0.027474106893159319 0.32615738833970259 0 -0.01393326654870416 0.32436665901149692 0 -0.036173228976101063 0.31880798558349588 0 -0.022863511246220838 0.31642661020244239 0 -0.027474106893159319 0.32615738833970259 0 -0.031462579726050502 0.33612809722853892 0 -0.027474106893159319 0.32615738833970259 0 -0.02323913668370238 0.33804977787409918 0 -0.02323913668370238 0.33804977787409918 0 -0.01197429819304479 0.34336295925775723 0 -0.01393326654870416 0.32436665901149692 0 -0.031462579726050502 0.33612809722853892 0 -0.02323913668370238 0.33804977787409918 0 -0.029404085501048161 0.3438895470492393 0 -0.027474106893159319 0.32615738833970259 0 -0.02323913668370238 0.33804977787409918 0 -0.01393326654870416 0.32436665901149692 0 -0.0026857519243812899 0.33314825634734441 0 -0.01197429819304479 0.34336295925775723 0 -0.01393326654870416 0.32436665901149692 0 -0.0026857519243812899 0.33314825634734441 0 -0.01197429819304479 0.34336295925775723 0 0.00087227386193678216 0.35450451783256998 0 -0.0026857519243812899 0.33314825634734441 0 -0.0050279189580847783 0.31667723503137363 0 -0.01393326654870416 0.32436665901149692 0 -0.01397790380638198 0.30895499597260923 0 -0.0050279189580847783 0.31667723503137363 0 -0.01393326654870416 0.32436665901149692 0 -0.002887011069696954 0.37316236348168991 0 -0.0118984707001861 0.35895409489315039 0 0.00087227386193678216 0.35450451783256998 0 -0.002887011069696954 0.37316236348168991 0 -0.0118984707001861 0.35895409489315039 0 -0.01695583758716919 0.36965860228360858 0 -0.01197429819304479 0.34336295925775723 0 -0.0118984707001861 0.35895409489315039 0 0.00087227386193678216 0.35450451783256998 0 -0.01197429819304479 0.34336295925775723 0 -0.0118984707001861 0.35895409489315039 0 -0.021040655415919911 0.35157720027602329 0 -0.0118984707001861 0.35895409489315039 0 -0.021040655415919911 0.35157720027602329 0 -0.026710057983937611 0.36052217289883831 0 -0.02323913668370238 0.33804977787409918 0 -0.01197429819304479 0.34336295925775723 0 -0.021040655415919911 0.35157720027602329 0 -0.021040655415919911 0.35157720027602329 0 -0.029404085501048161 0.3438895470492393 0 -0.029034426183604189 0.35160538719165979 0 -0.02323913668370238 0.33804977787409918 0 -0.021040655415919911 0.35157720027602329 0 -0.029404085501048161 0.3438895470492393 0 -0.029404085501048161 0.3438895470492393 0 -0.029034426183604189 0.35160538719165979 0 -0.034150794658820649 0.34818146942595618 0 -0.021040655415919911 0.35157720027602329 0 -0.029034426183604189 0.35160538719165979 0 -0.026710057983937611 0.36052217289883831 0 -0.029034426183604189 0.35160538719165979 0 -0.026710057983937611 0.36052217289883831 0 -0.035155340471302983 0.35495638260871792 0 -0.026710057983937611 0.36052217289883831 0 -0.026953383983103062 0.37319805800538342 0 -0.036075033715439957 0.36625755807602378 0 -0.0118984707001861 0.35895409489315039 0 -0.026710057983937611 0.36052217289883831 0 -0.01695583758716919 0.36965860228360858 0 -0.026710057983937611 0.36052217289883831 0 -0.01695583758716919 0.36965860228360858 0 -0.026953383983103062 0.37319805800538342 0 -0.036075033715439957 0.36625755807602378 0 -0.048577002610691582 0.35758684720616363 0 -0.032781494607585539 0.37785925516827218 0 -0.026953383983103062 0.37319805800538342 0 -0.036075033715439957 0.36625755807602378 0 -0.032781494607585539 0.37785925516827218 0 -0.048577002610691582 0.35758684720616363 0 -0.032781494607585539 0.37785925516827218 0 -0.048577002610691582 0.35758684720616363 0 -0.044802612766153493 0.37992109198021112 0 -0.032781494607585539 0.37785925516827218 0 -0.026710057983937611 0.36052217289883831 0 -0.036075033715439957 0.36625755807602378 0 -0.036671790106332487 0.35997840114116608 0 -0.036075033715439957 0.36625755807602378 0 -0.036671790106332487 0.35997840114116608 0 -0.042464558058498268 0.35794383652537748 0 -0.036075033715439957 0.36625755807602378 0 -0.042464558058498268 0.35794383652537748 0 -0.048577002610691582 0.35758684720616363 0 -0.037009843579509913 0.34163581838841589 0 -0.034150794658820649 0.34818146942595618 0 -0.040641450462140523 0.349802056671007 0 -0.037009843579509913 0.34163581838841589 0 -0.029404085501048161 0.3438895470492393 0 -0.034150794658820649 0.34818146942595618 0 -0.034150794658820649 0.34818146942595618 0 -0.035155340471302983 0.35495638260871792 0 -0.040641450462140523 0.349802056671007 0 -0.026710057983937611 0.36052217289883831 0 -0.036671790106332487 0.35997840114116608 0 -0.035155340471302983 0.35495638260871792 0 -0.035155340471302983 0.35495638260871792 0 -0.040676661881999809 0.355397549870692 0 -0.040641450462140523 0.349802056671007 0 -0.029034426183604189 0.35160538719165979 0 -0.034150794658820649 0.34818146942595618 0 -0.035155340471302983 0.35495638260871792 0 -0.036671790106332487 0.35997840114116608 0 -0.035155340471302983 0.35495638260871792 0 -0.040676661881999809 0.355397549870692 0 -0.036671790106332487 0.35997840114116608 0 -0.042464558058498268 0.35794383652537748 0 -0.040676661881999809 0.355397549870692 0 -0.042464558058498268 0.35794383652537748 0 -0.044694206648724019 0.35061234307307532 0 -0.048577002610691582 0.35758684720616363 0 -0.042464558058498268 0.35794383652537748 0 -0.040676661881999809 0.355397549870692 0 -0.044694206648724019 0.35061234307307532 0 -0.040676661881999809 0.355397549870692 0 -0.040641450462140523 0.349802056671007 0 -0.044694206648724019 0.35061234307307532 0 -0.042826462177681983 0.34297811357314689 0 -0.037009843579509913 0.34163581838841589 0 -0.040641450462140523 0.349802056671007 0 -0.048705704471300168 0.34072075782036981 0 -0.042826462177681983 0.34297811357314689 0 -0.044694206648724019 0.35061234307307532 0 -0.042826462177681983 0.34297811357314689 0 -0.040641450462140523 0.349802056671007 0 -0.044694206648724019 0.35061234307307532 0 -0.048705704471300168 0.34072075782036981 0 -0.044694206648724019 0.35061234307307532 0 -0.048577002610691582 0.35758684720616363 0 -0.048577002610691582 0.35758684720616363 0 -0.064372510613797645 0.33731443924405491 0 -0.048705704471300168 0.34072075782036981 0 -0.048577002610691582 0.35758684720616363 0 -0.064372510613797645 0.33731443924405491 0 -0.048577002610691582 0.35758684720616363 0 -0.059494835014858277 0.35416554241879478 0 -0.064372510613797645 0.33731443924405491 0 -0.048577002610691582 0.35758684720616363 0 -0.059494835014858277 0.35416554241879478 0 -0.051100464192403633 0.35993119924858902 0 -0.059494835014858277 0.35416554241879478 0 -0.051100464192403633 0.35993119924858902 0 -0.061857004331358427 0.36398268425054048 0 -0.051100464192403633 0.35993119924858902 0 -0.055702040733111108 0.37218758017441378 0 -0.044802612766153493 0.37992109198021112 0 -0.051100464192403633 0.35993119924858902 0 -0.044802612766153493 0.37992109198021112 0 -0.048577002610691582 0.35758684720616363 0 -0.051100464192403633 0.35993119924858902 0 -0.044802612766153493 0.37992109198021112 0 -0.051100464192403633 0.35993119924858902 0 -0.061857004331358427 0.36398268425054048 0 -0.055702040733111108 0.37218758017441378 0 -0.061857004331358427 0.36398268425054048 0 -0.055702040733111108 0.37218758017441378 0 -0.064552670311692345 0.37515636186377238 0 -0.061857004331358427 0.36398268425054048 0 -0.075346215913001779 0.36614725698566758 0 -0.064552670311692345 0.37515636186377238 0 -0.061857004331358427 0.36398268425054048 0 -0.075346215913001779 0.36614725698566758 0 -0.071567193326040071 0.35201254214462629 0 -0.075346215913001779 0.36614725698566758 0 -0.078072227327794189 0.38056351515562881 0 -0.064552670311692345 0.37515636186377238 0 -0.075346215913001779 0.36614725698566758 0 -0.090183414499929906 0.37165215038473071 0 -0.087963435586393204 0.35528915909755371 0 -0.075346215913001779 0.36614725698566758 0 -0.090183414499929906 0.37165215038473071 0 -0.078072227327794189 0.38056351515562881 0 -0.075346215913001779 0.36614725698566758 0 -0.087963435586393204 0.35528915909755371 0 -0.071567193326040071 0.35201254214462629 0 -0.087963435586393204 0.35528915909755371 0 -0.083076381794008752 0.33606943277870083 0 -0.099660887580474006 0.34250391459267587 0 -0.087963435586393204 0.35528915909755371 0 -0.071567193326040071 0.35201254214462629 0 -0.083076381794008752 0.33606943277870083 0 -0.059494835014858277 0.35416554241879478 0 -0.071567193326040071 0.35201254214462629 0 -0.064372510613797645 0.33731443924405491 0 -0.059494835014858277 0.35416554241879478 0 -0.061857004331358427 0.36398268425054048 0 -0.071567193326040071 0.35201254214462629 0 -0.064372510613797645 0.33731443924405491 0 -0.080168018616903688 0.31704203128194619 0 -0.083076381794008752 0.33606943277870083 0 -0.071567193326040071 0.35201254214462629 0 -0.064372510613797645 0.33731443924405491 0 -0.083076381794008752 0.33606943277870083 0 -0.064372510613797645 0.33731443924405491 0 -0.080168018616903688 0.31704203128194619 0 -0.064372510613797645 0.33731443924405491 0 -0.064864298737061885 0.31805670369247141 0 -0.080168018616903688 0.31704203128194619 0 -0.071910637466084337 0.30444270498077031 0 -0.064864298737061885 0.31805670369247141 0 -0.080168018616903688 0.31704203128194619 0 -0.080168018616903688 0.31704203128194619 0 -0.083076381794008752 0.33606943277870083 0 -0.098722635295951919 0.32030183241188193 0 -0.099660887580474006 0.34250391459267587 0 -0.098722635295951919 0.32030183241188193 0 -0.1160963406131106 0.32766670265155762 0 -0.083076381794008752 0.33606943277870083 0 -0.099660887580474006 0.34250391459267587 0 -0.098722635295951919 0.32030183241188193 0 -0.099660887580474006 0.34250391459267587 0 -0.1160963406131106 0.32766670265155762 0 -0.1123217857956757 0.3110253028666094 0 -0.098722635295951919 0.32030183241188193 0 -0.1160963406131106 0.32766670265155762 0 -0.13253179364574719 0.31282949071043931 0 -0.1123217857956757 0.3110253028666094 0 -0.1160963406131106 0.32766670265155762 0 -0.13253179364574719 0.31282949071043931 0 -0.1160963406131106 0.32766670265155762 0 -0.099660887580474006 0.34250391459267587 0 -0.1160963406131106 0.32766670265155762 0 -0.1172582106311677 0.34431557716721062 0 -0.13831219433664821 0.33161104637173239 0 -0.1160963406131106 0.32766670265155762 0 -0.1172582106311677 0.34431557716721062 0 -0.13318469579337719 0.3514936482335298 0 -0.1172582106311677 0.34431557716721062 0 -0.1108752042995866 0.36493926216963751 0 -0.090183414499929906 0.37165215038473071 0 -0.087963435586393204 0.35528915909755371 0 -0.1108752042995866 0.36493926216963751 0 -0.099660887580474006 0.34250391459267587 0 -0.1172582106311677 0.34431557716721062 0 -0.1108752042995866 0.36493926216963751 0 -0.087963435586393204 0.35528915909755371 0 -0.099660887580474006 0.34250391459267587 0 -0.1108752042995866 0.36493926216963751 0 -0.090183414499929906 0.37165215038473071 0 -0.1108752042995866 0.36493926216963751 0 -0.10254338363737051 0.39316009730409612 0 -0.13780983526100399 0.37761909849100239 0 -0.1108752042995866 0.36493926216963751 0 -0.11916959206772031 0.38337544894601627 0 -0.1108752042995866 0.36493926216963751 0 -0.10254338363737051 0.39316009730409612 0 -0.11916959206772031 0.38337544894601627 0 -0.10254338363737051 0.39316009730409612 0 -0.1247521518573156 0.39928047957912749 0 -0.1139246972013129 0.41328673204279132 0 -0.10254338363737051 0.39316009730409612 0 -0.11916959206772031 0.38337544894601627 0 -0.1247521518573156 0.39928047957912749 0 -0.12978557415322589 0.41426576889006111 0 -0.1139246972013129 0.41328673204279132 0 -0.1227193297556799 0.42476817897396668 0 -0.12978557415322589 0.41426576889006111 0 -0.1247521518573156 0.39928047957912749 0 -0.1139246972013129 0.41328673204279132 0 -0.1139246972013129 0.41328673204279132 0 -0.1227193297556799 0.42476817897396668 0 -0.11303687166995301 0.43406456449401032 0 -0.12582028798773601 0.43557595697160212 0 -0.1227193297556799 0.42476817897396668 0 -0.11303687166995301 0.43406456449401032 0 -0.11303687166995301 0.43406456449401032 0 -0.094048330652057061 0.43219851583660701 0 -0.10413493962868579 0.44357279825123702 0 -0.11303687166995301 0.43406456449401032 0 -0.094048330652057061 0.43219851583660701 0 -0.096577990517969628 0.41714987516756991 0 -0.10254338363737051 0.39316009730409612 0 -0.096577990517969628 0.41714987516756991 0 -0.083786302699806886 0.40868790117606318 0 -0.10254338363737051 0.39316009730409612 0 -0.1139246972013129 0.41328673204279132 0 -0.096577990517969628 0.41714987516756991 0 -0.1139246972013129 0.41328673204279132 0 -0.11303687166995301 0.43406456449401032 0 -0.096577990517969628 0.41714987516756991 0 -0.096577990517969628 0.41714987516756991 0 -0.083786302699806886 0.40868790117606318 0 -0.076005108007786273 0.42332334491644102 0 -0.094048330652057061 0.43219851583660701 0 -0.096577990517969628 0.41714987516756991 0 -0.076005108007786273 0.42332334491644102 0 -0.094048330652057061 0.43219851583660701 0 -0.076005108007786273 0.42332334491644102 0 -0.081159774486079611 0.44085646489599473 0 -0.076005108007786273 0.42332334491644102 0 -0.058184609343473387 0.43814013154075238 0 -0.081159774486079611 0.44085646489599473 0 -0.076005108007786273 0.42332334491644102 0 -0.05637301419504686 0.42028361376339352 0 -0.058184609343473387 0.43814013154075238 0 -0.076005108007786273 0.42332334491644102 0 -0.063582540621081443 0.40826344147684118 0 -0.05637301419504686 0.42028361376339352 0 -0.083786302699806886 0.40868790117606318 0 -0.076005108007786273 0.42332334491644102 0 -0.063582540621081443 0.40826344147684118 0 -0.083786302699806886 0.40868790117606318 0 -0.063582540621081443 0.40826344147684118 0 -0.075152883850784363 0.39604757635138021 0 -0.075152883850784363 0.39604757635138021 0 -0.065739555526460228 0.3854725384029577 0 -0.053921956160843228 0.39246980585327168 0 -0.10254338363737051 0.39316009730409612 0 -0.075152883850784363 0.39604757635138021 0 -0.10254338363737051 0.39316009730409612 0 -0.083786302699806886 0.40868790117606318 0 -0.075152883850784363 0.39604757635138021 0 -0.090183414499929906 0.37165215038473071 0 -0.10254338363737051 0.39316009730409612 0 -0.078072227327794189 0.38056351515562881 0 -0.10254338363737051 0.39316009730409612 0 -0.075152883850784363 0.39604757635138021 0 -0.078072227327794189 0.38056351515562881 0 -0.075152883850784363 0.39604757635138021 0 -0.078072227327794189 0.38056351515562881 0 -0.065739555526460228 0.3854725384029577 0 -0.078072227327794189 0.38056351515562881 0 -0.065739555526460228 0.3854725384029577 0 -0.064552670311692345 0.37515636186377238 0 -0.065739555526460228 0.3854725384029577 0 -0.064552670311692345 0.37515636186377238 0 -0.056197452063947599 0.38194656352895617 0 -0.055702040733111108 0.37218758017441378 0 -0.064552670311692345 0.37515636186377238 0 -0.056197452063947599 0.38194656352895617 0 -0.065739555526460228 0.3854725384029577 0 -0.056197452063947599 0.38194656352895617 0 -0.053921956160843228 0.39246980585327168 0 -0.056197452063947599 0.38194656352895617 0 -0.048237833279009032 0.39063670029458719 0 -0.053921956160843228 0.39246980585327168 0 -0.056197452063947599 0.38194656352895617 0 -0.048237833279009032 0.39063670029458719 0 -0.044802612766153493 0.37992109198021112 0 -0.055702040733111108 0.37218758017441378 0 -0.056197452063947599 0.38194656352895617 0 -0.044802612766153493 0.37992109198021112 0 -0.075152883850784363 0.39604757635138021 0 -0.053921956160843228 0.39246980585327168 0 -0.047762384064198297 0.39893505539866531 0 -0.063582540621081443 0.40826344147684118 0 -0.075152883850784363 0.39604757635138021 0 -0.047762384064198297 0.39893505539866531 0 -0.075152883850784363 0.39604757635138021 0 -0.047762384064198297 0.39893505539866531 0 -0.048237833279009032 0.39063670029458719 0 -0.053921956160843228 0.39246980585327168 0 -0.047762384064198297 0.39893505539866531 0 -0.053921956160843228 0.39246980585327168 0 -0.047762384064198297 0.39893505539866531 0 -0.038504761339902653 0.39991098471183312 0 -0.021335503111962029 0.4017209507137991 0 -0.034390239614443388 0.41297081136811731 0 -0.047762384064198297 0.39893505539866531 0 -0.034390239614443388 0.41297081136811731 0 -0.047762384064198297 0.39893505539866531 0 -0.038504761339902653 0.39991098471183312 0 -0.047762384064198297 0.39893505539866531 0 -0.038504761339902653 0.39991098471183312 0 -0.034390239614443388 0.41297081136811731 0 -0.048237833279009032 0.39063670029458719 0 -0.047762384064198297 0.39893505539866531 0 -0.038504761339902653 0.39991098471183312 0 -0.038504761339902653 0.39991098471183312 0 -0.034717879316504441 0.38777406565884692 0 -0.02887749648791044 0.39415738459073052 0 -0.038504761339902653 0.39991098471183312 0 -0.044802612766153493 0.37992109198021112 0 -0.048237833279009032 0.39063670029458719 0 -0.038504761339902653 0.39991098471183312 0 -0.044802612766153493 0.37992109198021112 0 -0.038504761339902653 0.39991098471183312 0 -0.044802612766153493 0.37992109198021112 0 -0.034717879316504441 0.38777406565884692 0 -0.034717879316504441 0.38777406565884692 0 -0.032781494607585539 0.37785925516827218 0 -0.028281955167591289 0.38499699438406237 0 -0.044802612766153493 0.37992109198021112 0 -0.034717879316504441 0.38777406565884692 0 -0.032781494607585539 0.37785925516827218 0 -0.026953383983103062 0.37319805800538342 0 -0.017715097700132229 0.3861914514949194 0 -0.028281955167591289 0.38499699438406237 0 -0.01695583758716919 0.36965860228360858 0 -0.026953383983103062 0.37319805800538342 0 -0.017715097700132229 0.3861914514949194 0 -0.026953383983103062 0.37319805800538342 0 -0.032781494607585539 0.37785925516827218 0 -0.028281955167591289 0.38499699438406237 0 -0.034717879316504441 0.38777406565884692 0 -0.028281955167591289 0.38499699438406237 0 -0.02887749648791044 0.39415738459073052 0 -0.017715097700132229 0.3861914514949194 0 -0.028281955167591289 0.38499699438406237 0 -0.02887749648791044 0.39415738459073052 0 -0.038504761339902653 0.39991098471183312 0 -0.021335503111962029 0.4017209507137991 0 -0.038504761339902653 0.39991098471183312 0 -0.02887749648791044 0.39415738459073052 0 -0.021335503111962029 0.4017209507137991 0 -0.017715097700132229 0.3861914514949194 0 -0.021335503111962029 0.4017209507137991 0 -0.0087168627113649987 0.40251728676190612 0 -0.021335503111962029 0.4017209507137991 0 -0.0087168627113649987 0.40251728676190612 0 -0.017908805179147631 0.41108471224343418 0 -0.017715097700132229 0.3861914514949194 0 -0.02887749648791044 0.39415738459073052 0 -0.021335503111962029 0.4017209507137991 0 -0.017715097700132229 0.3861914514949194 0 -0.0087168627113649987 0.40251728676190612 0 -0.0031489673224063719 0.38960846828497808 0 -0.0087168627113649987 0.40251728676190612 0 0.004045002064029652 0.41349201283743348 0 0.0039390635768207193 0.40024464438109503 0 -0.0087168627113649987 0.40251728676190612 0 -0.0031489673224063719 0.38960846828497808 0 0.0039390635768207193 0.40024464438109503 0 -0.002887011069696954 0.37316236348168991 0 -0.01695583758716919 0.36965860228360858 0 -0.017715097700132229 0.3861914514949194 0 -0.002887011069696954 0.37316236348168991 0 -0.017715097700132229 0.3861914514949194 0 -0.0031489673224063719 0.38960846828497808 0 -0.0001396583686269239 0.42894674625762558 0 -0.015473165968875449 0.42010393542558683 0 -0.016033395375402659 0.43223863988107353 0 -0.0001396583686269239 0.42894674625762558 0 -0.0088937313067571026 0.4152787673776841 0 0.004045002064029652 0.41349201283743348 0 -0.0087168627113649987 0.40251728676190612 0 -0.0088937313067571026 0.4152787673776841 0 0.004045002064029652 0.41349201283743348 0 -0.0087168627113649987 0.40251728676190612 0 -0.0088937313067571026 0.4152787673776841 0 -0.017908805179147631 0.41108471224343418 0 -0.015473165968875449 0.42010393542558683 0 -0.0088937313067571026 0.4152787673776841 0 -0.017908805179147631 0.41108471224343418 0 -0.0001396583686269239 0.42894674625762558 0 -0.015473165968875449 0.42010393542558683 0 -0.0088937313067571026 0.4152787673776841 0 -0.015473165968875449 0.42010393542558683 0 -0.017908805179147631 0.41108471224343418 0 -0.034390239614443388 0.41297081136811731 0 -0.021335503111962029 0.4017209507137991 0 -0.017908805179147631 0.41108471224343418 0 -0.034390239614443388 0.41297081136811731 0 -0.015473165968875449 0.42010393542558683 0 -0.016033395375402659 0.43223863988107353 0 -0.034390239614443388 0.41297081136811731 0 -0.016033395375402659 0.43223863988107353 0 -0.02753556426539025 0.43472810852608917 0 -0.034390239614443388 0.41297081136811731 0 -0.02753556426539025 0.43472810852608917 0 -0.034390239614443388 0.41297081136811731 0 -0.016033395375402659 0.43223863988107353 0 -0.034390239614443388 0.41297081136811731 0 -0.02753556426539025 0.43472810852608917 0 -0.043498409862833987 0.42589117085859601 0 -0.034390239614443388 0.41297081136811731 0 -0.02753556426539025 0.43472810852608917 0 -0.043498409862833987 0.42589117085859601 0 -0.041469100025778569 0.43784234296470559 0 -0.038504761339902653 0.39991098471183312 0 -0.034390239614443388 0.41297081136811731 0 -0.043498409862833987 0.42589117085859601 0 -0.034390239614443388 0.41297081136811731 0 -0.048124440952533501 0.41241871774239253 0 -0.047762384064198297 0.39893505539866531 0 -0.034390239614443388 0.41297081136811731 0 -0.048124440952533501 0.41241871774239253 0 -0.063582540621081443 0.40826344147684118 0 -0.047762384064198297 0.39893505539866531 0 -0.048124440952533501 0.41241871774239253 0 -0.043498409862833987 0.42589117085859601 0 -0.048124440952533501 0.41241871774239253 0 -0.05637301419504686 0.42028361376339352 0 -0.063582540621081443 0.40826344147684118 0 -0.048124440952533501 0.41241871774239253 0 -0.05637301419504686 0.42028361376339352 0 -0.043498409862833987 0.42589117085859601 0 -0.05637301419504686 0.42028361376339352 0 -0.058184609343473387 0.43814013154075238 0 -0.043498409862833987 0.42589117085859601 0 -0.058184609343473387 0.43814013154075238 0 -0.041469100025778569 0.43784234296470559 0 -0.058184609343473387 0.43814013154075238 0 -0.05929827010574195 0.45600138881903451 0 -0.04080872450692636 0.45086827881666403 0 -0.05929827010574195 0.45600138881903451 0 -0.04080872450692636 0.45086827881666403 0 -0.048522482928695203 0.47028939646773749 0 -0.05929827010574195 0.45600138881903451 0 -0.048522482928695203 0.47028939646773749 0 -0.069696574416503135 0.47722307499210209 0 -0.032039605188791828 0.46665098116835241 0 -0.04080872450692636 0.45086827881666403 0 -0.048522482928695203 0.47028939646773749 0 -0.02753556426539025 0.43472810852608917 0 -0.041469100025778569 0.43784234296470559 0 -0.04080872450692636 0.45086827881666403 0 -0.058184609343473387 0.43814013154075238 0 -0.041469100025778569 0.43784234296470559 0 -0.04080872450692636 0.45086827881666403 0 -0.016033395375402659 0.43223863988107353 0 -0.02753556426539025 0.43472810852608917 0 -0.020680888916336411 0.45648540568406099 0 -0.02753556426539025 0.43472810852608917 0 -0.04080872450692636 0.45086827881666403 0 -0.020680888916336411 0.45648540568406099 0 -0.02753556426539025 0.43472810852608917 0 -0.020680888916336411 0.45648540568406099 0 -0.032039605188791828 0.46665098116835241 0 -0.020680888916336411 0.45648540568406099 0 -0.013826213567282589 0.47824270284203269 0 -0.032039605188791828 0.46665098116835241 0 -0.04080872450692636 0.45086827881666403 0 -0.020680888916336411 0.45648540568406099 0 -0.020680888916336411 0.45648540568406099 0 -0.013826213567282589 0.47824270284203269 0 -0.020680888916336411 0.45648540568406099 0 -0.0010088918709907711 0.46772692835726898 0 -0.013826213567282589 0.47824270284203269 0 -0.020680888916336411 0.45648540568406099 0 -0.0010088918709907711 0.46772692835726898 0 0.002323448863637629 0.45150646839403008 0 -0.016033395375402659 0.43223863988107353 0 -0.020680888916336411 0.45648540568406099 0 0.002323448863637629 0.45150646839403008 0 -0.0001396583686269239 0.42894674625762558 0 -0.016033395375402659 0.43223863988107353 0 0.002323448863637629 0.45150646839403008 0 -0.016033395375402659 0.43223863988107353 0 0.002323448863637629 0.45150646839403008 0 -0.0069715382182276298 0.500000000000004 0 -0.013826213567282589 0.47824270284203269 0 0.0029393931019532859 0.48589719718991148 0 -0.0069715382182276298 0.500000000000004 0 -0.013826213567282589 0.47824270284203269 0 -0.0010088918709907711 0.46772692835726898 0 -0.013826213567282589 0.47824270284203269 0 0.0029393931019532859 0.48589719718991148 0 -0.032039605188791828 0.46665098116835241 0 -0.013826213567282589 0.47824270284203269 0 -0.032703277413622521 0.48093599743117138 0 -0.0069715382182276298 0.500000000000004 0 -0.013826213567282589 0.47824270284203269 0 -0.032301803555956472 0.5 0 -0.013826213567282589 0.47824270284203269 0 -0.032301803555956472 0.5 0 -0.032703277413622521 0.48093599743117138 0 -0.032301803555956472 0.5 0 -0.032703277413622521 0.48093599743117138 0 -0.05763206889368544 0.5 0 -0.032703277413622521 0.48093599743117138 0 -0.048522482928695203 0.47028939646773749 0 -0.05763206889368544 0.5 0 -0.032039605188791828 0.46665098116835241 0 -0.032703277413622521 0.48093599743117138 0 -0.048522482928695203 0.47028939646773749 0 -0.048522482928695203 0.47028939646773749 0 -0.05763206889368544 0.5 0 -0.069696574416503135 0.47722307499210209 0 -0.05763206889368544 0.5 0 -0.082962334231414303 0.5 0 -0.069696574416503135 0.47722307499210209 0 -0.082962334231414303 0.5 0 -0.092685629969541522 0.47901588822194752 0 -0.069696574416503135 0.47722307499210209 0 -0.092685629969541522 0.47901588822194752 0 -0.069696574416503135 0.47722307499210209 0 -0.077078660369940405 0.45803177644389359 0 -0.05929827010574195 0.45600138881903451 0 -0.069696574416503135 0.47722307499210209 0 -0.077078660369940405 0.45803177644389359 0 -0.05929827010574195 0.45600138881903451 0 -0.077078660369940405 0.45803177644389359 0 -0.081159774486079611 0.44085646489599473 0 -0.058184609343473387 0.43814013154075238 0 -0.081159774486079611 0.44085646489599473 0 -0.058184609343473387 0.43814013154075238 0 -0.05929827010574195 0.45600138881903451 0 -0.081159774486079611 0.44085646489599473 0 -0.077078660369940405 0.45803177644389359 0 -0.081159774486079611 0.44085646489599473 0 -0.09567527663695867 0.45814758617391022 0 -0.081159774486079611 0.44085646489599473 0 -0.09567527663695867 0.45814758617391022 0 -0.10413493962868579 0.44357279825123702 0 -0.094048330652057061 0.43219851583660701 0 -0.081159774486079611 0.44085646489599473 0 -0.10413493962868579 0.44357279825123702 0 -0.081159774486079611 0.44085646489599473 0 -0.10413493962868579 0.44357279825123702 0 -0.092685629969541522 0.47901588822194752 0 -0.077078660369940405 0.45803177644389359 0 -0.09567527663695867 0.45814758617391022 0 -0.092685629969541522 0.47901588822194752 0 -0.077078660369940405 0.45803177644389359 0 -0.092685629969541522 0.47901588822194752 0 -0.09567527663695867 0.45814758617391022 0 -0.1100799284683566 0.46889225312778371 0 -0.09567527663695867 0.45814758617391022 0 -0.1142199275909497 0.4561264262978349 0 -0.1100799284683566 0.46889225312778371 0 -0.09567527663695867 0.45814758617391022 0 -0.10413493962868579 0.44357279825123702 0 -0.1142199275909497 0.4561264262978349 0 -0.10413493962868579 0.44357279825123702 0 -0.1230046864836971 0.44912249390313519 0 -0.1142199275909497 0.4561264262978349 0 -0.127110104771292 0.44628913160647932 0 -0.11303687166995301 0.43406456449401032 0 -0.10413493962868579 0.44357279825123702 0 -0.127110104771292 0.44628913160647932 0 -0.10413493962868579 0.44357279825123702 0 -0.127110104771292 0.44628913160647932 0 -0.10413493962868579 0.44357279825123702 0 -0.1230046864836971 0.44912249390313519 0 -0.127110104771292 0.44628913160647932 0 -0.12582028798773601 0.43557595697160212 0 -0.11303687166995301 0.43406456449401032 0 -0.1142199275909497 0.4561264262978349 0 -0.122377696522578 0.46366266860828159 0 -0.1100799284683566 0.46889225312778371 0 -0.1142199275909497 0.4561264262978349 0 -0.1212787194279505 0.45611031657001838 0 -0.122377696522578 0.46366266860828159 0 -0.1230046864836971 0.44912249390313519 0 -0.1142199275909497 0.4561264262978349 0 -0.1212787194279505 0.45611031657001838 0 -0.12695833985532259 0.45756942101487302 0 -0.1230046864836971 0.44912249390313519 0 -0.1212787194279505 0.45611031657001838 0 -0.12695833985532259 0.45756942101487302 0 -0.1212787194279505 0.45611031657001838 0 -0.122377696522578 0.46366266860828159 0 -0.1202814620937747 0.47400449053672777 0 -0.1100799284683566 0.46889225312778371 0 -0.1149921912092071 0.48466225520027822 0 -0.122377696522578 0.46366266860828159 0 -0.1202814620937747 0.47400449053672777 0 -0.1100799284683566 0.46889225312778371 0 -0.13118830386020741 0.47279695520388898 0 -0.122377696522578 0.46366266860828159 0 -0.1202814620937747 0.47400449053672777 0 -0.13025054025300761 0.4826643573959446 0 -0.1202814620937747 0.47400449053672777 0 -0.1149921912092071 0.48466225520027822 0 -0.13072716435958551 0.5 0 -0.1149921912092071 0.48466225520027822 0 -0.1082925995691431 0.500000000000001 0 -0.092685629969541522 0.47901588822194752 0 -0.1149921912092071 0.48466225520027822 0 -0.1082925995691431 0.500000000000001 0 -0.082962334231414303 0.5 0 -0.092685629969541522 0.47901588822194752 0 -0.1082925995691431 0.500000000000001 0 -0.092685629969541522 0.47901588822194752 0 -0.1082925995691431 0.500000000000001 0 -0.092685629969541522 0.47901588822194752 0 -0.1100799284683566 0.46889225312778371 0 -0.1149921912092071 0.48466225520027822 0 -0.16551667938077999 0.082513341348645422 0 -0.18061203251984309 0.088411149822470045 0 -0.15845715010614481 0.1024475037244037 0 -0.16551667938077999 0.082513341348645422 0 -0.1779769976040485 0.070483681216973737 0 -0.15227507201302931 0.067704650908776975 0 -0.1779769976040485 0.070483681216973737 0 -0.15227507201302931 0.067704650908776975 0 -0.16551667938077999 0.082513341348645422 0 -0.1779769976040485 0.070483681216973737 0 -0.18046598584485901 0.079275229112162754 0 -0.1779769976040485 0.070483681216973737 0 -0.18046598584485901 0.079275229112162754 0 -0.18910017081947189 0.077161513519462682 0 -0.18046598584485901 0.079275229112162754 0 -0.18061203251984309 0.088411149822470045 0 -0.18910017081947189 0.077161513519462682 0 -0.16551667938077999 0.082513341348645422 0 -0.18046598584485901 0.079275229112162754 0 -0.18061203251984309 0.088411149822470045 0 -0.18061203251984309 0.088411149822470045 0 -0.18304777783487139 0.10237327216028309 0 -0.19093275783285291 0.088805127310320892 0 -0.18061203251984309 0.088411149822470045 0 -0.18304777783487139 0.10237327216028309 0 -0.15845715010614481 0.1024475037244037 0 -0.18304777783487139 0.10237327216028309 0 -0.18474758124021831 0.1190606682750298 0 -0.16651351196849409 0.11658148297790701 0 -0.18474758124021831 0.1190606682750298 0 -0.16651351196849409 0.11658148297790701 0 -0.16571361671932719 0.13582776304223659 0 -0.18061203251984309 0.088411149822470045 0 -0.15845715010614481 0.1024475037244037 0 -0.18304777783487139 0.10237327216028309 0 -0.16651351196849409 0.11658148297790701 0 -0.15845715010614481 0.1024475037244037 0 -0.15845715010614481 0.1024475037244037 0 -0.13630226769244641 0.1164838576263373 0 -0.14343982139728759 0.087265855055837865 0 -0.16651351196849409 0.11658148297790701 0 -0.13630226769244641 0.1164838576263373 0 -0.16571361671932719 0.13582776304223659 0 -0.16651351196849409 0.11658148297790701 0 -0.15845715010614481 0.1024475037244037 0 -0.13630226769244641 0.1164838576263373 0 -0.15845715010614481 0.1024475037244037 0 -0.13630226769244641 0.1164838576263373 0 -0.13630226769244641 0.1164838576263373 0 -0.1141473852787479 0.13052021152827101 0 -0.13630226769244641 0.1164838576263373 0 -0.14343982139728759 0.087265855055837865 0 -0.12224603600437969 0.092446361399098009 0 -0.14343982139728759 0.087265855055837865 0 -0.1265731464220102 0.064925620600580214 0 -0.12224603600437969 0.092446361399098009 0 -0.16551667938077999 0.082513341348645422 0 -0.15845715010614481 0.1024475037244037 0 -0.14343982139728759 0.087265855055837865 0 -0.16551667938077999 0.082513341348645422 0 -0.14343982139728759 0.087265855055837865 0 -0.15227507201302931 0.067704650908776975 0 -0.14343982139728759 0.087265855055837865 0 -0.15227507201302931 0.067704650908776975 0 -0.1265731464220102 0.064925620600580214 0 -0.15227507201302931 0.067704650908776975 0 -0.1265731464220102 0.064925620600580214 0 -0.1265731464220102 0.064925620600580214 0 -0.12528265127355759 0.04616558801098529 0 -0.1453167611995381 0.043175211335080017 0 -0.12528265127355759 0.04616558801098529 0 -0.1453167611995381 0.043175211335080017 0 -0.1303499436086531 0.02861210326272131 0 -0.15227507201302931 0.067704650908776975 0 -0.1453167611995381 0.043175211335080017 0 -0.17039428443984389 0.047793588559997248 0 -0.15227507201302931 0.067704650908776975 0 -0.1265731464220102 0.064925620600580214 0 -0.1453167611995381 0.043175211335080017 0 -0.13462794717459339 0.0001373875200551381 0 -0.1303499436086531 0.02861210326272131 0 -0.11854375220917759 0.012447116600704021 0 -0.13462794717459339 0.0001373875200551381 0 -0.1303499436086531 0.02861210326272131 0 -0.14662316452295349 0.016804825748710919 0 -0.1453167611995381 0.043175211335080017 0 -0.14662316452295349 0.016804825748710919 0 -0.16616568839751999 0.0215291544661559 0 -0.1453167611995381 0.043175211335080017 0 -0.1303499436086531 0.02861210326272131 0 -0.14662316452295349 0.016804825748710919 0 -0.162708168390197 -0.0035735325303842269 0 -0.13462794717459339 0.0001373875200551381 0 -0.14662316452295349 0.016804825748710919 0 -0.162708168390197 -0.0035735325303842269 0 -0.14662316452295349 0.016804825748710919 0 -0.16616568839751999 0.0215291544661559 0 -0.16616568839751999 0.0215291544661559 0 -0.18707532562806251 0.02852451165415288 0 -0.1903622337904419 0.00073110470842471559 0 -0.16616568839751999 0.0215291544661559 0 -0.18707532562806251 0.02852451165415288 0 -0.162708168390197 -0.0035735325303842269 0 -0.16616568839751999 0.0215291544661559 0 -0.1903622337904419 0.00073110470842471559 0 -0.1779769976040485 0.070483681216973737 0 -0.15227507201302931 0.067704650908776975 0 -0.17039428443984389 0.047793588559997248 0 -0.1453167611995381 0.043175211335080017 0 -0.16616568839751999 0.0215291544661559 0 -0.17039428443984389 0.047793588559997248 0 -0.16616568839751999 0.0215291544661559 0 -0.18707532562806251 0.02852451165415288 0 -0.17039428443984389 0.047793588559997248 0 -0.18707532562806251 0.02852451165415288 0 -0.17039428443984389 0.047793588559997248 0 -0.1942462450994826 0.052219746258991978 0 -0.1779769976040485 0.070483681216973737 0 -0.17039428443984389 0.047793588559997248 0 -0.1942462450994826 0.052219746258991978 0 -0.18707532562806251 0.02852451165415288 0 -0.20798496285860499 0.035519868842149853 0 -0.18707532562806251 0.02852451165415288 0 -0.1942462450994826 0.052219746258991978 0 -0.20798496285860499 0.035519868842149853 0 -0.20798496285860499 0.035519868842149853 0 -0.22889460008914761 0.042515226030146583 0 -0.1942462450994826 0.052219746258991978 0 -0.20798496285860499 0.035519868842149853 0 -0.2077857594558552 0.049070936282641038 0 -0.20798496285860499 0.035519868842149853 0 -0.2077857594558552 0.049070936282641038 0 -0.2207778955732668 0.047619569973713319 0 -0.1942462450994826 0.052219746258991978 0 -0.21373718892460361 0.060997866090993093 0 -0.2036789231950677 0.073262711525169888 0 -0.21373718892460361 0.060997866090993093 0 -0.2077857594558552 0.049070936282641038 0 -0.2207778955732668 0.047619569973713319 0 -0.1942462450994826 0.052219746258991978 0 -0.21373718892460361 0.060997866090993093 0 -0.2077857594558552 0.049070936282641038 0 -0.18707532562806251 0.02852451165415288 0 -0.1903622337904419 0.00073110470842471559 0 -0.2061439563615938 0.016424364768324901 0 -0.18707532562806251 0.02852451165415288 0 -0.20798496285860499 0.035519868842149853 0 -0.2061439563615938 0.016424364768324901 0 -0.2061439563615938 0.016424364768324901 0 -0.223604335263451 0.01343528149547835 0 -0.2205790199862411 0.032623206155060577 0 -0.20798496285860499 0.035519868842149853 0 -0.2061439563615938 0.016424364768324901 0 -0.2205790199862411 0.032623206155060577 0 -0.21530102755693351 -0.01197061959936772 0 -0.1903622337904419 0.00073110470842471559 0 -0.2061439563615938 0.016424364768324901 0 -0.21530102755693351 -0.01197061959936772 0 -0.2061439563615938 0.016424364768324901 0 -0.223604335263451 0.01343528149547835 0 -0.21530102755693351 -0.01197061959936772 0 -0.223604335263451 0.01343528149547835 0 -0.21530102755693351 -0.01197061959936772 0 -0.223604335263451 0.01343528149547835 0 -0.22989434843903819 0.00062340882394032373 0 -0.223604335263451 0.01343528149547835 0 -0.22989434843903819 0.00062340882394032373 0 -0.24396522868510681 0.011082239745400501 0 -0.223604335263451 0.01343528149547835 0 -0.23190764296996269 0.03884118259032647 0 -0.23418409884176331 0.03606531842484291 0 -0.223604335263451 0.01343528149547835 0 -0.23190764296996269 0.03884118259032647 0 -0.223604335263451 0.01343528149547835 0 -0.24396522868510681 0.011082239745400501 0 -0.23418409884176331 0.03606531842484291 0 -0.223604335263451 0.01343528149547835 0 -0.2205790199862411 0.032623206155060577 0 -0.23190764296996269 0.03884118259032647 0 -0.24712558119618661 0.020284737056821159 0 -0.23418409884176331 0.03606531842484291 0 -0.24411737960083171 0.037214195760142399 0 -0.24396522868510681 0.011082239745400501 0 -0.23418409884176331 0.03606531842484291 0 -0.24712558119618661 0.020284737056821159 0 -0.24396522868510681 0.011082239745400501 0 -0.23418409884176331 0.03606531842484291 0 -0.24712558119618661 0.020284737056821159 0 -0.23418409884176331 0.03606531842484291 0 -0.24712558119618661 0.020284737056821159 0 -0.24396522868510681 0.011082239745400501 0 -0.23670680225066101 -0.01005326634575009 0 -0.24396522868510681 0.011082239745400501 0 -0.23670680225066101 -0.01005326634575009 0 -0.22989434843903819 0.00062340882394032373 0 -0.24396522868510681 0.011082239745400501 0 -0.25244635663921139 -0.01058035858029167 0 -0.24396522868510681 0.011082239745400501 0 -0.2365299022825417 0.052984059993001507 0 -0.23212711339811479 0.064543631265989637 0 -0.22024123516086361 0.063303839265187317 0 -0.2365299022825417 0.052984059993001507 0 -0.22024123516086361 0.063303839265187317 0 -0.22379545465414211 0.048733020656818282 0 -0.2365299022825417 0.052984059993001507 0 -0.22024123516086361 0.063303839265187317 0 -0.2290225020661637 0.049249130563287002 0 -0.23362571704814589 0.044098029818737401 0 -0.2365299022825417 0.052984059993001507 0 -0.2290225020661637 0.049249130563287002 0 -0.22379545465414211 0.048733020656818282 0 -0.2365299022825417 0.052984059993001507 0 -0.22379545465414211 0.048733020656818282 0 -0.2365299022825417 0.052984059993001507 0 -0.21373718892460361 0.060997866090993093 0 -0.22379545465414211 0.048733020656818282 0 -0.21373718892460361 0.060997866090993093 0 -0.22379545465414211 0.048733020656818282 0 -0.22024123516086361 0.063303839265187317 0 -0.21373718892460361 0.060997866090993093 0 -0.22379545465414211 0.048733020656818282 0 -0.2207778955732668 0.047619569973713319 0 -0.22379545465414211 0.048733020656818282 0 -0.2207778955732668 0.047619569973713319 0 -0.22379545465414211 0.048733020656818282 0 -0.2207778955732668 0.047619569973713319 0 -0.22889460008914761 0.042515226030146583 0 -0.20798496285860499 0.035519868842149853 0 -0.2205790199862411 0.032623206155060577 0 -0.22889460008914761 0.042515226030146583 0 -0.20798496285860499 0.035519868842149853 0 -0.2207778955732668 0.047619569973713319 0 -0.22889460008914761 0.042515226030146583 0 -0.22379545465414211 0.048733020656818282 0 -0.22889460008914761 0.042515226030146583 0 -0.2205790199862411 0.032623206155060577 0 -0.23190764296996269 0.03884118259032647 0 -0.22889460008914761 0.042515226030146583 0 -0.23418409884176331 0.03606531842484291 0 -0.23244891775487481 0.040497338683369383 0 -0.23190764296996269 0.03884118259032647 0 -0.23418409884176331 0.03606531842484291 0 -0.23244891775487481 0.040497338683369383 0 -0.23190764296996269 0.03884118259032647 0 -0.23418409884176331 0.03606531842484291 0 -0.2290225020661637 0.049249130563287002 0 -0.22379545465414211 0.048733020656818282 0 -0.22889460008914761 0.042515226030146583 0 -0.2290225020661637 0.049249130563287002 0 -0.22889460008914761 0.042515226030146583 0 -0.23133875747473931 0.043332923331511182 0 -0.2290225020661637 0.049249130563287002 0 -0.23133875747473931 0.043332923331511182 0 -0.23190764296996269 0.03884118259032647 0 -0.22889460008914761 0.042515226030146583 0 -0.22889460008914761 0.042515226030146583 0 -0.23133875747473931 0.043332923331511182 0 -0.22889460008914761 0.042515226030146583 0 -0.23244891775487481 0.040497338683369383 0 -0.23133875747473931 0.043332923331511182 0 -0.23244891775487481 0.040497338683369383 0 -0.23133875747473931 0.043332923331511182 0 -0.23190764296996269 0.03884118259032647 0 -0.22889460008914761 0.042515226030146583 0 -0.23244891775487481 0.040497338683369383 0 -0.23190764296996269 0.03884118259032647 0 -0.23244891775487481 0.040497338683369383 0 -0.23244891775487481 0.040497338683369383 0 -0.23362571704814589 0.044098029818737401 0 -0.23244891775487481 0.040497338683369383 0 -0.23362571704814589 0.044098029818737401 0 -0.23133875747473931 0.043332923331511182 0 -0.2290225020661637 0.049249130563287002 0 -0.23362571704814589 0.044098029818737401 0 -0.23133875747473931 0.043332923331511182 0 -0.23362571704814589 0.044098029818737401 0 -0.23133875747473931 0.043332923331511182 0 -0.25445515451353462 0.041627412758430252 0 -0.24712558119618661 0.020284737056821159 0 -0.24411737960083171 0.037214195760142399 0 -0.23362571704814589 0.044098029818737401 0 -0.2447050572814031 0.047804643256565749 0 -0.23362571704814589 0.044098029818737401 0 -0.23878067565501501 0.040420605745962103 0 -0.2447050572814031 0.047804643256565749 0 -0.23244891775487481 0.040497338683369383 0 -0.23362571704814589 0.044098029818737401 0 -0.23878067565501501 0.040420605745962103 0 -0.23418409884176331 0.03606531842484291 0 -0.23878067565501501 0.040420605745962103 0 -0.24411737960083171 0.037214195760142399 0 -0.23418409884176331 0.03606531842484291 0 -0.23244891775487481 0.040497338683369383 0 -0.23878067565501501 0.040420605745962103 0 -0.25445515451353462 0.041627412758430252 0 -0.24411737960083171 0.037214195760142399 0 -0.2447050572814031 0.047804643256565749 0 -0.25445515451353462 0.041627412758430252 0 -0.2447050572814031 0.047804643256565749 0 -0.23878067565501501 0.040420605745962103 0 -0.24411737960083171 0.037214195760142399 0 -0.2447050572814031 0.047804643256565749 0 -0.26169845267323261 0.062718867463793793 0 -0.2365299022825417 0.052984059993001507 0 -0.25811756134856428 0.052291820901049349 0 -0.2447050572814031 0.047804643256565749 0 -0.2365299022825417 0.052984059993001507 0 -0.23362571704814589 0.044098029818737401 0 -0.2365299022825417 0.052984059993001507 0 -0.23362571704814589 0.044098029818737401 0 -0.2447050572814031 0.047804643256565749 0 -0.2365299022825417 0.052984059993001507 0 -0.2447050572814031 0.047804643256565749 0 -0.2365299022825417 0.052984059993001507 0 -0.2365299022825417 0.052984059993001507 0 -0.244603698784257 0.07768771817751037 0 -0.244603698784257 0.07768771817751037 0 -0.23212711339811479 0.064543631265989637 0 -0.22715220316245649 0.075800768692566828 0 -0.244603698784257 0.07768771817751037 0 -0.22715220316245649 0.075800768692566828 0 -0.2365299022825417 0.052984059993001507 0 -0.244603698784257 0.07768771817751037 0 -0.23212711339811479 0.064543631265989637 0 -0.26169845267323261 0.062718867463793793 0 -0.2365299022825417 0.052984059993001507 0 -0.244603698784257 0.07768771817751037 0 -0.25041198015142918 0.095459505898848926 0 -0.244603698784257 0.07768771817751037 0 -0.244603698784257 0.07768771817751037 0 -0.23878209165694411 0.085630137295706413 0 -0.22715220316245649 0.075800768692566828 0 -0.25041198015142918 0.095459505898848926 0 -0.244603698784257 0.07768771817751037 0 -0.23878209165694411 0.085630137295706413 0 -0.25041198015142918 0.095459505898848926 0 -0.23878209165694411 0.085630137295706413 0 -0.23005150519205089 0.1001529533237577 0 -0.25041198015142918 0.095459505898848926 0 -0.23878209165694411 0.085630137295706413 0 -0.23878209165694411 0.085630137295706413 0 -0.22232738478282671 0.087611245987071679 0 -0.23005150519205089 0.1001529533237577 0 -0.23878209165694411 0.085630137295706413 0 -0.22232738478282671 0.087611245987071679 0 -0.22715220316245649 0.075800768692566828 0 -0.23878209165694411 0.085630137295706413 0 -0.22715220316245649 0.075800768692566828 0 -0.22232738478282671 0.087611245987071679 0 -0.22715220316245649 0.075800768692566828 0 -0.21505853266560709 0.080962433262476985 0 -0.23212711339811479 0.064543631265989637 0 -0.22715220316245649 0.075800768692566828 0 -0.22578305267013729 0.067780797573285603 0 -0.22715220316245649 0.075800768692566828 0 -0.2231046497755646 0.072379850753457389 0 -0.22715220316245649 0.075800768692566828 0 -0.2231046497755646 0.072379850753457389 0 -0.22578305267013729 0.067780797573285603 0 -0.23212711339811479 0.064543631265989637 0 -0.22024123516086361 0.063303839265187317 0 -0.22578305267013729 0.067780797573285603 0 -0.2231046497755646 0.072379850753457389 0 -0.22024123516086361 0.063303839265187317 0 -0.22578305267013729 0.067780797573285603 0 -0.22715220316245649 0.075800768692566828 0 -0.2231046497755646 0.072379850753457389 0 -0.2036789231950677 0.073262711525169888 0 -0.22715220316245649 0.075800768692566828 0 -0.2036789231950677 0.073262711525169888 0 -0.22715220316245649 0.075800768692566828 0 -0.2036789231950677 0.073262711525169888 0 -0.21505853266560709 0.080962433262476985 0 -0.21373718892460361 0.060997866090993093 0 -0.22024123516086361 0.063303839265187317 0 -0.2036789231950677 0.073262711525169888 0 -0.22024123516086361 0.063303839265187317 0 -0.2036789231950677 0.073262711525169888 0 -0.2231046497755646 0.072379850753457389 0 -0.22024123516086361 0.063303839265187317 0 -0.2036789231950677 0.073262711525169888 0 -0.21373718892460361 0.060997866090993093 0 -0.2036789231950677 0.073262711525169888 0 -0.2036789231950677 0.073262711525169888 0 -0.2074189594356155 0.080497030347551582 0 -0.20375315101541619 0.078172072181257976 0 -0.22232738478282671 0.087611245987071679 0 -0.21505853266560709 0.080962433262476985 0 -0.2112980095145571 0.086733108060873462 0 -0.21505853266560709 0.080962433262476985 0 -0.2112980095145571 0.086733108060873462 0 -0.2074189594356155 0.080497030347551582 0 -0.22232738478282671 0.087611245987071679 0 -0.2112980095145571 0.086733108060873462 0 -0.21190264285907109 0.096316805323259091 0 -0.2112980095145571 0.086733108060873462 0 -0.20377037746341911 0.087265421738478441 0 -0.21190264285907109 0.096316805323259091 0 -0.20377037746341911 0.087265421738478441 0 -0.19945285021484571 0.094731556494637451 0 -0.21190264285907109 0.096316805323259091 0 -0.2036789231950677 0.073262711525169888 0 -0.21505853266560709 0.080962433262476985 0 -0.2074189594356155 0.080497030347551582 0 -0.2112980095145571 0.086733108060873462 0 -0.20377037746341911 0.087265421738478441 0 -0.2074189594356155 0.080497030347551582 0 -0.20377037746341911 0.087265421738478441 0 -0.2074189594356155 0.080497030347551582 0 -0.20078711137827959 0.08223609194224743 0 -0.2074189594356155 0.080497030347551582 0 -0.20375315101541619 0.078172072181257976 0 -0.20078711137827959 0.08223609194224743 0 -0.18061203251984309 0.088411149822470045 0 -0.2036789231950677 0.073262711525169888 0 -0.19093275783285291 0.088805127310320892 0 -0.18061203251984309 0.088411149822470045 0 -0.2036789231950677 0.073262711525169888 0 -0.2036789231950677 0.073262711525169888 0 -0.20078711137827959 0.08223609194224743 0 -0.19093275783285291 0.088805127310320892 0 -0.2036789231950677 0.073262711525169888 0 -0.19093275783285291 0.088805127310320892 0 -0.18061203251984309 0.088411149822470045 0 -0.2036789231950677 0.073262711525169888 0 -0.18910017081947189 0.077161513519462682 0 -0.20377037746341911 0.087265421738478441 0 -0.20078711137827959 0.08223609194224743 0 -0.19886775399102641 0.088262502963476611 0 -0.19886775399102641 0.088262502963476611 0 -0.19093275783285291 0.088805127310320892 0 -0.19945285021484571 0.094731556494637451 0 -0.20078711137827959 0.08223609194224743 0 -0.19886775399102641 0.088262502963476611 0 -0.19093275783285291 0.088805127310320892 0 -0.20377037746341911 0.087265421738478441 0 -0.19886775399102641 0.088262502963476611 0 -0.19945285021484571 0.094731556494637451 0 -0.1779769976040485 0.070483681216973737 0 -0.2036789231950677 0.073262711525169888 0 -0.1779769976040485 0.070483681216973737 0 -0.2036789231950677 0.073262711525169888 0 -0.18910017081947189 0.077161513519462682 0 -0.1779769976040485 0.070483681216973737 0 -0.1942462450994826 0.052219746258991978 0 -0.2036789231950677 0.073262711525169888 0 -0.2036789231950677 0.073262711525169888 0 -0.20375315101541619 0.078172072181257976 0 -0.20078711137827959 0.08223609194224743 0 -0.18474758124021831 0.1190606682750298 0 -0.20161024723001739 0.1234918147197808 0 -0.19919498225168841 0.10516477921956439 0 -0.18304777783487139 0.10237327216028309 0 -0.19093275783285291 0.088805127310320892 0 -0.19945285021484571 0.094731556494637451 0 -0.18304777783487139 0.10237327216028309 0 -0.19945285021484571 0.094731556494637451 0 -0.19919498225168841 0.10516477921956439 0 -0.18304777783487139 0.10237327216028309 0 -0.18474758124021831 0.1190606682750298 0 -0.19919498225168841 0.10516477921956439 0 -0.19919498225168841 0.10516477921956439 0 -0.21190264285907109 0.096316805323259091 0 -0.21537145973784311 0.1137864083821528 0 -0.19945285021484571 0.094731556494637451 0 -0.19919498225168841 0.10516477921956439 0 -0.21190264285907109 0.096316805323259091 0 -0.20161024723001739 0.1234918147197808 0 -0.19919498225168841 0.10516477921956439 0 -0.21537145973784311 0.1137864083821528 0 -0.21537145973784311 0.1137864083821528 0 -0.23005150519205089 0.1001529533237577 0 -0.23441766722934709 0.12163303467759309 0 -0.21190264285907109 0.096316805323259091 0 -0.21537145973784311 0.1137864083821528 0 -0.23005150519205089 0.1001529533237577 0 -0.22232738478282671 0.087611245987071679 0 -0.21190264285907109 0.096316805323259091 0 -0.23005150519205089 0.1001529533237577 0 -0.25041198015142918 0.095459505898848926 0 -0.23005150519205089 0.1001529533237577 0 -0.24365668353991851 0.1103158310452878 0 -0.23005150519205089 0.1001529533237577 0 -0.24365668353991851 0.1103158310452878 0 -0.23441766722934709 0.12163303467759309 0 -0.25974558158685063 0.1240178302809503 0 -0.24365668353991851 0.1103158310452878 0 -0.23441766722934709 0.12163303467759309 0 -0.25974558158685063 0.1240178302809503 0 -0.23441766722934709 0.12163303467759309 0 -0.2430235962010098 0.1436194546799206 0 -0.21537145973784311 0.1137864083821528 0 -0.23441766722934709 0.12163303467759309 0 -0.21725360304044899 0.1410222241340259 0 -0.23441766722934709 0.12163303467759309 0 -0.2430235962010098 0.1436194546799206 0 -0.21725360304044899 0.1410222241340259 0 -0.2430235962010098 0.1436194546799206 0 -0.21725360304044899 0.1410222241340259 0 -0.2430235962010098 0.1436194546799206 0 -0.23163065584569989 0.15671878317254051 0 -0.21725360304044899 0.1410222241340259 0 -0.23163065584569989 0.15671878317254051 0 -0.21686618610641339 0.16255438782047951 0 -0.21725360304044899 0.1410222241340259 0 -0.2430235962010098 0.1436194546799206 0 -0.24831344054178331 0.1637394002861367 0 -0.23163065584569989 0.15671878317254051 0 -0.24831344054178331 0.1637394002861367 0 -0.23269645333884359 0.17265844894214 0 -0.23163065584569989 0.15671878317254051 0 -0.24874787384898819 0.1830412972832951 0 -0.23269645333884359 0.17265844894214 0 -0.24831344054178331 0.1637394002861367 0 -0.24874787384898819 0.1830412972832951 0 -0.23269645333884359 0.17265844894214 0 -0.24874787384898819 0.1830412972832951 0 -0.23269645333884359 0.17265844894214 0 -0.2328730057025151 0.19163072600959261 0 -0.23269645333884359 0.17265844894214 0 -0.21686618610641339 0.16255438782047951 0 -0.2175106442814945 0.18045622608277151 0 -0.23269645333884359 0.17265844894214 0 -0.2175106442814945 0.18045622608277151 0 -0.2328730057025151 0.19163072600959261 0 -0.23269645333884359 0.17265844894214 0 -0.23163065584569989 0.15671878317254051 0 -0.21686618610641339 0.16255438782047951 0 -0.21686618610641339 0.16255438782047951 0 -0.2175106442814945 0.18045622608277151 0 -0.1993156649334524 0.1712286082868236 0 -0.21686618610641339 0.16255438782047951 0 -0.1993156649334524 0.1712286082868236 0 -0.20114155687020299 0.15454469316283859 0 -0.2175106442814945 0.18045622608277151 0 -0.1993156649334524 0.1712286082868236 0 -0.20366911463215759 0.189605459115015 0 -0.1993156649334524 0.1712286082868236 0 -0.20366911463215759 0.189605459115015 0 -0.18451317790993851 0.18579882756111329 0 -0.1993156649334524 0.1712286082868236 0 -0.18078872039081209 0.15949325198473299 0 -0.18451317790993851 0.18579882756111329 0 -0.1993156649334524 0.1712286082868236 0 -0.20114155687020299 0.15454469316283859 0 -0.18078872039081209 0.15949325198473299 0 -0.20114155687020299 0.15454469316283859 0 -0.19148360987988811 0.13842499358813129 0 -0.18078872039081209 0.15949325198473299 0 -0.18474758124021831 0.1190606682750298 0 -0.20161024723001739 0.1234918147197808 0 -0.19148360987988811 0.13842499358813129 0 -0.19148360987988811 0.13842499358813129 0 -0.21725360304044899 0.1410222241340259 0 -0.20161024723001739 0.1234918147197808 0 -0.21537145973784311 0.1137864083821528 0 -0.21725360304044899 0.1410222241340259 0 -0.20161024723001739 0.1234918147197808 0 -0.19148360987988811 0.13842499358813129 0 -0.21725360304044899 0.1410222241340259 0 -0.21686618610641339 0.16255438782047951 0 -0.20114155687020299 0.15454469316283859 0 -0.21725360304044899 0.1410222241340259 0 -0.20114155687020299 0.15454469316283859 0 -0.19148360987988811 0.13842499358813129 0 -0.21725360304044899 0.1410222241340259 0 -0.21756598056284651 0.25733161983562519 0 -0.22830434625702359 0.2468110332162354 0 -0.22010331165371061 0.2337737342241725 0 -0.22830434625702359 0.2468110332162354 0 -0.2358747505108218 0.2387511746591626 0 -0.22010331165371061 0.2337737342241725 0 -0.22830434625702359 0.2468110332162354 0 -0.23934874357292579 0.2480449370432222 0 -0.2358747505108218 0.2387511746591626 0 -0.25265335745042522 0.25109173675386448 0 -0.23934874357292579 0.2480449370432222 0 -0.24714809219953521 0.23907318359254359 0 -0.23934874357292579 0.2480449370432222 0 -0.24714809219953521 0.23907318359254359 0 -0.2358747505108218 0.2387511746591626 0 -0.26210488409125532 0.22149916584928939 0 -0.24543730221246171 0.22482866379383809 0 -0.23285429876042971 0.22226269782102931 0 -0.26210488409125532 0.22149916584928939 0 -0.23285429876042971 0.22226269782102931 0 -0.25542566316957921 0.23151948133455191 0 -0.24714809219953521 0.23907318359254359 0 -0.24543730221246171 0.22482866379383809 0 -0.24714809219953521 0.23907318359254359 0 -0.2358747505108218 0.2387511746591626 0 -0.24543730221246171 0.22482866379383809 0 -0.24543730221246171 0.22482866379383809 0 -0.22010331165371061 0.2337737342241725 0 -0.2358747505108218 0.2387511746591626 0 -0.24543730221246171 0.22482866379383809 0 -0.22010331165371061 0.2337737342241725 0 -0.24543730221246171 0.22482866379383809 0 -0.23285429876042971 0.22226269782102931 0 -0.22010331165371061 0.2337737342241725 0 -0.23285429876042971 0.22226269782102931 0 -0.22729759957767459 0.222407745088817 0 -0.22010331165371061 0.2337737342241725 0 -0.23285429876042971 0.22226269782102931 0 -0.22729759957767459 0.222407745088817 0 -0.23285429876042971 0.22226269782102931 0 -0.22010331165371061 0.2337737342241725 0 -0.22729759957767459 0.222407745088817 0 -0.21769626104938941 0.212227764667521 0 -0.2149329683533738 0.2230470200897548 0 -0.22729759957767459 0.222407745088817 0 -0.22010331165371061 0.2337737342241725 0 -0.2149329683533738 0.2230470200897548 0 -0.22729759957767459 0.222407745088817 0 -0.23032399180043189 0.20920425070046639 0 -0.21769626104938941 0.212227764667521 0 -0.23032399180043189 0.20920425070046639 0 -0.21891397653586331 0.19717162137630789 0 -0.21769626104938941 0.212227764667521 0 -0.23285429876042971 0.22226269782102931 0 -0.22729759957767459 0.222407745088817 0 -0.23032399180043189 0.20920425070046639 0 -0.23285429876042971 0.22226269782102931 0 -0.24882679655978021 0.20784342172274001 0 -0.23285429876042971 0.22226269782102931 0 -0.23032399180043189 0.20920425070046639 0 -0.24882679655978021 0.20784342172274001 0 -0.26210488409125532 0.22149916584928939 0 -0.23285429876042971 0.22226269782102931 0 -0.24882679655978021 0.20784342172274001 0 -0.23032399180043189 0.20920425070046639 0 -0.24882679655978021 0.20784342172274001 0 -0.2328730057025151 0.19163072600959261 0 -0.24874787384898819 0.1830412972832951 0 -0.24882679655978021 0.20784342172274001 0 -0.2328730057025151 0.19163072600959261 0 -0.2175106442814945 0.18045622608277151 0 -0.2328730057025151 0.19163072600959261 0 -0.21891397653586331 0.19717162137630789 0 -0.23032399180043189 0.20920425070046639 0 -0.2328730057025151 0.19163072600959261 0 -0.21891397653586331 0.19717162137630789 0 -0.2175106442814945 0.18045622608277151 0 -0.21891397653586331 0.19717162137630789 0 -0.20366911463215759 0.189605459115015 0 -0.21891397653586331 0.19717162137630789 0 -0.20366911463215759 0.189605459115015 0 -0.20779159837589939 0.20371229867637261 0 -0.20366911463215759 0.189605459115015 0 -0.19426220433264341 0.20262791676471059 0 -0.18451317790993851 0.18579882756111329 0 -0.20366911463215759 0.189605459115015 0 -0.19426220433264341 0.20262791676471059 0 -0.20779159837589939 0.20371229867637261 0 -0.19426220433264341 0.20262791676471059 0 -0.2055957059285205 0.21731052707077059 0 -0.20779159837589939 0.20371229867637261 0 -0.19426220433264341 0.20262791676471059 0 -0.1895106839374209 0.2151670456570319 0 -0.2055957059285205 0.21731052707077059 0 -0.2055957059285205 0.21731052707077059 0 -0.20779159837589939 0.20371229867637261 0 -0.21769626104938941 0.212227764667521 0 -0.21891397653586331 0.19717162137630789 0 -0.20779159837589939 0.20371229867637261 0 -0.21769626104938941 0.212227764667521 0 -0.2055957059285205 0.21731052707077059 0 -0.21769626104938941 0.212227764667521 0 -0.2149329683533738 0.2230470200897548 0 -0.22010331165371061 0.2337737342241725 0 -0.2149329683533738 0.2230470200897548 0 -0.2039719635575741 0.22951532939749339 0 -0.2055957059285205 0.21731052707077059 0 -0.2149329683533738 0.2230470200897548 0 -0.2039719635575741 0.22951532939749339 0 -0.1895106839374209 0.2151670456570319 0 -0.2055957059285205 0.21731052707077059 0 -0.19446508841384461 0.22511007809741701 0 -0.2055957059285205 0.21731052707077059 0 -0.2039719635575741 0.22951532939749339 0 -0.19446508841384461 0.22511007809741701 0 -0.1895106839374209 0.2151670456570319 0 -0.19446508841384461 0.22511007809741701 0 -0.18040207170674791 0.22473697629001929 0 -0.19446508841384461 0.22511007809741701 0 -0.19077138905781249 0.23388665280819221 0 -0.18040207170674791 0.22473697629001929 0 -0.2039719635575741 0.22951532939749339 0 -0.19446508841384461 0.22511007809741701 0 -0.19077138905781249 0.23388665280819221 0 -0.2039719635575741 0.22951532939749339 0 -0.19077138905781249 0.23388665280819221 0 -0.1964044414331278 0.2421414670040076 0 -0.19077138905781249 0.23388665280819221 0 -0.1964044414331278 0.2421414670040076 0 -0.18168704518393969 0.23817631751491711 0 -0.18897318159134591 0.25305656382600289 0 -0.1964044414331278 0.2421414670040076 0 -0.2021388689083978 0.24999125155618579 0 -0.22010331165371061 0.2337737342241725 0 -0.1964044414331278 0.2421414670040076 0 -0.22010331165371061 0.2337737342241725 0 -0.1964044414331278 0.2421414670040076 0 -0.2021388689083978 0.24999125155618579 0 -0.21756598056284651 0.25733161983562519 0 -0.22010331165371061 0.2337737342241725 0 -0.2021388689083978 0.24999125155618579 0 -0.22010331165371061 0.2337737342241725 0 -0.2021388689083978 0.24999125155618579 0 -0.22010331165371061 0.2337737342241725 0 -0.2039719635575741 0.22951532939749339 0 -0.1964044414331278 0.2421414670040076 0 -0.15772669448088769 0.25199779342224932 0 -0.1560650075342723 0.23138274364362829 0 -0.15772669448088769 0.25199779342224932 0 -0.16821426293324271 0.23761465524414241 0 -0.1560650075342723 0.23138274364362829 0 -0.1727055712125449 0.25050919978384217 0 -0.15772669448088769 0.25199779342224932 0 -0.16821426293324271 0.23761465524414241 0 -0.1727055712125449 0.25050919978384217 0 -0.1964044414331278 0.2421414670040076 0 -0.18897318159134591 0.25305656382600289 0 -0.1727055712125449 0.25050919978384217 0 -0.1964044414331278 0.2421414670040076 0 -0.1727055712125449 0.25050919978384217 0 -0.1964044414331278 0.2421414670040076 0 -0.18168704518393969 0.23817631751491711 0 -0.1727055712125449 0.25050919978384217 0 -0.16821426293324271 0.23761465524414241 0 -0.18168704518393969 0.23817631751491711 0 -0.16821426293324271 0.23761465524414241 0 -0.18168704518393969 0.23817631751491711 0 -0.18040207170674791 0.22473697629001929 0 -0.19077138905781249 0.23388665280819221 0 -0.18168704518393969 0.23817631751491711 0 -0.18040207170674791 0.22473697629001929 0 -0.16681116151336409 0.2199351272261236 0 -0.15440332058765691 0.21076769386500729 0 -0.1560650075342723 0.23138274364362829 0 -0.16821426293324271 0.23761465524414241 0 -0.18040207170674791 0.22473697629001929 0 -0.16681116151336409 0.2199351272261236 0 -0.16821426293324271 0.23761465524414241 0 -0.16681116151336409 0.2199351272261236 0 -0.1560650075342723 0.23138274364362829 0 -0.16681116151336409 0.2199351272261236 0 -0.174780947413059 0.2060943986577303 0 -0.15440332058765691 0.21076769386500729 0 -0.19426220433264341 0.20262791676471059 0 -0.1895106839374209 0.2151670456570319 0 -0.174780947413059 0.2060943986577303 0 -0.18040207170674791 0.22473697629001929 0 -0.16681116151336409 0.2199351272261236 0 -0.174780947413059 0.2060943986577303 0 -0.1895106839374209 0.2151670456570319 0 -0.18040207170674791 0.22473697629001929 0 -0.174780947413059 0.2060943986577303 0 -0.174780947413059 0.2060943986577303 0 -0.162933983354073 0.19243835525494321 0 -0.18451317790993851 0.18579882756111329 0 -0.19426220433264341 0.20262791676471059 0 -0.174780947413059 0.2060943986577303 0 -0.18451317790993851 0.18579882756111329 0 -0.174780947413059 0.2060943986577303 0 -0.162933983354073 0.19243835525494321 0 -0.15440332058765691 0.21076769386500729 0 -0.162933983354073 0.19243835525494321 0 -0.14425244667512299 0.1903859913767425 0 -0.15440332058765691 0.21076769386500729 0 -0.14425244667512299 0.1903859913767425 0 -0.13629435900140599 0.20647606999940171 0 -0.15440332058765691 0.21076769386500729 0 -0.14425244667512299 0.1903859913767425 0 -0.13629435900140599 0.20647606999940171 0 -0.1212007918498524 0.19439131334972931 0 -0.13629435900140599 0.20647606999940171 0 -0.12249216748170259 0.21953456427116191 0 -0.1212007918498524 0.19439131334972931 0 -0.13629435900140599 0.20647606999940171 0 -0.14080915201373481 0.2210776791387194 0 -0.12249216748170259 0.21953456427116191 0 -0.13629435900140599 0.20647606999940171 0 -0.15440332058765691 0.21076769386500729 0 -0.14080915201373481 0.2210776791387194 0 -0.14080915201373481 0.2210776791387194 0 -0.1560650075342723 0.23138274364362829 0 -0.1347909054636364 0.23722732391439791 0 -0.15440332058765691 0.21076769386500729 0 -0.14080915201373481 0.2210776791387194 0 -0.1560650075342723 0.23138274364362829 0 -0.15440332058765691 0.21076769386500729 0 -0.1560650075342723 0.23138274364362829 0 -0.1347909054636364 0.23722732391439791 0 -0.12249216748170259 0.21953456427116191 0 -0.1347909054636364 0.23722732391439791 0 -0.1203586633445525 0.2418752357480258 0 -0.12249216748170259 0.21953456427116191 0 -0.14080915201373481 0.2210776791387194 0 -0.1347909054636364 0.23722732391439791 0 -0.12249216748170259 0.21953456427116191 0 -0.1275545426262219 0.25622480739562009 0 -0.1470896434455701 0.25492008355763379 0 -0.1347909054636364 0.23722732391439791 0 -0.1275545426262219 0.25622480739562009 0 -0.1347909054636364 0.23722732391439791 0 -0.1203586633445525 0.2418752357480258 0 -0.1470896434455701 0.25492008355763379 0 -0.1347909054636364 0.23722732391439791 0 -0.1470896434455701 0.25492008355763379 0 -0.1347909054636364 0.23722732391439791 0 -0.14934226285266031 0.24229912948510379 0 -0.15772669448088769 0.25199779342224932 0 -0.1560650075342723 0.23138274364362829 0 -0.14934226285266031 0.24229912948510379 0 -0.1560650075342723 0.23138274364362829 0 -0.1347909054636364 0.23722732391439791 0 -0.14934226285266031 0.24229912948510379 0 -0.15772669448088769 0.25199779342224932 0 -0.1470896434455701 0.25492008355763379 0 -0.14934226285266031 0.24229912948510379 0 -0.16571361671932719 0.13582776304223659 0 -0.18078872039081209 0.15949325198473299 0 -0.15729487954557211 0.1579153615499321 0 -0.19148360987988811 0.13842499358813129 0 -0.16571361671932719 0.13582776304223659 0 -0.18474758124021831 0.1190606682750298 0 -0.19148360987988811 0.13842499358813129 0 -0.16571361671932719 0.13582776304223659 0 -0.19148360987988811 0.13842499358813129 0 -0.16571361671932719 0.13582776304223659 0 -0.18078872039081209 0.15949325198473299 0 -0.18078872039081209 0.15949325198473299 0 -0.18451317790993851 0.18579882756111329 0 -0.16771039925498121 0.17651173034938181 0 -0.162933983354073 0.19243835525494321 0 -0.18451317790993851 0.18579882756111329 0 -0.16771039925498121 0.17651173034938181 0 -0.162933983354073 0.19243835525494321 0 -0.16771039925498121 0.17651173034938181 0 -0.15253648976412759 0.17622788735773329 0 -0.16771039925498121 0.17651173034938181 0 -0.15729487954557211 0.1579153615499321 0 -0.15253648976412759 0.17622788735773329 0 -0.18078872039081209 0.15949325198473299 0 -0.16771039925498121 0.17651173034938181 0 -0.15729487954557211 0.1579153615499321 0 -0.15729487954557211 0.1579153615499321 0 -0.13093738241875089 0.16963061631317869 0 -0.13921114140409421 0.14409220003028569 0 -0.15729487954557211 0.1579153615499321 0 -0.15253648976412759 0.17622788735773329 0 -0.13093738241875089 0.16963061631317869 0 -0.162933983354073 0.19243835525494321 0 -0.14425244667512299 0.1903859913767425 0 -0.15253648976412759 0.17622788735773329 0 -0.14425244667512299 0.1903859913767425 0 -0.15253648976412759 0.17622788735773329 0 -0.13093738241875089 0.16963061631317869 0 -0.14425244667512299 0.1903859913767425 0 -0.13093738241875089 0.16963061631317869 0 -0.1212007918498524 0.19439131334972931 0 -0.13093738241875089 0.16963061631317869 0 -0.13921114140409421 0.14409220003028569 0 -0.1195858627225137 0.1504057794478888 0 -0.16571361671932719 0.13582776304223659 0 -0.15729487954557211 0.1579153615499321 0 -0.13921114140409421 0.14409220003028569 0 -0.13630226769244641 0.1164838576263373 0 -0.16571361671932719 0.13582776304223659 0 -0.13921114140409421 0.14409220003028569 0 -0.13630226769244641 0.1164838576263373 0 -0.13921114140409421 0.14409220003028569 0 -0.1141473852787479 0.13052021152827101 0 -0.1141473852787479 0.13052021152827101 0 -0.09199250286504948 0.1445565654302047 0 -0.1141473852787479 0.13052021152827101 0 -0.09199250286504948 0.1445565654302047 0 -0.09010436070795097 0.11865627084901099 0 -0.1056723960601989 0.1634775342494689 0 -0.090764288997167417 0.1595688300927055 0 -0.09199250286504948 0.1445565654302047 0 -0.1195858627225137 0.1504057794478888 0 -0.1056723960601989 0.1634775342494689 0 -0.09199250286504948 0.1445565654302047 0 -0.1141473852787479 0.13052021152827101 0 -0.1195858627225137 0.1504057794478888 0 -0.09199250286504948 0.1445565654302047 0 -0.13921114140409421 0.14409220003028569 0 -0.1141473852787479 0.13052021152827101 0 -0.1195858627225137 0.1504057794478888 0 -0.13093738241875089 0.16963061631317869 0 -0.1195858627225137 0.1504057794478888 0 -0.1056723960601989 0.1634775342494689 0 -0.13093738241875089 0.16963061631317869 0 -0.10641802271770499 0.1825018393973856 0 -0.1056723960601989 0.1634775342494689 0 -0.13093738241875089 0.16963061631317869 0 -0.10641802271770499 0.1825018393973856 0 -0.1212007918498524 0.19439131334972931 0 -0.10641802271770499 0.1825018393973856 0 -0.1056723960601989 0.1634775342494689 0 -0.093305039612713303 0.1742152740143528 0 -0.10641802271770499 0.1825018393973856 0 -0.093305039612713303 0.1742152740143528 0 -0.091806956472232651 0.18863986941764241 0 -0.1056723960601989 0.1634775342494689 0 -0.090764288997167417 0.1595688300927055 0 -0.093305039612713303 0.1742152740143528 0 -0.090764288997167417 0.1595688300927055 0 -0.081875896857390662 0.16948586836724319 0 -0.067987776932815491 0.1544024986497313 0 -0.090764288997167417 0.1595688300927055 0 -0.081875896857390662 0.16948586836724319 0 -0.093305039612713303 0.1742152740143528 0 -0.082989246851742415 0.17911715744910819 0 -0.091806956472232651 0.18863986941764241 0 -0.074234272839033291 0.18792239219699519 0 -0.093305039612713303 0.1742152740143528 0 -0.082989246851742415 0.17911715744910819 0 -0.091806956472232651 0.18863986941764241 0 -0.081875896857390662 0.16948586836724319 0 -0.093305039612713303 0.1742152740143528 0 -0.082989246851742415 0.17911715744910819 0 -0.081875896857390662 0.16948586836724319 0 -0.082989246851742415 0.17911715744910819 0 -0.07372406847734217 0.17532238324930741 0 -0.06268100584981437 0.17855074953619551 0 -0.074234272839033291 0.18792239219699519 0 -0.056661589205834001 0.1872049149763457 0 -0.082989246851742415 0.17911715744910819 0 -0.07372406847734217 0.17532238324930741 0 -0.074234272839033291 0.18792239219699519 0 -0.07372406847734217 0.17532238324930741 0 -0.06268100584981437 0.17855074953619551 0 -0.074234272839033291 0.18792239219699519 0 -0.06268100584981437 0.17855074953619551 0 -0.067987776932815491 0.1544024986497313 0 -0.059409102531965997 0.1792476853983779 0 -0.07372406847734217 0.17532238324930741 0 -0.06268100584981437 0.17855074953619551 0 -0.067987776932815491 0.1544024986497313 0 -0.081875896857390662 0.16948586836724319 0 -0.07372406847734217 0.17532238324930741 0 -0.067987776932815491 0.1544024986497313 0 -0.067987776932815491 0.1544024986497313 0 -0.059409102531965997 0.1792476853983779 0 -0.067987776932815491 0.1544024986497313 0 -0.076566451333664146 0.12955731190108441 0 -0.053198364938297042 0.14425746926138339 0 -0.067987776932815491 0.1544024986497313 0 -0.076566451333664146 0.12955731190108441 0 -0.076566451333664146 0.12955731190108441 0 -0.09199250286504948 0.1445565654302047 0 -0.09010436070795097 0.11865627084901099 0 -0.090764288997167417 0.1595688300927055 0 -0.067987776932815491 0.1544024986497313 0 -0.09199250286504948 0.1445565654302047 0 -0.067987776932815491 0.1544024986497313 0 -0.076566451333664146 0.12955731190108441 0 -0.09199250286504948 0.1445565654302047 0 -0.097486038469424191 0.26030024180295708 0 -0.10492096951598121 0.24065333376338199 0 -0.089445423833849957 0.24623243253668231 0 -0.10492096951598121 0.24065333376338199 0 -0.094537446095903116 0.22511715968134799 0 -0.089445423833849957 0.24623243253668231 0 -0.11203473163522031 0.25573614939556721 0 -0.10492096951598121 0.24065333376338199 0 -0.1203586633445525 0.2418752357480258 0 -0.10492096951598121 0.24065333376338199 0 -0.1203586633445525 0.2418752357480258 0 -0.12249216748170259 0.21953456427116191 0 -0.10492096951598121 0.24065333376338199 0 -0.12249216748170259 0.21953456427116191 0 -0.094537446095903116 0.22511715968134799 0 -0.12249216748170259 0.21953456427116191 0 -0.094537446095903116 0.22511715968134799 0 -0.099924254307433291 0.20244783009960121 0 -0.12249216748170259 0.21953456427116191 0 -0.1212007918498524 0.19439131334972931 0 -0.099924254307433291 0.20244783009960121 0 -0.10641802271770499 0.1825018393973856 0 -0.1212007918498524 0.19439131334972931 0 -0.099924254307433291 0.20244783009960121 0 -0.10641802271770499 0.1825018393973856 0 -0.099924254307433291 0.20244783009960121 0 -0.091806956472232651 0.18863986941764241 0 -0.091806956472232651 0.18863986941764241 0 -0.083152599421316836 0.19700668729764639 0 -0.074234272839033291 0.18792239219699519 0 -0.099924254307433291 0.20244783009960121 0 -0.091806956472232651 0.18863986941764241 0 -0.083152599421316836 0.19700668729764639 0 -0.091806956472232651 0.18863986941764241 0 -0.074234272839033291 0.18792239219699519 0 -0.083152599421316836 0.19700668729764639 0 -0.071657685746920607 0.19934600827005949 0 -0.080314945684993144 0.21080286169765289 0 -0.074234272839033291 0.18792239219699519 0 -0.056661589205834001 0.1872049149763457 0 -0.083152599421316836 0.19700668729764639 0 -0.074234272839033291 0.18792239219699519 0 -0.071657685746920607 0.19934600827005949 0 -0.074234272839033291 0.18792239219699519 0 -0.061151937365747047 0.1934304905081311 0 -0.056661589205834001 0.1872049149763457 0 -0.074234272839033291 0.18792239219699519 0 -0.071657685746920607 0.19934600827005949 0 -0.061151937365747047 0.1934304905081311 0 -0.071657685746920607 0.19934600827005949 0 -0.064563499423906309 0.20892257787241739 0 -0.061151937365747047 0.1934304905081311 0 -0.064563499423906309 0.20892257787241739 0 -0.080314945684993144 0.21080286169765289 0 -0.063539721874015978 0.22227791383735149 0 -0.071657685746920607 0.19934600827005949 0 -0.064563499423906309 0.20892257787241739 0 -0.080314945684993144 0.21080286169765289 0 -0.094537446095903116 0.22511715968134799 0 -0.099924254307433291 0.20244783009960121 0 -0.080314945684993144 0.21080286169765289 0 -0.099924254307433291 0.20244783009960121 0 -0.083152599421316836 0.19700668729764639 0 -0.080314945684993144 0.21080286169765289 0 -0.094537446095903116 0.22511715968134799 0 -0.080314945684993144 0.21080286169765289 0 -0.078213868630265942 0.2342128225184322 0 -0.080314945684993144 0.21080286169765289 0 -0.078213868630265942 0.2342128225184322 0 -0.078213868630265942 0.2342128225184322 0 -0.063539721874015978 0.22227791383735149 0 -0.058148371363961601 0.2362581113826567 0 -0.080314945684993144 0.21080286169765289 0 -0.078213868630265942 0.2342128225184322 0 -0.063539721874015978 0.22227791383735149 0 -0.076112791575538755 0.25762278333921151 0 -0.078213868630265942 0.2342128225184322 0 -0.078213868630265942 0.2342128225184322 0 -0.065193502800950487 0.24850912018109891 0 -0.058148371363961601 0.2362581113826567 0 -0.076112791575538755 0.25762278333921151 0 -0.078213868630265942 0.2342128225184322 0 -0.065193502800950487 0.24850912018109891 0 -0.094537446095903116 0.22511715968134799 0 -0.078213868630265942 0.2342128225184322 0 -0.089445423833849957 0.24623243253668231 0 -0.076112791575538755 0.25762278333921151 0 -0.078213868630265942 0.2342128225184322 0 -0.089445423833849957 0.24623243253668231 0 -0.02778340432653599 0.26386490528670109 0 -0.031830075697095631 0.24184151100741449 0 -0.039316470176893333 0.24038030446425521 0 -0.031830075697095631 0.24184151100741449 0 -0.035846002681948728 0.2277179277993466 0 -0.029419474288454699 0.23445740168245749 0 -0.039316470176893333 0.24038030446425521 0 -0.048192472845512938 0.24094223045964119 0 -0.049878989630919378 0.23220601941294891 0 -0.039316470176893333 0.24038030446425521 0 -0.04465905322569709 0.24829368723303011 0 -0.048192472845512938 0.24094223045964119 0 -0.039560235199694357 0.25517536691588882 0 -0.039316470176893333 0.24038030446425521 0 -0.04465905322569709 0.24829368723303011 0 -0.04465905322569709 0.24829368723303011 0 -0.05307390100616708 0.24678158754836091 0 -0.048192472845512938 0.24094223045964119 0 -0.065193502800950487 0.24850912018109891 0 -0.05307390100616708 0.24678158754836091 0 -0.058148371363961601 0.2362581113826567 0 -0.058148371363961601 0.2362581113826567 0 -0.048192472845512938 0.24094223045964119 0 -0.049878989630919378 0.23220601941294891 0 -0.05307390100616708 0.24678158754836091 0 -0.058148371363961601 0.2362581113826567 0 -0.048192472845512938 0.24094223045964119 0 -0.058148371363961601 0.2362581113826567 0 -0.049878989630919378 0.23220601941294891 0 -0.054945308329015299 0.22615802598790491 0 -0.063539721874015978 0.22227791383735149 0 -0.058148371363961601 0.2362581113826567 0 -0.054945308329015299 0.22615802598790491 0 -0.063539721874015978 0.22227791383735149 0 -0.054945308329015299 0.22615802598790491 0 -0.056140962165456963 0.22046796113382891 0 -0.063539721874015978 0.22227791383735149 0 -0.056140962165456963 0.22046796113382891 0 -0.058697155221278573 0.21712810830687601 0 -0.054945308329015299 0.22615802598790491 0 -0.056140962165456963 0.22046796113382891 0 -0.050849536027250682 0.21689570364180921 0 -0.049878989630919378 0.23220601941294891 0 -0.054945308329015299 0.22615802598790491 0 -0.050849536027250682 0.21689570364180921 0 -0.039316470176893333 0.24038030446425521 0 -0.049878989630919378 0.23220601941294891 0 -0.050849536027250682 0.21689570364180921 0 -0.039480679328800762 0.21992691859097871 0 -0.035846002681948728 0.2277179277993466 0 -0.046491006531421339 0.21763600075777281 0 -0.031830075697095631 0.24184151100741449 0 -0.035846002681948728 0.2277179277993466 0 -0.046491006531421339 0.21763600075777281 0 -0.039316470176893333 0.24038030446425521 0 -0.050849536027250682 0.21689570364180921 0 -0.031830075697095631 0.24184151100741449 0 -0.046491006531421339 0.21763600075777281 0 -0.039316470176893333 0.24038030446425521 0 -0.046491006531421339 0.21763600075777281 0 -0.050849536027250682 0.21689570364180921 0 -0.031830075697095631 0.24184151100741449 0 -0.039316470176893333 0.24038030446425521 0 -0.046491006531421339 0.21763600075777281 0 -0.035846002681948728 0.2277179277993466 0 -0.030136380373410779 0.2300209019951191 0 -0.029419474288454699 0.23445740168245749 0 -0.035846002681948728 0.2277179277993466 0 -0.031171147285321579 0.22489969448185479 0 -0.030136380373410779 0.2300209019951191 0 -0.035846002681948728 0.2277179277993466 0 -0.035487566908154987 0.22179307024827699 0 -0.031171147285321579 0.22489969448185479 0 -0.031470018115580423 0.21915173504707819 0 -0.035487566908154987 0.22179307024827699 0 -0.031171147285321579 0.22489969448185479 0 -0.031470018115580423 0.21915173504707819 0 -0.035487566908154987 0.22179307024827699 0 -0.037510501467162907 0.2165846373471568 0 -0.039480679328800762 0.21992691859097871 0 -0.035487566908154987 0.22179307024827699 0 -0.037510501467162907 0.2165846373471568 0 -0.039480679328800762 0.21992691859097871 0 -0.035846002681948728 0.2277179277993466 0 -0.035487566908154987 0.22179307024827699 0 -0.037510501467162907 0.2165846373471568 0 -0.032219964055545967 0.21042951792731901 0 -0.04205001128531341 0.21115287567794699 0 -0.031470018115580423 0.21915173504707819 0 -0.037510501467162907 0.2165846373471568 0 -0.032219964055545967 0.21042951792731901 0 -0.032219964055545967 0.21042951792731901 0 -0.038933788118388483 0.2050998722111988 0 -0.04205001128531341 0.21115287567794699 0 -0.032219964055545967 0.21042951792731901 0 -0.038933788118388483 0.2050998722111988 0 -0.03020233341840035 0.20042462808198269 0 -0.038933788118388483 0.2050998722111988 0 -0.04205001128531341 0.21115287567794699 0 -0.049375150592325209 0.20830758417978931 0 -0.04205001128531341 0.21115287567794699 0 -0.046491006531421339 0.21763600075777281 0 -0.049375150592325209 0.20830758417978931 0 -0.037510501467162907 0.2165846373471568 0 -0.04205001128531341 0.21115287567794699 0 -0.041818585308179793 0.21605680202505301 0 -0.039480679328800762 0.21992691859097871 0 -0.037510501467162907 0.2165846373471568 0 -0.041818585308179793 0.21605680202505301 0 -0.039480679328800762 0.21992691859097871 0 -0.041818585308179793 0.21605680202505301 0 -0.046491006531421339 0.21763600075777281 0 -0.04205001128531341 0.21115287567794699 0 -0.041818585308179793 0.21605680202505301 0 -0.046491006531421339 0.21763600075777281 0 -0.046491006531421339 0.21763600075777281 0 -0.061151937365747047 0.1934304905081311 0 -0.046491006531421339 0.21763600075777281 0 -0.049375150592325209 0.20830758417978931 0 -0.061151937365747047 0.1934304905081311 0 -0.046491006531421339 0.21763600075777281 0 -0.050849536027250682 0.21689570364180921 0 -0.061151937365747047 0.1934304905081311 0 -0.064563499423906309 0.20892257787241739 0 -0.050849536027250682 0.21689570364180921 0 -0.061151937365747047 0.1934304905081311 0 -0.056140962165456963 0.22046796113382891 0 -0.050849536027250682 0.21689570364180921 0 -0.058697155221278573 0.21712810830687601 0 -0.064563499423906309 0.20892257787241739 0 -0.063539721874015978 0.22227791383735149 0 -0.058697155221278573 0.21712810830687601 0 -0.064563499423906309 0.20892257787241739 0 -0.050849536027250682 0.21689570364180921 0 -0.058697155221278573 0.21712810830687601 0 -0.049375150592325209 0.20830758417978931 0 -0.056661589205834001 0.1872049149763457 0 -0.049375150592325209 0.20830758417978931 0 -0.04082148124035747 0.19518475518895589 0 -0.056661589205834001 0.1872049149763457 0 -0.049375150592325209 0.20830758417978931 0 -0.061151937365747047 0.1934304905081311 0 -0.056661589205834001 0.1872049149763457 0 -0.04082148124035747 0.19518475518895589 0 -0.056661589205834001 0.1872049149763457 0 -0.02761917486919583 0.1860191387366984 0 -0.038933788118388483 0.2050998722111988 0 -0.049375150592325209 0.20830758417978931 0 -0.04082148124035747 0.19518475518895589 0 -0.038933788118388483 0.2050998722111988 0 -0.04082148124035747 0.19518475518895589 0 -0.03020233341840035 0.20042462808198269 0 -0.04082148124035747 0.19518475518895589 0 -0.03020233341840035 0.20042462808198269 0 -0.02761917486919583 0.1860191387366984 0 -0.019109808615465001 0.19980996788063141 0 -0.0089116792856069396 0.19896598243067079 0 -0.02761917486919583 0.1860191387366984 0 -0.03020233341840035 0.20042462808198269 0 -0.019109808615465001 0.19980996788063141 0 -0.02202775215916122 0.20807125764150969 0 -0.03020233341840035 0.20042462808198269 0 -0.019109808615465001 0.19980996788063141 0 -0.02761917486919583 0.1860191387366984 0 -0.02761917486919583 0.1860191387366984 0 0.001135046813253004 0.19214396772240619 0 -0.0089116792856069396 0.19896598243067079 0 -0.02761917486919583 0.1860191387366984 0 0.001135046813253004 0.19214396772240619 0 -0.02761917486919583 0.1860191387366984 0 -9.6250850848612901e-05 0.18489540195061849 0 0.001135046813253004 0.19214396772240619 0 -0.0089116792856069396 0.19896598243067079 0 -0.0027563612058543931 0.20802313155596511 0 0.001220410428966507 0.20174375483235729 0 -0.0089116792856069396 0.19896598243067079 0 0.001220410428966507 0.20174375483235729 0 0.001135046813253004 0.19214396772240619 0 -0.019109808615465001 0.19980996788063141 0 -0.0089116792856069396 0.19896598243067079 0 -0.012898474622791759 0.20775133149546821 0 -0.012898474622791759 0.20775133149546821 0 -0.0027563612058543931 0.20802313155596511 0 -0.0078435771551563036 0.21606714853714939 0 -0.0089116792856069396 0.19896598243067079 0 -0.012898474622791759 0.20775133149546821 0 -0.0027563612058543931 0.20802313155596511 0 -0.0027563612058543931 0.20802313155596511 0 -0.0078435771551563036 0.21606714853714939 0 0.001294088956889376 0.21643972248792029 0 -0.012898474622791759 0.20775133149546821 0 -0.0078435771551563036 0.21606714853714939 0 -0.017061597809595552 0.21594001757100331 0 -0.0078435771551563036 0.21606714853714939 0 -0.017061597809595552 0.21594001757100331 0 -0.012685370985804609 0.22380802625329241 0 -0.017061597809595552 0.21594001757100331 0 -0.025137533864604981 0.21653495619585941 0 -0.021111905827366498 0.22305398955054309 0 -0.017061597809595552 0.21594001757100331 0 -0.02202775215916122 0.20807125764150969 0 -0.025137533864604981 0.21653495619585941 0 -0.012898474622791759 0.20775133149546821 0 -0.017061597809595552 0.21594001757100331 0 -0.02202775215916122 0.20807125764150969 0 -0.019109808615465001 0.19980996788063141 0 -0.012898474622791759 0.20775133149546821 0 -0.02202775215916122 0.20807125764150969 0 -0.032219964055545967 0.21042951792731901 0 -0.03020233341840035 0.20042462808198269 0 -0.02202775215916122 0.20807125764150969 0 -0.031470018115580423 0.21915173504707819 0 -0.032219964055545967 0.21042951792731901 0 -0.025137533864604981 0.21653495619585941 0 -0.032219964055545967 0.21042951792731901 0 -0.02202775215916122 0.20807125764150969 0 -0.025137533864604981 0.21653495619585941 0 -0.02696441570102158 0.22226743993837819 0 -0.025931473412234469 0.22769682441655531 0 -0.021111905827366498 0.22305398955054309 0 -0.025137533864604981 0.21653495619585941 0 -0.02696441570102158 0.22226743993837819 0 -0.021111905827366498 0.22305398955054309 0 -0.031470018115580423 0.21915173504707819 0 -0.025137533864604981 0.21653495619585941 0 -0.02696441570102158 0.22226743993837819 0 -0.031470018115580423 0.21915173504707819 0 -0.02696441570102158 0.22226743993837819 0 -0.031171147285321579 0.22489969448185479 0 -0.02696441570102158 0.22226743993837819 0 -0.031171147285321579 0.22489969448185479 0 -0.025931473412234469 0.22769682441655531 0 -0.030136380373410779 0.2300209019951191 0 -0.026061396499690029 0.2336682686242898 0 -0.025931473412234469 0.22769682441655531 0 -0.031171147285321579 0.22489969448185479 0 -0.030136380373410779 0.2300209019951191 0 -0.025931473412234469 0.22769682441655531 0 -0.030136380373410779 0.2300209019951191 0 -0.026061396499690029 0.2336682686242898 0 -0.029419474288454699 0.23445740168245749 0 -0.026061396499690029 0.2336682686242898 0 -0.025931473412234469 0.22769682441655531 0 -0.018742521880873109 0.2320328620848604 0 -0.025931473412234469 0.22769682441655531 0 -0.018742521880873109 0.2320328620848604 0 -0.021111905827366498 0.22305398955054309 0 -0.018742521880873109 0.2320328620848604 0 -0.021111905827366498 0.22305398955054309 0 -0.012685370985804609 0.22380802625329241 0 -0.017061597809595552 0.21594001757100331 0 -0.021111905827366498 0.22305398955054309 0 -0.012685370985804609 0.22380802625329241 0 -0.0078435771551563036 0.21606714853714939 0 -0.012685370985804609 0.22380802625329241 0 -0.0031338724421013401 0.22423756475342299 0 -0.0078435771551563036 0.21606714853714939 0 -0.0031338724421013401 0.22423756475342299 0 0.001294088956889376 0.21643972248792029 0 -0.0031338724421013401 0.22423756475342299 0 -0.006988397385861868 0.23292980338450189 0 0.0072484927199350652 0.23473677481809729 0 -0.012685370985804609 0.22380802625329241 0 -0.0031338724421013401 0.22423756475342299 0 -0.006988397385861868 0.23292980338450189 0 -0.018742521880873109 0.2320328620848604 0 -0.012685370985804609 0.22380802625329241 0 -0.006988397385861868 0.23292980338450189 0 -0.018742521880873109 0.2320328620848604 0 -0.006988397385861868 0.23292980338450189 0 -0.01303427139252235 0.2405344585210149 0 -0.006988397385861868 0.23292980338450189 0 -0.01303427139252235 0.2405344585210149 0 -0.0015828403338048729 0.242229133876323 0 -0.006988397385861868 0.23292980338450189 0 -0.0015828403338048729 0.242229133876323 0 0.0072484927199350652 0.23473677481809729 0 -0.0015828403338048729 0.242229133876323 0 -0.0084954783913720449 0.2490669269363194 0 0.00034173235196240039 0.25169171842839061 0 -0.01303427139252235 0.2405344585210149 0 -0.0015828403338048729 0.242229133876323 0 -0.0084954783913720449 0.2490669269363194 0 -0.01303427139252235 0.2405344585210149 0 -0.0084954783913720449 0.2490669269363194 0 -0.017992643477075129 0.24957489420802409 0 -0.01303427139252235 0.2405344585210149 0 -0.017992643477075129 0.24957489420802409 0 -0.02322351619012834 0.2390383989861177 0 -0.018742521880873109 0.2320328620848604 0 -0.01303427139252235 0.2405344585210149 0 -0.02322351619012834 0.2390383989861177 0 -0.026061396499690029 0.2336682686242898 0 -0.018742521880873109 0.2320328620848604 0 -0.02322351619012834 0.2390383989861177 0 -0.031830075697095631 0.24184151100741449 0 -0.02322351619012834 0.2390383989861177 0 -0.029419474288454699 0.23445740168245749 0 -0.026061396499690029 0.2336682686242898 0 -0.02322351619012834 0.2390383989861177 0 -0.029419474288454699 0.23445740168245749 0 -0.031830075697095631 0.24184151100741449 0 -0.017992643477075129 0.24957489420802409 0 -0.02322351619012834 0.2390383989861177 0 -0.034365375341992577 0.15297099806320841 0 -0.053198364938297042 0.14425746926138339 0 -0.047468622931702918 0.15936967398207411 0 -0.034365375341992577 0.15297099806320841 0 -0.03812414254089825 0.13855609070357941 0 -0.053198364938297042 0.14425746926138339 0 -0.03812414254089825 0.13855609070357941 0 -0.053368841312469932 0.12684784373345651 0 -0.030946144889315689 0.1177052101077596 0 -0.076566451333664146 0.12955731190108441 0 -0.053368841312469932 0.12684784373345651 0 -0.053198364938297042 0.14425746926138339 0 -0.03812414254089825 0.13855609070357941 0 -0.053368841312469932 0.12684784373345651 0 -0.053198364938297042 0.14425746926138339 0 -0.067987776932815491 0.1544024986497313 0 -0.053198364938297042 0.14425746926138339 0 -0.047468622931702918 0.15936967398207411 0 -0.067987776932815491 0.1544024986497313 0 -0.050033476570302063 0.1708331912634293 0 -0.059409102531965997 0.1792476853983779 0 -0.067987776932815491 0.1544024986497313 0 -0.050033476570302063 0.1708331912634293 0 -0.047468622931702918 0.15936967398207411 0 -0.056661589205834001 0.1872049149763457 0 -0.059409102531965997 0.1792476853983779 0 -0.043514138700580747 0.18263341206753739 0 -0.050033476570302063 0.1708331912634293 0 -0.059409102531965997 0.1792476853983779 0 -0.043514138700580747 0.18263341206753739 0 -0.059409102531965997 0.1792476853983779 0 -0.043514138700580747 0.18263341206753739 0 -0.056661589205834001 0.1872049149763457 0 -0.059409102531965997 0.1792476853983779 0 -0.06268100584981437 0.17855074953619551 0 -0.056661589205834001 0.1872049149763457 0 -0.059409102531965997 0.1792476853983779 0 -0.06268100584981437 0.17855074953619551 0 -0.059409102531965997 0.1792476853983779 0 -0.043514138700580747 0.18263341206753739 0 -0.033421931448990902 0.1698519804586687 0 -0.02761917486919583 0.1860191387366984 0 -0.056661589205834001 0.1872049149763457 0 -0.02761917486919583 0.1860191387366984 0 -0.043514138700580747 0.18263341206753739 0 -0.02761917486919583 0.1860191387366984 0 -0.050033476570302063 0.1708331912634293 0 -0.043514138700580747 0.18263341206753739 0 -0.033421931448990902 0.1698519804586687 0 -0.056661589205834001 0.1872049149763457 0 -0.043514138700580747 0.18263341206753739 0 -0.02761917486919583 0.1860191387366984 0 -0.050033476570302063 0.1708331912634293 0 -0.047468622931702918 0.15936967398207411 0 -0.033421931448990902 0.1698519804586687 0 -0.034365375341992577 0.15297099806320841 0 -0.047468622931702918 0.15936967398207411 0 -0.033421931448990902 0.1698519804586687 0 -0.034365375341992577 0.15297099806320841 0 -0.033421931448990902 0.1698519804586687 0 -0.01641827415476569 0.15973456629746199 0 -0.033421931448990902 0.1698519804586687 0 -0.01641827415476569 0.15973456629746199 0 -0.015760581385528698 0.1742609411148133 0 -0.033421931448990902 0.1698519804586687 0 -0.02761917486919583 0.1860191387366984 0 -0.015760581385528698 0.1742609411148133 0 -0.02761917486919583 0.1860191387366984 0 -9.6250850848612901e-05 0.18489540195061849 0 -0.015760581385528698 0.1742609411148133 0 -9.6250850848612901e-05 0.18489540195061849 0 -0.0033484118636922821 0.16714514987695139 0 -0.02761917486919583 0.1860191387366984 0 -0.015760581385528698 0.1742609411148133 0 -9.6250850848612901e-05 0.18489540195061849 0 -0.01641827415476569 0.15973456629746199 0 -0.0033484118636922821 0.16714514987695139 0 0.002038871722293605 0.14199914678203979 0 -0.01641827415476569 0.15973456629746199 0 -0.015760581385528698 0.1742609411148133 0 -0.0033484118636922821 0.16714514987695139 0 -0.01641827415476569 0.15973456629746199 0 -0.019141110321645029 0.1412457344550424 0 0.002038871722293605 0.14199914678203979 0 -0.034365375341992577 0.15297099806320841 0 -0.03812414254089825 0.13855609070357941 0 -0.019141110321645029 0.1412457344550424 0 -0.034365375341992577 0.15297099806320841 0 -0.01641827415476569 0.15973456629746199 0 -0.019141110321645029 0.1412457344550424 0 -0.03812414254089825 0.13855609070357941 0 -0.019141110321645029 0.1412457344550424 0 -0.030946144889315689 0.1177052101077596 0 -0.019141110321645029 0.1412457344550424 0 -0.0071803489418029087 0.1168992878872477 0 -0.030946144889315689 0.1177052101077596 0 -0.0071803489418029087 0.1168992878872477 0 0.002038871722293605 0.14199914678203979 0 -0.019141110321645029 0.1412457344550424 0 -0.0071803489418029087 0.1168992878872477 0 0.002038871722293605 0.14199914678203979 0 -0.0071803489418029087 0.1168992878872477 0 -0.01639956960589942 0.091799428992455662 0 0.0054611253166876716 0.10111680259554991 0 -0.0071803489418029087 0.1168992878872477 0 -0.01639956960589942 0.091799428992455662 0 -0.0071803489418029087 0.1168992878872477 0 -0.030946144889315689 0.1177052101077596 0 -0.01639956960589942 0.091799428992455662 0 -0.030946144889315689 0.1177052101077596 0 -0.01639956960589942 0.091799428992455662 0 -0.035861376062176147 0.097914189605880303 0 -0.02215807948477486 0.072141640980877761 0 -0.007206987701179909 0.059934811381104743 0 0.0069256189636152333 0.075945032919316008 0 -0.01639956960589942 0.091799428992455662 0 0.0069256189636152333 0.075945032919316008 0 0.0054611253166876716 0.10111680259554991 0 -0.01639956960589942 0.091799428992455662 0 -0.02215807948477486 0.072141640980877761 0 0.0069256189636152333 0.075945032919316008 0 -0.01639956960589942 0.091799428992455662 0 -0.038844877510550352 0.080473862319778044 0 -0.035861376062176147 0.097914189605880303 0 -0.01639956960589942 0.091799428992455662 0 -0.02215807948477486 0.072141640980877761 0 -0.038844877510550352 0.080473862319778044 0 -0.02215807948477486 0.072141640980877761 0 -0.038844877510550352 0.080473862319778044 0 -0.045921365724484922 0.056205116676672752 0 -0.038844877510550352 0.080473862319778044 0 -0.054768314155650803 0.068227394431761026 0 -0.045921365724484922 0.056205116676672752 0 -0.038844877510550352 0.080473862319778044 0 -0.055916403297359939 0.089716595434608942 0 -0.035861376062176147 0.097914189605880303 0 -0.055916403297359939 0.089716595434608942 0 -0.054768314155650803 0.068227394431761026 0 -0.066448486519243705 0.077521329686590423 0 -0.038844877510550352 0.080473862319778044 0 -0.055916403297359939 0.089716595434608942 0 -0.054768314155650803 0.068227394431761026 0 -0.053368841312469932 0.12684784373345651 0 -0.030946144889315689 0.1177052101077596 0 -0.050125746967941247 0.1086782721821104 0 -0.030946144889315689 0.1177052101077596 0 -0.035861376062176147 0.097914189605880303 0 -0.050125746967941247 0.1086782721821104 0 -0.055916403297359939 0.089716595434608942 0 -0.050125746967941247 0.1086782721821104 0 -0.071759214985949463 0.10149383725740289 0 -0.055916403297359939 0.089716595434608942 0 -0.035861376062176147 0.097914189605880303 0 -0.050125746967941247 0.1086782721821104 0 -0.053368841312469932 0.12684784373345651 0 -0.050125746967941247 0.1086782721821104 0 -0.068384923061595146 0.11704670718461301 0 -0.068384923061595146 0.11704670718461301 0 -0.09010436070795097 0.11865627084901099 0 -0.071759214985949463 0.10149383725740289 0 -0.076566451333664146 0.12955731190108441 0 -0.053368841312469932 0.12684784373345651 0 -0.068384923061595146 0.11704670718461301 0 -0.076566451333664146 0.12955731190108441 0 -0.068384923061595146 0.11704670718461301 0 -0.09010436070795097 0.11865627084901099 0 -0.071759214985949463 0.10149383725740289 0 -0.077293146615080868 0.087693374986267669 0 -0.096131059224466575 0.097904564387326698 0 -0.09010436070795097 0.11865627084901099 0 -0.071759214985949463 0.10149383725740289 0 -0.096131059224466575 0.097904564387326698 0 -0.050125746967941247 0.1086782721821104 0 -0.068384923061595146 0.11704670718461301 0 -0.071759214985949463 0.10149383725740289 0 -0.077293146615080868 0.087693374986267669 0 -0.066448486519243705 0.077521329686590423 0 -0.086380252701166144 0.075924702114904458 0 -0.055916403297359939 0.089716595434608942 0 -0.071759214985949463 0.10149383725740289 0 -0.077293146615080868 0.087693374986267669 0 -0.055916403297359939 0.089716595434608942 0 -0.077293146615080868 0.087693374986267669 0 -0.066448486519243705 0.077521329686590423 0 -0.054768314155650803 0.068227394431761026 0 -0.066448486519243705 0.077521329686590423 0 -0.068227614897451119 0.061773644939723663 0 -0.066448486519243705 0.077521329686590423 0 -0.075169295239972581 0.059367559984180737 0 -0.068227614897451119 0.061773644939723663 0 -0.066448486519243705 0.077521329686590423 0 -0.075169295239972581 0.059367559984180737 0 -0.066448486519243705 0.077521329686590423 0 -0.086380252701166144 0.075924702114904458 0 -0.075169295239972581 0.059367559984180737 0 -0.054768314155650803 0.068227394431761026 0 -0.067993616264576617 0.058591687013738833 0 -0.068227614897451119 0.061773644939723663 0 -0.086380252701166144 0.075924702114904458 0 -0.10087122083099111 0.062146590292383473 0 -0.075169295239972581 0.059367559984180737 0 -0.077293146615080868 0.087693374986267669 0 -0.086380252701166144 0.075924702114904458 0 -0.096131059224466575 0.097904564387326698 0 -0.086380252701166144 0.075924702114904458 0 -0.10530656755889339 0.08132082351450616 0 -0.096131059224466575 0.097904564387326698 0 -0.10530656755889339 0.08132082351450616 0 -0.12224603600437969 0.092446361399098009 0 -0.096131059224466575 0.097904564387326698 0 -0.086380252701166144 0.075924702114904458 0 -0.10530656755889339 0.08132082351450616 0 -0.10087122083099111 0.062146590292383473 0 -0.1265731464220102 0.064925620600580214 0 -0.10087122083099111 0.062146590292383473 0 -0.1265731464220102 0.064925620600580214 0 -0.10530656755889339 0.08132082351450616 0 -0.10087122083099111 0.062146590292383473 0 -0.1265731464220102 0.064925620600580214 0 -0.10530656755889339 0.08132082351450616 0 -0.12224603600437969 0.092446361399098009 0 -0.12224603600437969 0.092446361399098009 0 -0.11238875331129521 0.11052962865485801 0 -0.096131059224466575 0.097904564387326698 0 -0.13630226769244641 0.1164838576263373 0 -0.12224603600437969 0.092446361399098009 0 -0.11238875331129521 0.11052962865485801 0 -0.13630226769244641 0.1164838576263373 0 -0.1141473852787479 0.13052021152827101 0 -0.11238875331129521 0.11052962865485801 0 -0.1141473852787479 0.13052021152827101 0 -0.09010436070795097 0.11865627084901099 0 -0.11238875331129521 0.11052962865485801 0 -0.09010436070795097 0.11865627084901099 0 -0.11238875331129521 0.11052962865485801 0 -0.096131059224466575 0.097904564387326698 0 -0.098615549841269828 0.010560400000904821 0 -0.11854375220917759 0.012447116600704021 0 -0.1103403318784663 0.032472985748714649 0 -0.098615549841269828 0.010560400000904821 0 -0.1103403318784663 0.032472985748714649 0 -0.086892422540620295 0.034963979992542367 0 -0.11033867714191931 -0.01384317999073272 0 -0.098615549841269828 0.010560400000904821 0 -0.11854375220917759 0.012447116600704021 0 -0.1303499436086531 0.02861210326272131 0 -0.11854375220917759 0.012447116600704021 0 -0.1103403318784663 0.032472985748714649 0 -0.12528265127355759 0.04616558801098529 0 -0.1303499436086531 0.02861210326272131 0 -0.1103403318784663 0.032472985748714649 0 -0.12528265127355759 0.04616558801098529 0 -0.1103403318784663 0.032472985748714649 0 -0.10087122083099111 0.062146590292383473 0 -0.1265731464220102 0.064925620600580214 0 -0.12528265127355759 0.04616558801098529 0 -0.10087122083099111 0.062146590292383473 0 -0.1103403318784663 0.032472985748714649 0 -0.10087122083099111 0.062146590292383473 0 -0.086892422540620295 0.034963979992542367 0 -0.086892422540620295 0.034963979992542367 0 -0.075169295239972581 0.059367559984180737 0 -0.10087122083099111 0.062146590292383473 0 -0.086892422540620295 0.034963979992542367 0 -0.075169295239972581 0.059367559984180737 0 -0.10087122083099111 0.062146590292383473 0 -0.075169295239972581 0.059367559984180737 0 -0.075169295239972581 0.059367559984180737 0 -0.067993616264576617 0.058591687013738833 0 -0.06622586813910751 0.034553511704725447 0 -0.075169295239972581 0.059367559984180737 0 -0.067993616264576617 0.058591687013738833 0 -0.068227614897451119 0.061773644939723663 0 -0.075169295239972581 0.059367559984180737 0 -0.067993616264576617 0.058591687013738833 0 -0.067993616264576617 0.058591687013738833 0 -0.068227614897451119 0.061773644939723663 0 -0.067993616264576617 0.058591687013738833 0 -0.06622586813910751 0.034553511704725447 0 -0.086892422540620295 0.034963979992542367 0 -0.075169295239972581 0.059367559984180737 0 -0.06622586813910751 0.034553511704725447 0 -0.06622586813910751 0.034553511704725447 0 -0.064458120013633824 0.0105153363957124 0 -0.06622586813910751 0.034553511704725447 0 -0.081527822273885636 0.01736930302101166 0 -0.064458120013633824 0.0105153363957124 0 -0.098615549841269828 0.010560400000904821 0 -0.086892422540620295 0.034963979992542367 0 -0.081527822273885636 0.01736930302101166 0 -0.086892422540620295 0.034963979992542367 0 -0.06622586813910751 0.034553511704725447 0 -0.081527822273885636 0.01736930302101166 0 -0.098615549841269828 0.010560400000904821 0 -0.086892422540620295 0.034963979992542367 0 -0.086027716256106931 -0.01022087334676958 0 -0.098615549841269828 0.010560400000904821 0 -0.081527822273885636 0.01736930302101166 0 -0.086027716256106931 -0.01022087334676958 0 -0.081527822273885636 0.01736930302101166 0 -0.064458120013633824 0.0105153363957124 0 -0.044855184916723648 -0.0020500068189094819 0 -0.064458120013633824 0.0105153363957124 0 -0.038070442299092573 0.022490473952852329 0 -0.06622586813910751 0.034553511704725447 0 -0.064458120013633824 0.0105153363957124 0 -0.038070442299092573 0.022490473952852329 0 -0.044855184916723648 -0.0020500068189094819 0 -0.02145552275097698 -0.0043143944003012219 0 -0.038070442299092573 0.022490473952852329 0 -0.067993616264576617 0.058591687013738833 0 -0.050902639885251059 0.042750109560558462 0 -0.045921365724484922 0.056205116676672752 0 -0.054768314155650803 0.068227394431761026 0 -0.067993616264576617 0.058591687013738833 0 -0.045921365724484922 0.056205116676672752 0 -0.067993616264576617 0.058591687013738833 0 -0.045921365724484922 0.056205116676672752 0 -0.067993616264576617 0.058591687013738833 0 -0.06622586813910751 0.034553511704725447 0 -0.050902639885251059 0.042750109560558462 0 -0.06622586813910751 0.034553511704725447 0 -0.038070442299092573 0.022490473952852329 0 -0.050902639885251059 0.042750109560558462 0 -0.038070442299092573 0.022490473952852329 0 -0.050902639885251059 0.042750109560558462 0 -0.03486823792189634 0.041891215516118852 0 -0.050902639885251059 0.042750109560558462 0 -0.03486823792189634 0.041891215516118852 0 -0.045921365724484922 0.056205116676672752 0 -0.03486823792189634 0.041891215516118852 0 -0.045921365724484922 0.056205116676672752 0 -0.023849115184393199 0.053818546339605838 0 -0.045921365724484922 0.056205116676672752 0 -0.023849115184393199 0.053818546339605838 0 -0.02215807948477486 0.072141640980877761 0 -0.045921365724484922 0.056205116676672752 0 -0.023849115184393199 0.053818546339605838 0 -0.02215807948477486 0.072141640980877761 0 -0.023849115184393199 0.053818546339605838 0 -0.007206987701179909 0.059934811381104743 0 -0.03486823792189634 0.041891215516118852 0 -0.023849115184393199 0.053818546339605838 0 -0.01273028836206507 0.034154745173538267 0 -0.038070442299092573 0.022490473952852329 0 -0.03486823792189634 0.041891215516118852 0 -0.01273028836206507 0.034154745173538267 0 -0.023849115184393199 0.053818546339605838 0 -0.01273028836206507 0.034154745173538267 0 -0.007206987701179909 0.059934811381104743 0 -0.01273028836206507 0.034154745173538267 0 -0.007206987701179909 0.059934811381104743 0 0.0071147227162497951 0.047742363960188307 0 -0.02145552275097698 -0.0043143944003012219 0 -0.038070442299092573 0.022490473952852329 0 -0.0079842835926580199 0.01140056467584467 0 -0.038070442299092573 0.022490473952852329 0 -0.01273028836206507 0.034154745173538267 0 -0.0079842835926580199 0.01140056467584467 0 -0.01273028836206507 0.034154745173538267 0 -0.0079842835926580199 0.01140056467584467 0 0.01205655053747481 0.016577358142274429 0 -0.0079842835926580199 0.01140056467584467 0 0.01205655053747481 0.016577358142274429 0 0.011402600186323291 -0.0064230577428618721 0 0.01205655053747481 0.016577358142274429 0 0.02363017307694127 0.03427264371887833 0 0.034887215593471882 0.0131116840908784 0 0.01205655053747481 0.016577358142274429 0 0.027753781738422491 -0.0028387788095733798 0 0.011402600186323291 -0.0064230577428618721 0 0.01205655053747481 0.016577358142274429 0 0.034887215593471882 0.0131116840908784 0 0.027753781738422491 -0.0028387788095733798 0 0.0071147227162497951 0.047742363960188307 0 0.023569085907819091 0.058285935330947551 0 0.0069256189636152333 0.075945032919316008 0 -0.007206987701179909 0.059934811381104743 0 0.0071147227162497951 0.047742363960188307 0 0.0069256189636152333 0.075945032919316008 0 -0.01273028836206507 0.034154745173538267 0 0.01205655053747481 0.016577358142274429 0 0.0071147227162497951 0.047742363960188307 0 0.01205655053747481 0.016577358142274429 0 0.0071147227162497951 0.047742363960188307 0 0.02363017307694127 0.03427264371887833 0 0.0071147227162497951 0.047742363960188307 0 0.02363017307694127 0.03427264371887833 0 0.023569085907819091 0.058285935330947551 0 0.02363017307694127 0.03427264371887833 0 0.023569085907819091 0.058285935330947551 0 0.038609782608763438 0.04580833908645536 0 0.038609782608763438 0.04580833908645536 0 0.057380227962237379 0.057949454817418547 0 0.035067696219657073 0.074087673405819454 0 0.023569085907819091 0.058285935330947551 0 0.038609782608763438 0.04580833908645536 0 0.035067696219657073 0.074087673405819454 0 0.038609782608763438 0.04580833908645536 0 0.035067696219657073 0.074087673405819454 0 0.02363017307694127 0.03427264371887833 0 0.038609782608763438 0.04580833908645536 0 0.051863021560815827 0.026335610043729269 0 0.058473161862572988 0.041810225322979573 0 0.051863021560815827 0.026335610043729269 0 0.073043426321556748 0.032455519420111677 0 0.038609782608763438 0.04580833908645536 0 0.058473161862572988 0.041810225322979573 0 0.051863021560815827 0.026335610043729269 0 0.058473161862572988 0.041810225322979573 0 0.057380227962237379 0.057949454817418547 0 0.071469350859491507 0.046502203247182967 0 0.038609782608763438 0.04580833908645536 0 0.058473161862572988 0.041810225322979573 0 0.057380227962237379 0.057949454817418547 0 0.034887215593471882 0.0131116840908784 0 0.027753781738422491 -0.0028387788095733798 0 0.042758899614098268 -0.0044006763941964993 0 0.034887215593471882 0.0131116840908784 0 0.053411873635760179 0.0086377678972853547 0 0.042758899614098268 -0.0044006763941964993 0 0.034887215593471882 0.0131116840908784 0 0.051863021560815827 0.026335610043729269 0 0.053411873635760179 0.0086377678972853547 0 0.02363017307694127 0.03427264371887833 0 0.034887215593471882 0.0131116840908784 0 0.051863021560815827 0.026335610043729269 0 0.051863021560815827 0.026335610043729269 0 0.053411873635760179 0.0086377678972853547 0 0.066432280463712079 0.017762850482581902 0 0.051863021560815827 0.026335610043729269 0 0.073043426321556748 0.032455519420111677 0 0.053411873635760179 0.0086377678972853547 0 0.070357783949645841 0.0021354467124046661 0 0.055050956031401199 -0.0040217381168727107 0 0.053411873635760179 0.0086377678972853547 0 0.055050956031401199 -0.0040217381168727107 0 0.042758899614098268 -0.0044006763941964993 0 0.053411873635760179 0.0086377678972853547 0 0.070357783949645841 0.0021354467124046661 0 0.066432280463712079 0.017762850482581902 0 0.070357783949645841 0.0021354467124046661 0 0.08348529685078182 0.019249908339378521 0 0.066432280463712079 0.017762850482581902 0 0.09061825243524696 0.00077075998008834803 0 0.08348529685078182 0.019249908339378521 0 0.10162602060754861 0.011808159270382959 0 0.070357783949645841 0.0021354467124046661 0 0.09061825243524696 0.00077075998008834803 0 0.08348529685078182 0.019249908339378521 0 0.08348529685078182 0.019249908339378521 0 0.073043426321556748 0.032455519420111677 0 0.094223831082297649 0.038575428796494331 0 0.08348529685078182 0.019249908339378521 0 0.094223831082297649 0.038575428796494331 0 0.10162602060754861 0.011808159270382959 0 0.051863021560815827 0.026335610043729269 0 0.066432280463712079 0.017762850482581902 0 0.073043426321556748 0.032455519420111677 0 0.08348529685078182 0.019249908339378521 0 0.066432280463712079 0.017762850482581902 0 0.073043426321556748 0.032455519420111677 0 0.058473161862572988 0.041810225322979573 0 0.071469350859491507 0.046502203247182967 0 0.073043426321556748 0.032455519420111677 0 0.071469350859491507 0.046502203247182967 0 0.073043426321556748 0.032455519420111677 0 0.082184694973150216 0.042843660977074198 0 0.057380227962237379 0.057949454817418547 0 0.071469350859491507 0.046502203247182967 0 0.07458975829211989 0.062546595781285602 0 0.071469350859491507 0.046502203247182967 0 0.090002171629254973 0.053841492444507831 0 0.071469350859491507 0.046502203247182967 0 0.090002171629254973 0.053841492444507831 0 0.07458975829211989 0.062546595781285602 0 0.071469350859491507 0.046502203247182967 0 0.090002171629254973 0.053841492444507831 0 0.082184694973150216 0.042843660977074198 0 0.073043426321556748 0.032455519420111677 0 0.082184694973150216 0.042843660977074198 0 0.094223831082297649 0.038575428796494331 0 0.073043426321556748 0.032455519420111677 0 0.094223831082297649 0.038575428796494331 0 0.090002171629254973 0.053841492444507831 0 0.094223831082297649 0.038575428796494331 0 0.090002171629254973 0.053841492444507831 0 0.082184694973150216 0.042843660977074198 0 0.094223831082297649 0.038575428796494331 0 0.094223831082297649 0.038575428796494331 0 0.114527613217331 0.044442045042399542 0 0.1113921735516398 0.028714183356283791 0 0.094223831082297649 0.038575428796494331 0 0.1036322889524562 0.050226779719078407 0 0.114527613217331 0.044442045042399542 0 0.094223831082297649 0.038575428796494331 0 0.114527613217331 0.044442045042399542 0 0.090002171629254973 0.053841492444507831 0 0.1036322889524562 0.050226779719078407 0 0.1157755398809414 0.064048152592911939 0 0.090002171629254973 0.053841492444507831 0 0.1157755398809414 0.064048152592911939 0 0.09810154211106413 0.06875729311973014 0 0.090002171629254973 0.053841492444507831 0 0.1157755398809414 0.064048152592911939 0 0.090002171629254973 0.053841492444507831 0 0.094223831082297649 0.038575428796494331 0 0.1036322889524562 0.050226779719078407 0 0.1036322889524562 0.050226779719078407 0 0.114527613217331 0.044442045042399542 0 0.1157755398809414 0.064048152592911939 0 0.114527613217331 0.044442045042399542 0 0.1157755398809414 0.064048152592911939 0 0.13483139535236419 0.050308661288304968 0 0.114527613217331 0.044442045042399542 0 0.13483139535236419 0.050308661288304968 0 0.114527613217331 0.044442045042399542 0 0.1113921735516398 0.028714183356283791 0 0.1280894398752403 0.034384763065047598 0 0.1113921735516398 0.028714183356283791 0 0.1247498606019375 0.015686863915607519 0 0.10162602060754861 0.011808159270382959 0 0.1113921735516398 0.028714183356283791 0 0.1247498606019375 0.015686863915607519 0 0.1280894398752403 0.034384763065047598 0 0.1247498606019375 0.015686863915607519 0 0.1198239109624907 0.00097693126500603697 0 0.10162602060754861 0.011808159270382959 0 0.094223831082297649 0.038575428796494331 0 0.10162602060754861 0.011808159270382959 0 0.094223831082297649 0.038575428796494331 0 0.1113921735516398 0.028714183356283791 0 0.10162602060754861 0.011808159270382959 0 0.1075782117675307 0.1011198955841079 0 0.086276814996566337 0.093546778172253153 0 0.09147385895897589 0.1154861844687308 0 0.1075782117675307 0.1011198955841079 0 0.1091945847924595 0.12033795575518209 0 0.09147385895897589 0.1154861844687308 0 0.1091945847924595 0.12033795575518209 0 0.09147385895897589 0.1154861844687308 0 0.098025290014896807 0.1358081322443534 0 0.1075782117675307 0.1011198955841079 0 0.1091945847924595 0.12033795575518209 0 0.1255444050648197 0.1126100827025043 0 0.1091945847924595 0.12033795575518209 0 0.1233511581560747 0.1366654837762144 0 0.1255444050648197 0.1126100827025043 0 0.1075782117675307 0.1011198955841079 0 0.12321624606941151 0.08917479816440807 0 0.1255444050648197 0.1126100827025043 0 0.1075782117675307 0.1011198955841079 0 0.12321624606941151 0.08917479816440807 0 0.1027706258541919 0.081079309174786868 0 0.12321624606941151 0.08917479816440807 0 0.1157755398809414 0.064048152592911939 0 0.1027706258541919 0.081079309174786868 0 0.09810154211106413 0.06875729311973014 0 0.1027706258541919 0.081079309174786868 0 0.083857831079868328 0.076060218266713941 0 0.1157755398809414 0.064048152592911939 0 0.09810154211106413 0.06875729311973014 0 0.1027706258541919 0.081079309174786868 0 0.1075782117675307 0.1011198955841079 0 0.1027706258541919 0.081079309174786868 0 0.086276814996566337 0.093546778172253153 0 0.1027706258541919 0.081079309174786868 0 0.086276814996566337 0.093546778172253153 0 0.083857831079868328 0.076060218266713941 0 0.090002171629254973 0.053841492444507831 0 0.083857831079868328 0.076060218266713941 0 0.07458975829211989 0.062546595781285602 0 0.090002171629254973 0.053841492444507831 0 0.083857831079868328 0.076060218266713941 0 0.090002171629254973 0.053841492444507831 0 0.09810154211106413 0.06875729311973014 0 0.083857831079868328 0.076060218266713941 0 0.057380227962237379 0.057949454817418547 0 0.07458975829211989 0.062546595781285602 0 0.06312383715802522 0.081251758178506245 0 0.083857831079868328 0.076060218266713941 0 0.07458975829211989 0.062546595781285602 0 0.06312383715802522 0.081251758178506245 0 0.086276814996566337 0.093546778172253153 0 0.083857831079868328 0.076060218266713941 0 0.06312383715802522 0.081251758178506245 0 0.086276814996566337 0.093546778172253153 0 0.06312383715802522 0.081251758178506245 0 0.068856525160806134 0.1062833033606732 0 0.06312383715802522 0.081251758178506245 0 0.068856525160806134 0.1062833033606732 0 0.086276814996566337 0.093546778172253153 0 0.068856525160806134 0.1062833033606732 0 0.09147385895897589 0.1154861844687308 0 0.068856525160806134 0.1062833033606732 0 0.09147385895897589 0.1154861844687308 0 0.07458921316358702 0.1313148485428402 0 0.068856525160806134 0.1062833033606732 0 0.07458921316358702 0.1313148485428402 0 0.068856525160806134 0.1062833033606732 0 0.051851216540576381 0.11878116333251609 0 0.07458921316358702 0.1313148485428402 0 0.06312383715802522 0.081251758178506245 0 0.068856525160806134 0.1062833033606732 0 0.050715194636839538 0.097042978695316029 0 0.068856525160806134 0.1062833033606732 0 0.051851216540576381 0.11878116333251609 0 0.050715194636839538 0.097042978695316029 0 0.051851216540576381 0.11878116333251609 0 0.050715194636839538 0.097042978695316029 0 0.031525609830550687 0.1023670077251837 0 0.051851216540576381 0.11878116333251609 0 0.031525609830550687 0.1023670077251837 0 0.027983523441444311 0.13064634204454789 0 0.057380227962237379 0.057949454817418547 0 0.06312383715802522 0.081251758178506245 0 0.035067696219657073 0.074087673405819454 0 0.06312383715802522 0.081251758178506245 0 0.050715194636839538 0.097042978695316029 0 0.035067696219657073 0.074087673405819454 0 0.050715194636839538 0.097042978695316029 0 0.031525609830550687 0.1023670077251837 0 0.035067696219657073 0.074087673405819454 0 0.031525609830550687 0.1023670077251837 0 0.035067696219657073 0.074087673405819454 0 0.023569085907819091 0.058285935330947551 0 0.035067696219657073 0.074087673405819454 0 0.0069256189636152333 0.075945032919316008 0 0.031525609830550687 0.1023670077251837 0 0.035067696219657073 0.074087673405819454 0 0.0069256189636152333 0.075945032919316008 0 0.031525609830550687 0.1023670077251837 0 0.0069256189636152333 0.075945032919316008 0 0.0054611253166876716 0.10111680259554991 0 0.031525609830550687 0.1023670077251837 0 0.01226355829647181 0.11858508561147919 0 0.027983523441444311 0.13064634204454789 0 0.031525609830550687 0.1023670077251837 0 0.027983523441444311 0.13064634204454789 0 0.031525609830550687 0.1023670077251837 0 0.0054611253166876716 0.10111680259554991 0 0.01226355829647181 0.11858508561147919 0 -0.0071803489418029087 0.1168992878872477 0 0.0054611253166876716 0.10111680259554991 0 0.01226355829647181 0.11858508561147919 0 0.01226355829647181 0.11858508561147919 0 0.027983523441444311 0.13064634204454789 0 0.002038871722293605 0.14199914678203979 0 -0.0071803489418029087 0.1168992878872477 0 0.01226355829647181 0.11858508561147919 0 0.002038871722293605 0.14199914678203979 0 0.027983523441444311 0.13064634204454789 0 0.020527268583099039 0.15055031788307621 0 0.002038871722293605 0.14199914678203979 0 0.027983523441444311 0.13064634204454789 0 0.020527268583099039 0.15055031788307621 0 0.041387971336499962 0.15792274174355261 0 0.002038871722293605 0.14199914678203979 0 0.01125809238639012 0.16709900567683189 0 0.020527268583099039 0.15055031788307621 0 0.002038871722293605 0.14199914678203979 0 0.01125809238639012 0.16709900567683189 0 -0.0033484118636922821 0.16714514987695139 0 0.002038871722293605 0.14199914678203979 0 0.01125809238639012 0.16709900567683189 0 -9.6250850848612901e-05 0.18489540195061849 0 0.01125809238639012 0.16709900567683189 0 0.0274266731674986 0.18377166516453891 0 -9.6250850848612901e-05 0.18489540195061849 0 -0.0033484118636922821 0.16714514987695139 0 0.01125809238639012 0.16709900567683189 0 -9.6250850848612901e-05 0.18489540195061849 0 0.0274266731674986 0.18377166516453891 0 -9.6250850848612901e-05 0.18489540195061849 0 0.0274266731674986 0.18377166516453891 0 0.001135046813253004 0.19214396772240619 0 0.01125809238639012 0.16709900567683189 0 0.0274266731674986 0.18377166516453891 0 0.029885389696946651 0.16833591000178361 0 0.020527268583099039 0.15055031788307621 0 0.01125809238639012 0.16709900567683189 0 0.029885389696946651 0.16833591000178361 0 0.020527268583099039 0.15055031788307621 0 0.029885389696946651 0.16833591000178361 0 0.041387971336499962 0.15792274174355261 0 0.029885389696946651 0.16833591000178361 0 0.041387971336499962 0.15792274174355261 0 0.054949597185845828 0.18264792837845931 0 0.0274266731674986 0.18377166516453891 0 0.029885389696946651 0.16833591000178361 0 0.054949597185845828 0.18264792837845931 0 0.0274266731674986 0.18377166516453891 0 0.054949597185845828 0.18264792837845931 0 0.041387971336499962 0.15792274174355261 0 0.054949597185845828 0.18264792837845931 0 0.067615773906901197 0.16947789150685469 0 0.041387971336499962 0.15792274174355261 0 0.057215450333247111 0.14486048474239441 0 0.067615773906901197 0.16947789150685469 0 0.051851216540576381 0.11878116333251609 0 0.057215450333247111 0.14486048474239441 0 0.07458921316358702 0.1313148485428402 0 0.051851216540576381 0.11878116333251609 0 0.027983523441444311 0.13064634204454789 0 0.057215450333247111 0.14486048474239441 0 0.027983523441444311 0.13064634204454789 0 0.041387971336499962 0.15792274174355261 0 0.057215450333247111 0.14486048474239441 0 0.028103711665830412 0.24675520846442439 0 0.0072484927199350652 0.23473677481809729 0 0.01949975190749657 0.2264695624851914 0 0.028103711665830412 0.24675520846442439 0 0.01949975190749657 0.2264695624851914 0 0.035333564930855398 0.23142430047745721 0 0.028103711665830412 0.24675520846442439 0 0.0072484927199350652 0.23473677481809729 0 0.0099949212797765703 0.25006588645034589 0 -0.0015828403338048729 0.242229133876323 0 0.0099949212797765703 0.25006588645034589 0 0.00034173235196240039 0.25169171842839061 0 -0.0015828403338048729 0.242229133876323 0 0.0072484927199350652 0.23473677481809729 0 0.0099949212797765703 0.25006588645034589 0 0.0072484927199350652 0.23473677481809729 0 0.0057287259398629241 0.22392284164175891 0 0.01949975190749657 0.2264695624851914 0 -0.0031338724421013401 0.22423756475342299 0 0.0072484927199350652 0.23473677481809729 0 0.0057287259398629241 0.22392284164175891 0 0.0057287259398629241 0.22392284164175891 0 0.01072258914361926 0.21732117331569109 0 0.001294088956889376 0.21643972248792029 0 -0.0031338724421013401 0.22423756475342299 0 0.0057287259398629241 0.22392284164175891 0 0.001294088956889376 0.21643972248792029 0 0.0057287259398629241 0.22392284164175891 0 0.01949975190749657 0.2264695624851914 0 0.01072258914361926 0.21732117331569109 0 0.01949975190749657 0.2264695624851914 0 0.0307266276769264 0.21923987267645609 0 0.035333564930855398 0.23142430047745721 0 0.01949975190749657 0.2264695624851914 0 0.02058027426345943 0.21032509078543191 0 0.01072258914361926 0.21732117331569109 0 0.01949975190749657 0.2264695624851914 0 0.0307266276769264 0.21923987267645609 0 0.02058027426345943 0.21032509078543191 0 0.0307266276769264 0.21923987267645609 0 0.02058027426345943 0.21032509078543191 0 0.036034982513469219 0.20805313590996261 0 0.02058027426345943 0.21032509078543191 0 0.029889268495701921 0.1982687967081139 0 0.036034982513469219 0.20805313590996261 0 0.02058027426345943 0.21032509078543191 0 0.01541601065997465 0.20089117998925529 0 0.029889268495701921 0.1982687967081139 0 0.02058027426345943 0.21032509078543191 0 0.01072258914361926 0.21732117331569109 0 0.0068534091090940719 0.20944662295307251 0 -0.0027563612058543931 0.20802313155596511 0 0.001294088956889376 0.21643972248792029 0 0.0068534091090940719 0.20944662295307251 0 0.01072258914361926 0.21732117331569109 0 0.001294088956889376 0.21643972248792029 0 0.0068534091090940719 0.20944662295307251 0 0.0068534091090940719 0.20944662295307251 0 0.010059453067484261 0.20282686474106931 0 0.001220410428966507 0.20174375483235729 0 -0.0027563612058543931 0.20802313155596511 0 0.0068534091090940719 0.20944662295307251 0 0.001220410428966507 0.20174375483235729 0 0.02058027426345943 0.21032509078543191 0 0.01541601065997465 0.20089117998925529 0 0.010059453067484261 0.20282686474106931 0 0.02058027426345943 0.21032509078543191 0 0.0068534091090940719 0.20944662295307251 0 0.010059453067484261 0.20282686474106931 0 0.01541601065997465 0.20089117998925529 0 0.001135046813253004 0.19214396772240619 0 0.029889268495701921 0.1982687967081139 0 0.01541601065997465 0.20089117998925529 0 0.010059453067484261 0.20282686474106931 0 0.001135046813253004 0.19214396772240619 0 0.001135046813253004 0.19214396772240619 0 0.029889268495701921 0.1982687967081139 0 0.010059453067484261 0.20282686474106931 0 0.001220410428966507 0.20174375483235729 0 0.001135046813253004 0.19214396772240619 0 0.0274266731674986 0.18377166516453891 0 0.001135046813253004 0.19214396772240619 0 0.029889268495701921 0.1982687967081139 0 0.0274266731674986 0.18377166516453891 0 0.054949597185845828 0.18264792837845931 0 0.043184516321896543 0.19611457156647499 0 0.0274266731674986 0.18377166516453891 0 0.029889268495701921 0.1982687967081139 0 0.043184516321896543 0.19611457156647499 0 0.029889268495701921 0.1982687967081139 0 0.043184516321896543 0.19611457156647499 0 0.036034982513469219 0.20805313590996261 0 0.054949597185845828 0.18264792837845931 0 0.057756057480001122 0.20118261676709981 0 0.069157214966575259 0.1930134511263234 0 0.054949597185845828 0.18264792837845931 0 0.043184516321896543 0.19611457156647499 0 0.057756057480001122 0.20118261676709981 0 0.043184516321896543 0.19611457156647499 0 0.057756057480001122 0.20118261676709981 0 0.048261670666118743 0.20784461548485439 0 0.057756057480001122 0.20118261676709981 0 0.048261670666118743 0.20784461548485439 0 0.0573231563361132 0.21746098628559621 0 0.048261670666118743 0.20784461548485439 0 0.0573231563361132 0.21746098628559621 0 0.042180696531236572 0.21783747511181131 0 0.048261670666118743 0.20784461548485439 0 0.042180696531236572 0.21783747511181131 0 0.036034982513469219 0.20805313590996261 0 0.043184516321896543 0.19611457156647499 0 0.048261670666118743 0.20784461548485439 0 0.036034982513469219 0.20805313590996261 0 0.0307266276769264 0.21923987267645609 0 0.042180696531236572 0.21783747511181131 0 0.036034982513469219 0.20805313590996261 0 0.0307266276769264 0.21923987267645609 0 0.042180696531236572 0.21783747511181131 0 0.035333564930855398 0.23142430047745721 0 0.035333564930855398 0.23142430047745721 0 0.048320771817031503 0.22762707453107489 0 0.049761650523897492 0.24189179653921669 0 0.042180696531236572 0.21783747511181131 0 0.035333564930855398 0.23142430047745721 0 0.048320771817031503 0.22762707453107489 0 0.0573231563361132 0.21746098628559621 0 0.048320771817031503 0.22762707453107489 0 0.064847857602721257 0.23850410392939789 0 0.0573231563361132 0.21746098628559621 0 0.042180696531236572 0.21783747511181131 0 0.048320771817031503 0.22762707453107489 0 0.048320771817031503 0.22762707453107489 0 0.049761650523897492 0.24189179653921669 0 0.064847857602721257 0.23850410392939789 0 0.048320771817031503 0.22762707453107489 0 0.049761650523897492 0.24189179653921669 0 0.049761650523897492 0.24189179653921669 0 0.064847857602721257 0.23850410392939789 0 0.059032674099789531 0.25730438594969879 0 0.064847857602721257 0.23850410392939789 0 0.059032674099789531 0.25730438594969879 0 0.049761650523897492 0.24189179653921669 0 0.064847857602721257 0.23850410392939789 0 0.028103711665830412 0.24675520846442439 0 0.049761650523897492 0.24189179653921669 0 0.028103711665830412 0.24675520846442439 0 0.035333564930855398 0.23142430047745721 0 0.049761650523897492 0.24189179653921669 0 0.028103711665830412 0.24675520846442439 0 0.049761650523897492 0.24189179653921669 0 0.051489570560377278 0.25899823225460827 0 0.088716207372424527 0.24898629068107231 0 0.084912548657308712 0.23399846475523839 0 0.1007534187769229 0.2441628226740673 0 0.088716207372424527 0.24898629068107231 0 0.077348978834584664 0.24724533421638889 0 0.084912548657308712 0.23399846475523839 0 0.077348978834584664 0.24724533421638889 0 0.064847857602721257 0.23850410392939789 0 0.059032674099789531 0.25730438594969879 0 0.077348978834584664 0.24724533421638889 0 0.064847857602721257 0.23850410392939789 0 0.084912548657308712 0.23399846475523839 0 0.064847857602721257 0.23850410392939789 0 0.084912548657308712 0.23399846475523839 0 0.064847857602721257 0.23850410392939789 0 0.073660189403457171 0.21001414776089039 0 0.064847857602721257 0.23850410392939789 0 0.081417369599867159 0.22100653695116071 0 0.084912548657308712 0.23399846475523839 0 0.064847857602721257 0.23850410392939789 0 0.081417369599867159 0.22100653695116071 0 0.073660189403457171 0.21001414776089039 0 0.0573231563361132 0.21746098628559621 0 0.064847857602721257 0.23850410392939789 0 0.073660189403457171 0.21001414776089039 0 0.081417369599867159 0.22100653695116071 0 0.084912548657308712 0.23399846475523839 0 0.093762639377853743 0.21698887561636779 0 0.081417369599867159 0.22100653695116071 0 0.084989031737905091 0.20327938820560859 0 0.093762639377853743 0.21698887561636779 0 0.084989031737905091 0.20327938820560859 0 0.095020464738845942 0.2009418358846379 0 0.093762639377853743 0.21698887561636779 0 0.081417369599867159 0.22100653695116071 0 0.084989031737905091 0.20327938820560859 0 0.073660189403457171 0.21001414776089039 0 0.057756057480001122 0.20118261676709981 0 0.0573231563361132 0.21746098628559621 0 0.073660189403457171 0.21001414776089039 0 0.057756057480001122 0.20118261676709981 0 0.073660189403457171 0.21001414776089039 0 0.069157214966575259 0.1930134511263234 0 0.073660189403457171 0.21001414776089039 0 0.069157214966575259 0.1930134511263234 0 0.0824725212041931 0.18152419159238281 0 0.073660189403457171 0.21001414776089039 0 0.0824725212041931 0.18152419159238281 0 0.084989031737905091 0.20327938820560859 0 0.088369370262854241 0.19148533486275471 0 0.0824725212041931 0.18152419159238281 0 0.084989031737905091 0.20327938820560859 0 0.073660189403457171 0.21001414776089039 0 0.0824725212041931 0.18152419159238281 0 0.084989031737905091 0.20327938820560859 0 0.088369370262854241 0.19148533486275471 0 0.095020464738845942 0.2009418358846379 0 0.088369370262854241 0.19148533486275471 0 0.1006933591997444 0.19130111558022669 0 0.097360234456834199 0.1860970321547516 0 0.088369370262854241 0.19148533486275471 0 0.1006933591997444 0.19130111558022669 0 0.095020464738845942 0.2009418358846379 0 0.1006933591997444 0.19130111558022669 0 0.095020464738845942 0.2009418358846379 0 0.1031007736003344 0.19710856248363409 0 0.1031007736003344 0.19710856248363409 0 0.10718767698245869 0.20250368221813209 0 0.1104146916326737 0.19200356635130689 0 0.095020464738845942 0.2009418358846379 0 0.1031007736003344 0.19710856248363409 0 0.10718767698245869 0.20250368221813209 0 0.1006933591997444 0.19130111558022669 0 0.1031007736003344 0.19710856248363409 0 0.1104146916326737 0.19200356635130689 0 0.1006933591997444 0.19130111558022669 0 0.1104146916326737 0.19200356635130689 0 0.114323619195589 0.1802237392688511 0 0.1104146916326737 0.19200356635130689 0 0.1179419435330159 0.20844740403766071 0 0.1104146916326737 0.19200356635130689 0 0.1206563178133447 0.19742714247245799 0 0.1179419435330159 0.20844740403766071 0 0.10718767698245869 0.20250368221813209 0 0.1104146916326737 0.19200356635130689 0 0.1179419435330159 0.20844740403766071 0 0.1104146916326737 0.19200356635130689 0 0.1222222247617321 0.18851696813185151 0 0.1206563178133447 0.19742714247245799 0 0.1222222247617321 0.18851696813185151 0 0.1206563178133447 0.19742714247245799 0 0.12914915774173211 0.19412774280310019 0 0.1206563178133447 0.19742714247245799 0 0.1179419435330159 0.20844740403766071 0 0.12707562676191811 0.20304441100876139 0 0.1179419435330159 0.20844740403766071 0 0.1100311977526644 0.21296451114577569 0 0.12546919543335869 0.2248912417240142 0 0.1179419435330159 0.20844740403766071 0 0.12546919543335869 0.2248912417240142 0 0.10718767698245869 0.20250368221813209 0 0.1179419435330159 0.20844740403766071 0 0.1100311977526644 0.21296451114577569 0 0.1179419435330159 0.20844740403766071 0 0.12546919543335869 0.2248912417240142 0 0.13054360790201319 0.21184354371865499 0 0.095020464738845942 0.2009418358846379 0 0.1100311977526644 0.21296451114577569 0 0.093762639377853743 0.21698887561636779 0 0.095020464738845942 0.2009418358846379 0 0.10718767698245869 0.20250368221813209 0 0.1100311977526644 0.21296451114577569 0 0.095020464738845942 0.2009418358846379 0 0.1100311977526644 0.21296451114577569 0 0.084912548657308712 0.23399846475523839 0 0.093762639377853743 0.21698887561636779 0 0.1049772397118957 0.22949282558107689 0 0.1100311977526644 0.21296451114577569 0 0.093762639377853743 0.21698887561636779 0 0.1049772397118957 0.22949282558107689 0 0.084912548657308712 0.23399846475523839 0 0.1049772397118957 0.22949282558107689 0 0.1100311977526644 0.21296451114577569 0 0.1049772397118957 0.22949282558107689 0 0.12546919543335869 0.2248912417240142 0 0.1049772397118957 0.22949282558107689 0 0.12166476526168921 0.22996603486705219 0 0.12546919543335869 0.2248912417240142 0 0.1049772397118957 0.22949282558107689 0 0.12166476526168921 0.22996603486705219 0 0.1165767351652687 0.23693382695201959 0 0.1049772397118957 0.22949282558107689 0 0.12546919543335869 0.2248912417240142 0 0.1100311977526644 0.21296451114577569 0 0.12546919543335869 0.2248912417240142 0 0.12166476526168921 0.22996603486705219 0 0.1238540496931634 0.23766027325822309 0 0.12546919543335869 0.2248912417240142 0 0.1186654333941437 0.24666043126619891 0 0.10935882715834599 0.23882878742933311 0 0.1007534187769229 0.2441628226740673 0 0.1165767351652687 0.23693382695201959 0 0.1186654333941437 0.24666043126619891 0 0.10935882715834599 0.23882878742933311 0 0.1186654333941437 0.24666043126619891 0 0.1007534187769229 0.2441628226740673 0 0.1049772397118957 0.22949282558107689 0 0.1165767351652687 0.23693382695201959 0 0.10935882715834599 0.23882878742933311 0 0.12166476526168921 0.22996603486705219 0 0.1165767351652687 0.23693382695201959 0 0.1238540496931634 0.23766027325822309 0 0.1165767351652687 0.23693382695201959 0 0.1238540496931634 0.23766027325822309 0 0.1186654333941437 0.24666043126619891 0 0.084912548657308712 0.23399846475523839 0 0.1049772397118957 0.22949282558107689 0 0.1007534187769229 0.2441628226740673 0 0.1186654333941437 0.24666043126619891 0 0.1007534187769229 0.2441628226740673 0 0.1084587161834779 0.25707980777683931 0 0.1049772397118957 0.22949282558107689 0 0.10935882715834599 0.23882878742933311 0 0.1007534187769229 0.2441628226740673 0 0.07458921316358702 0.1313148485428402 0 0.080321901166367921 0.15634639372500711 0 0.098025290014896807 0.1358081322443534 0 0.09147385895897589 0.1154861844687308 0 0.07458921316358702 0.1313148485428402 0 0.098025290014896807 0.1358081322443534 0 0.07458921316358702 0.1313148485428402 0 0.080321901166367921 0.15634639372500711 0 0.057215450333247111 0.14486048474239441 0 0.07458921316358702 0.1313148485428402 0 0.080321901166367921 0.15634639372500711 0 0.057215450333247111 0.14486048474239441 0 0.067615773906901197 0.16947789150685469 0 0.080321901166367921 0.15634639372500711 0 0.067615773906901197 0.16947789150685469 0 0.083297619998284098 0.17885667645452291 0 0.080321901166367921 0.15634639372500711 0 0.054949597185845828 0.18264792837845931 0 0.067615773906901197 0.16947789150685469 0 0.0824725212041931 0.18152419159238281 0 0.054949597185845828 0.18264792837845931 0 0.069157214966575259 0.1930134511263234 0 0.0824725212041931 0.18152419159238281 0 0.067615773906901197 0.16947789150685469 0 0.0824725212041931 0.18152419159238281 0 0.083297619998284098 0.17885667645452291 0 0.054949597185845828 0.18264792837845931 0 0.0824725212041931 0.18152419159238281 0 0.083297619998284098 0.17885667645452291 0 0.086054589169149195 0.18137793890717391 0 0.080321901166367921 0.15634639372500711 0 0.088369370262854241 0.19148533486275471 0 0.0824725212041931 0.18152419159238281 0 0.086054589169149195 0.18137793890717391 0 0.0824725212041931 0.18152419159238281 0 0.083297619998284098 0.17885667645452291 0 0.0824725212041931 0.18152419159238281 0 0.083297619998284098 0.17885667645452291 0 0.086054589169149195 0.18137793890717391 0 0.0824725212041931 0.18152419159238281 0 0.086054589169149195 0.18137793890717391 0 0.088369370262854241 0.19148533486275471 0 0.086054589169149195 0.18137793890717391 0 0.088369370262854241 0.19148533486275471 0 0.086054589169149195 0.18137793890717391 0 0.097360234456834199 0.1860970321547516 0 0.086054589169149195 0.18137793890717391 0 0.080321901166367921 0.15634639372500711 0 0.086054589169149195 0.18137793890717391 0 0.080321901166367921 0.15634639372500711 0 0.1003990157211098 0.16717659093073159 0 0.080321901166367921 0.15634639372500711 0 0.1003990157211098 0.16717659093073159 0 0.1074496575357191 0.15202201414816621 0 0.1003990157211098 0.16717659093073159 0 0.11515123844097119 0.16504875193407151 0 0.1074496575357191 0.15202201414816621 0 0.086054589169149195 0.18137793890717391 0 0.097360234456834199 0.1860970321547516 0 0.114323619195589 0.1802237392688511 0 0.086054589169149195 0.18137793890717391 0 0.114323619195589 0.1802237392688511 0 0.086054589169149195 0.18137793890717391 0 0.1003990157211098 0.16717659093073159 0 0.114323619195589 0.1802237392688511 0 0.1006933591997444 0.19130111558022669 0 0.097360234456834199 0.1860970321547516 0 0.114323619195589 0.1802237392688511 0 0.1104146916326737 0.19200356635130689 0 0.1222222247617321 0.18851696813185151 0 0.114323619195589 0.1802237392688511 0 0.11515123844097119 0.16504875193407151 0 0.1247039481840663 0.15477443382819039 0 0.1074496575357191 0.15202201414816621 0 0.1003990157211098 0.16717659093073159 0 0.114323619195589 0.1802237392688511 0 0.11515123844097119 0.16504875193407151 0 0.114323619195589 0.1802237392688511 0 0.11515123844097119 0.16504875193407151 0 0.12876764372259769 0.16855038907340561 0 0.11515123844097119 0.16504875193407151 0 0.1247039481840663 0.15477443382819039 0 0.12876764372259769 0.16855038907340561 0 0.1074496575357191 0.15202201414816621 0 0.098025290014896807 0.1358081322443534 0 0.1233511581560747 0.1366654837762144 0 0.1247039481840663 0.15477443382819039 0 0.1074496575357191 0.15202201414816621 0 0.1233511581560747 0.1366654837762144 0 0.080321901166367921 0.15634639372500711 0 0.1074496575357191 0.15202201414816621 0 0.098025290014896807 0.1358081322443534 0 0.1091945847924595 0.12033795575518209 0 0.098025290014896807 0.1358081322443534 0 0.1233511581560747 0.1366654837762144 0 0.1233511581560747 0.1366654837762144 0 0.1431420410933934 0.1266470635083399 0 0.1255444050648197 0.1126100827025043 0 0.1233511581560747 0.1366654837762144 0 0.1431420410933934 0.1266470635083399 0 0.14652768591061779 0.1516518370845242 0 0.1431420410933934 0.1266470635083399 0 0.14652768591061779 0.1516518370845242 0 0.16726690090553689 0.12714263669739839 0 0.1247039481840663 0.15477443382819039 0 0.1233511581560747 0.1366654837762144 0 0.14652768591061779 0.1516518370845242 0 0.14652768591061779 0.1516518370845242 0 0.12876764372259769 0.16855038907340561 0 0.14259264922202891 0.1790695396305306 0 0.1247039481840663 0.15477443382819039 0 0.14652768591061779 0.1516518370845242 0 0.12876764372259769 0.16855038907340561 0 0.114323619195589 0.1802237392688511 0 0.14259264922202891 0.1790695396305306 0 0.1222222247617321 0.18851696813185151 0 0.14259264922202891 0.1790695396305306 0 0.12914915774173211 0.19412774280310019 0 0.1222222247617321 0.18851696813185151 0 0.114323619195589 0.1802237392688511 0 0.14259264922202891 0.1790695396305306 0 0.114323619195589 0.1802237392688511 0 0.12876764372259769 0.16855038907340561 0 0.14259264922202891 0.1790695396305306 0 0.14259264922202891 0.1790695396305306 0 0.16421944746490119 0.16657246833333461 0 0.1609421441738316 0.1838352199740195 0 0.14259264922202891 0.1790695396305306 0 0.1609421441738316 0.1838352199740195 0 0.15252371725801001 0.19915306155084131 0 0.14652768591061779 0.1516518370845242 0 0.14259264922202891 0.1790695396305306 0 0.16421944746490119 0.16657246833333461 0 0.16421944746490119 0.16657246833333461 0 0.1609421441738316 0.1838352199740195 0 0.17589141504079109 0.17873890114092031 0 0.1609421441738316 0.1838352199740195 0 0.17589141504079109 0.17873890114092031 0 0.1694834918834269 0.19564212921447069 0 0.17589141504079109 0.17873890114092031 0 0.18746589689593041 0.1908940063130522 0 0.19524183566723341 0.17384325265330439 0 0.17589141504079109 0.17873890114092031 0 0.18056524651764649 0.16538379467633529 0 0.19524183566723341 0.17384325265330439 0 0.18056524651764649 0.16538379467633529 0 0.17459525583378921 0.1496817188626485 0 0.19287827858151749 0.15808263239146839 0 0.16421944746490119 0.16657246833333461 0 0.18056524651764649 0.16538379467633529 0 0.17459525583378921 0.1496817188626485 0 0.16421944746490119 0.16657246833333461 0 0.17589141504079109 0.17873890114092031 0 0.18056524651764649 0.16538379467633529 0 0.17459525583378921 0.1496817188626485 0 0.18859764539697829 0.13523258894305301 0 0.19287827858151749 0.15808263239146839 0 0.17459525583378921 0.1496817188626485 0 0.16726690090553689 0.12714263669739839 0 0.18859764539697829 0.13523258894305301 0 0.16726690090553689 0.12714263669739839 0 0.18859764539697829 0.13523258894305301 0 0.18911009081401309 0.11766526874516001 0 0.14652768591061779 0.1516518370845242 0 0.16421944746490119 0.16657246833333461 0 0.17459525583378921 0.1496817188626485 0 0.14652768591061779 0.1516518370845242 0 0.17459525583378921 0.1496817188626485 0 0.16726690090553689 0.12714263669739839 0 0.15510602634524509 0.2490666805815501 0 0.13657744801136459 0.24915803985833099 0 0.1404459464892977 0.23732485696453229 0 0.15510602634524509 0.2490666805815501 0 0.1404459464892977 0.23732485696453229 0 0.15510237646769359 0.2340485130572135 0 0.15510602634524509 0.2490666805815501 0 0.1404459464892977 0.23732485696453229 0 0.13657744801136459 0.24915803985833099 0 0.1404459464892977 0.23732485696453229 0 0.12546919543335869 0.2248912417240142 0 0.13657744801136459 0.24915803985833099 0 0.12546919543335869 0.2248912417240142 0 0.1238540496931634 0.23766027325822309 0 0.13657744801136459 0.24915803985833099 0 0.12546919543335869 0.2248912417240142 0 0.1186654333941437 0.24666043126619891 0 0.13657744801136459 0.24915803985833099 0 0.1238540496931634 0.23766027325822309 0 0.1186654333941437 0.24666043126619891 0 0.13657744801136459 0.24915803985833099 0 0.1404459464892977 0.23732485696453229 0 0.12546919543335869 0.2248912417240142 0 0.12546919543335869 0.2248912417240142 0 0.14463476749629489 0.2205875047740096 0 0.12546919543335869 0.2248912417240142 0 0.14463476749629489 0.2205875047740096 0 0.13054360790201319 0.21184354371865499 0 0.1404459464892977 0.23732485696453229 0 0.13408394401307541 0.22709665920251759 0 0.14463476749629489 0.2205875047740096 0 0.1404459464892977 0.23732485696453229 0 0.13408394401307541 0.22709665920251759 0 0.12546919543335869 0.2248912417240142 0 0.13408394401307541 0.22709665920251759 0 0.12546919543335869 0.2248912417240142 0 0.14463476749629489 0.2205875047740096 0 0.1404459464892977 0.23732485696453229 0 0.14463476749629489 0.2205875047740096 0 0.15510237646769359 0.2340485130572135 0 0.14463476749629489 0.2205875047740096 0 0.15510237646769359 0.2340485130572135 0 0.16380033955923179 0.2162837678240084 0 0.14463476749629489 0.2205875047740096 0 0.15252371725801001 0.19915306155084131 0 0.16380033955923179 0.2162837678240084 0 0.14463476749629489 0.2205875047740096 0 0.13810590575147341 0.20111809208572509 0 0.15252371725801001 0.19915306155084131 0 0.14463476749629489 0.2205875047740096 0 0.16380033955923179 0.2162837678240084 0 0.14463476749629489 0.2205875047740096 0 0.13054360790201319 0.21184354371865499 0 0.13810590575147341 0.20111809208572509 0 0.13054360790201319 0.21184354371865499 0 0.13810590575147341 0.20111809208572509 0 0.12707562676191811 0.20304441100876139 0 0.1179419435330159 0.20844740403766071 0 0.13054360790201319 0.21184354371865499 0 0.12707562676191811 0.20304441100876139 0 0.14259264922202891 0.1790695396305306 0 0.13810590575147341 0.20111809208572509 0 0.12914915774173211 0.19412774280310019 0 0.13810590575147341 0.20111809208572509 0 0.12707562676191811 0.20304441100876139 0 0.12914915774173211 0.19412774280310019 0 0.1206563178133447 0.19742714247245799 0 0.12707562676191811 0.20304441100876139 0 0.12914915774173211 0.19412774280310019 0 0.14259264922202891 0.1790695396305306 0 0.13810590575147341 0.20111809208572509 0 0.15252371725801001 0.19915306155084131 0 0.1609421441738316 0.1838352199740195 0 0.15252371725801001 0.19915306155084131 0 0.1694834918834269 0.19564212921447069 0 0.17589141504079109 0.17873890114092031 0 0.1694834918834269 0.19564212921447069 0 0.18746589689593041 0.1908940063130522 0 0.1694834918834269 0.19564212921447069 0 0.18746589689593041 0.1908940063130522 0 0.1802938541878335 0.20813387888407639 0 0.1802938541878335 0.20813387888407639 0 0.16380033955923179 0.2162837678240084 0 0.1764176963352857 0.21965023722592761 0 0.1802938541878335 0.20813387888407639 0 0.1764176963352857 0.21965023722592761 0 0.19165978085343241 0.22260013014587021 0 0.1694834918834269 0.19564212921447069 0 0.1802938541878335 0.20813387888407639 0 0.16380033955923179 0.2162837678240084 0 0.15252371725801001 0.19915306155084131 0 0.1694834918834269 0.19564212921447069 0 0.16380033955923179 0.2162837678240084 0 0.15510237646769359 0.2340485130572135 0 0.16380033955923179 0.2162837678240084 0 0.16991681074064491 0.23158317204975551 0 0.16380033955923179 0.2162837678240084 0 0.16991681074064491 0.23158317204975551 0 0.1764176963352857 0.21965023722592761 0 0.16991681074064491 0.23158317204975551 0 0.1764176963352857 0.21965023722592761 0 0.19165978085343241 0.22260013014587021 0 0.16991681074064491 0.23158317204975551 0 0.1895424315401518 0.2369878626917907 0 0.19165978085343241 0.22260013014587021 0 0.16991681074064491 0.23158317204975551 0 0.19165978085343241 0.22260013014587021 0 0.17541479570916349 0.24394271450933411 0 0.1895424315401518 0.2369878626917907 0 0.19046502565329271 0.25667199514498079 0 0.16991681074064491 0.23158317204975551 0 0.17541479570916349 0.24394271450933411 0 0.1895424315401518 0.2369878626917907 0 0.17541479570916349 0.24394271450933411 0 0.1636284737793996 0.2415555251584868 0 0.16352123683232861 0.25291501750165601 0 0.16991681074064491 0.23158317204975551 0 0.17541479570916349 0.24394271450933411 0 0.1636284737793996 0.2415555251584868 0 0.15510602634524509 0.2490666805815501 0 0.15510237646769359 0.2340485130572135 0 0.1636284737793996 0.2415555251584868 0 0.15510237646769359 0.2340485130572135 0 0.16991681074064491 0.23158317204975551 0 0.1636284737793996 0.2415555251584868 0 0.15510602634524509 0.2490666805815501 0 0.1636284737793996 0.2415555251584868 0 0.16352123683232861 0.25291501750165601 0 0.20485045957174261 0.24407632231641579 0 0.22015769701587909 0.23805805360523119 0 0.22046961193007161 0.25132333339345397 0 0.20485045957174261 0.24407632231641579 0 0.20759023016684899 0.22974822922412569 0 0.22015769701587909 0.23805805360523119 0 0.1895424315401518 0.2369878626917907 0 0.19046502565329271 0.25667199514498079 0 0.20485045957174261 0.24407632231641579 0 0.1895424315401518 0.2369878626917907 0 0.20759023016684899 0.22974822922412569 0 0.20485045957174261 0.24407632231641579 0 0.1895424315401518 0.2369878626917907 0 0.19046502565329271 0.25667199514498079 0 0.1895424315401518 0.2369878626917907 0 0.19165978085343241 0.22260013014587021 0 0.20759023016684899 0.22974822922412569 0 0.20759023016684899 0.22974822922412569 0 0.21340275096621991 0.213617088241985 0 0.2259282610536687 0.22314991834346151 0 0.20759023016684899 0.22974822922412569 0 0.2259282610536687 0.22314991834346151 0 0.22015769701587909 0.23805805360523119 0 0.19165978085343241 0.22260013014587021 0 0.20759023016684899 0.22974822922412569 0 0.21340275096621991 0.213617088241985 0 0.21340275096621991 0.213617088241985 0 0.19850516785476541 0.2030357907590499 0 0.21718626403589861 0.19856736536916919 0 0.1802938541878335 0.20813387888407639 0 0.19165978085343241 0.22260013014587021 0 0.19850516785476541 0.2030357907590499 0 0.19165978085343241 0.22260013014587021 0 0.21340275096621991 0.213617088241985 0 0.19165978085343241 0.22260013014587021 0 0.21340275096621991 0.213617088241985 0 0.19850516785476541 0.2030357907590499 0 0.18746589689593041 0.1908940063130522 0 0.1802938541878335 0.20813387888407639 0 0.19850516785476541 0.2030357907590499 0 0.18746589689593041 0.1908940063130522 0 0.19850516785476541 0.2030357907590499 0 0.2063198847281256 0.18827551734548831 0 0.19850516785476541 0.2030357907590499 0 0.2063198847281256 0.18827551734548831 0 0.21718626403589861 0.19856736536916919 0 0.2063198847281256 0.18827551734548831 0 0.21718626403589861 0.19856736536916919 0 0.22922647956130429 0.1871106940620017 0 0.21718626403589861 0.19856736536916919 0 0.23514572107900569 0.20463404633809559 0 0.22922647956130429 0.1871106940620017 0 0.23514572107900569 0.20463404633809559 0 0.22922647956130429 0.1871106940620017 0 0.2455343681789513 0.20034200841782551 0 0.22922647956130429 0.1871106940620017 0 0.25029606846190422 0.1797913926751768 0 0.2455343681789513 0.20034200841782551 0 0.23514572107900569 0.20463404633809559 0 0.22922647956130429 0.1871106940620017 0 0.2455343681789513 0.20034200841782551 0 0.2489395075411904 0.199104654813124 0 0.25029606846190422 0.1797913926751768 0 0.2455343681789513 0.20034200841782551 0 0.23514572107900569 0.20463404633809559 0 0.2455343681789513 0.20034200841782551 0 0.23514572107900569 0.20463404633809559 0 0.2433306236985262 0.2097309642497619 0 0.23514572107900569 0.20463404633809559 0 0.2433306236985262 0.2097309642497619 0 0.24165121181977739 0.2238929337544161 0 0.23514572107900569 0.20463404633809559 0 0.24165121181977739 0.2238929337544161 0 0.2455343681789513 0.20034200841782551 0 0.2489395075411904 0.199104654813124 0 0.25099119371637069 0.21005486848871019 0 0.2455343681789513 0.20034200841782551 0 0.2433306236985262 0.2097309642497619 0 0.25099119371637069 0.21005486848871019 0 0.2433306236985262 0.2097309642497619 0 0.24165121181977739 0.2238929337544161 0 0.25099119371637069 0.21005486848871019 0 0.23514572107900569 0.20463404633809559 0 0.2259282610536687 0.22314991834346151 0 0.24165121181977739 0.2238929337544161 0 0.21340275096621991 0.213617088241985 0 0.21718626403589861 0.19856736536916919 0 0.23514572107900569 0.20463404633809559 0 0.21340275096621991 0.213617088241985 0 0.23514572107900569 0.20463404633809559 0 0.21340275096621991 0.213617088241985 0 0.23514572107900569 0.20463404633809559 0 0.2259282610536687 0.22314991834346151 0 0.2259282610536687 0.22314991834346151 0 0.24165121181977739 0.2238929337544161 0 0.23290805933619019 0.23498867540770371 0 0.2259282610536687 0.22314991834346151 0 0.23290805933619019 0.23498867540770371 0 0.22015769701587909 0.23805805360523119 0 0.24165121181977739 0.2238929337544161 0 0.24815670256054939 0.24315182117073661 0 0.24165121181977739 0.2238929337544161 0 0.24815670256054939 0.24315182117073661 0 0.25736741807393598 0.2249699039431817 0 0.24165121181977739 0.2238929337544161 0 0.24815670256054939 0.24315182117073661 0 0.23290805933619019 0.23498867540770371 0 0.24815670256054939 0.24315182117073661 0 0.23349475274929751 0.24834420182182129 0 0.23290805933619019 0.23498867540770371 0 0.24815670256054939 0.24315182117073661 0 0.23349475274929751 0.24834420182182129 0 0.24424659163407689 0.25463765965546259 0 0.23349475274929751 0.24834420182182129 0 0.23290805933619019 0.23498867540770371 0 0.22015769701587909 0.23805805360523119 0 0.23349475274929751 0.24834420182182129 0 0.22015769701587909 0.23805805360523119 0 0.22046961193007161 0.25132333339345397 0 0.21506900685485689 0.14519884085709761 0 0.2000659090221478 0.14491015142488339 0 0.2080927583125588 0.16383498708868979 0 0.21506900685485689 0.14519884085709761 0 0.2327915686165446 0.13361188979296371 0 0.20683077566611061 0.1208103399282876 0 0.21506900685485689 0.14519884085709761 0 0.20683077566611061 0.1208103399282876 0 0.21506900685485689 0.14519884085709761 0 0.2000659090221478 0.14491015142488339 0 0.20683077566611061 0.1208103399282876 0 0.18859764539697829 0.13523258894305301 0 0.2000659090221478 0.14491015142488339 0 0.20683077566611061 0.1208103399282876 0 0.2000659090221478 0.14491015142488339 0 0.19287827858151749 0.15808263239146839 0 0.2080927583125588 0.16383498708868979 0 0.18859764539697829 0.13523258894305301 0 0.2000659090221478 0.14491015142488339 0 0.19287827858151749 0.15808263239146839 0 0.18056524651764649 0.16538379467633529 0 0.19287827858151749 0.15808263239146839 0 0.19524183566723341 0.17384325265330439 0 0.19287827858151749 0.15808263239146839 0 0.19524183566723341 0.17384325265330439 0 0.2080927583125588 0.16383498708868979 0 0.19287827858151749 0.15808263239146839 0 0.2080927583125588 0.16383498708868979 0 0.18746589689593041 0.1908940063130522 0 0.2063198847281256 0.18827551734548831 0 0.19524183566723341 0.17384325265330439 0 0.2063198847281256 0.18827551734548831 0 0.21241074565061671 0.17572085903798301 0 0.22922647956130429 0.1871106940620017 0 0.2063198847281256 0.18827551734548831 0 0.19524183566723341 0.17384325265330439 0 0.21241074565061671 0.17572085903798301 0 0.19524183566723341 0.17384325265330439 0 0.21241074565061671 0.17572085903798301 0 0.2080927583125588 0.16383498708868979 0 0.21506900685485689 0.14519884085709761 0 0.2080927583125588 0.16383498708868979 0 0.22330723804360131 0.16958734178590831 0 0.2080927583125588 0.16383498708868979 0 0.22330723804360131 0.16958734178590831 0 0.21241074565061671 0.17572085903798301 0 0.2080927583125588 0.16383498708868979 0 0.22330723804360131 0.16958734178590831 0 0.21506900685485689 0.14519884085709761 0 0.22330723804360131 0.16958734178590831 0 0.22330723804360131 0.16958734178590831 0 0.24160161585879761 0.1624254570726936 0 0.23071444992939041 0.15303654851325191 0 0.22330723804360131 0.16958734178590831 0 0.22922647956130429 0.1871106940620017 0 0.21241074565061671 0.17572085903798301 0 0.22330723804360131 0.16958734178590831 0 0.22922647956130429 0.1871106940620017 0 0.22330723804360131 0.16958734178590831 0 0.22922647956130429 0.1871106940620017 0 0.25029606846190422 0.1797913926751768 0 0.22330723804360131 0.16958734178590831 0 0.25029606846190422 0.1797913926751768 0 0.22330723804360131 0.16958734178590831 0 0.24160161585879761 0.1624254570726936 0 0.25029606846190422 0.1797913926751768 0 0.24469027036577351 0.14880694978056691 0 0.23071444992939041 0.15303654851325191 0 0.2327915686165446 0.13361188979296371 0 0.24160161585879761 0.1624254570726936 0 0.24469027036577351 0.14880694978056691 0 0.26053074556048611 0.1537619508775305 0 0.24160161585879761 0.1624254570726936 0 0.24469027036577351 0.14880694978056691 0 0.23071444992939041 0.15303654851325191 0 0.21506900685485689 0.14519884085709761 0 0.23071444992939041 0.15303654851325191 0 0.2327915686165446 0.13361188979296371 0 0.21506900685485689 0.14519884085709761 0 0.22330723804360131 0.16958734178590831 0 0.23071444992939041 0.15303654851325191 0 0.2327915686165446 0.13361188979296371 0 0.24969331874114301 0.1206973613509984 0 0.25277366156233982 0.13657867635417301 0 0.24469027036577351 0.14880694978056691 0 0.2327915686165446 0.13361188979296371 0 0.25277366156233982 0.13657867635417301 0 0.2327915686165446 0.13361188979296371 0 0.24969331874114301 0.1206973613509984 0 0.23079751925312511 0.10957284422267149 0 0.24969331874114301 0.1206973613509984 0 0.23079751925312511 0.10957284422267149 0 0.24969331874114301 0.1206973613509984 0 0.24533759262594271 0.097680445434891128 0 0.23079751925312511 0.10957284422267149 0 0.24533759262594271 0.097680445434891128 0 0.2221557412918895 0.094157897966338902 0 0.23079751925312511 0.10957284422267149 0 0.2221557412918895 0.094157897966338902 0 0.23079751925312511 0.10957284422267149 0 0.20683077566611061 0.1208103399282876 0 0.2327915686165446 0.13361188979296371 0 0.23079751925312511 0.10957284422267149 0 0.20683077566611061 0.1208103399282876 0 0.2221557412918895 0.094157897966338902 0 0.20683077566611061 0.1208103399282876 0 0.19859254447736449 0.096421838999477719 0 0.20683077566611061 0.1208103399282876 0 0.19859254447736449 0.096421838999477719 0 0.19859254447736449 0.096421838999477719 0 0.18911009081401309 0.11766526874516001 0 0.17618464761673711 0.1059151980247104 0 0.18859764539697829 0.13523258894305301 0 0.20683077566611061 0.1208103399282876 0 0.18911009081401309 0.11766526874516001 0 0.20683077566611061 0.1208103399282876 0 0.19859254447736449 0.096421838999477719 0 0.18911009081401309 0.11766526874516001 0 0.19035431328861829 0.072033338070667752 0 0.21319562374408799 0.074390838382907942 0 0.2040652153755306 0.056242319205839407 0 0.19859254447736449 0.096421838999477719 0 0.19035431328861829 0.072033338070667752 0 0.21319562374408799 0.074390838382907942 0 0.19859254447736449 0.096421838999477719 0 0.19035431328861829 0.072033338070667752 0 0.2221557412918895 0.094157897966338902 0 0.19859254447736449 0.096421838999477719 0 0.21319562374408799 0.074390838382907942 0 0.21319562374408799 0.074390838382907942 0 0.2275313509427897 0.066770963088263552 0 0.2177238518798599 0.056290017415601759 0 0.21319562374408799 0.074390838382907942 0 0.2275313509427897 0.066770963088263552 0 0.23355580563351649 0.080747391561967197 0 0.2275313509427897 0.066770963088263552 0 0.24070418106599559 0.0689998304384567 0 0.2340921907718358 0.052096021675621912 0 0.2275313509427897 0.066770963088263552 0 0.23355580563351649 0.080747391561967197 0 0.24070418106599559 0.0689998304384567 0 0.2221557412918895 0.094157897966338902 0 0.21319562374408799 0.074390838382907942 0 0.23355580563351649 0.080747391561967197 0 0.24533759262594271 0.097680445434891128 0 0.2221557412918895 0.094157897966338902 0 0.23355580563351649 0.080747391561967197 0 0.24533759262594271 0.097680445434891128 0 0.23355580563351649 0.080747391561967197 0 0.24899324599662889 0.0805272582694566 0 0.24899324599662889 0.0805272582694566 0 0.24070418106599559 0.0689998304384567 0 0.25772420685117792 0.064535895225650619 0 0.23355580563351649 0.080747391561967197 0 0.24899324599662889 0.0805272582694566 0 0.24070418106599559 0.0689998304384567 0 0.24780396989584361 0.038399061764983873 0 0.2340921907718358 0.052096021675621912 0 0.25772420685117792 0.064535895225650619 0 0.24070418106599559 0.0689998304384567 0 0.2340921907718358 0.052096021675621912 0 0.25772420685117792 0.064535895225650619 0 0.24780396989584361 0.038399061764983873 0 0.23710700531568851 0.035648296650527822 0 0.2340921907718358 0.052096021675621912 0 0.23050010646102539 0.042089958714353233 0 0.2208387494451633 0.041934324772725837 0 0.2340921907718358 0.052096021675621912 0 0.23710700531568851 0.035648296650527822 0 0.23050010646102539 0.042089958714353233 0 0.2340921907718358 0.052096021675621912 0 0.23710700531568851 0.035648296650527822 0 0.23050010646102539 0.042089958714353233 0 0.22796667648380309 0.03335834656281144 0 0.22796667648380309 0.03335834656281144 0 0.2208387494451633 0.041934324772725837 0 0.2207859242391039 0.030783003971013391 0 0.2208387494451633 0.041934324772725837 0 0.2207859242391039 0.030783003971013391 0 0.2153079131795749 0.037245147359630373 0 0.23050010646102539 0.042089958714353233 0 0.22796667648380309 0.03335834656281144 0 0.2208387494451633 0.041934324772725837 0 0.2275313509427897 0.066770963088263552 0 0.2340921907718358 0.052096021675621912 0 0.2177238518798599 0.056290017415601759 0 0.2208387494451633 0.041934324772725837 0 0.2340921907718358 0.052096021675621912 0 0.2177238518798599 0.056290017415601759 0 0.23523197393933601 0.001266284315027872 0 0.23742980598779839 0.0053654840043204227 0 0.23364524442137249 0.0039929165900209861 0 0.23523197393933601 0.001266284315027872 0 0.23742980598779839 0.0053654840043204227 0 0.23755874239717911 -0.0021774944839035399 0 0.23742980598779839 0.0053654840043204227 0 0.23325402127503631 0.0069939857146891441 0 0.23364524442137249 0.0039929165900209861 0 0.23742980598779839 0.0053654840043204227 0 0.24206868320973049 0.0058705376878152894 0 0.24444698731800479 0.0019398011864187759 0 0.24444698731800479 0.0019398011864187759 0 0.2462448439675437 0.0082486099570689524 0 0.2498818982516218 -0.002271085465629063 0 0.24206868320973049 0.0058705376878152894 0 0.24444698731800479 0.0019398011864187759 0 0.2462448439675437 0.0082486099570689524 0 0.2462448439675437 0.0082486099570689524 0 0.24752713428859591 0.02033042166504687 0 0.25296504279947712 0.01531873922705225 0 0.2462448439675437 0.0082486099570689524 0 0.23788373294050949 0.012262228304317221 0 0.24752713428859591 0.02033042166504687 0 0.24206868320973049 0.0058705376878152894 0 0.2462448439675437 0.0082486099570689524 0 0.23788373294050949 0.012262228304317221 0 0.23742980598779839 0.0053654840043204227 0 0.24206868320973049 0.0058705376878152894 0 0.23788373294050949 0.012262228304317221 0 0.23742980598779839 0.0053654840043204227 0 0.23256623666786741 0.01116266195670591 0 0.23325402127503631 0.0069939857146891441 0 0.24780396989584361 0.038399061764983873 0 0.24752713428859591 0.02033042166504687 0 0.25378409553581782 0.027753119939855849 0 0.22796667648380309 0.03335834656281144 0 0.23742980598779839 0.0053654840043204227 0 0.23788373294050949 0.012262228304317221 0 0.24780396989584361 0.038399061764983873 0 0.23788373294050949 0.012262228304317221 0 0.24780396989584361 0.038399061764983873 0 0.23788373294050949 0.012262228304317221 0 0.24752713428859591 0.02033042166504687 0 0.24780396989584361 0.038399061764983873 0 0.23710700531568851 0.035648296650527822 0 0.23788373294050949 0.012262228304317221 0 0.22796667648380309 0.03335834656281144 0 0.23742980598779839 0.0053654840043204227 0 0.22796667648380309 0.03335834656281144 0 0.23742980598779839 0.0053654840043204227 0 0.23048394740949241 0.018613361998082251 0 0.23710700531568851 0.035648296650527822 0 0.22796667648380309 0.03335834656281144 0 0.23788373294050949 0.012262228304317221 0 0.22796667648380309 0.03335834656281144 0 0.22526229424862451 0.024913275046830739 0 0.23048394740949241 0.018613361998082251 0 0.22796667648380309 0.03335834656281144 0 0.2207859242391039 0.030783003971013391 0 0.22526229424862451 0.024913275046830739 0 0.2207859242391039 0.030783003971013391 0 0.22526229424862451 0.024913275046830739 0 0.21853926555826339 0.020048720982081471 0 0.22526229424862451 0.024913275046830739 0 0.22468554854987921 0.018404263647896671 0 0.21853926555826339 0.020048720982081471 0 0.22468554854987921 0.018404263647896671 0 0.2216808620376364 0.0149432478269761 0 0.21853926555826339 0.020048720982081471 0 0.22468554854987921 0.018404263647896671 0 0.23048394740949241 0.018613361998082251 0 0.22746137349537909 0.01350271238551278 0 0.22526229424862451 0.024913275046830739 0 0.22468554854987921 0.018404263647896671 0 0.23048394740949241 0.018613361998082251 0 0.22755342436700099 0.0061065467241540987 0 0.23364524442137249 0.0039929165900209861 0 0.21687420696145621 -0.0072733456321549686 0 0.23742980598779839 0.0053654840043204227 0 0.23048394740949241 0.018613361998082251 0 0.23256623666786741 0.01116266195670591 0 0.23256623666786741 0.01116266195670591 0 0.22755342436700099 0.0061065467241540987 0 0.23325402127503631 0.0069939857146891441 0 0.23256623666786741 0.01116266195670591 0 0.22746137349537909 0.01350271238551278 0 0.22755342436700099 0.0061065467241540987 0 0.23048394740949241 0.018613361998082251 0 0.23256623666786741 0.01116266195670591 0 0.22746137349537909 0.01350271238551278 0 0.22468554854987921 0.018404263647896671 0 0.22746137349537909 0.01350271238551278 0 0.2216808620376364 0.0149432478269761 0 0.22746137349537909 0.01350271238551278 0 0.2216808620376364 0.0149432478269761 0 0.2203811048458286 0.0074176408404287748 0 0.22746137349537909 0.01350271238551278 0 0.2203811048458286 0.0074176408404287748 0 0.22755342436700099 0.0061065467241540987 0 0.2203811048458286 0.0074176408404287748 0 0.22755342436700099 0.0061065467241540987 0 0.21687420696145621 -0.0072733456321549686 0 0.22755342436700099 0.0061065467241540987 0 0.23325402127503631 0.0069939857146891441 0 0.23364524442137249 0.0039929165900209861 0 0.23523197393933601 0.001266284315027872 0 0.23364524442137249 0.0039929165900209861 0 0.231198015316505 -0.0037995837078741539 0 0.21080235957480761 0.0029961693591693392 0 0.1997982568441673 0.0073950566886211424 0 0.20206600855890791 -0.0054183217517912224 0 0.21080235957480761 0.0029961693591693392 0 0.21323331636592191 0.01255782733261197 0 0.1997982568441673 0.0073950566886211424 0 0.2203811048458286 0.0074176408404287748 0 0.21080235957480761 0.0029961693591693392 0 0.21687420696145621 -0.0072733456321549686 0 0.2203811048458286 0.0074176408404287748 0 0.21080235957480761 0.0029961693591693392 0 0.21323331636592191 0.01255782733261197 0 0.2216808620376364 0.0149432478269761 0 0.2203811048458286 0.0074176408404287748 0 0.21323331636592191 0.01255782733261197 0 0.21323331636592191 0.01255782733261197 0 0.20961559546058181 0.018612538649711699 0 0.1997982568441673 0.0073950566886211424 0 0.2207859242391039 0.030783003971013391 0 0.20961559546058181 0.018612538649711699 0 0.19572121429545289 0.022278084274230552 0 0.2207859242391039 0.030783003971013391 0 0.19572121429545289 0.022278084274230552 0 0.2077655687747689 0.03337512706897626 0 0.2207859242391039 0.030783003971013391 0 0.19572121429545289 0.022278084274230552 0 0.2207859242391039 0.030783003971013391 0 0.20961559546058181 0.018612538649711699 0 0.21853926555826339 0.020048720982081471 0 0.21323331636592191 0.01255782733261197 0 0.20961559546058181 0.018612538649711699 0 0.21853926555826339 0.020048720982081471 0 0.2216808620376364 0.0149432478269761 0 0.21323331636592191 0.01255782733261197 0 0.21853926555826339 0.020048720982081471 0 0.19881648773429361 0.030642507522492458 0 0.19572121429545289 0.022278084274230552 0 0.2077655687747689 0.03337512706897626 0 0.19881648773429361 0.030642507522492458 0 0.19572121429545289 0.022278084274230552 0 0.19881648773429361 0.030642507522492458 0 0.1899608681732719 0.029035660686670021 0 0.19572121429545289 0.022278084274230552 0 0.1899608681732719 0.029035660686670021 0 0.19572121429545289 0.022278084274230552 0 0.1833576853704087 0.025312056056364961 0 0.20961559546058181 0.018612538649711699 0 0.19572121429545289 0.022278084274230552 0 0.1997982568441673 0.0073950566886211424 0 0.19572121429545289 0.022278084274230552 0 0.1997982568441673 0.0073950566886211424 0 0.1866740650559835 -0.0021702195426568541 0 0.19572121429545289 0.022278084274230552 0 0.1866740650559835 -0.0021702195426568541 0 0.19572121429545289 0.022278084274230552 0 0.1829193625644622 0.0099818215471483597 0 0.1866740650559835 -0.0021702195426568541 0 0.21319562374408799 0.074390838382907942 0 0.2040652153755306 0.056242319205839407 0 0.2177238518798599 0.056290017415601759 0 0.2040652153755306 0.056242319205839407 0 0.2177238518798599 0.056290017415601759 0 0.21184141025926359 0.042888133625806048 0 0.2208387494451633 0.041934324772725837 0 0.2177238518798599 0.056290017415601759 0 0.21184141025926359 0.042888133625806048 0 0.2208387494451633 0.041934324772725837 0 0.21184141025926359 0.042888133625806048 0 0.2153079131795749 0.037245147359630373 0 0.21184141025926359 0.042888133625806048 0 0.2153079131795749 0.037245147359630373 0 0.2077655687747689 0.03337512706897626 0 0.2207859242391039 0.030783003971013391 0 0.2153079131795749 0.037245147359630373 0 0.2077655687747689 0.03337512706897626 0 0.2040652153755306 0.056242319205839407 0 0.21184141025926359 0.042888133625806048 0 0.20072399627642509 0.041444877777261233 0 0.21184141025926359 0.042888133625806048 0 0.2077655687747689 0.03337512706897626 0 0.20072399627642509 0.041444877777261233 0 0.19881648773429361 0.030642507522492458 0 0.2077655687747689 0.03337512706897626 0 0.20072399627642509 0.041444877777261233 0 0.19881648773429361 0.030642507522492458 0 0.20072399627642509 0.041444877777261233 0 0.19144744038975919 0.037502388016692728 0 0.1899608681732719 0.029035660686670021 0 0.19144744038975919 0.037502388016692728 0 0.18334591452856941 0.031665390873331971 0 0.19881648773429361 0.030642507522492458 0 0.1899608681732719 0.029035660686670021 0 0.19144744038975919 0.037502388016692728 0 0.20072399627642509 0.041444877777261233 0 0.19144744038975919 0.037502388016692728 0 0.19055209680492899 0.050406709962791757 0 0.19035431328861829 0.072033338070667752 0 0.2040652153755306 0.056242319205839407 0 0.19055209680492899 0.050406709962791757 0 0.2040652153755306 0.056242319205839407 0 0.20072399627642509 0.041444877777261233 0 0.19055209680492899 0.050406709962791757 0 0.17434215678209661 0.060556619944299693 0 0.179578954776515 0.041217079916224211 0 0.16343581257876219 0.042218267723869232 0 0.19035431328861829 0.072033338070667752 0 0.19055209680492899 0.050406709962791757 0 0.17434215678209661 0.060556619944299693 0 0.19055209680492899 0.050406709962791757 0 0.17434215678209661 0.060556619944299693 0 0.179578954776515 0.041217079916224211 0 0.19144744038975919 0.037502388016692728 0 0.19055209680492899 0.050406709962791757 0 0.179578954776515 0.041217079916224211 0 0.19144744038975919 0.037502388016692728 0 0.18334591452856941 0.031665390873331971 0 0.179578954776515 0.041217079916224211 0 0.18334591452856941 0.031665390873331971 0 0.179578954776515 0.041217079916224211 0 0.17223639687864151 0.02815633737499515 0 0.179578954776515 0.041217079916224211 0 0.16343581257876219 0.042218267723869232 0 0.17223639687864151 0.02815633737499515 0 0.16343581257876219 0.042218267723869232 0 0.17223639687864151 0.02815633737499515 0 0.15853370882112791 0.02918386366297188 0 0.17434215678209661 0.060556619944299693 0 0.16343581257876219 0.042218267723869232 0 0.15513517748739741 0.056175277534210401 0 0.17375813793030459 0.0043946143844226342 0 0.1829193625644622 0.0099818215471483597 0 0.1866740650559835 -0.0021702195426568541 0 0.17375813793030459 0.0043946143844226342 0 0.1829193625644622 0.0099818215471483597 0 0.17552403297610791 0.015424807072597109 0 0.19572121429545289 0.022278084274230552 0 0.17552403297610791 0.015424807072597109 0 0.1833576853704087 0.025312056056364961 0 0.19572121429545289 0.022278084274230552 0 0.1829193625644622 0.0099818215471483597 0 0.17552403297610791 0.015424807072597109 0 0.19572121429545289 0.022278084274230552 0 0.17552403297610791 0.015424807072597109 0 0.17552403297610791 0.015424807072597109 0 0.1833576853704087 0.025312056056364961 0 0.17223639687864151 0.02815633737499515 0 0.1899608681732719 0.029035660686670021 0 0.18334591452856941 0.031665390873331971 0 0.1833576853704087 0.025312056056364961 0 0.18334591452856941 0.031665390873331971 0 0.1833576853704087 0.025312056056364961 0 0.17223639687864151 0.02815633737499515 0 0.17223639687864151 0.02815633737499515 0 0.15853370882112791 0.02918386366297188 0 0.16244297978957151 0.020475836501463719 0 0.15853370882112791 0.02918386366297188 0 0.16244297978957151 0.020475836501463719 0 0.15059390861521721 0.021042644525791049 0 0.17552403297610791 0.015424807072597109 0 0.17223639687864151 0.02815633737499515 0 0.16244297978957151 0.020475836501463719 0 0.17552403297610791 0.015424807072597109 0 0.15532685165676299 0.0085715298709634034 0 0.17552403297610791 0.015424807072597109 0 0.163728894867116 0.0093137423183691226 0 0.15532685165676299 0.0085715298709634034 0 0.17552403297610791 0.015424807072597109 0 0.16244297978957151 0.020475836501463719 0 0.15532685165676299 0.0085715298709634034 0 0.17375813793030459 0.0043946143844226342 0 0.17552403297610791 0.015424807072597109 0 0.163728894867116 0.0093137423183691226 0 0.163728894867116 0.0093137423183691226 0 0.16564291486384611 0.0018645766637211451 0 0.15936098325540399 -0.0025009147929627188 0 0.17375813793030459 0.0043946143844226342 0 0.163728894867116 0.0093137423183691226 0 0.16564291486384611 0.0018645766637211451 0 0.17375813793030459 0.0043946143844226342 0 0.16564291486384611 0.0018645766637211451 0 0.1672401945816864 -0.0043526949116711048 0 0.15532685165676299 0.0085715298709634034 0 0.1351296703374181 0.001718252669329701 0 0.14796272979742839 -0.0076996317150342612 0 0.163728894867116 0.0093137423183691226 0 0.15532685165676299 0.0085715298709634034 0 0.14796272979742839 -0.0076996317150342612 0 0.15532685165676299 0.0085715298709634034 0 0.1351296703374181 0.001718252669329701 0 0.15532685165676299 0.0085715298709634034 0 0.14151120714593329 0.01313105139809637 0 0.1351296703374181 0.001718252669329701 0 0.163728894867116 0.0093137423183691226 0 0.14796272979742839 -0.0076996317150342612 0 0.15532685165676299 0.0085715298709634034 0 0.14151120714593329 0.01313105139809637 0 0.15059390861521721 0.021042644525791049 0 0.15853370882112791 0.02918386366297188 0 0.15059390861521721 0.021042644525791049 0 0.1466812844586477 0.036742598011128863 0 0.15059390861521721 0.021042644525791049 0 0.13799294127421499 0.023788644852391679 0 0.1466812844586477 0.036742598011128863 0 0.14151120714593329 0.01313105139809637 0 0.15059390861521721 0.021042644525791049 0 0.13799294127421499 0.023788644852391679 0 0.16244297978957151 0.020475836501463719 0 0.15532685165676299 0.0085715298709634034 0 0.15059390861521721 0.021042644525791049 0 0.1247498606019375 0.015686863915607519 0 0.14151120714593329 0.01313105139809637 0 0.13799294127421499 0.023788644852391679 0 0.1247498606019375 0.015686863915607519 0 0.13799294127421499 0.023788644852391679 0 0.1280894398752403 0.034384763065047598 0 0.1247498606019375 0.015686863915607519 0 0.14151120714593329 0.01313105139809637 0 0.1351296703374181 0.001718252669329701 0 0.1247498606019375 0.015686863915607519 0 0.1198239109624907 0.00097693126500603697 0 0.1351296703374181 0.001718252669329701 0 0.15513517748739741 0.056175277534210401 0 0.1466812844586477 0.036742598011128863 0 0.13483139535236419 0.050308661288304968 0 0.15513517748739741 0.056175277534210401 0 0.13483139535236419 0.050308661288304968 0 0.14154890813262769 0.074254812741316401 0 0.15513517748739741 0.056175277534210401 0 0.13483139535236419 0.050308661288304968 0 0.16343581257876219 0.042218267723869232 0 0.15853370882112791 0.02918386366297188 0 0.1466812844586477 0.036742598011128863 0 0.16343581257876219 0.042218267723869232 0 0.15513517748739741 0.056175277534210401 0 0.1466812844586477 0.036742598011128863 0 0.1466812844586477 0.036742598011128863 0 0.1280894398752403 0.034384763065047598 0 0.13483139535236419 0.050308661288304968 0 0.13799294127421499 0.023788644852391679 0 0.1466812844586477 0.036742598011128863 0 0.1280894398752403 0.034384763065047598 0 0.114527613217331 0.044442045042399542 0 0.1280894398752403 0.034384763065047598 0 0.13483139535236419 0.050308661288304968 0 0.1157755398809414 0.064048152592911939 0 0.14154890813262769 0.074254812741316401 0 0.1157755398809414 0.064048152592911939 0 0.13483139535236419 0.050308661288304968 0 0.14154890813262769 0.074254812741316401 0 0.12321624606941151 0.08917479816440807 0 0.1157755398809414 0.064048152592911939 0 0.14154890813262769 0.074254812741316401 0 0.15513517748739741 0.056175277534210401 0 0.14154890813262769 0.074254812741316401 0 0.1673222763843138 0.084461472889720765 0 0.14154890813262769 0.074254812741316401 0 0.1673222763843138 0.084461472889720765 0 0.14154890813262769 0.074254812741316401 0 0.14577709536284189 0.1040708904793913 0 0.1673222763843138 0.084461472889720765 0 0.12321624606941151 0.08917479816440807 0 0.14154890813262769 0.074254812741316401 0 0.14577709536284189 0.1040708904793913 0 0.12321624606941151 0.08917479816440807 0 0.1255444050648197 0.1126100827025043 0 0.14577709536284189 0.1040708904793913 0 0.1431420410933934 0.1266470635083399 0 0.1255444050648197 0.1126100827025043 0 0.14577709536284189 0.1040708904793913 0 0.1431420410933934 0.1266470635083399 0 0.16726690090553689 0.12714263669739839 0 0.14577709536284189 0.1040708904793913 0 0.19859254447736449 0.096421838999477719 0 0.17618464761673711 0.1059151980247104 0 0.1673222763843138 0.084461472889720765 0 0.14577709536284189 0.1040708904793913 0 0.17618464761673711 0.1059151980247104 0 0.1673222763843138 0.084461472889720765 0 0.16726690090553689 0.12714263669739839 0 0.14577709536284189 0.1040708904793913 0 0.17618464761673711 0.1059151980247104 0 0.16726690090553689 0.12714263669739839 0 0.18911009081401309 0.11766526874516001 0 0.17618464761673711 0.1059151980247104 0 0.19859254447736449 0.096421838999477719 0 0.19035431328861829 0.072033338070667752 0 0.1673222763843138 0.084461472889720765 0 0.19035431328861829 0.072033338070667752 0 0.17434215678209661 0.060556619944299693 0 0.1673222763843138 0.084461472889720765 0 0.17434215678209661 0.060556619944299693 0 0.15513517748739741 0.056175277534210401 0 0.1673222763843138 0.084461472889720765 0 0.09859519969026298 0.47859209008689768 0 0.1133610510383634 0.48618214433224533 0 0.1100055864796564 0.47543055067234291 0 0.09859519969026298 0.47859209008689768 0 0.1100055864796564 0.47543055067234291 0 0.1013327464622026 0.46579593203007053 0 0.1100055864796564 0.47543055067234291 0 0.11051154127162779 0.46524655459198061 0 0.1013327464622026 0.46579593203007053 0 0.09859519969026298 0.47859209008689768 0 0.1013327464622026 0.46579593203007053 0 0.09140940641740794 0.4641124265491075 0 0.09859519969026298 0.47859209008689768 0 0.098073852068806255 0.5 0 0.1133610510383634 0.48618214433224533 0 0.098073852068806255 0.5 0 0.1133610510383634 0.48618214433224533 0 0.1240228377307865 0.5 0 0.1133610510383634 0.48618214433224533 0 0.1240228377307865 0.5 0 0.12940570966067871 0.48596164779372059 0 0.12006312059998971 0.47710857744051061 0 0.12317291711346121 0.46735625202091868 0 0.12940570966067871 0.48596164779372059 0 0.1133610510383634 0.48618214433224533 0 0.12006312059998971 0.47710857744051061 0 0.12940570966067871 0.48596164779372059 0 0.1133610510383634 0.48618214433224533 0 0.12006312059998971 0.47710857744051061 0 0.1100055864796564 0.47543055067234291 0 0.12006312059998971 0.47710857744051061 0 0.11051154127162779 0.46524655459198061 0 0.12006312059998971 0.47710857744051061 0 0.1100055864796564 0.47543055067234291 0 0.11051154127162779 0.46524655459198061 0 0.12006312059998971 0.47710857744051061 0 0.12317291711346121 0.46735625202091868 0 0.11051154127162779 0.46524655459198061 0 0.12317291711346121 0.46735625202091868 0 0.1162226567036536 0.45691867645419559 0 0.10095996194326511 0.45338453174345128 0 0.12317291711346121 0.46735625202091868 0 0.11051154127162779 0.46524655459198061 0 0.10095996194326511 0.45338453174345128 0 0.12317291711346121 0.46735625202091868 0 0.10095996194326511 0.45338453174345128 0 0.12317291711346121 0.46735625202091868 0 0.1162226567036536 0.45691867645419559 0 0.12587963789640139 0.45880865186226139 0 0.1207328101979997 0.45378397564714601 0 0.1162226567036536 0.45691867645419559 0 0.12587963789640139 0.45880865186226139 0 0.1207328101979997 0.45378397564714601 0 0.12592032292020519 0.45120362635656092 0 0.12587963789640139 0.45880865186226139 0 0.1207328101979997 0.45378397564714601 0 0.1162226567036536 0.45691867645419559 0 0.11607221195289021 0.45250478170048952 0 0.1162226567036536 0.45691867645419559 0 0.11607221195289021 0.45250478170048952 0 0.1104672411257451 0.45267027834903611 0 0.1179945138133435 0.43901772211504991 0 0.1241892659923521 0.43795447681914851 0 0.1244383211291837 0.44418630497657252 0 0.1179945138133435 0.43901772211504991 0 0.1244383211291837 0.44418630497657252 0 0.11682749202221469 0.44458800313912211 0 0.1244383211291837 0.44418630497657252 0 0.11956922151684821 0.44948414186222269 0 0.11682749202221469 0.44458800313912211 0 0.1244383211291837 0.44418630497657252 0 0.11956922151684821 0.44948414186222269 0 0.12592032292020519 0.45120362635656092 0 0.1207328101979997 0.45378397564714601 0 0.11956922151684821 0.44948414186222269 0 0.12592032292020519 0.45120362635656092 0 0.1207328101979997 0.45378397564714601 0 0.11956922151684821 0.44948414186222269 0 0.11607221195289021 0.45250478170048952 0 0.11956922151684821 0.44948414186222269 0 0.11607221195289021 0.45250478170048952 0 0.1129009322642911 0.44860743816149989 0 0.1094145490602869 0.44941105176773588 0 0.1104672411257451 0.45267027834903611 0 0.1129009322642911 0.44860743816149989 0 0.11607221195289021 0.45250478170048952 0 0.1104672411257451 0.45267027834903611 0 0.1129009322642911 0.44860743816149989 0 0.1094145490602869 0.44941105176773588 0 0.1129009322642911 0.44860743816149989 0 0.10832998306712931 0.44509566827676422 0 0.11956922151684821 0.44948414186222269 0 0.1129009322642911 0.44860743816149989 0 0.11682749202221469 0.44458800313912211 0 0.1129009322642911 0.44860743816149989 0 0.11682749202221469 0.44458800313912211 0 0.1112343056862921 0.44069384846031379 0 0.1129009322642911 0.44860743816149989 0 0.1112343056862921 0.44069384846031379 0 0.10832998306712931 0.44509566827676422 0 0.1179945138133435 0.43901772211504991 0 0.11682749202221469 0.44458800313912211 0 0.1112343056862921 0.44069384846031379 0 0.1179945138133435 0.43901772211504991 0 0.1112343056862921 0.44069384846031379 0 0.1134227394947951 0.43329419883437359 0 0.098994473826607143 0.45214825993881319 0 0.10095996194326511 0.45338453174345128 0 0.085717426311124223 0.43445496002318901 0 0.096153357491028255 0.44165331285199078 0 0.10095996194326511 0.45338453174345128 0 0.085717426311124223 0.43445496002318901 0 0.1112343056862921 0.44069384846031379 0 0.1029239212466142 0.44072304646553773 0 0.10832998306712931 0.44509566827676422 0 0.1112343056862921 0.44069384846031379 0 0.1029239212466142 0.44072304646553773 0 0.10624055789565701 0.43353086222984988 0 0.1029239212466142 0.44072304646553773 0 0.10832998306712931 0.44509566827676422 0 0.1045215082638303 0.44568340331419398 0 0.1029239212466142 0.44072304646553773 0 0.1045215082638303 0.44568340331419398 0 0.10145077536112811 0.44650469245765539 0 0.1104672411257451 0.45267027834903611 0 0.1057895205828617 0.45000691436304108 0 0.10095996194326511 0.45338453174345128 0 0.1045215082638303 0.44568340331419398 0 0.1057895205828617 0.45000691436304108 0 0.10145077536112811 0.44650469245765539 0 0.1094145490602869 0.44941105176773588 0 0.10832998306712931 0.44509566827676422 0 0.1057895205828617 0.45000691436304108 0 0.10832998306712931 0.44509566827676422 0 0.1045215082638303 0.44568340331419398 0 0.1057895205828617 0.45000691436304108 0 0.1094145490602869 0.44941105176773588 0 0.1104672411257451 0.45267027834903611 0 0.1057895205828617 0.45000691436304108 0 0.1057895205828617 0.45000691436304108 0 0.10145077536112811 0.44650469245765539 0 0.10095996194326511 0.45338453174345128 0 0.10145077536112811 0.44650469245765539 0 0.096153357491028255 0.44165331285199078 0 0.10095996194326511 0.45338453174345128 0 0.098994473826607143 0.45214825993881319 0 0.10095996194326511 0.45338453174345128 0 0.1029239212466142 0.44072304646553773 0 0.096153357491028255 0.44165331285199078 0 0.096452979773370168 0.43205126533884269 0 0.1029239212466142 0.44072304646553773 0 0.10145077536112811 0.44650469245765539 0 0.096153357491028255 0.44165331285199078 0 0.11051154127162779 0.46524655459198061 0 0.10095996194326511 0.45338453174345128 0 0.1013327464622026 0.46579593203007053 0 0.1162226567036536 0.45691867645419559 0 0.1104672411257451 0.45267027834903611 0 0.10095996194326511 0.45338453174345128 0 0.11051154127162779 0.46524655459198061 0 0.10095996194326511 0.45338453174345128 0 0.10095996194326511 0.45338453174345128 0 0.096514782970995347 0.4580094385366425 0 0.1013327464622026 0.46579593203007053 0 0.098994473826607143 0.45214825993881319 0 0.096514782970995347 0.4580094385366425 0 0.090148589775436327 0.45266193104342423 0 0.098994473826607143 0.45214825993881319 0 0.10095996194326511 0.45338453174345128 0 0.096514782970995347 0.4580094385366425 0 0.096514782970995347 0.4580094385366425 0 0.1013327464622026 0.46579593203007053 0 0.09140940641740794 0.4641124265491075 0 0.09140940641740794 0.4641124265491075 0 0.08228150047324724 0.44858486977801892 0 0.077203183440036738 0.47429243488901029 0 0.08228150047324724 0.44858486977801892 0 0.077203183440036738 0.47429243488901029 0 0.096514782970995347 0.4580094385366425 0 0.09140940641740794 0.4641124265491075 0 0.090148589775436327 0.45266193104342423 0 0.09140940641740794 0.4641124265491075 0 0.090148589775436327 0.45266193104342423 0 0.08228150047324724 0.44858486977801892 0 0.090148589775436327 0.45266193104342423 0 0.08228150047324724 0.44858486977801892 0 0.085717426311124223 0.43445496002318901 0 0.10095996194326511 0.45338453174345128 0 0.085717426311124223 0.43445496002318901 0 0.098994473826607143 0.45214825993881319 0 0.090148589775436327 0.45266193104342423 0 0.085717426311124223 0.43445496002318901 0 0.08228150047324724 0.44858486977801892 0 0.076666724752330981 0.43934265799221189 0 0.085717426311124223 0.43445496002318901 0 0.08228150047324724 0.44858486977801892 0 0.068212470680361001 0.44520187109887721 0 0.063891137780274943 0.45971296739621142 0 0.08228150047324724 0.44858486977801892 0 0.076666724752330981 0.43934265799221189 0 0.068212470680361001 0.44520187109887721 0 0.068212470680361001 0.44520187109887721 0 0.063891137780274943 0.45971296739621142 0 0.058469010457983722 0.44921275429021901 0 0.068212470680361001 0.44520187109887721 0 0.065387503491722537 0.43995823465661132 0 0.058469010457983722 0.44921275429021901 0 0.076666724752330981 0.43934265799221189 0 0.068212470680361001 0.44520187109887721 0 0.065387503491722537 0.43995823465661132 0 0.08228150047324724 0.44858486977801892 0 0.063891137780274943 0.45971296739621142 0 0.077203183440036738 0.47429243488901029 0 0.063891137780274943 0.45971296739621142 0 0.077203183440036738 0.47429243488901029 0 0.058220500749413852 0.48066810448718872 0 0.09859519969026298 0.47859209008689768 0 0.098073852068806255 0.5 0 0.077203183440036738 0.47429243488901029 0 0.09859519969026298 0.47859209008689768 0 0.09140940641740794 0.4641124265491075 0 0.077203183440036738 0.47429243488901029 0 0.098073852068806255 0.5 0 0.077203183440036738 0.47429243488901029 0 0.072124866406825971 0.50000000000000155 0 0.077203183440036738 0.47429243488901029 0 0.072124866406825971 0.50000000000000155 0 0.077203183440036738 0.47429243488901029 0 0.072124866406825971 0.50000000000000155 0 0.058220500749413852 0.48066810448718872 0 0.052357385163958332 0.5 0 0.058220500749413852 0.48066810448718872 0 0.042512890822307581 0.48475818575929253 0 0.072124866406825971 0.50000000000000155 0 0.052357385163958332 0.5 0 0.058220500749413852 0.48066810448718872 0 0.058220500749413852 0.48066810448718872 0 0.042512890822307581 0.48475818575929253 0 0.041272787162864748 0.4624758909630054 0 0.042512890822307581 0.48475818575929253 0 0.028123877114210841 0.48064693334626529 0 0.041272787162864748 0.4624758909630054 0 0.042512890822307581 0.48475818575929253 0 0.032589903921090728 0.50000000000000289 0 0.028123877114210841 0.48064693334626529 0 0.052357385163958332 0.5 0 0.042512890822307581 0.48475818575929253 0 0.032589903921090728 0.50000000000000289 0 0.032589903921090728 0.50000000000000289 0 0.017736055007694471 0.48799514045696929 0 0.01280918285143157 0.5 0 0.032589903921090728 0.50000000000000289 0 0.017736055007694471 0.48799514045696929 0 0.028123877114210841 0.48064693334626529 0 0.032589903921090728 0.50000000000000289 0 0.028123877114210841 0.48064693334626529 0 0.028123877114210841 0.48064693334626529 0 0.023657850307330381 0.46129386669252798 0 0.017736055007694471 0.48799514045696929 0 0.028123877114210841 0.48064693334626529 0 0.01221791804978657 0.4734315717486669 0 0.028123877114210841 0.48064693334626529 0 0.01221791804978657 0.4734315717486669 0 0.023657850307330381 0.46129386669252798 0 -0.0010088918709907711 0.46772692835726898 0 0.01221791804978657 0.4734315717486669 0 0.0029393931019532859 0.48589719718991148 0 0.017736055007694471 0.48799514045696929 0 0.01221791804978657 0.4734315717486669 0 0.0029393931019532859 0.48589719718991148 0 -0.0069715382182276298 0.500000000000004 0 0.0029393931019532859 0.48589719718991148 0 0.01280918285143157 0.5 0 0.017736055007694471 0.48799514045696929 0 0.0029393931019532859 0.48589719718991148 0 0.01280918285143157 0.5 0 0.002323448863637629 0.45150646839403008 0 0.011050013813579829 0.46036845325305681 0 0.019154080410923899 0.44177724425219322 0 -0.0001396583686269239 0.42894674625762558 0 0.002323448863637629 0.45150646839403008 0 0.019154080410923899 0.44177724425219322 0 -0.0010088918709907711 0.46772692835726898 0 0.002323448863637629 0.45150646839403008 0 0.011050013813579829 0.46036845325305681 0 -0.0010088918709907711 0.46772692835726898 0 0.01221791804978657 0.4734315717486669 0 0.011050013813579829 0.46036845325305681 0 0.028123877114210841 0.48064693334626529 0 0.023657850307330381 0.46129386669252798 0 0.041272787162864748 0.4624758909630054 0 0.011050013813579829 0.46036845325305681 0 0.023657850307330381 0.46129386669252798 0 0.019154080410923899 0.44177724425219322 0 0.023657850307330381 0.46129386669252798 0 0.038698421581549382 0.44533590349025931 0 0.01221791804978657 0.4734315717486669 0 0.011050013813579829 0.46036845325305681 0 0.023657850307330381 0.46129386669252798 0 0.01221791804978657 0.4734315717486669 0 0.023657850307330381 0.46129386669252798 0 0.023657850307330381 0.46129386669252798 0 0.019154080410923899 0.44177724425219322 0 0.023657850307330381 0.46129386669252798 0 0.019154080410923899 0.44177724425219322 0 0.038698421581549382 0.44533590349025931 0 0.038698421581549382 0.44533590349025931 0 0.041272787162864748 0.4624758909630054 0 0.055873838920923388 0.43900063963296643 0 0.023657850307330381 0.46129386669252798 0 0.038698421581549382 0.44533590349025931 0 0.041272787162864748 0.4624758909630054 0 0.063891137780274943 0.45971296739621142 0 0.041272787162864748 0.4624758909630054 0 0.058469010457983722 0.44921275429021901 0 0.063891137780274943 0.45971296739621142 0 0.058220500749413852 0.48066810448718872 0 0.041272787162864748 0.4624758909630054 0 0.041272787162864748 0.4624758909630054 0 0.055873838920923388 0.43900063963296643 0 0.041272787162864748 0.4624758909630054 0 0.058469010457983722 0.44921275429021901 0 0.055873838920923388 0.43900063963296643 0 0.038698421581549382 0.44533590349025931 0 0.055873838920923388 0.43900063963296643 0 0.053738992855768837 0.42937794028799098 0 0.065387503491722537 0.43995823465661132 0 0.058469010457983722 0.44921275429021901 0 0.055873838920923388 0.43900063963296643 0 0.055873838920923388 0.43900063963296643 0 0.053738992855768837 0.42937794028799098 0 0.070474890678982188 0.41552538830292762 0 0.053738992855768837 0.42937794028799098 0 0.053159998844107728 0.41529771706485208 0 0.034654726442279127 0.42320216498139518 0 0.053738992855768837 0.42937794028799098 0 0.053159998844107728 0.41529771706485208 0 0.068779564129987925 0.41341997708572231 0 0.053738992855768837 0.42937794028799098 0 0.068779564129987925 0.41341997708572231 0 0.034654726442279127 0.42320216498139518 0 0.021987499191714641 0.40358008609638651 0 0.041193781697373262 0.40478564186622618 0 0.053159998844107728 0.41529771706485208 0 0.034654726442279127 0.42320216498139518 0 0.041193781697373262 0.40478564186622618 0 0.038698421581549382 0.44533590349025931 0 0.053738992855768837 0.42937794028799098 0 0.038698421581549382 0.44533590349025931 0 0.053738992855768837 0.42937794028799098 0 0.034654726442279127 0.42320216498139518 0 0.019154080410923899 0.44177724425219322 0 0.0146503105145162 0.42226062181185858 0 0.019154080410923899 0.44177724425219322 0 0.034654726442279127 0.42320216498139518 0 0.0146503105145162 0.42226062181185858 0 0.019154080410923899 0.44177724425219322 0 0.038698421581549382 0.44533590349025931 0 0.034654726442279127 0.42320216498139518 0 0.034654726442279127 0.42320216498139518 0 0.0146503105145162 0.42226062181185858 0 0.021987499191714641 0.40358008609638651 0 0.004045002064029652 0.41349201283743348 0 0.0146503105145162 0.42226062181185858 0 0.021987499191714641 0.40358008609638651 0 -0.0001396583686269239 0.42894674625762558 0 0.004045002064029652 0.41349201283743348 0 0.0146503105145162 0.42226062181185858 0 -0.0001396583686269239 0.42894674625762558 0 0.019154080410923899 0.44177724425219322 0 0.0146503105145162 0.42226062181185858 0 -0.002887011069696954 0.37316236348168991 0 -0.0031489673224063719 0.38960846828497808 0 0.010114474414274389 0.38537519082002741 0 -0.0031489673224063719 0.38960846828497808 0 0.010114474414274389 0.38537519082002741 0 0.0039390635768207193 0.40024464438109503 0 0.004045002064029652 0.41349201283743348 0 0.0039390635768207193 0.40024464438109503 0 0.021987499191714641 0.40358008609638651 0 0.010114474414274389 0.38537519082002741 0 0.0039390635768207193 0.40024464438109503 0 0.021987499191714641 0.40358008609638651 0 0.021987499191714641 0.40358008609638651 0 0.02690900552223283 0.38213107571493993 0 0.039711002578779242 0.39044668308850822 0 0.010114474414274389 0.38537519082002741 0 0.02690900552223283 0.38213107571493993 0 0.016296863437872278 0.36296498950499712 0 0.010114474414274389 0.38537519082002741 0 0.021987499191714641 0.40358008609638651 0 0.02690900552223283 0.38213107571493993 0 0.039711002578779242 0.39044668308850822 0 0.05613550930885837 0.38707457250526439 0 0.041474578474532717 0.36286906225562282 0 0.02690900552223283 0.38213107571493993 0 0.039711002578779242 0.39044668308850822 0 0.041474578474532717 0.36286906225562282 0 0.021987499191714641 0.40358008609638651 0 0.039711002578779242 0.39044668308850822 0 0.041193781697373262 0.40478564186622618 0 0.039711002578779242 0.39044668308850822 0 0.041193781697373262 0.40478564186622618 0 0.05613550930885837 0.38707457250526439 0 0.053159998844107728 0.41529771706485208 0 0.041193781697373262 0.40478564186622618 0 0.05613550930885837 0.38707457250526439 0 0.053159998844107728 0.41529771706485208 0 0.05613550930885837 0.38707457250526439 0 0.066395393410792466 0.41045909631683691 0 0.05613550930885837 0.38707457250526439 0 0.065532867602378794 0.3771357696288351 0 0.041474578474532717 0.36286906225562282 0 0.05613550930885837 0.38707457250526439 0 0.065532867602378794 0.3771357696288351 0 0.070655748592652834 0.39284520529803207 0 0.065532867602378794 0.3771357696288351 0 0.075788932991875058 0.38395124992971308 0 0.070655748592652834 0.39284520529803207 0 0.075788932991875058 0.38395124992971308 0 0.078065652754947756 0.393584022799713 0 0.070655748592652834 0.39284520529803207 0 0.065532867602378794 0.3771357696288351 0 0.075788932991875058 0.38395124992971308 0 0.078198943150330949 0.37274125341614622 0 0.075788932991875058 0.38395124992971308 0 0.082414789628991153 0.38260610818027913 0 0.078198943150330949 0.37274125341614622 0 0.091806632828344545 0.38898838414654152 0 0.087250007417343123 0.38855472289819581 0 0.096884926080006317 0.3730639116266265 0 0.082414789628991153 0.38260610818027913 0 0.086276591403890088 0.37814191664028751 0 0.078198943150330949 0.37274125341614622 0 0.075788932991875058 0.38395124992971308 0 0.080879845698289266 0.38717402595197531 0 0.078065652754947756 0.393584022799713 0 0.080879845698289266 0.38717402595197531 0 0.087250007417343123 0.38855472289819581 0 0.078065652754947756 0.393584022799713 0 0.075788932991875058 0.38395124992971308 0 0.082414789628991153 0.38260610818027913 0 0.080879845698289266 0.38717402595197531 0 0.082414789628991153 0.38260610818027913 0 0.087250007417343123 0.38855472289819581 0 0.086276591403890088 0.37814191664028751 0 0.082414789628991153 0.38260610818027913 0 0.080879845698289266 0.38717402595197531 0 0.087250007417343123 0.38855472289819581 0 0.087250007417343123 0.38855472289819581 0 0.089901850717377274 0.37756878189728582 0 0.086276591403890088 0.37814191664028751 0 0.087250007417343123 0.38855472289819581 0 0.089901850717377274 0.37756878189728582 0 0.096884926080006317 0.3730639116266265 0 0.087250007417343123 0.38855472289819581 0 0.096884926080006317 0.3730639116266265 0 0.089901850717377274 0.37756878189728582 0 0.086276591403890088 0.37814191664028751 0 0.089195877968269555 0.37051457642403318 0 0.091806632828344545 0.38898838414654152 0 0.077615088754679915 0.40404553416976507 0 0.093276084670186943 0.40789240566663998 0 0.091806632828344545 0.38898838414654152 0 0.077615088754679915 0.40404553416976507 0 0.087250007417343123 0.38855472289819581 0 0.077615088754679915 0.40404553416976507 0 0.091806632828344545 0.38898838414654152 0 0.087250007417343123 0.38855472289819581 0 0.077615088754679915 0.40404553416976507 0 0.087250007417343123 0.38855472289819581 0 0.077615088754679915 0.40404553416976507 0 0.078065652754947756 0.393584022799713 0 0.05613550930885837 0.38707457250526439 0 0.066395393410792466 0.41045909631683691 0 0.070796440143182399 0.41128008275490702 0 0.05613550930885837 0.38707457250526439 0 0.070796440143182399 0.41128008275490702 0 0.05613550930885837 0.38707457250526439 0 0.070655748592652834 0.39284520529803207 0 0.070796440143182399 0.41128008275490702 0 0.077615088754679915 0.40404553416976507 0 0.070655748592652834 0.39284520529803207 0 0.070796440143182399 0.41128008275490702 0 0.077615088754679915 0.40404553416976507 0 0.078065652754947756 0.393584022799713 0 0.070655748592652834 0.39284520529803207 0 0.053738992855768837 0.42937794028799098 0 0.068779564129987925 0.41341997708572231 0 0.070474890678982188 0.41552538830292762 0 0.053159998844107728 0.41529771706485208 0 0.068779564129987925 0.41341997708572231 0 0.066395393410792466 0.41045909631683691 0 0.068779564129987925 0.41341997708572231 0 0.066395393410792466 0.41045909631683691 0 0.070796440143182399 0.41128008275490702 0 0.068779564129987925 0.41341997708572231 0 0.070474890678982188 0.41552538830292762 0 0.070796440143182399 0.41128008275490702 0 0.068779564129987925 0.41341997708572231 0 0.070796440143182399 0.41128008275490702 0 0.068779564129987925 0.41341997708572231 0 0.066395393410792466 0.41045909631683691 0 0.068779564129987925 0.41341997708572231 0 0.070474890678982188 0.41552538830292762 0 0.077615088754679915 0.40404553416976507 0 0.070474890678982188 0.41552538830292762 0 0.077615088754679915 0.40404553416976507 0 0.070474890678982188 0.41552538830292762 0 0.070796440143182399 0.41128008275490702 0 0.077615088754679915 0.40404553416976507 0 0.070474890678982188 0.41552538830292762 0 0.082294240961091988 0.411906404775983 0 0.077615088754679915 0.40404553416976507 0 0.070796440143182399 0.41128008275490702 0 0.076666724752330981 0.43934265799221189 0 0.070000695958368761 0.43150883068617468 0 0.085717426311124223 0.43445496002318901 0 0.055873838920923388 0.43900063963296643 0 0.070474890678982188 0.41552538830292762 0 0.070000695958368761 0.43150883068617468 0 0.055873838920923388 0.43900063963296643 0 0.070474890678982188 0.41552538830292762 0 0.070474890678982188 0.41552538830292762 0 0.070000695958368761 0.43150883068617468 0 0.085717426311124223 0.43445496002318901 0 0.070474890678982188 0.41552538830292762 0 0.085717426311124223 0.43445496002318901 0 0.065387503491722537 0.43995823465661132 0 0.055873838920923388 0.43900063963296643 0 0.070000695958368761 0.43150883068617468 0 0.076666724752330981 0.43934265799221189 0 0.065387503491722537 0.43995823465661132 0 0.070000695958368761 0.43150883068617468 0 0.070474890678982188 0.41552538830292762 0 0.085717426311124223 0.43445496002318901 0 0.087810899740519116 0.42016229096459962 0 0.085717426311124223 0.43445496002318901 0 0.087810899740519116 0.42016229096459962 0 0.096452979773370168 0.43205126533884269 0 0.096153357491028255 0.44165331285199078 0 0.085717426311124223 0.43445496002318901 0 0.096452979773370168 0.43205126533884269 0 0.070474890678982188 0.41552538830292762 0 0.082294240961091988 0.411906404775983 0 0.087810899740519116 0.42016229096459962 0 0.077615088754679915 0.40404553416976507 0 0.082294240961091988 0.411906404775983 0 0.093276084670186943 0.40789240566663998 0 0.087810899740519116 0.42016229096459962 0 0.093276084670186943 0.40789240566663998 0 0.09987171595527819 0.42178311949788938 0 0.082294240961091988 0.411906404775983 0 0.087810899740519116 0.42016229096459962 0 0.093276084670186943 0.40789240566663998 0 0.093276084670186943 0.40789240566663998 0 0.09987171595527819 0.42178311949788938 0 0.1095325134342347 0.41264089148000049 0 0.09987171595527819 0.42178311949788938 0 0.1081738418960117 0.42475169043699851 0 0.1095325134342347 0.41264089148000049 0 0.09987171595527819 0.42178311949788938 0 0.096452979773370168 0.43205126533884269 0 0.10624055789565701 0.43353086222984988 0 0.087810899740519116 0.42016229096459962 0 0.09987171595527819 0.42178311949788938 0 0.096452979773370168 0.43205126533884269 0 0.09987171595527819 0.42178311949788938 0 0.1081738418960117 0.42475169043699851 0 0.10624055789565701 0.43353086222984988 0 0.1029239212466142 0.44072304646553773 0 0.096452979773370168 0.43205126533884269 0 0.10624055789565701 0.43353086222984988 0 0.1081738418960117 0.42475169043699851 0 0.10624055789565701 0.43353086222984988 0 0.1134227394947951 0.43329419883437359 0 0.1134227394947951 0.43329419883437359 0 0.1164474069230471 0.42485019601383139 0 0.1205636234554269 0.4324895135874946 0 0.1112343056862921 0.44069384846031379 0 0.10624055789565701 0.43353086222984988 0 0.1134227394947951 0.43329419883437359 0 0.1081738418960117 0.42475169043699851 0 0.1134227394947951 0.43329419883437359 0 0.1164474069230471 0.42485019601383139 0 0.1164474069230471 0.42485019601383139 0 0.12486695022230131 0.42603986674334487 0 0.121637541881659 0.41716908408952041 0 0.1164474069230471 0.42485019601383139 0 0.12486695022230131 0.42603986674334487 0 0.1205636234554269 0.4324895135874946 0 0.12486695022230131 0.42603986674334487 0 0.1205636234554269 0.4324895135874946 0 0.12775715340285629 0.43310596898077769 0 0.1241892659923521 0.43795447681914851 0 0.1205636234554269 0.4324895135874946 0 0.12775715340285629 0.43310596898077769 0 0.1179945138133435 0.43901772211504991 0 0.1134227394947951 0.43329419883437359 0 0.1205636234554269 0.4324895135874946 0 0.1179945138133435 0.43901772211504991 0 0.1241892659923521 0.43795447681914851 0 0.1205636234554269 0.4324895135874946 0 0.1095325134342347 0.41264089148000049 0 0.121637541881659 0.41716908408952041 0 0.12023168011692 0.4091382947491633 0 0.1095325134342347 0.41264089148000049 0 0.12023168011692 0.4091382947491633 0 0.11567087968494209 0.40107869959097098 0 0.1081738418960117 0.42475169043699851 0 0.1164474069230471 0.42485019601383139 0 0.1095325134342347 0.41264089148000049 0 0.1164474069230471 0.42485019601383139 0 0.1095325134342347 0.41264089148000049 0 0.121637541881659 0.41716908408952041 0 0.121637541881659 0.41716908408952041 0 0.12023168011692 0.4091382947491633 0 0.12708872060208859 0.40965213795514882 0 0.12023168011692 0.4091382947491633 0 0.1252266694359985 0.39909083766307202 0 0.12708872060208859 0.40965213795514882 0 0.11567087968494209 0.40107869959097098 0 0.12383568054059919 0.38658687262498997 0 0.10705429620025229 0.39460908526013022 0 0.1095325134342347 0.41264089148000049 0 0.11567087968494209 0.40107869959097098 0 0.10705429620025229 0.39460908526013022 0 0.12023168011692 0.4091382947491633 0 0.11567087968494209 0.40107869959097098 0 0.1252266694359985 0.39909083766307202 0 0.11567087968494209 0.40107869959097098 0 0.12383568054059919 0.38658687262498997 0 0.1252266694359985 0.39909083766307202 0 0.12383568054059919 0.38658687262498997 0 0.1059981769020088 0.37393123412331758 0 0.12383568054059919 0.38658687262498997 0 0.10705429620025229 0.39460908526013022 0 0.1059981769020088 0.37393123412331758 0 0.12383568054059919 0.38658687262498997 0 0.1059981769020088 0.37393123412331758 0 0.1207712551413805 0.37247672491497419 0 0.091806632828344545 0.38898838414654152 0 0.10705429620025229 0.39460908526013022 0 0.1059981769020088 0.37393123412331758 0 0.091806632828344545 0.38898838414654152 0 0.096884926080006317 0.3730639116266265 0 0.1059981769020088 0.37393123412331758 0 0.091806632828344545 0.38898838414654152 0 0.1059981769020088 0.37393123412331758 0 0.091806632828344545 0.38898838414654152 0 0.093276084670186943 0.40789240566663998 0 0.10705429620025229 0.39460908526013022 0 0.093276084670186943 0.40789240566663998 0 0.1095325134342347 0.41264089148000049 0 0.10705429620025229 0.39460908526013022 0 0.098483688132943725 0.35028744230212 0 0.10804431945710059 0.36075596643365548 0 0.1144652715056851 0.34480518684660783 0 0.098483688132943725 0.35028744230212 0 0.1144652715056851 0.34480518684660783 0 0.10424305531394649 0.33835317288585931 0 0.098483688132943725 0.35028744230212 0 0.099151963334829785 0.36038438935775141 0 0.10804431945710059 0.36075596643365548 0 0.098483688132943725 0.35028744230212 0 0.099151963334829785 0.36038438935775141 0 0.088483844006187251 0.35988800406541632 0 0.096284551186802264 0.36703945497736268 0 0.099151963334829785 0.36038438935775141 0 0.088483844006187251 0.35988800406541632 0 0.096284551186802264 0.36703945497736268 0 0.099151963334829785 0.36038438935775141 0 0.10236975272018541 0.36552776122302189 0 0.096284551186802264 0.36703945497736268 0 0.1059981769020088 0.37393123412331758 0 0.10236975272018541 0.36552776122302189 0 0.096284551186802264 0.36703945497736268 0 0.1059981769020088 0.37393123412331758 0 0.096284551186802264 0.36703945497736268 0 0.096884926080006317 0.3730639116266265 0 0.1059981769020088 0.37393123412331758 0 0.096284551186802264 0.36703945497736268 0 0.096884926080006317 0.3730639116266265 0 0.089195877968269555 0.37051457642403318 0 0.099151963334829785 0.36038438935775141 0 0.10804431945710059 0.36075596643365548 0 0.10236975272018541 0.36552776122302189 0 0.1059981769020088 0.37393123412331758 0 0.10804431945710059 0.36075596643365548 0 0.10236975272018541 0.36552776122302189 0 0.1059981769020088 0.37393123412331758 0 0.1207712551413805 0.37247672491497419 0 0.12107552442819509 0.35793425152046321 0 0.1059981769020088 0.37393123412331758 0 0.12107552442819509 0.35793425152046321 0 0.1059981769020088 0.37393123412331758 0 0.10804431945710059 0.36075596643365548 0 0.12107552442819509 0.35793425152046321 0 0.10804431945710059 0.36075596643365548 0 0.12107552442819509 0.35793425152046321 0 0.1144652715056851 0.34480518684660783 0 0.12107552442819509 0.35793425152046321 0 0.1144652715056851 0.34480518684660783 0 0.12923214107289341 0.3489225491329116 0 0.1144652715056851 0.34480518684660783 0 0.1133758425356407 0.32579367644790141 0 0.10424305531394649 0.33835317288585931 0 0.1144652715056851 0.34480518684660783 0 0.1342274078696957 0.33784155257848808 0 0.1144652715056851 0.34480518684660783 0 0.1245359080047571 0.33070698122850961 0 0.1133758425356407 0.32579367644790141 0 0.1144652715056851 0.34480518684660783 0 0.1245359080047571 0.33070698122850961 0 0.1342274078696957 0.33784155257848808 0 0.1133758425356407 0.32579367644790141 0 0.1185435201949019 0.31297732835421199 0 0.133106114647882 0.32064364023774311 0 0.1133758425356407 0.32579367644790141 0 0.1185435201949019 0.31297732835421199 0 0.1018223941140298 0.31212573649168462 0 0.1133758425356407 0.32579367644790141 0 0.133106114647882 0.32064364023774311 0 0.1245359080047571 0.33070698122850961 0 0.1133758425356407 0.32579367644790141 0 0.133106114647882 0.32064364023774311 0 0.1133758425356407 0.32579367644790141 0 0.093645570423399493 0.33094371265805961 0 0.1018223941140298 0.31212573649168462 0 0.098483688132943725 0.35028744230212 0 0.10424305531394649 0.33835317288585931 0 0.093645570423399493 0.33094371265805961 0 0.1133758425356407 0.32579367644790141 0 0.10424305531394649 0.33835317288585931 0 0.093645570423399493 0.33094371265805961 0 0.1133758425356407 0.32579367644790141 0 0.093645570423399493 0.33094371265805961 0 0.098483688132943725 0.35028744230212 0 0.093645570423399493 0.33094371265805961 0 0.078962359671089291 0.34682097253125882 0 0.093645570423399493 0.33094371265805961 0 0.073441147155143785 0.32574428671422401 0 0.078962359671089291 0.34682097253125882 0 0.093645570423399493 0.33094371265805961 0 0.073441147155143785 0.32574428671422401 0 0.079357077576761151 0.31157037862388998 0 0.093645570423399493 0.33094371265805961 0 0.079357077576761151 0.31157037862388998 0 0.1018223941140298 0.31212573649168462 0 0.073441147155143785 0.32574428671422401 0 0.059087988537360338 0.33422269051527442 0 0.056152739567108659 0.30516367924263699 0 0.073441147155143785 0.32574428671422401 0 0.056152739567108659 0.30516367924263699 0 0.079357077576761151 0.31157037862388998 0 0.073441147155143785 0.32574428671422401 0 0.078962359671089291 0.34682097253125882 0 0.059087988537360338 0.33422269051527442 0 0.078962359671089291 0.34682097253125882 0 0.077490885418188743 0.36140172299360979 0 0.062023237507612003 0.36328170178791153 0 0.078962359671089291 0.34682097253125882 0 0.062023237507612003 0.36328170178791153 0 0.059087988537360338 0.33422269051527442 0 0.098483688132943725 0.35028744230212 0 0.078962359671089291 0.34682097253125882 0 0.088483844006187251 0.35988800406541632 0 0.078962359671089291 0.34682097253125882 0 0.088483844006187251 0.35988800406541632 0 0.077490885418188743 0.36140172299360979 0 0.089901850717377274 0.37756878189728582 0 0.096884926080006317 0.3730639116266265 0 0.089195877968269555 0.37051457642403318 0 0.089195877968269555 0.37051457642403318 0 0.088483844006187251 0.35988800406541632 0 0.083300357084053769 0.36610050845774322 0 0.096284551186802264 0.36703945497736268 0 0.089195877968269555 0.37051457642403318 0 0.088483844006187251 0.35988800406541632 0 0.088483844006187251 0.35988800406541632 0 0.083300357084053769 0.36610050845774322 0 0.077490885418188743 0.36140172299360979 0 0.083300357084053769 0.36610050845774322 0 0.078198943150330949 0.37274125341614622 0 0.077490885418188743 0.36140172299360979 0 0.089195877968269555 0.37051457642403318 0 0.083300357084053769 0.36610050845774322 0 0.078198943150330949 0.37274125341614622 0 0.086276591403890088 0.37814191664028751 0 0.089195877968269555 0.37051457642403318 0 0.078198943150330949 0.37274125341614622 0 0.078198943150330949 0.37274125341614622 0 0.077490885418188743 0.36140172299360979 0 0.062023237507612003 0.36328170178791153 0 0.065532867602378794 0.3771357696288351 0 0.078198943150330949 0.37274125341614622 0 0.062023237507612003 0.36328170178791153 0 0.05613550930885837 0.38707457250526439 0 0.041474578474532717 0.36286906225562282 0 0.041474578474532717 0.36286906225562282 0 0.02681364764020704 0.33866355200598108 0 0.059087988537360338 0.33422269051527442 0 0.065532867602378794 0.3771357696288351 0 0.062023237507612003 0.36328170178791153 0 0.041474578474532717 0.36286906225562282 0 0.062023237507612003 0.36328170178791153 0 0.059087988537360338 0.33422269051527442 0 0.062023237507612003 0.36328170178791153 0 0.041474578474532717 0.36286906225562282 0 0.059087988537360338 0.33422269051527442 0 0.041474578474532717 0.36286906225562282 0 0.02681364764020704 0.33866355200598108 0 0.02690900552223283 0.38213107571493993 0 0.041474578474532717 0.36286906225562282 0 0.016296863437872278 0.36296498950499712 0 0.016296863437872278 0.36296498950499712 0 0.010554275878121621 0.34169214711298279 0 0.02681364764020704 0.33866355200598108 0 0.041474578474532717 0.36286906225562282 0 0.016296863437872278 0.36296498950499712 0 0.02681364764020704 0.33866355200598108 0 0.016296863437872278 0.36296498950499712 0 0.00087227386193678216 0.35450451783256998 0 0.010554275878121621 0.34169214711298279 0 -0.002887011069696954 0.37316236348168991 0 0.010114474414274389 0.38537519082002741 0 0.016296863437872278 0.36296498950499712 0 -0.002887011069696954 0.37316236348168991 0 0.016296863437872278 0.36296498950499712 0 0.00087227386193678216 0.35450451783256998 0 -0.0026857519243812899 0.33314825634734441 0 -0.0050279189580847783 0.31667723503137363 0 0.01215271680588139 0.31445804175633951 0 -0.0026857519243812899 0.33314825634734441 0 0.00087227386193678216 0.35450451783256998 0 0.010554275878121621 0.34169214711298279 0 -0.0026857519243812899 0.33314825634734441 0 0.01215271680588139 0.31445804175633951 0 0.010554275878121621 0.34169214711298279 0 0.01215271680588139 0.31445804175633951 0 0.010554275878121621 0.34169214711298279 0 0.02681364764020704 0.33866355200598108 0 0.01215271680588139 0.31445804175633951 0 0.02681364764020704 0.33866355200598108 0 0.01215271680588139 0.31445804175633951 0 0.02681364764020704 0.33866355200598108 0 0.033750228131773967 0.3189760442079082 0 0.02681364764020704 0.33866355200598108 0 0.033750228131773967 0.3189760442079082 0 0.059087988537360338 0.33422269051527442 0 0.033750228131773967 0.3189760442079082 0 0.059087988537360338 0.33422269051527442 0 0.045210197403694058 0.3108952566128132 0 0.059087988537360338 0.33422269051527442 0 0.056152739567108659 0.30516367924263699 0 0.045210197403694058 0.3108952566128132 0 0.059087988537360338 0.33422269051527442 0 0.056152739567108659 0.30516367924263699 0 0.056152739567108659 0.30516367924263699 0 0.046878379764856773 0.29659878846327797 0 0.045210197403694058 0.3108952566128132 0 0.056152739567108659 0.30516367924263699 0 0.053217490596857889 0.27610466796999972 0 0.070527632116029054 0.28813130237620638 0 0.046878379764856773 0.29659878846327797 0 0.053217490596857889 0.27610466796999972 0 0.056152739567108659 0.30516367924263699 0 0.053217490596857889 0.27610466796999972 0 0.056152739567108659 0.30516367924263699 0 0.046878379764856773 0.29659878846327797 0 0.053217490596857889 0.27610466796999972 0 0.046878379764856773 0.29659878846327797 0 0.039111444908691249 0.282968922695851 0 0.053217490596857889 0.27610466796999972 0 0.046878379764856773 0.29659878846327797 0 0.039111444908691249 0.282968922695851 0 0.030181651017370571 0.29951508063496851 0 0.033750228131773967 0.3189760442079082 0 0.045210197403694058 0.3108952566128132 0 0.030181651017370571 0.29951508063496851 0 0.046878379764856773 0.29659878846327797 0 0.045210197403694058 0.3108952566128132 0 0.030181651017370571 0.29951508063496851 0 0.01215271680588139 0.31445804175633951 0 0.030181651017370571 0.29951508063496851 0 0.014423766391059269 0.29300785108068023 0 0.01215271680588139 0.31445804175633951 0 0.033750228131773967 0.3189760442079082 0 0.030181651017370571 0.29951508063496851 0 0.030181651017370571 0.29951508063496851 0 0.014423766391059269 0.29300785108068023 0 0.023498030288463478 0.27895463707901902 0 0.039111444908691249 0.282968922695851 0 0.030181651017370571 0.29951508063496851 0 0.023498030288463478 0.27895463707901902 0 -0.0025082140284442898 0.29025253150669778 0 0.014423766391059269 0.29300785108068023 0 0.0087946478720252134 0.28185896442637648 0 -0.0030242111910691451 0.27415784458153852 0 -0.0025082140284442898 0.29025253150669778 0 0.0087946478720252134 0.28185896442637648 0 0.014423766391059269 0.29300785108068023 0 0.0087946478720252134 0.28185896442637648 0 0.023498030288463478 0.27895463707901902 0 -0.0066953893168378471 0.30245822206907802 0 -0.0025082140284442898 0.29025253150669778 0 0.01215271680588139 0.31445804175633951 0 -0.0025082140284442898 0.29025253150669778 0 0.01215271680588139 0.31445804175633951 0 0.014423766391059269 0.29300785108068023 0 -0.0066953893168378471 0.30245822206907802 0 -0.0050279189580847783 0.31667723503137363 0 0.01215271680588139 0.31445804175633951 0 -0.0025082140284442898 0.29025253150669778 0 0.01215271680588139 0.31445804175633951 0 0.003905588941896832 0.26182209175970711 0 0.01238557026296472 0.27139423001031893 0 0.020203579006178481 0.26315707226009089 0 0.0099949212797765703 0.25006588645034589 0 0.003905588941896832 0.26182209175970711 0 0.020203579006178481 0.26315707226009089 0 0.0099949212797765703 0.25006588645034589 0 0.00034173235196240039 0.25169171842839061 0 0.003905588941896832 0.26182209175970711 0 -0.0030242111910691451 0.27415784458153852 0 0.003905588941896832 0.26182209175970711 0 0.01238557026296472 0.27139423001031893 0 -0.0030242111910691451 0.27415784458153852 0 0.0087946478720252134 0.28185896442637648 0 0.01238557026296472 0.27139423001031893 0 0.0087946478720252134 0.28185896442637648 0 0.01238557026296472 0.27139423001031893 0 0.023498030288463478 0.27895463707901902 0 0.01238557026296472 0.27139423001031893 0 0.023498030288463478 0.27895463707901902 0 0.020203579006178481 0.26315707226009089 0 0.023498030288463478 0.27895463707901902 0 0.020203579006178481 0.26315707226009089 0 0.036117726824151493 0.26789255364358588 0 0.028103711665830412 0.24675520846442439 0 0.0099949212797765703 0.25006588645034589 0 0.020203579006178481 0.26315707226009089 0 0.028103711665830412 0.24675520846442439 0 0.020203579006178481 0.26315707226009089 0 0.036117726824151493 0.26789255364358588 0 0.028103711665830412 0.24675520846442439 0 0.036117726824151493 0.26789255364358588 0 0.051489570560377278 0.25899823225460827 0 0.039111444908691249 0.282968922695851 0 0.036117726824151493 0.26789255364358588 0 0.053217490596857889 0.27610466796999972 0 0.039111444908691249 0.282968922695851 0 0.023498030288463478 0.27895463707901902 0 0.036117726824151493 0.26789255364358588 0 0.036117726824151493 0.26789255364358588 0 0.053217490596857889 0.27610466796999972 0 0.051489570560377278 0.25899823225460827 0 0.053217490596857889 0.27610466796999972 0 0.059032674099789531 0.25730438594969879 0 0.053217490596857889 0.27610466796999972 0 0.051489570560377278 0.25899823225460827 0 0.053217490596857889 0.27610466796999972 0 0.059032674099789531 0.25730438594969879 0 0.069819589527510287 0.27195443624382992 0 0.053217490596857889 0.27610466796999972 0 0.051489570560377278 0.25899823225460827 0 0.059032674099789531 0.25730438594969879 0 0.049761650523897492 0.24189179653921669 0 0.051489570560377278 0.25899823225460827 0 0.049761650523897492 0.24189179653921669 0 0.051489570560377278 0.25899823225460827 0 0.059032674099789531 0.25730438594969879 0 0.077348978834584664 0.24724533421638889 0 0.059032674099789531 0.25730438594969879 0 0.083227960371578216 0.26132101235535171 0 0.059032674099789531 0.25730438594969879 0 0.083227960371578216 0.26132101235535171 0 0.069819589527510287 0.27195443624382992 0 0.088716207372424527 0.24898629068107231 0 0.077348978834584664 0.24724533421638889 0 0.083227960371578216 0.26132101235535171 0 0.083227960371578216 0.26132101235535171 0 0.085329657056914116 0.27519914064431927 0 0.097338130221728172 0.25820381940431508 0 0.088716207372424527 0.24898629068107231 0 0.083227960371578216 0.26132101235535171 0 0.097338130221728172 0.25820381940431508 0 0.085329657056914116 0.27519914064431927 0 0.091576862916833618 0.29082998456614612 0 0.1035159141548662 0.27118890261054213 0 0.083227960371578216 0.26132101235535171 0 0.085329657056914116 0.27519914064431927 0 0.069819589527510287 0.27195443624382992 0 0.085329657056914116 0.27519914064431927 0 0.069819589527510287 0.27195443624382992 0 0.070527632116029054 0.28813130237620638 0 0.053217490596857889 0.27610466796999972 0 0.069819589527510287 0.27195443624382992 0 0.070527632116029054 0.28813130237620638 0 0.056152739567108659 0.30516367924263699 0 0.070527632116029054 0.28813130237620638 0 0.072965650665167942 0.29994969354246598 0 0.056152739567108659 0.30516367924263699 0 0.072965650665167942 0.29994969354246598 0 0.079357077576761151 0.31157037862388998 0 0.079357077576761151 0.31157037862388998 0 0.091576862916833618 0.29082998456614612 0 0.1018223941140298 0.31212573649168462 0 0.072965650665167942 0.29994969354246598 0 0.079357077576761151 0.31157037862388998 0 0.091576862916833618 0.29082998456614612 0 0.070527632116029054 0.28813130237620638 0 0.072965650665167942 0.29994969354246598 0 0.091576862916833618 0.29082998456614612 0 0.085329657056914116 0.27519914064431927 0 0.070527632116029054 0.28813130237620638 0 0.091576862916833618 0.29082998456614612 0 0.091576862916833618 0.29082998456614612 0 0.1136349711066008 0.28342289177795921 0 0.1035159141548662 0.27118890261054213 0 0.091576862916833618 0.29082998456614612 0 0.1119967041979302 0.29905119105329231 0 0.091576862916833618 0.29082998456614612 0 0.1119967041979302 0.29905119105329231 0 0.1136349711066008 0.28342289177795921 0 0.091576862916833618 0.29082998456614612 0 0.1018223941140298 0.31212573649168462 0 0.1119967041979302 0.29905119105329231 0 0.1185435201949019 0.31297732835421199 0 0.1119967041979302 0.29905119105329231 0 0.1324165454790267 0.30727239754043861 0 0.1185435201949019 0.31297732835421199 0 0.1018223941140298 0.31212573649168462 0 0.1119967041979302 0.29905119105329231 0 0.1119967041979302 0.29905119105329231 0 0.1324165454790267 0.30727239754043861 0 0.1119967041979302 0.29905119105329231 0 0.1136349711066008 0.28342289177795921 0 0.1290161345054254 0.28663964001213549 0 0.1136349711066008 0.28342289177795921 0 0.12202068436972829 0.26518306292907329 0 0.1290161345054254 0.28663964001213549 0 0.1136349711066008 0.28342289177795921 0 0.12202068436972829 0.26518306292907329 0 0.1035159141548662 0.27118890261054213 0 0.1186654333941437 0.24666043126619891 0 0.12202068436972829 0.26518306292907329 0 0.1084587161834779 0.25707980777683931 0 0.12202068436972829 0.26518306292907329 0 0.1084587161834779 0.25707980777683931 0 0.1035159141548662 0.27118890261054213 0 0.1084587161834779 0.25707980777683931 0 0.097338130221728172 0.25820381940431508 0 0.1035159141548662 0.27118890261054213 0 0.1007534187769229 0.2441628226740673 0 0.1084587161834779 0.25707980777683931 0 0.097338130221728172 0.25820381940431508 0 0.088716207372424527 0.24898629068107231 0 0.1007534187769229 0.2441628226740673 0 0.097338130221728172 0.25820381940431508 0 0.085329657056914116 0.27519914064431927 0 0.097338130221728172 0.25820381940431508 0 0.1035159141548662 0.27118890261054213 0 0.14415366254785689 0.26570884003939249 0 0.15172987708434951 0.28225964022045408 0 0.14415366254785689 0.26570884003939249 0 0.1290161345054254 0.28663964001213549 0 0.15172987708434951 0.28225964022045408 0 0.14415366254785689 0.26570884003939249 0 0.15172987708434951 0.28225964022045408 0 0.16010258993135179 0.26864884926440069 0 0.14415366254785689 0.26570884003939249 0 0.16010258993135179 0.26864884926440069 0 0.16352123683232861 0.25291501750165601 0 0.15510602634524509 0.2490666805815501 0 0.13657744801136459 0.24915803985833099 0 0.16352123683232861 0.25291501750165601 0 0.13657744801136459 0.24915803985833099 0 0.14415366254785689 0.26570884003939249 0 0.16352123683232861 0.25291501750165601 0 0.13657744801136459 0.24915803985833099 0 0.16352123683232861 0.25291501750165601 0 0.13657744801136459 0.24915803985833099 0 0.14415366254785689 0.26570884003939249 0 0.1186654333941437 0.24666043126619891 0 0.13657744801136459 0.24915803985833099 0 0.12202068436972829 0.26518306292907329 0 0.13657744801136459 0.24915803985833099 0 0.12202068436972829 0.26518306292907329 0 0.14415366254785689 0.26570884003939249 0 0.12202068436972829 0.26518306292907329 0 0.14415366254785689 0.26570884003939249 0 0.1290161345054254 0.28663964001213549 0 0.1290161345054254 0.28663964001213549 0 0.15172987708434951 0.28225964022045408 0 0.1119967041979302 0.29905119105329231 0 0.1290161345054254 0.28663964001213549 0 0.13507741550521829 0.29623728551871131 0 0.1290161345054254 0.28663964001213549 0 0.13507741550521829 0.29623728551871131 0 0.1439174607907866 0.29187582465390233 0 0.1119967041979302 0.29905119105329231 0 0.13507741550521829 0.29623728551871131 0 0.1324165454790267 0.30727239754043861 0 0.13507741550521829 0.29623728551871131 0 0.1324165454790267 0.30727239754043861 0 0.14720005746242951 0.30142281331575033 0 0.1324165454790267 0.30727239754043861 0 0.15283638676012321 0.31549360402758481 0 0.1324165454790267 0.30727239754043861 0 0.14720005746242951 0.30142281331575033 0 0.15283638676012321 0.31549360402758481 0 0.14720005746242951 0.30142281331575033 0 0.15656381939651029 0.29281974420246049 0 0.16028174711874049 0.3030196196812181 0 0.14720005746242951 0.30142281331575033 0 0.16028174711874049 0.3030196196812181 0 0.15283638676012321 0.31549360402758481 0 0.1290161345054254 0.28663964001213549 0 0.1439174607907866 0.29187582465390233 0 0.15172987708434951 0.28225964022045408 0 0.13507741550521829 0.29623728551871131 0 0.14720005746242951 0.30142281331575033 0 0.1439174607907866 0.29187582465390233 0 0.14720005746242951 0.30142281331575033 0 0.1439174607907866 0.29187582465390233 0 0.15656381939651029 0.29281974420246049 0 0.15172987708434951 0.28225964022045408 0 0.15656381939651029 0.29281974420246049 0 0.1439174607907866 0.29187582465390233 0 0.15172987708434951 0.28225964022045408 0 0.15656381939651029 0.29281974420246049 0 0.15656381939651029 0.29281974420246049 0 0.17183897735861861 0.29512351805727499 0 0.17151824671322299 0.27844375410873118 0 0.15172987708434951 0.28225964022045408 0 0.15656381939651029 0.29281974420246049 0 0.17151824671322299 0.27844375410873118 0 0.16028174711874049 0.3030196196812181 0 0.1729694946160211 0.31023841880301989 0 0.15283638676012321 0.31549360402758481 0 0.15656381939651029 0.29281974420246049 0 0.17183897735861861 0.29512351805727499 0 0.16028174711874049 0.3030196196812181 0 0.17183897735861861 0.29512351805727499 0 0.16028174711874049 0.3030196196812181 0 0.1729694946160211 0.31023841880301989 0 0.1729694946160211 0.31023841880301989 0 0.19230026538980091 0.29582800269152099 0 0.19329391443751021 0.31702813738604091 0 0.17183897735861861 0.29512351805727499 0 0.1729694946160211 0.31023841880301989 0 0.19230026538980091 0.29582800269152099 0 0.17151824671322299 0.27844375410873118 0 0.19130661634209509 0.27462786799700101 0 0.19230026538980091 0.29582800269152099 0 0.17183897735861861 0.29512351805727499 0 0.17151824671322299 0.27844375410873118 0 0.19230026538980091 0.29582800269152099 0 0.17538274309445809 0.26626149680335409 0 0.17151824671322299 0.27844375410873118 0 0.19130661634209509 0.27462786799700101 0 0.17538274309445809 0.26626149680335409 0 0.19046502565329271 0.25667199514498079 0 0.19130661634209509 0.27462786799700101 0 0.17151824671322299 0.27844375410873118 0 0.19130661634209509 0.27462786799700101 0 0.15172987708434951 0.28225964022045408 0 0.17151824671322299 0.27844375410873118 0 0.16010258993135179 0.26864884926440069 0 0.15172987708434951 0.28225964022045408 0 0.17151824671322299 0.27844375410873118 0 0.17538274309445809 0.26626149680335409 0 0.17151824671322299 0.27844375410873118 0 0.16010258993135179 0.26864884926440069 0 0.17538274309445809 0.26626149680335409 0 0.16010258993135179 0.26864884926440069 0 0.16352123683232861 0.25291501750165601 0 0.17541479570916349 0.24394271450933411 0 0.16352123683232861 0.25291501750165601 0 0.19046502565329271 0.25667199514498079 0 0.16352123683232861 0.25291501750165601 0 0.19046502565329271 0.25667199514498079 0 0.17538274309445809 0.26626149680335409 0 0.16352123683232861 0.25291501750165601 0 0.19046502565329271 0.25667199514498079 0 0.19046502565329271 0.25667199514498079 0 0.20762981486763341 0.25906541240931591 0 0.19046502565329271 0.25667199514498079 0 0.19991650467169381 0.26522402916783588 0 0.20762981486763341 0.25906541240931591 0 0.19046502565329271 0.25667199514498079 0 0.19991650467169381 0.26522402916783588 0 0.19130661634209509 0.27462786799700101 0 0.20485045957174261 0.24407632231641579 0 0.19046502565329271 0.25667199514498079 0 0.20762981486763341 0.25906541240931591 0 0.19991650467169381 0.26522402916783588 0 0.19130661634209509 0.27462786799700101 0 0.21331660557633941 0.27038357633411242 0 0.19130661634209509 0.27462786799700101 0 0.21331660557633941 0.27038357633411242 0 0.19046502565329271 0.25667199514498079 0 0.19130661634209509 0.27462786799700101 0 0.19130661634209509 0.27462786799700101 0 0.21331660557633941 0.27038357633411242 0 0.20627604292596571 0.28701620748485168 0 0.20762981486763341 0.25906541240931591 0 0.2247946040819743 0.26145882967365019 0 0.21331660557633941 0.27038357633411242 0 0.20762981486763341 0.25906541240931591 0 0.2247946040819743 0.26145882967365019 0 0.20762981486763341 0.25906541240931591 0 0.22046961193007161 0.25132333339345397 0 0.2247946040819743 0.26145882967365019 0 0.19991650467169381 0.26522402916783588 0 0.21331660557633941 0.27038357633411242 0 0.20762981486763341 0.25906541240931591 0 0.20485045957174261 0.24407632231641579 0 0.20762981486763341 0.25906541240931591 0 0.22046961193007161 0.25132333339345397 0 0.22046961193007161 0.25132333339345397 0 0.23150131107463259 0.2581549984685666 0 0.2247946040819743 0.26145882967365019 0 0.23349475274929751 0.24834420182182129 0 0.22046961193007161 0.25132333339345397 0 0.23150131107463259 0.2581549984685666 0 0.23349475274929751 0.24834420182182129 0 0.23150131107463259 0.2581549984685666 0 0.23700326713291531 0.25668110642687109 0 0.23150131107463259 0.2581549984685666 0 0.2247946040819743 0.26145882967365019 0 0.2353265948105823 0.266139284671216 0 0.21331660557633941 0.27038357633411242 0 0.2353265948105823 0.266139284671216 0 0.22322886518685139 0.28844103753447059 0 0.21331660557633941 0.27038357633411242 0 0.2353265948105823 0.266139284671216 0 0.21331660557633941 0.27038357633411242 0 0.2247946040819743 0.26145882967365019 0 0.2353265948105823 0.266139284671216 0 0.2353265948105823 0.266139284671216 0 0.22322886518685139 0.28844103753447059 0 0.2353265948105823 0.266139284671216 0 0.24482817571085241 0.27603777433509602 0 0.22322886518685139 0.28844103753447059 0 0.2353265948105823 0.266139284671216 0 0.24482817571085241 0.27603777433509602 0 0.254662193301321 0.26241070858705712 0 0.2353265948105823 0.266139284671216 0 0.23650007352512109 0.26397601659564018 0 0.254662193301321 0.26241070858705712 0 0.2353265948105823 0.266139284671216 0 0.254662193301321 0.26241070858705712 0 0.24424659163407689 0.25463765965546259 0 0.23650007352512109 0.26397601659564018 0 0.254662193301321 0.26241070858705712 0 0.24815670256054939 0.24315182117073661 0 0.24424659163407689 0.25463765965546259 0 0.254662193301321 0.26241070858705712 0 0.23349475274929751 0.24834420182182129 0 0.24424659163407689 0.25463765965546259 0 0.23700326713291531 0.25668110642687109 0 0.24424659163407689 0.25463765965546259 0 0.23700326713291531 0.25668110642687109 0 0.23650007352512109 0.26397601659564018 0 0.23150131107463259 0.2581549984685666 0 0.23700326713291531 0.25668110642687109 0 0.23650007352512109 0.26397601659564018 0 0.23150131107463259 0.2581549984685666 0 0.2353265948105823 0.266139284671216 0 0.23650007352512109 0.26397601659564018 0 0.2353265948105823 0.266139284671216 0 0.23650007352512109 0.26397601659564018 0 0.24727529996386621 0.29433480603965467 0 0.229369325327269 0.30586426482163581 0 0.2446011947163689 0.31609853100590518 0 0.24482817571085241 0.27603777433509602 0 0.24727529996386621 0.29433480603965467 0 0.22322886518685139 0.28844103753447059 0 0.24727529996386621 0.29433480603965467 0 0.22322886518685139 0.28844103753447059 0 0.229369325327269 0.30586426482163581 0 0.229369325327269 0.30586426482163581 0 0.21113113556312271 0.31074279039772651 0 0.2211247370844778 0.31501973355023472 0 0.22322886518685139 0.28844103753447059 0 0.229369325327269 0.30586426482163581 0 0.21113113556312271 0.31074279039772651 0 0.21113113556312271 0.31074279039772651 0 0.20627604292596571 0.28701620748485168 0 0.19230026538980091 0.29582800269152099 0 0.22322886518685139 0.28844103753447059 0 0.21113113556312271 0.31074279039772651 0 0.22322886518685139 0.28844103753447059 0 0.21113113556312271 0.31074279039772651 0 0.20627604292596571 0.28701620748485168 0 0.21331660557633941 0.27038357633411242 0 0.22322886518685139 0.28844103753447059 0 0.20627604292596571 0.28701620748485168 0 0.19130661634209509 0.27462786799700101 0 0.20627604292596571 0.28701620748485168 0 0.19230026538980091 0.29582800269152099 0 0.19130661634209509 0.27462786799700101 0 0.19230026538980091 0.29582800269152099 0 0.21113113556312271 0.31074279039772651 0 0.19230026538980091 0.29582800269152099 0 0.19329391443751021 0.31702813738604091 0 0.19230026538980091 0.29582800269152099 0 0.19329391443751021 0.31702813738604091 0 0.19329391443751021 0.31702813738604091 0 0.19399873463963219 0.33206592487742959 0 0.19856664307428681 0.33390500471838719 0 0.21113113556312271 0.31074279039772651 0 0.19329391443751021 0.31702813738604091 0 0.21113113556312271 0.31074279039772651 0 0.19329391443751021 0.31702813738604091 0 0.19856664307428681 0.33390500471838719 0 0.19329391443751021 0.31702813738604091 0 0.19399873463963219 0.33206592487742959 0 0.19399873463963219 0.33206592487742959 0 0.19505625176395089 0.35462872562592179 0 0.19399873463963219 0.33206592487742959 0 0.19505625176395089 0.35462872562592179 0 0.18054622150100799 0.33881236601417608 0 0.19399873463963219 0.33206592487742959 0 0.19856664307428681 0.33390500471838719 0 0.19505625176395089 0.35462872562592179 0 0.19399873463963219 0.33206592487742959 0 0.19856664307428681 0.33390500471838719 0 0.19856664307428681 0.33390500471838719 0 0.2213124379032726 0.34306266042340328 0 0.20549052824428821 0.34634015487684922 0 0.19856664307428681 0.33390500471838719 0 0.21502896340270511 0.32119208455053683 0 0.2213124379032726 0.34306266042340328 0 0.19856664307428681 0.33390500471838719 0 0.2213124379032726 0.34306266042340328 0 0.21113113556312271 0.31074279039772651 0 0.19856664307428681 0.33390500471838719 0 0.21502896340270511 0.32119208455053683 0 0.21113113556312271 0.31074279039772651 0 0.19856664307428681 0.33390500471838719 0 0.21113113556312271 0.31074279039772651 0 0.21502896340270511 0.32119208455053683 0 0.2211247370844778 0.31501973355023472 0 0.229369325327269 0.30586426482163581 0 0.2211247370844778 0.31501973355023472 0 0.22858562452117659 0.32241507008287479 0 0.21502896340270511 0.32119208455053683 0 0.2211247370844778 0.31501973355023472 0 0.22858562452117659 0.32241507008287479 0 0.229369325327269 0.30586426482163581 0 0.22858562452117659 0.32241507008287479 0 0.2446011947163689 0.31609853100590518 0 0.21502896340270511 0.32119208455053683 0 0.22858562452117659 0.32241507008287479 0 0.2213124379032726 0.34306266042340328 0 0.22858562452117659 0.32241507008287479 0 0.2213124379032726 0.34306266042340328 0 0.24170864177338369 0.33507419302134078 0 0.2213124379032726 0.34306266042340328 0 0.24170864177338369 0.33507419302134078 0 0.2440582327322583 0.35222031612841931 0 0.22858562452117659 0.32241507008287479 0 0.24170864177338369 0.33507419302134078 0 0.2446011947163689 0.31609853100590518 0 0.24747677625636461 0.37455452473917239 0 0.23092523554958469 0.3633124534467066 0 0.2271879382114449 0.38170543982519117 0 0.24747677625636461 0.37455452473917239 0 0.2440582327322583 0.35222031612841931 0 0.23092523554958469 0.3633124534467066 0 0.24170864177338369 0.33507419302134078 0 0.2440582327322583 0.35222031612841931 0 0.25971692118216738 0.34615409171956241 0 0.2213124379032726 0.34306266042340328 0 0.2440582327322583 0.35222031612841931 0 0.23092523554958469 0.3633124534467066 0 0.2213124379032726 0.34306266042340328 0 0.23092523554958469 0.3633124534467066 0 0.21459079264458331 0.36501932611734672 0 0.2213124379032726 0.34306266042340328 0 0.2440582327322583 0.35222031612841931 0 0.23092523554958469 0.3633124534467066 0 0.21459079264458331 0.36501932611734672 0 0.2271879382114449 0.38170543982519117 0 0.21459079264458331 0.36501932611734672 0 0.20549052824428821 0.34634015487684922 0 0.19505625176395089 0.35462872562592179 0 0.2213124379032726 0.34306266042340328 0 0.21459079264458331 0.36501932611734672 0 0.20549052824428821 0.34634015487684922 0 0.19856664307428681 0.33390500471838719 0 0.20549052824428821 0.34634015487684922 0 0.19505625176395089 0.35462872562592179 0 0.19505625176395089 0.35462872562592179 0 0.19611376888827059 0.37719152637441389 0 0.19505625176395089 0.35462872562592179 0 0.17958692951971941 0.36667132357098242 0 0.19611376888827059 0.37719152637441389 0 0.21459079264458331 0.36501932611734672 0 0.19505625176395089 0.35462872562592179 0 0.19611376888827059 0.37719152637441389 0 0.17958692951971941 0.36667132357098242 0 0.15849263196125549 0.36876271624149631 0 0.1725496324360962 0.35116573920433058 0 0.17958692951971941 0.36667132357098242 0 0.15849263196125549 0.36876271624149631 0 0.17640617275405401 0.38424537276040183 0 0.15849263196125549 0.36876271624149631 0 0.1725496324360962 0.35116573920433058 0 0.15520576226840621 0.34682095357354309 0 0.1725496324360962 0.35116573920433058 0 0.16722368092195561 0.33776997078275239 0 0.15520576226840621 0.34682095357354309 0 0.19505625176395089 0.35462872562592179 0 0.17958692951971941 0.36667132357098242 0 0.1725496324360962 0.35116573920433058 0 0.19505625176395089 0.35462872562592179 0 0.1725496324360962 0.35116573920433058 0 0.18054622150100799 0.33881236601417608 0 0.19399873463963219 0.33206592487742959 0 0.18054622150100799 0.33881236601417608 0 0.17375168059771531 0.32391428404224459 0 0.18054622150100799 0.33881236601417608 0 0.17375168059771531 0.32391428404224459 0 0.16722368092195561 0.33776997078275239 0 0.1725496324360962 0.35116573920433058 0 0.18054622150100799 0.33881236601417608 0 0.16722368092195561 0.33776997078275239 0 0.19399873463963219 0.33206592487742959 0 0.17375168059771531 0.32391428404224459 0 0.19329391443751021 0.31702813738604091 0 0.19399873463963219 0.33206592487742959 0 0.17375168059771531 0.32391428404224459 0 0.19329391443751021 0.31702813738604091 0 0.17375168059771531 0.32391428404224459 0 0.1729694946160211 0.31023841880301989 0 0.19329391443751021 0.31702813738604091 0 0.17375168059771531 0.32391428404224459 0 0.1729694946160211 0.31023841880301989 0 0.17375168059771531 0.32391428404224459 0 0.15283638676012321 0.31549360402758481 0 0.1729694946160211 0.31023841880301989 0 0.15283638676012321 0.31549360402758481 0 0.17375168059771531 0.32391428404224459 0 0.15283638676012321 0.31549360402758481 0 0.17375168059771531 0.32391428404224459 0 0.15398954423370631 0.33087791831036861 0 0.17375168059771531 0.32391428404224459 0 0.15398954423370631 0.33087791831036861 0 0.15283638676012321 0.31549360402758481 0 0.17375168059771531 0.32391428404224459 0 0.16722368092195561 0.33776997078275239 0 0.15398954423370631 0.33087791831036861 0 0.16722368092195561 0.33776997078275239 0 0.15398954423370631 0.33087791831036861 0 0.15520576226840621 0.34682095357354309 0 0.15398954423370631 0.33087791831036861 0 0.1342274078696957 0.33784155257848808 0 0.15398954423370631 0.33087791831036861 0 0.1342274078696957 0.33784155257848808 0 0.15520576226840621 0.34682095357354309 0 0.15398954423370631 0.33087791831036861 0 0.14380895401282001 0.32554019080229318 0 0.1342274078696957 0.33784155257848808 0 0.15283638676012321 0.31549360402758481 0 0.133106114647882 0.32064364023774311 0 0.15283638676012321 0.31549360402758481 0 0.14380895401282001 0.32554019080229318 0 0.133106114647882 0.32064364023774311 0 0.15398954423370631 0.33087791831036861 0 0.15283638676012321 0.31549360402758481 0 0.14380895401282001 0.32554019080229318 0 0.14380895401282001 0.32554019080229318 0 0.133106114647882 0.32064364023774311 0 0.1342274078696957 0.33784155257848808 0 0.1324165454790267 0.30727239754043861 0 0.15283638676012321 0.31549360402758481 0 0.133106114647882 0.32064364023774311 0 0.1185435201949019 0.31297732835421199 0 0.1324165454790267 0.30727239754043861 0 0.133106114647882 0.32064364023774311 0 0.1245359080047571 0.33070698122850961 0 0.133106114647882 0.32064364023774311 0 0.1342274078696957 0.33784155257848808 0 0.12107552442819509 0.35793425152046321 0 0.12923214107289341 0.3489225491329116 0 0.14057909116845699 0.3532800597225908 0 0.1144652715056851 0.34480518684660783 0 0.1342274078696957 0.33784155257848808 0 0.12923214107289341 0.3489225491329116 0 0.1342274078696957 0.33784155257848808 0 0.12923214107289341 0.3489225491329116 0 0.14057909116845699 0.3532800597225908 0 0.12107552442819509 0.35793425152046321 0 0.14057909116845699 0.3532800597225908 0 0.13592149644392509 0.37306993102140562 0 0.1207712551413805 0.37247672491497419 0 0.12107552442819509 0.35793425152046321 0 0.13592149644392509 0.37306993102140562 0 0.15849263196125549 0.36876271624149631 0 0.14057909116845699 0.3532800597225908 0 0.15849263196125549 0.36876271624149631 0 0.14057909116845699 0.3532800597225908 0 0.13592149644392509 0.37306993102140562 0 0.1342274078696957 0.33784155257848808 0 0.14057909116845699 0.3532800597225908 0 0.15520576226840621 0.34682095357354309 0 0.15849263196125549 0.36876271624149631 0 0.14057909116845699 0.3532800597225908 0 0.15520576226840621 0.34682095357354309 0 0.14167318417918681 0.39924251112666631 0 0.14456768884762569 0.40624631742267953 0 0.15837814101268269 0.41109461213554549 0 0.14167318417918681 0.39924251112666631 0 0.15837814101268269 0.41109461213554549 0 0.16799644886301979 0.39948527020298641 0 0.14167318417918681 0.39924251112666631 0 0.1553694456900121 0.38605952845327418 0 0.16799644886301979 0.39948527020298641 0 0.14167318417918681 0.39924251112666631 0 0.16799644886301979 0.39948527020298641 0 0.14167318417918681 0.39924251112666631 0 0.15837814101268269 0.41109461213554549 0 0.13592149644392509 0.37306993102140562 0 0.14167318417918681 0.39924251112666631 0 0.1553694456900121 0.38605952845327418 0 0.15849263196125549 0.36876271624149631 0 0.13592149644392509 0.37306993102140562 0 0.1553694456900121 0.38605952845327418 0 0.12383568054059919 0.38658687262498997 0 0.13592149644392509 0.37306993102140562 0 0.14167318417918681 0.39924251112666631 0 0.12383568054059919 0.38658687262498997 0 0.1207712551413805 0.37247672491497419 0 0.13592149644392509 0.37306993102140562 0 0.14167318417918681 0.39924251112666631 0 0.1252266694359985 0.39909083766307202 0 0.13520970449003991 0.40846119142794018 0 0.12383568054059919 0.38658687262498997 0 0.14167318417918681 0.39924251112666631 0 0.12383568054059919 0.38658687262498997 0 0.14167318417918681 0.39924251112666631 0 0.1252266694359985 0.39909083766307202 0 0.14167318417918681 0.39924251112666631 0 0.1252266694359985 0.39909083766307202 0 0.14167318417918681 0.39924251112666631 0 0.14456768884762569 0.40624631742267953 0 0.13520970449003991 0.40846119142794018 0 0.1252266694359985 0.39909083766307202 0 0.12708872060208859 0.40965213795514882 0 0.13520970449003991 0.40846119142794018 0 0.12708872060208859 0.40965213795514882 0 0.12981012617728921 0.41641870939150699 0 0.13520970449003991 0.40846119142794018 0 0.12981012617728921 0.41641870939150699 0 0.1354353241074055 0.41963070627553761 0 0.13246924620873091 0.42587313247347358 0 0.121637541881659 0.41716908408952041 0 0.12708872060208859 0.40965213795514882 0 0.12981012617728921 0.41641870939150699 0 0.12486695022230131 0.42603986674334487 0 0.121637541881659 0.41716908408952041 0 0.12981012617728921 0.41641870939150699 0 0.1354353241074055 0.41963070627553761 0 0.141151727868112 0.42705123846528897 0 0.1411458910462427 0.4164211084671906 0 0.1354353241074055 0.41963070627553761 0 0.13520970449003991 0.40846119142794018 0 0.1411458910462427 0.4164211084671906 0 0.12981012617728921 0.41641870939150699 0 0.1354353241074055 0.41963070627553761 0 0.13520970449003991 0.40846119142794018 0 0.14456768884762569 0.40624631742267953 0 0.13520970449003991 0.40846119142794018 0 0.1411458910462427 0.4164211084671906 0 0.12775715340285629 0.43310596898077769 0 0.13401189206520159 0.43243824053187419 0 0.13156178823478881 0.44006597154671129 0 0.1241892659923521 0.43795447681914851 0 0.12775715340285629 0.43310596898077769 0 0.13156178823478881 0.44006597154671129 0 0.12775715340285629 0.43310596898077769 0 0.13246924620873091 0.42587313247347358 0 0.13401189206520159 0.43243824053187419 0 0.12486695022230131 0.42603986674334487 0 0.12981012617728921 0.41641870939150699 0 0.13246924620873091 0.42587313247347358 0 0.12486695022230131 0.42603986674334487 0 0.12775715340285629 0.43310596898077769 0 0.13246924620873091 0.42587313247347358 0 0.1354353241074055 0.41963070627553761 0 0.13246924620873091 0.42587313247347358 0 0.141151727868112 0.42705123846528897 0 0.13246924620873091 0.42587313247347358 0 0.13401189206520159 0.43243824053187419 0 0.141151727868112 0.42705123846528897 0 0.13401189206520159 0.43243824053187419 0 0.1392884892309712 0.43605529901346318 0 0.141151727868112 0.42705123846528897 0 0.13401189206520159 0.43243824053187419 0 0.1392884892309712 0.43605529901346318 0 0.13156178823478881 0.44006597154671129 0 0.141151727868112 0.42705123846528897 0 0.15077662926315069 0.42942447093722919 0 0.14794817073882591 0.43797540064049317 0 0.1392884892309712 0.43605529901346318 0 0.141151727868112 0.42705123846528897 0 0.14794817073882591 0.43797540064049317 0 0.141151727868112 0.42705123846528897 0 0.15077662926315069 0.42942447093722919 0 0.14710019416146961 0.42036963587877002 0 0.15077662926315069 0.42942447093722919 0 0.14710019416146961 0.42036963587877002 0 0.1586284049151882 0.42403483968949468 0 0.15077662926315069 0.42942447093722919 0 0.15905464863215771 0.43769124001209903 0 0.14794817073882591 0.43797540064049317 0 0.15077662926315069 0.42942447093722919 0 0.1586284049151882 0.42403483968949468 0 0.15905464863215771 0.43769124001209903 0 0.14456768884762569 0.40624631742267953 0 0.14710019416146961 0.42036963587877002 0 0.1586284049151882 0.42403483968949468 0 0.14456768884762569 0.40624631742267953 0 0.15837814101268269 0.41109461213554549 0 0.1586284049151882 0.42403483968949468 0 0.14456768884762569 0.40624631742267953 0 0.1586284049151882 0.42403483968949468 0 0.14456768884762569 0.40624631742267953 0 0.1411458910462427 0.4164211084671906 0 0.14710019416146961 0.42036963587877002 0 0.141151727868112 0.42705123846528897 0 0.1411458910462427 0.4164211084671906 0 0.14710019416146961 0.42036963587877002 0 0.16932632393375391 0.41403414954433571 0 0.1586284049151882 0.42403483968949468 0 0.17593794838579449 0.42284181302237162 0 0.15837814101268269 0.41109461213554549 0 0.16932632393375391 0.41403414954433571 0 0.1586284049151882 0.42403483968949468 0 0.15837814101268269 0.41109461213554549 0 0.16932632393375391 0.41403414954433571 0 0.16799644886301979 0.39948527020298641 0 0.1586284049151882 0.42403483968949468 0 0.17268912098275069 0.44182336195630989 0 0.1586284049151882 0.42403483968949468 0 0.17467084343895339 0.4323128626198427 0 0.17268912098275069 0.44182336195630989 0 0.1586284049151882 0.42403483968949468 0 0.17268912098275069 0.44182336195630989 0 0.15905464863215771 0.43769124001209903 0 0.1586284049151882 0.42403483968949468 0 0.17467084343895339 0.4323128626198427 0 0.17593794838579449 0.42284181302237162 0 0.17593794838579449 0.42284181302237162 0 0.18734331002712429 0.43098081638075908 0 0.18569067649208421 0.41271421267128011 0 0.17467084343895339 0.4323128626198427 0 0.17593794838579449 0.42284181302237162 0 0.18734331002712429 0.43098081638075908 0 0.17467084343895339 0.4323128626198427 0 0.18734331002712429 0.43098081638075908 0 0.1787554328839093 0.44188348205027839 0 0.16932632393375391 0.41403414954433571 0 0.17593794838579449 0.42284181302237162 0 0.18569067649208421 0.41271421267128011 0 0.16932632393375391 0.41403414954433571 0 0.18569067649208421 0.41271421267128011 0 0.16799644886301979 0.39948527020298641 0 0.16799644886301979 0.39948527020298641 0 0.17640617275405401 0.38424537276040183 0 0.19431971354685279 0.39972802927930667 0 0.16799644886301979 0.39948527020298641 0 0.19431971354685279 0.39972802927930667 0 0.17640617275405401 0.38424537276040183 0 0.19431971354685279 0.39972802927930667 0 0.18569067649208421 0.41271421267128011 0 0.16799644886301979 0.39948527020298641 0 0.19431971354685279 0.39972802927930667 0 0.1553694456900121 0.38605952845327418 0 0.16799644886301979 0.39948527020298641 0 0.17640617275405401 0.38424537276040183 0 0.15849263196125549 0.36876271624149631 0 0.17640617275405401 0.38424537276040183 0 0.15849263196125549 0.36876271624149631 0 0.1553694456900121 0.38605952845327418 0 0.17640617275405401 0.38424537276040183 0 0.17958692951971941 0.36667132357098242 0 0.17640617275405401 0.38424537276040183 0 0.19611376888827059 0.37719152637441389 0 0.19611376888827059 0.37719152637441389 0 0.1971712860125899 0.39975432712290598 0 0.20358239557654911 0.39018646966091508 0 0.19611376888827059 0.37719152637441389 0 0.1971712860125899 0.39975432712290598 0 0.17640617275405401 0.38424537276040183 0 0.19611376888827059 0.37719152637441389 0 0.19431971354685279 0.39972802927930667 0 0.19611376888827059 0.37719152637441389 0 0.19431971354685279 0.39972802927930667 0 0.1971712860125899 0.39975432712290598 0 0.18569067649208421 0.41271421267128011 0 0.19431971354685279 0.39972802927930667 0 0.19729039467351911 0.40229558619300593 0 0.1971712860125899 0.39975432712290598 0 0.19729039467351911 0.40229558619300593 0 0.2104661863941725 0.3998769356889515 0 0.19431971354685279 0.39972802927930667 0 0.1971712860125899 0.39975432712290598 0 0.19431971354685279 0.39972802927930667 0 0.19729039467351911 0.40229558619300593 0 0.19431971354685279 0.39972802927930667 0 0.1971712860125899 0.39975432712290598 0 0.19729039467351911 0.40229558619300593 0 0.1971712860125899 0.39975432712290598 0 0.19729039467351911 0.40229558619300593 0 0.2104661863941725 0.3998769356889515 0 0.20358239557654911 0.39018646966091508 0 0.21057834101116321 0.38392308945738912 0 0.2104661863941725 0.3998769356889515 0 0.21057834101116321 0.38392308945738912 0 0.22394152475704809 0.39553804288233357 0 0.1971712860125899 0.39975432712290598 0 0.2104661863941725 0.3998769356889515 0 0.19729039467351911 0.40229558619300593 0 0.2104661863941725 0.3998769356889515 0 0.21150652904816811 0.41458257780986069 0 0.1971712860125899 0.39975432712290598 0 0.2104661863941725 0.3998769356889515 0 0.20358239557654911 0.39018646966091508 0 0.2104661863941725 0.3998769356889515 0 0.22394152475704809 0.39553804288233357 0 0.2212883010401572 0.40823308815147358 0 0.21459079264458331 0.36501932611734672 0 0.21057834101116321 0.38392308945738912 0 0.2271879382114449 0.38170543982519117 0 0.21459079264458331 0.36501932611734672 0 0.19611376888827059 0.37719152637441389 0 0.21057834101116321 0.38392308945738912 0 0.19611376888827059 0.37719152637441389 0 0.20358239557654911 0.39018646966091508 0 0.21057834101116321 0.38392308945738912 0 0.2271879382114449 0.38170543982519117 0 0.22394152475704809 0.39553804288233357 0 0.24070228162109181 0.39236703738690831 0 0.21057834101116321 0.38392308945738912 0 0.2271879382114449 0.38170543982519117 0 0.22394152475704809 0.39553804288233357 0 0.22394152475704809 0.39553804288233357 0 0.24070228162109181 0.39236703738690831 0 0.23376042079623049 0.40756537664452658 0 0.22394152475704809 0.39553804288233357 0 0.23376042079623049 0.40756537664452658 0 0.2212883010401572 0.40823308815147358 0 0.24070228162109181 0.39236703738690831 0 0.24595955872236991 0.40515242132340629 0 0.23376042079623049 0.40756537664452658 0 0.24070228162109181 0.39236703738690831 0 0.24595955872236991 0.40515242132340629 0 0.25359543541968949 0.39757942206892227 0 0.24070228162109181 0.39236703738690831 0 0.2539855950671086 0.38568147745874742 0 0.25359543541968949 0.39757942206892227 0 0.24747677625636461 0.37455452473917239 0 0.24070228162109181 0.39236703738690831 0 0.2539855950671086 0.38568147745874742 0 0.24747677625636461 0.37455452473917239 0 0.2271879382114449 0.38170543982519117 0 0.24070228162109181 0.39236703738690831 0 0.24647964254932581 0.4188459769869205 0 0.22676684420516671 0.42360250773169539 0 0.24225466589910971 0.44338981674991412 0 0.24647964254932581 0.4188459769869205 0 0.24225466589910971 0.44338981674991412 0 0.25521426548875908 0.43109769416194271 0 0.24647964254932581 0.4188459769869205 0 0.23376042079623049 0.40756537664452658 0 0.22676684420516671 0.42360250773169539 0 0.24595955872236991 0.40515242132340629 0 0.24647964254932581 0.4188459769869205 0 0.25526001322551162 0.40940429352975349 0 0.24595955872236991 0.40515242132340629 0 0.24647964254932581 0.4188459769869205 0 0.23376042079623049 0.40756537664452658 0 0.23376042079623049 0.40756537664452658 0 0.2212883010401572 0.40823308815147358 0 0.22676684420516671 0.42360250773169539 0 0.2212883010401572 0.40823308815147358 0 0.22676684420516671 0.42360250773169539 0 0.21150652904816811 0.41458257780986069 0 0.22676684420516671 0.42360250773169539 0 0.21154637135046059 0.42979584878023008 0 0.220711619650762 0.44287877060716813 0 0.22676684420516671 0.42360250773169539 0 0.220711619650762 0.44287877060716813 0 0.24225466589910971 0.44338981674991412 0 0.22676684420516671 0.42360250773169539 0 0.21154637135046059 0.42979584878023008 0 0.21150652904816811 0.41458257780986069 0 0.21154637135046059 0.42979584878023008 0 0.21150652904816811 0.41458257780986069 0 0.198229484037967 0.42233165532871181 0 0.2104661863941725 0.3998769356889515 0 0.2212883010401572 0.40823308815147358 0 0.21150652904816811 0.41458257780986069 0 0.19729039467351911 0.40229558619300593 0 0.21150652904816811 0.41458257780986069 0 0.19729039467351911 0.40229558619300593 0 0.198229484037967 0.42233165532871181 0 0.19729039467351911 0.40229558619300593 0 0.21150652904816811 0.41458257780986069 0 0.198229484037967 0.42233165532871181 0 0.18569067649208421 0.41271421267128011 0 0.19729039467351911 0.40229558619300593 0 0.198229484037967 0.42233165532871181 0 0.198229484037967 0.42233165532871181 0 0.1991685734024144 0.44236772446441758 0 0.18734331002712429 0.43098081638075908 0 0.18569067649208421 0.41271421267128011 0 0.198229484037967 0.42233165532871181 0 0.18734331002712429 0.43098081638075908 0 0.198229484037967 0.42233165532871181 0 0.1991685734024144 0.44236772446441758 0 0.21154637135046059 0.42979584878023008 0 0.198229484037967 0.42233165532871181 0 0.1991685734024144 0.44236772446441758 0 0.1991685734024144 0.44236772446441758 0 0.1896764267744942 0.44907699419998182 0 0.1787554328839093 0.44188348205027839 0 0.18734331002712429 0.43098081638075908 0 0.1991685734024144 0.44236772446441758 0 0.1787554328839093 0.44188348205027839 0 0.1991685734024144 0.44236772446441758 0 0.19998956326014139 0.45988406547718058 0 0.1991685734024144 0.44236772446441758 0 0.1787554328839093 0.44188348205027839 0 0.1991685734024144 0.44236772446441758 0 0.1896764267744942 0.44907699419998182 0 0.19998956326014139 0.45988406547718058 0 0.2008105531178721 0.47740040648994347 0 0.18674983705031331 0.45961188422312521 0 0.19998956326014139 0.45988406547718058 0 0.2008105531178721 0.47740040648994347 0 0.18674983705031331 0.45961188422312521 0 0.19998956326014139 0.45988406547718058 0 0.2008105531178721 0.47740040648994347 0 0.1896764267744942 0.44907699419998182 0 0.19998956326014139 0.45988406547718058 0 0.18674983705031331 0.45961188422312521 0 0.19998956326014139 0.45988406547718058 0 0.21421699274433489 0.46601110180519761 0 0.2008105531178721 0.47740040648994347 0 0.19998956326014139 0.45988406547718058 0 0.2121578696265782 0.45351256300781562 0 0.21421699274433489 0.46601110180519761 0 0.2121578696265782 0.45351256300781562 0 0.21421699274433489 0.46601110180519761 0 0.22670259907523821 0.45642115268511391 0 0.21154637135046059 0.42979584878023008 0 0.1991685734024144 0.44236772446441758 0 0.220711619650762 0.44287877060716813 0 0.1991685734024144 0.44236772446441758 0 0.19998956326014139 0.45988406547718058 0 0.2121578696265782 0.45351256300781562 0 0.1991685734024144 0.44236772446441758 0 0.220711619650762 0.44287877060716813 0 0.1991685734024144 0.44236772446441758 0 0.2121578696265782 0.45351256300781562 0 0.220711619650762 0.44287877060716813 0 0.220711619650762 0.44287877060716813 0 0.24225466589910971 0.44338981674991412 0 0.220711619650762 0.44287877060716813 0 0.22670259907523821 0.45642115268511391 0 0.24225466589910971 0.44338981674991412 0 0.2121578696265782 0.45351256300781562 0 0.220711619650762 0.44287877060716813 0 0.22670259907523821 0.45642115268511391 0 0.21421699274433489 0.46601110180519761 0 0.22670259907523821 0.45642115268511391 0 0.2286034934058547 0.47243463880921022 0 0.22670259907523821 0.45642115268511391 0 0.2429412429911996 0.46104567599380519 0 0.2286034934058547 0.47243463880921022 0 0.22670259907523821 0.45642115268511391 0 0.2429412429911996 0.46104567599380519 0 0.24225466589910971 0.44338981674991412 0 0.2429412429911996 0.46104567599380519 0 0.24225466589910971 0.44338981674991412 0 0.2637977121474574 0.4439008628926599 0 0.24289798333523721 0.48536007973676382 0 0.22951165013507541 0.5 0 0.25715350555342342 0.5 0 0.2429412429911996 0.46104567599380519 0 0.24289798333523721 0.48536007973676382 0 0.2286034934058547 0.47243463880921022 0 0.2429412429911996 0.46104567599380519 0 0.24289798333523721 0.48536007973676382 0 0.2587220803023107 0.47201055050805613 0 0.24289798333523721 0.48536007973676382 0 0.2286034934058547 0.47243463880921022 0 0.22913241478293539 0.48621323353640677 0 0.21421699274433489 0.46601110180519761 0 0.2286034934058547 0.47243463880921022 0 0.21785754086567111 0.4798679064528093 0 0.2286034934058547 0.47243463880921022 0 0.22913241478293539 0.48621323353640677 0 0.21785754086567111 0.4798679064528093 0 0.22913241478293539 0.48621323353640677 0 0.21652425027736219 0.4972801516232882 0 0.21785754086567111 0.4798679064528093 0 0.24289798333523721 0.48536007973676382 0 0.22913241478293539 0.48621323353640677 0 0.22951165013507541 0.5 0 0.22913241478293539 0.48621323353640677 0 0.22951165013507541 0.5 0 0.21652425027736219 0.4972801516232882 0 0.21652425027736219 0.4972801516232882 0 0.2008105531178721 0.47740040648994347 0 0.21652425027736219 0.4972801516232882 0 0.21785754086567111 0.4798679064528093 0 0.2008105531178721 0.47740040648994347 0 0.22951165013507541 0.5 0 0.21652425027736219 0.4972801516232882 0 0.20186979471672739 0.50000000000001377 0 0.21652425027736219 0.4972801516232882 0 0.2008105531178721 0.47740040648994347 0 0.20186979471672739 0.50000000000001377 0 0.21421699274433489 0.46601110180519761 0 0.21785754086567111 0.4798679064528093 0 0.2008105531178721 0.47740040648994347 0 0.2008105531178721 0.47740040648994347 0 0.18598629570437869 0.4740287026246286 0 0.18674983705031331 0.45961188422312521 0 0.2008105531178721 0.47740040648994347 0 0.18778868009711661 0.48799787722198212 0 0.18598629570437869 0.4740287026246286 0 0.2008105531178721 0.47740040648994347 0 0.20186979471672739 0.50000000000001377 0 0.18778868009711661 0.48799787722198212 0 0.20186979471672739 0.50000000000001377 0 0.18778868009711661 0.48799787722198212 0 0.17592080905474711 0.5 0 0.2008105531178721 0.47740040648994347 0 0.20186979471672739 0.50000000000001377 0 0.18778868009711661 0.48799787722198212 0 0.17669302067608461 0.48891551976778241 0 0.17592080905474711 0.5 0 0.18778868009711661 0.48799787722198212 0 0.17669302067608461 0.48891551976778241 0 0.17784476956092141 0.47882710636729792 0 0.17669302067608461 0.48891551976778241 0 0.17592080905474711 0.5 0 0.1675988274538544 0.49529969257585182 0 0.1675988274538544 0.49529969257585182 0 0.1607733847527742 0.48116130241286198 0 0.14538587228365779 0.4813279722983852 0 0.1675988274538544 0.49529969257585182 0 0.14538587228365779 0.4813279722983852 0 0.17592080905474711 0.5 0 0.1675988274538544 0.49529969257585182 0 0.1499718233927668 0.5 0 0.17669302067608461 0.48891551976778241 0 0.1675988274538544 0.49529969257585182 0 0.17007637652943849 0.48363808540118453 0 0.1675988274538544 0.49529969257585182 0 0.1607733847527742 0.48116130241286198 0 0.17007637652943849 0.48363808540118453 0 0.1607733847527742 0.48116130241286198 0 0.16747188020355799 0.47398680588212821 0 0.15622292689938819 0.46946473569601138 0 0.1607733847527742 0.48116130241286198 0 0.17007637652943849 0.48363808540118453 0 0.16747188020355799 0.47398680588212821 0 0.17007637652943849 0.48363808540118453 0 0.16747188020355799 0.47398680588212821 0 0.17784476956092141 0.47882710636729792 0 0.16747188020355799 0.47398680588212821 0 0.17784476956092141 0.47882710636729792 0 0.17673763869567419 0.46630623882079442 0 0.17669302067608461 0.48891551976778241 0 0.17007637652943849 0.48363808540118453 0 0.17784476956092141 0.47882710636729792 0 0.18778868009711661 0.48799787722198212 0 0.17784476956092141 0.47882710636729792 0 0.18598629570437869 0.4740287026246286 0 0.17784476956092141 0.47882710636729792 0 0.18598629570437869 0.4740287026246286 0 0.17673763869567419 0.46630623882079442 0 0.18598629570437869 0.4740287026246286 0 0.18674983705031331 0.45961188422312521 0 0.17673763869567419 0.46630623882079442 0 0.18674983705031331 0.45961188422312521 0 0.17302381846757139 0.45582203237416619 0 0.17673763869567419 0.46630623882079442 0 0.18674983705031331 0.45961188422312521 0 0.17268912098275069 0.44182336195630989 0 0.1896764267744942 0.44907699419998182 0 0.18674983705031331 0.45961188422312521 0 0.1787554328839093 0.44188348205027839 0 0.18674983705031331 0.45961188422312521 0 0.17302381846757139 0.45582203237416619 0 0.17268912098275069 0.44182336195630989 0 0.18674983705031331 0.45961188422312521 0 0.17268912098275069 0.44182336195630989 0 0.1787554328839093 0.44188348205027839 0 0.17467084343895339 0.4323128626198427 0 0.17268912098275069 0.44182336195630989 0 0.1787554328839093 0.44188348205027839 0 0.17268912098275069 0.44182336195630989 0 0.1636480343868259 0.44974127581121098 0 0.15905464863215771 0.43769124001209903 0 0.17302381846757139 0.45582203237416619 0 0.17268912098275069 0.44182336195630989 0 0.1636480343868259 0.44974127581121098 0 0.1636480343868259 0.44974127581121098 0 0.15333015222799939 0.45585179661497199 0 0.1558481457686052 0.44537500939350422 0 0.1636480343868259 0.44974127581121098 0 0.15905464863215771 0.43769124001209903 0 0.1558481457686052 0.44537500939350422 0 0.16747188020355799 0.47398680588212821 0 0.17673763869567419 0.46630623882079442 0 0.16516039727050141 0.46182838827967199 0 0.17302381846757139 0.45582203237416619 0 0.17673763869567419 0.46630623882079442 0 0.16516039727050141 0.46182838827967199 0 0.17302381846757139 0.45582203237416619 0 0.1636480343868259 0.44974127581121098 0 0.16516039727050141 0.46182838827967199 0 0.1636480343868259 0.44974127581121098 0 0.16516039727050141 0.46182838827967199 0 0.15333015222799939 0.45585179661497199 0 0.16747188020355799 0.47398680588212821 0 0.16516039727050141 0.46182838827967199 0 0.15622292689938819 0.46946473569601138 0 0.16516039727050141 0.46182838827967199 0 0.15333015222799939 0.45585179661497199 0 0.15622292689938819 0.46946473569601138 0 0.15333015222799939 0.45585179661497199 0 0.14366258218207281 0.46385371109438972 0 0.15622292689938819 0.46946473569601138 0 0.15333015222799939 0.45585179661497199 0 0.14366258218207281 0.46385371109438972 0 0.14239685659163959 0.45249743901219758 0 0.1485869003156787 0.44661942991376408 0 0.1558481457686052 0.44537500939350422 0 0.14794817073882591 0.43797540064049317 0 0.15905464863215771 0.43769124001209903 0 0.1558481457686052 0.44537500939350422 0 0.14794817073882591 0.43797540064049317 0 0.15333015222799939 0.45585179661497199 0 0.1485869003156787 0.44661942991376408 0 0.1558481457686052 0.44537500939350422 0 0.1485869003156787 0.44661942991376408 0 0.14239685659163959 0.45249743901219758 0 0.14071957243827141 0.44428908239151721 0 0.15333015222799939 0.45585179661497199 0 0.1485869003156787 0.44661942991376408 0 0.14239685659163959 0.45249743901219758 0 0.1485869003156787 0.44661942991376408 0 0.14071957243827141 0.44428908239151721 0 0.14794817073882591 0.43797540064049317 0 0.1392884892309712 0.43605529901346318 0 0.14071957243827141 0.44428908239151721 0 0.14794817073882591 0.43797540064049317 0 0.14071957243827141 0.44428908239151721 0 0.13329555745070559 0.44810315765154463 0 0.13156178823478881 0.44006597154671129 0 0.1392884892309712 0.43605529901346318 0 0.14071957243827141 0.44428908239151721 0 0.13156178823478881 0.44006597154671129 0 0.14239685659163959 0.45249743901219758 0 0.14071957243827141 0.44428908239151721 0 0.13329555745070559 0.44810315765154463 0 0.14239685659163959 0.45249743901219758 0 0.13329555745070559 0.44810315765154463 0 0.1342815649590286 0.45663933316654598 0 0.13329555745070559 0.44810315765154463 0 0.12592032292020519 0.45120362635656092 0 0.1342815649590286 0.45663933316654598 0 0.1244383211291837 0.44418630497657252 0 0.13329555745070559 0.44810315765154463 0 0.12592032292020519 0.45120362635656092 0 0.1244383211291837 0.44418630497657252 0 0.13329555745070559 0.44810315765154463 0 0.13156178823478881 0.44006597154671129 0 0.1241892659923521 0.43795447681914851 0 0.1244383211291837 0.44418630497657252 0 0.13156178823478881 0.44006597154671129 0 0.14366258218207281 0.46385371109438972 0 0.13453443271314691 0.46536941302232232 0 0.1342815649590286 0.45663933316654598 0 0.14366258218207281 0.46385371109438972 0 0.14239685659163959 0.45249743901219758 0 0.1342815649590286 0.45663933316654598 0 0.12592032292020519 0.45120362635656092 0 0.1342815649590286 0.45663933316654598 0 0.12587963789640139 0.45880865186226139 0 0.13453443271314691 0.46536941302232232 0 0.1342815649590286 0.45663933316654598 0 0.12587963789640139 0.45880865186226139 0 0.12317291711346121 0.46735625202091868 0 0.13453443271314691 0.46536941302232232 0 0.12587963789640139 0.45880865186226139 0 0.12317291711346121 0.46735625202091868 0 0.12940570966067871 0.48596164779372059 0 0.14538587228365779 0.4813279722983852 0 0.12317291711346121 0.46735625202091868 0 0.13453443271314691 0.46536941302232232 0 0.14538587228365779 0.4813279722983852 0 0.12317291711346121 0.46735625202091868 0 0.14538587228365779 0.4813279722983852 0 0.1240228377307865 0.5 0 0.12940570966067871 0.48596164779372059 0 0.1499718233927668 0.5 0 0.12940570966067871 0.48596164779372059 0 0.1499718233927668 0.5 0 0.14538587228365779 0.4813279722983852 0 0.1675988274538544 0.49529969257585182 0 0.1499718233927668 0.5 0 0.14538587228365779 0.4813279722983852 0 0.14366258218207281 0.46385371109438972 0 0.15622292689938819 0.46946473569601138 0 0.14538587228365779 0.4813279722983852 0 0.14366258218207281 0.46385371109438972 0 0.13453443271314691 0.46536941302232232 0 0.14538587228365779 0.4813279722983852 0 0.1607733847527742 0.48116130241286198 0 0.15622292689938819 0.46946473569601138 0 0.14538587228365779 0.4813279722983852 0 0.35380320428690232 0.47603775199402121 0 0.36772092722681587 0.5 0 0.34007907180846769 0.5 0 0.35380320428690232 0.47603775199402121 0 0.3375978015078217 0.4826675755500871 0 0.34007907180846769 0.5 0 0.35380320428690232 0.47603775199402121 0 0.36772092722681587 0.5 0 0.38084110746588401 0.47081429291344751 0 0.35380320428690232 0.47603775199402121 0 0.35257934467941782 0.45394923531080061 0 0.38084110746588401 0.47081429291344751 0 0.37153426722683081 0.44145995112857528 0 0.35257934467941782 0.45394923531080061 0 0.38084110746588401 0.47081429291344751 0 0.37153426722683081 0.44145995112857528 0 0.35257934467941782 0.45394923531080061 0 0.35605279144683571 0.43195958489967562 0 0.35257934467941782 0.45394923531080061 0 0.33972944642830533 0.43593482544988721 0 0.35605279144683571 0.43195958489967562 0 0.35380320428690232 0.47603775199402121 0 0.35257934467941782 0.45394923531080061 0 0.33023109772317222 0.46165383966344142 0 0.35257934467941782 0.45394923531080061 0 0.33023109772317222 0.46165383966344142 0 0.33972944642830533 0.43593482544988721 0 0.33023109772317222 0.46165383966344142 0 0.31917073256277129 0.44486866517001411 0 0.33972944642830533 0.43593482544988721 0 0.33023109772317222 0.46165383966344142 0 0.33972944642830533 0.43593482544988721 0 0.33023109772317222 0.46165383966344142 0 0.31917073256277129 0.44486866517001411 0 0.30476170579472089 0.46310592236736869 0 0.33023109772317222 0.46165383966344142 0 0.31765702293657178 0.47382820643449958 0 0.30476170579472089 0.46310592236736869 0 0.33023109772317222 0.46165383966344142 0 0.31765702293657178 0.47382820643449958 0 0.320732749018039 0.48737285387699558 0 0.31765702293657178 0.47382820643449958 0 0.320732749018039 0.48737285387699558 0 0.31346536119395929 0.49111545867082718 0 0.33023109772317222 0.46165383966344142 0 0.320732749018039 0.48737285387699558 0 0.35380320428690232 0.47603775199402121 0 0.33023109772317222 0.46165383966344142 0 0.3375978015078217 0.4826675755500871 0 0.33023109772317222 0.46165383966344142 0 0.3375978015078217 0.4826675755500871 0 0.320732749018039 0.48737285387699558 0 0.3375978015078217 0.4826675755500871 0 0.32771170968111202 0.4925101073567707 0 0.320732749018039 0.48737285387699558 0 0.3375978015078217 0.4826675755500871 0 0.34007907180846769 0.5 0 0.32771170968111202 0.4925101073567707 0 0.34007907180846769 0.5 0 0.32771170968111202 0.4925101073567707 0 0.31243721639011951 0.5 0 0.320732749018039 0.48737285387699558 0 0.31346536119395929 0.49111545867082718 0 0.31243721639011951 0.5 0 0.32771170968111202 0.4925101073567707 0 0.320732749018039 0.48737285387699558 0 0.31243721639011951 0.5 0 0.31346536119395929 0.49111545867082718 0 0.31243721639011951 0.5 0 0.29513769965874448 0.48312900053340802 0 0.31243721639011951 0.5 0 0.29513769965874448 0.48312900053340802 0 0.28479536097177138 0.5 0 0.31765702293657178 0.47382820643449958 0 0.31346536119395929 0.49111545867082718 0 0.30476170579472089 0.46310592236736869 0 0.31346536119395929 0.49111545867082718 0 0.29513769965874448 0.48312900053340802 0 0.30476170579472089 0.46310592236736869 0 0.31346536119395929 0.49111545867082718 0 0.30476170579472089 0.46310592236736869 0 0.29513769965874448 0.48312900053340802 0 0.28082480526555209 0.46262460621950691 0 0.30476170579472089 0.46310592236736869 0 0.29513769965874448 0.48312900053340802 0 0.27510242120349848 0.48308859844949448 0 0.28082480526555209 0.46262460621950691 0 0.29513769965874448 0.48312900053340802 0 0.28479536097177138 0.5 0 0.27510242120349848 0.48308859844949448 0 0.28479536097177138 0.5 0 0.27510242120349848 0.48308859844949448 0 0.25715350555342342 0.5 0 0.27510242120349848 0.48308859844949448 0 0.2587220803023107 0.47201055050805613 0 0.28082480526555209 0.46262460621950691 0 0.24289798333523721 0.48536007973676382 0 0.2587220803023107 0.47201055050805613 0 0.25715350555342342 0.5 0 0.27510242120349848 0.48308859844949448 0 0.2587220803023107 0.47201055050805613 0 0.25715350555342342 0.5 0 0.2637977121474574 0.4439008628926599 0 0.28082480526555209 0.46262460621950691 0 0.29605805039548239 0.43509638606391021 0 0.24225466589910971 0.44338981674991412 0 0.2637977121474574 0.4439008628926599 0 0.24225466589910971 0.44338981674991412 0 0.2637977121474574 0.4439008628926599 0 0.25521426548875908 0.43109769416194271 0 0.2429412429911996 0.46104567599380519 0 0.2587220803023107 0.47201055050805613 0 0.2637977121474574 0.4439008628926599 0 0.2587220803023107 0.47201055050805613 0 0.2637977121474574 0.4439008628926599 0 0.28082480526555209 0.46262460621950691 0 0.28082480526555209 0.46262460621950691 0 0.30476170579472089 0.46310592236736869 0 0.29605805039548239 0.43509638606391021 0 0.30476170579472089 0.46310592236736869 0 0.29605805039548239 0.43509638606391021 0 0.31917073256277129 0.44486866517001411 0 0.30476170579472089 0.46310592236736869 0 0.29605805039548239 0.43509638606391021 0 0.30314469751179712 0.40774533054147449 0 0.29605805039548239 0.43509638606391021 0 0.31866992912841757 0.41363596016689053 0 0.30314469751179712 0.40774533054147449 0 0.28735439499624399 0.40708684976045167 0 0.29605805039548239 0.43509638606391021 0 0.28735439499624399 0.40708684976045167 0 0.29605805039548239 0.43509638606391021 0 0.28735439499624399 0.40708684976045167 0 0.29605805039548239 0.43509638606391021 0 0.28015632214269209 0.42374351643264202 0 0.2637977121474574 0.4439008628926599 0 0.28015632214269209 0.42374351643264202 0 0.26572709958525531 0.41919167230164872 0 0.2637977121474574 0.4439008628926599 0 0.29605805039548239 0.43509638606391021 0 0.28015632214269209 0.42374351643264202 0 0.28015632214269209 0.42374351643264202 0 0.27621506526866901 0.4125573754827393 0 0.26572709958525531 0.41919167230164872 0 0.28735439499624399 0.40708684976045167 0 0.28015632214269209 0.42374351643264202 0 0.27621506526866901 0.4125573754827393 0 0.27621506526866901 0.4125573754827393 0 0.26572709958525531 0.41919167230164872 0 0.26600886320432299 0.4058763558184228 0 0.24647964254932581 0.4188459769869205 0 0.26572709958525531 0.41919167230164872 0 0.25526001322551162 0.40940429352975349 0 0.26572709958525531 0.41919167230164872 0 0.25526001322551162 0.40940429352975349 0 0.26600886320432299 0.4058763558184228 0 0.24647964254932581 0.4188459769869205 0 0.26572709958525531 0.41919167230164872 0 0.25521426548875908 0.43109769416194271 0 0.2637977121474574 0.4439008628926599 0 0.26572709958525531 0.41919167230164872 0 0.25521426548875908 0.43109769416194271 0 0.2539855950671086 0.38568147745874742 0 0.25359543541968949 0.39757942206892227 0 0.26634018858182201 0.386991364753204 0 0.26181329345657522 0.37691503834552981 0 0.2539855950671086 0.38568147745874742 0 0.26634018858182201 0.386991364753204 0 0.26181329345657522 0.37691503834552981 0 0.26634018858182201 0.386991364753204 0 0.26837172319450731 0.3769461401335874 0 0.24747677625636461 0.37455452473917239 0 0.26181329345657522 0.37691503834552981 0 0.2539855950671086 0.38568147745874742 0 0.25359543541968949 0.39757942206892227 0 0.27692193790611291 0.39313109414263969 0 0.26600886320432299 0.4058763558184228 0 0.25359543541968949 0.39757942206892227 0 0.27692193790611291 0.39313109414263969 0 0.26634018858182201 0.386991364753204 0 0.25359543541968949 0.39757942206892227 0 0.27692193790611291 0.39313109414263969 0 0.24595955872236991 0.40515242132340629 0 0.25526001322551162 0.40940429352975349 0 0.25359543541968949 0.39757942206892227 0 0.25526001322551162 0.40940429352975349 0 0.25359543541968949 0.39757942206892227 0 0.26600886320432299 0.4058763558184228 0 0.28735439499624399 0.40708684976045167 0 0.27621506526866901 0.4125573754827393 0 0.27692193790611291 0.39313109414263969 0 0.27621506526866901 0.4125573754827393 0 0.27692193790611291 0.39313109414263969 0 0.26600886320432299 0.4058763558184228 0 0.26634018858182201 0.386991364753204 0 0.29141355465642949 0.37128598243035221 0 0.27591901341692238 0.37441650510354701 0 0.26634018858182201 0.386991364753204 0 0.28549180718274703 0.38467055355169211 0 0.29141355465642949 0.37128598243035221 0 0.26634018858182201 0.386991364753204 0 0.29141355465642949 0.37128598243035221 0 0.27692193790611291 0.39313109414263969 0 0.26634018858182201 0.386991364753204 0 0.28549180718274703 0.38467055355169211 0 0.26634018858182201 0.386991364753204 0 0.26837172319450731 0.3769461401335874 0 0.27591901341692238 0.37441650510354701 0 0.28549180718274703 0.38467055355169211 0 0.30024844039253618 0.388682766216357 0 0.29141355465642949 0.37128598243035221 0 0.27692193790611291 0.39313109414263969 0 0.28549180718274703 0.38467055355169211 0 0.30024844039253618 0.388682766216357 0 0.28735439499624399 0.40708684976045167 0 0.27692193790611291 0.39313109414263969 0 0.30024844039253618 0.388682766216357 0 0.27692193790611291 0.39313109414263969 0 0.30024844039253618 0.388682766216357 0 0.30314469751179712 0.40774533054147449 0 0.28735439499624399 0.40708684976045167 0 0.30024844039253618 0.388682766216357 0 0.30314469751179712 0.40774533054147449 0 0.30024844039253618 0.388682766216357 0 0.3157304246029734 0.39903630108512089 0 0.30749424876769399 0.37776021036021368 0 0.30024844039253618 0.388682766216357 0 0.29141355465642949 0.37128598243035221 0 0.30749424876769399 0.37776021036021368 0 0.30024844039253618 0.388682766216357 0 0.32357494287895933 0.38423443829007331 0 0.30024844039253618 0.388682766216357 0 0.32357494287895933 0.38423443829007331 0 0.30749424876769399 0.37776021036021368 0 0.32357494287895933 0.38423443829007331 0 0.30749424876769399 0.37776021036021368 0 0.32357494287895933 0.38423443829007331 0 0.31888637851447282 0.3656947337742919 0 0.32357494287895933 0.38423443829007331 0 0.35084184615539599 0.39521233175235648 0 0.32357494287895933 0.38423443829007331 0 0.35261866408483361 0.37869584560141778 0 0.32357494287895933 0.38423443829007331 0 0.35261866408483361 0.37869584560141778 0 0.33337172129639098 0.37290727123995998 0 0.32357494287895933 0.38423443829007331 0 0.35261866408483361 0.37869584560141778 0 0.35084184615539599 0.39521233175235648 0 0.32357494287895933 0.38423443829007331 0 0.33301411310315637 0.40088301021081019 0 0.35084184615539599 0.39521233175235648 0 0.34345181400093833 0.40410765142702532 0 0.33301411310315637 0.40088301021081019 0 0.35084184615539599 0.39521233175235648 0 0.34345181400093833 0.40410765142702532 0 0.33301411310315637 0.40088301021081019 0 0.34043196636004791 0.40897916692127001 0 0.32357494287895933 0.38423443829007331 0 0.33301411310315637 0.40088301021081019 0 0.3157304246029734 0.39903630108512089 0 0.33301411310315637 0.40088301021081019 0 0.3157304246029734 0.39903630108512089 0 0.31866992912841757 0.41363596016689053 0 0.30024844039253618 0.388682766216357 0 0.32357494287895933 0.38423443829007331 0 0.3157304246029734 0.39903630108512089 0 0.30314469751179712 0.40774533054147449 0 0.3157304246029734 0.39903630108512089 0 0.31866992912841757 0.41363596016689053 0 0.31866992912841757 0.41363596016689053 0 0.32507336247217522 0.4285523523054629 0 0.3349146478360735 0.41633149815555798 0 0.31917073256277129 0.44486866517001411 0 0.29605805039548239 0.43509638606391021 0 0.32507336247217522 0.4285523523054629 0 0.31917073256277129 0.44486866517001411 0 0.32507336247217522 0.4285523523054629 0 0.33972944642830533 0.43593482544988721 0 0.29605805039548239 0.43509638606391021 0 0.31866992912841757 0.41363596016689053 0 0.32507336247217522 0.4285523523054629 0 0.32507336247217522 0.4285523523054629 0 0.33972944642830533 0.43593482544988721 0 0.3349146478360735 0.41633149815555798 0 0.33972944642830533 0.43593482544988721 0 0.3349146478360735 0.41633149815555798 0 0.34922779513343799 0.41021581123633288 0 0.33301411310315637 0.40088301021081019 0 0.31866992912841757 0.41363596016689053 0 0.3349146478360735 0.41633149815555798 0 0.33301411310315637 0.40088301021081019 0 0.3349146478360735 0.41633149815555798 0 0.34043196636004791 0.40897916692127001 0 0.3349146478360735 0.41633149815555798 0 0.34043196636004791 0.40897916692127001 0 0.34922779513343799 0.41021581123633288 0 0.34345181400093833 0.40410765142702532 0 0.34043196636004791 0.40897916692127001 0 0.34922779513343799 0.41021581123633288 0 0.33972944642830533 0.43593482544988721 0 0.34922779513343799 0.41021581123633288 0 0.34882740021158759 0.41393769915297068 0 0.34922779513343799 0.41021581123633288 0 0.34882740021158759 0.41393769915297068 0 0.35503911932382692 0.41282594449000909 0 0.34922779513343799 0.41021581123633288 0 0.34882740021158759 0.41393769915297068 0 0.35766912864971068 0.42058398261626639 0 0.35503911932382692 0.41282594449000909 0 0.3619933853757541 0.41266079206244838 0 0.34882740021158759 0.41393769915297068 0 0.35766912864971068 0.42058398261626639 0 0.35503911932382692 0.41282594449000909 0 0.34922779513343799 0.41021581123633288 0 0.35665550929014728 0.40766554977985181 0 0.35232269257337728 0.40183564814500938 0 0.35665550929014728 0.40766554977985181 0 0.35503911932382692 0.41282594449000909 0 0.3619933853757541 0.41266079206244838 0 0.34922779513343799 0.41021581123633288 0 0.35665550929014728 0.40766554977985181 0 0.35503911932382692 0.41282594449000909 0 0.33972944642830533 0.43593482544988721 0 0.34922779513343799 0.41021581123633288 0 0.33972944642830533 0.43593482544988721 0 0.34882740021158759 0.41393769915297068 0 0.35605279144683571 0.43195958489967562 0 0.34882740021158759 0.41393769915297068 0 0.35766912864971068 0.42058398261626639 0 0.35605279144683571 0.43195958489967562 0 0.37153426722683081 0.44145995112857528 0 0.35605279144683571 0.43195958489967562 0 0.36635025959555351 0.42317876603293569 0 0.37153426722683081 0.44145995112857528 0 0.36635025959555351 0.42317876603293569 0 0.37861464761577213 0.42097987718444929 0 0.35766912864971068 0.42058398261626639 0 0.35605279144683571 0.43195958489967562 0 0.36635025959555351 0.42317876603293569 0 0.3619933853757541 0.41266079206244838 0 0.37223151748821831 0.41084020965450402 0 0.36469455404433998 0.40078955296545909 0 0.35665550929014728 0.40766554977985181 0 0.3619933853757541 0.41266079206244838 0 0.36469455404433998 0.40078955296545909 0 0.36635025959555351 0.42317876603293569 0 0.3619933853757541 0.41266079206244838 0 0.37223151748821831 0.41084020965450402 0 0.35766912864971068 0.42058398261626639 0 0.36635025959555351 0.42317876603293569 0 0.3619933853757541 0.41266079206244838 0 0.36635025959555351 0.42317876603293569 0 0.37223151748821831 0.41084020965450402 0 0.37861464761577213 0.42097987718444929 0 0.37223151748821831 0.41084020965450402 0 0.36469455404433998 0.40078955296545909 0 0.38600726411445169 0.40252307422266809 0 0.36469455404433998 0.40078955296545909 0 0.36061262841252939 0.38644131952317812 0 0.37675792062718638 0.37815384277833602 0 0.36277156894779422 0.37986115901420608 0 0.36061262841252939 0.38644131952317812 0 0.37675792062718638 0.37815384277833602 0 0.36393955273918932 0.37528768725162948 0 0.36277156894779422 0.37986115901420608 0 0.37675792062718638 0.37815384277833602 0 0.36277156894779422 0.37986115901420608 0 0.36061262841252939 0.38644131952317812 0 0.35529163836958227 0.37818611354175619 0 0.36393955273918932 0.37528768725162948 0 0.36277156894779422 0.37986115901420608 0 0.36017231089785989 0.37712452852947692 0 0.36393955273918932 0.37528768725162948 0 0.36017231089785989 0.37712452852947692 0 0.35868648353487409 0.37516315431031549 0 0.36277156894779422 0.37986115901420608 0 0.36017231089785989 0.37712452852947692 0 0.35529163836958227 0.37818611354175619 0 0.36061262841252939 0.38644131952317812 0 0.35261866408483361 0.37869584560141778 0 0.35084184615539599 0.39521233175235648 0 0.35261866408483361 0.37869584560141778 0 0.35084184615539599 0.39521233175235648 0 0.36061262841252939 0.38644131952317812 0 0.35529163836958227 0.37818611354175619 0 0.35261866408483361 0.37869584560141778 0 0.36017231089785989 0.37712452852947692 0 0.35868648353487409 0.37516315431031549 0 0.35529163836958227 0.37818611354175619 0 0.35868648353487409 0.37516315431031549 0 0.35529163836958227 0.37818611354175619 0 0.35261866408483361 0.37869584560141778 0 0.35529163836958227 0.37818611354175619 0 0.35261866408483361 0.37869584560141778 0 0.34345181400093833 0.40410765142702532 0 0.34922779513343799 0.41021581123633288 0 0.35084184615539599 0.39521233175235648 0 0.34922779513343799 0.41021581123633288 0 0.35084184615539599 0.39521233175235648 0 0.35232269257337728 0.40183564814500938 0 0.34922779513343799 0.41021581123633288 0 0.35084184615539599 0.39521233175235648 0 0.34922779513343799 0.41021581123633288 0 0.35232269257337728 0.40183564814500938 0 0.36469455404433998 0.40078955296545909 0 0.35084184615539599 0.39521233175235648 0 0.35232269257337728 0.40183564814500938 0 0.35665550929014728 0.40766554977985181 0 0.36469455404433998 0.40078955296545909 0 0.35232269257337728 0.40183564814500938 0 0.36469455404433998 0.40078955296545909 0 0.36061262841252939 0.38644131952317812 0 0.35084184615539599 0.39521233175235648 0 0.36469455404433998 0.40078955296545909 0 0.35084184615539599 0.39521233175235648 0 0.35261866408483361 0.37869584560141778 0 0.35525717317196592 0.35416947287929601 0 0.36176585287231028 0.36616847762762178 0 0.35261866408483361 0.37869584560141778 0 0.35525717317196592 0.35416947287929601 0 0.35261866408483361 0.37869584560141778 0 0.35525717317196592 0.35416947287929601 0 0.3384068997072982 0.36300406729405571 0 0.35868648353487409 0.37516315431031549 0 0.35261866408483361 0.37869584560141778 0 0.36176585287231028 0.36616847762762178 0 0.36750857713992108 0.3537846113340038 0 0.37675792062718638 0.37815384277833602 0 0.36176585287231028 0.36616847762762178 0 0.36750857713992108 0.3537846113340038 0 0.37675792062718638 0.37815384277833602 0 0.36393955273918932 0.37528768725162948 0 0.35868648353487409 0.37516315431031549 0 0.36176585287231028 0.36616847762762178 0 0.36393955273918932 0.37528768725162948 0 0.36176585287231028 0.36616847762762178 0 0.37675792062718638 0.37815384277833602 0 0.35525717317196592 0.35416947287929601 0 0.36750857713992108 0.3537846113340038 0 0.35799505733488929 0.32871935494058979 0 0.35525717317196592 0.35416947287929601 0 0.36176585287231028 0.36616847762762178 0 0.36750857713992108 0.3537846113340038 0 0.36750857713992108 0.3537846113340038 0 0.35799505733488929 0.32871935494058979 0 0.38420205096489068 0.33725307481449718 0 0.36750857713992108 0.3537846113340038 0 0.35799505733488929 0.32871935494058979 0 0.35875390306228438 0.32166547241297411 0 0.36474864726438883 0.30779131183543151 0 0.37947273115930158 0.31612773084583762 0 0.35799505733488929 0.32871935494058979 0 0.37947273115930158 0.31612773084583762 0 0.35799505733488929 0.32871935494058979 0 0.37947273115930158 0.31612773084583762 0 0.38420205096489068 0.33725307481449718 0 0.35875390306228438 0.32166547241297411 0 0.35799505733488929 0.32871935494058979 0 0.37947273115930158 0.31612773084583762 0 0.35875390306228438 0.32166547241297411 0 0.35799505733488929 0.32871935494058979 0 0.35044737974941947 0.30883350010118948 0 0.35799505733488929 0.32871935494058979 0 0.35044737974941947 0.30883350010118948 0 0.35799505733488929 0.32871935494058979 0 0.34089489585500948 0.32734696404219982 0 0.35044737974941947 0.30883350010118948 0 0.35875390306228438 0.32166547241297411 0 0.35044737974941947 0.30883350010118948 0 0.36474864726438883 0.30779131183543151 0 0.35875390306228438 0.32166547241297411 0 0.35799505733488929 0.32871935494058979 0 0.35525717317196592 0.35416947287929601 0 0.35799505733488929 0.32871935494058979 0 0.35525717317196592 0.35416947287929601 0 0.35799505733488929 0.32871935494058979 0 0.33554130491425049 0.34364537020522617 0 0.35799505733488929 0.32871935494058979 0 0.33554130491425049 0.34364537020522617 0 0.35799505733488929 0.32871935494058979 0 0.33554130491425049 0.34364537020522617 0 0.34089489585500948 0.32734696404219982 0 0.33554130491425049 0.34364537020522617 0 0.34089489585500948 0.32734696404219982 0 0.31637042485622829 0.33755144864420961 0 0.34089489585500948 0.32734696404219982 0 0.32729565910061981 0.30380007860725577 0 0.35044737974941947 0.30883350010118948 0 0.34089489585500948 0.32734696404219982 0 0.31637042485622829 0.33755144864420961 0 0.31169161603729217 0.31865251195272248 0 0.34089489585500948 0.32734696404219982 0 0.31169161603729217 0.31865251195272248 0 0.32729565910061981 0.30380007860725577 0 0.33554130491425049 0.34364537020522617 0 0.31318692756940181 0.35764764025327728 0 0.31888637851447282 0.3656947337742919 0 0.33554130491425049 0.34364537020522617 0 0.31318692756940181 0.35764764025327728 0 0.33554130491425049 0.34364537020522617 0 0.31637042485622829 0.33755144864420961 0 0.31318692756940181 0.35764764025327728 0 0.33554130491425049 0.34364537020522617 0 0.3384068997072982 0.36300406729405571 0 0.31888637851447282 0.3656947337742919 0 0.35525717317196592 0.35416947287929601 0 0.33554130491425049 0.34364537020522617 0 0.3384068997072982 0.36300406729405571 0 0.35261866408483361 0.37869584560141778 0 0.3384068997072982 0.36300406729405571 0 0.33337172129639098 0.37290727123995998 0 0.3384068997072982 0.36300406729405571 0 0.33337172129639098 0.37290727123995998 0 0.31888637851447282 0.3656947337742919 0 0.32357494287895933 0.38423443829007331 0 0.33337172129639098 0.37290727123995998 0 0.31888637851447282 0.3656947337742919 0 0.30749424876769399 0.37776021036021368 0 0.31318692756940181 0.35764764025327728 0 0.31888637851447282 0.3656947337742919 0 0.31318692756940181 0.35764764025327728 0 0.31888637851447282 0.3656947337742919 0 0.30749424876769399 0.37776021036021368 0 0.29141355465642949 0.37128598243035221 0 0.31318692756940181 0.35764764025327728 0 0.29141355465642949 0.37128598243035221 0 0.31318692756940181 0.35764764025327728 0 0.29580212613284329 0.35323999666502609 0 0.29141355465642949 0.37128598243035221 0 0.30749424876769399 0.37776021036021368 0 0.31318692756940181 0.35764764025327728 0 0.29141355465642949 0.37128598243035221 0 0.31318692756940181 0.35764764025327728 0 0.29580212613284329 0.35323999666502609 0 0.29608757297396748 0.33350494529819191 0 0.31318692756940181 0.35764764025327728 0 0.29608757297396748 0.33350494529819191 0 0.29580212613284329 0.35323999666502609 0 0.28144580026760568 0.34744145856581499 0 0.29608757297396748 0.33350494529819191 0 0.29580212613284329 0.35323999666502609 0 0.28144580026760568 0.34744145856581499 0 0.29141355465642949 0.37128598243035221 0 0.29141355465642949 0.37128598243035221 0 0.27591901341692238 0.37441650510354701 0 0.26680402756124322 0.36137797183343717 0 0.28144580026760568 0.34744145856581499 0 0.29141355465642949 0.37128598243035221 0 0.26680402756124322 0.36137797183343717 0 0.29141355465642949 0.37128598243035221 0 0.26680402756124322 0.36137797183343717 0 0.27591901341692238 0.37441650510354701 0 0.26941439732270939 0.36946165233206879 0 0.26680402756124322 0.36137797183343717 0 0.26837172319450731 0.3769461401335874 0 0.27591901341692238 0.37441650510354701 0 0.26941439732270939 0.36946165233206879 0 0.26181329345657522 0.37691503834552981 0 0.26837172319450731 0.3769461401335874 0 0.26941439732270939 0.36946165233206879 0 0.26941439732270939 0.36946165233206879 0 0.26680402756124322 0.36137797183343717 0 0.26645843804256558 0.36580672261547981 0 0.28144580026760568 0.34744145856581499 0 0.26680402756124322 0.36137797183343717 0 0.28144580026760568 0.34744145856581499 0 0.26680402756124322 0.36137797183343717 0 0.25971692118216738 0.34615409171956241 0 0.2440582327322583 0.35222031612841931 0 0.26680402756124322 0.36137797183343717 0 0.2440582327322583 0.35222031612841931 0 0.26680402756124322 0.36137797183343717 0 0.25971692118216738 0.34615409171956241 0 0.24747677625636461 0.37455452473917239 0 0.2440582327322583 0.35222031612841931 0 0.25930002668088348 0.36686812741821723 0 0.2440582327322583 0.35222031612841931 0 0.26680402756124322 0.36137797183343717 0 0.25930002668088348 0.36686812741821723 0 0.24747677625636461 0.37455452473917239 0 0.26181329345657522 0.37691503834552981 0 0.25930002668088348 0.36686812741821723 0 0.26181329345657522 0.37691503834552981 0 0.26941439732270939 0.36946165233206879 0 0.25930002668088348 0.36686812741821723 0 0.26941439732270939 0.36946165233206879 0 0.26645843804256558 0.36580672261547981 0 0.25930002668088348 0.36686812741821723 0 0.26680402756124322 0.36137797183343717 0 0.26645843804256558 0.36580672261547981 0 0.25930002668088348 0.36686812741821723 0 0.2446011947163689 0.31609853100590518 0 0.26487335329619371 0.32987524543359009 0 0.26222012181745041 0.31157493719799878 0 0.24170864177338369 0.33507419302134078 0 0.2446011947163689 0.31609853100590518 0 0.26487335329619371 0.32987524543359009 0 0.24170864177338369 0.33507419302134078 0 0.25971692118216738 0.34615409171956241 0 0.26487335329619371 0.32987524543359009 0 0.28144580026760568 0.34744145856581499 0 0.25971692118216738 0.34615409171956241 0 0.26487335329619371 0.32987524543359009 0 0.28144580026760568 0.34744145856581499 0 0.26487335329619371 0.32987524543359009 0 0.28058430854568811 0.33187675333166411 0 0.26487335329619371 0.32987524543359009 0 0.28192927647178379 0.31351475025145897 0 0.26222012181745041 0.31157493719799878 0 0.26487335329619371 0.32987524543359009 0 0.28058430854568811 0.33187675333166411 0 0.28192927647178379 0.31351475025145897 0 0.28192927647178379 0.31351475025145897 0 0.29608757297396748 0.33350494529819191 0 0.28192927647178379 0.31351475025145897 0 0.29608757297396748 0.33350494529819191 0 0.29741194508904639 0.30941548135862912 0 0.28058430854568811 0.33187675333166411 0 0.28192927647178379 0.31351475025145897 0 0.29608757297396748 0.33350494529819191 0 0.28144580026760568 0.34744145856581499 0 0.29608757297396748 0.33350494529819191 0 0.28144580026760568 0.34744145856581499 0 0.28058430854568811 0.33187675333166411 0 0.29608757297396748 0.33350494529819191 0 0.31637042485622829 0.33755144864420961 0 0.29608757297396748 0.33350494529819191 0 0.31169161603729217 0.31865251195272248 0 0.31637042485622829 0.33755144864420961 0 0.31318692756940181 0.35764764025327728 0 0.29608757297396748 0.33350494529819191 0 0.29608757297396748 0.33350494529819191 0 0.31169161603729217 0.31865251195272248 0 0.29741194508904639 0.30941548135862912 0 0.29608757297396748 0.33350494529819191 0 0.31169161603729217 0.31865251195272248 0 0.31169161603729217 0.31865251195272248 0 0.29741194508904639 0.30941548135862912 0 0.30527952754144649 0.29241556647412748 0 0.30527952754144649 0.29241556647412748 0 0.28659742013731793 0.29293925805606641 0 0.29239440064035382 0.27262844354298282 0 0.28192927647178379 0.31351475025145897 0 0.29741194508904639 0.30941548135862912 0 0.28659742013731793 0.29293925805606641 0 0.29741194508904639 0.30941548135862912 0 0.30527952754144649 0.29241556647412748 0 0.28659742013731793 0.29293925805606641 0 0.28192927647178379 0.31351475025145897 0 0.28659742013731793 0.29293925805606641 0 0.26777097996959959 0.29352455520472642 0 0.28192927647178379 0.31351475025145897 0 0.26777097996959959 0.29352455520472642 0 0.26222012181745041 0.31157493719799878 0 0.28192927647178379 0.31351475025145897 0 0.26777097996959959 0.29352455520472642 0 0.28659742013731793 0.29293925805606641 0 0.26777097996959959 0.29352455520472642 0 0.27417060300577939 0.27658969017871859 0 0.26777097996959959 0.29352455520472642 0 0.25977796481637089 0.28206959852345359 0 0.27417060300577939 0.27658969017871859 0 0.24482817571085241 0.27603777433509602 0 0.24727529996386621 0.29433480603965467 0 0.25977796481637089 0.28206959852345359 0 0.24727529996386621 0.29433480603965467 0 0.26777097996959959 0.29352455520472642 0 0.25977796481637089 0.28206959852345359 0 0.24727529996386621 0.29433480603965467 0 0.26777097996959959 0.29352455520472642 0 0.26222012181745041 0.31157493719799878 0 0.24727529996386621 0.29433480603965467 0 0.2446011947163689 0.31609853100590518 0 0.26222012181745041 0.31157493719799878 0 0.254662193301321 0.26241070858705712 0 0.27732307966824282 0.25804090131194718 0 0.26414982602066872 0.24857322833329409 0 0.24815670256054939 0.24315182117073661 0 0.254662193301321 0.26241070858705712 0 0.26414982602066872 0.24857322833329409 0 0.24815670256054939 0.24315182117073661 0 0.254662193301321 0.26241070858705712 0 0.254662193301321 0.26241070858705712 0 0.25743959003744238 0.27063292781429749 0 0.27732307966824282 0.25804090131194718 0 0.25977796481637089 0.28206959852345359 0 0.25743959003744238 0.27063292781429749 0 0.27417060300577939 0.27658969017871859 0 0.254662193301321 0.26241070858705712 0 0.25743959003744238 0.27063292781429749 0 0.24482817571085241 0.27603777433509602 0 0.254662193301321 0.26241070858705712 0 0.25743959003744238 0.27063292781429749 0 0.24482817571085241 0.27603777433509602 0 0.25977796481637089 0.28206959852345359 0 0.25743959003744238 0.27063292781429749 0 0.25743959003744238 0.27063292781429749 0 0.27417060300577939 0.27658969017871859 0 0.27732307966824282 0.25804090131194718 0 0.254662193301321 0.26241070858705712 0 0.27732307966824282 0.25804090131194718 0 0.27732307966824282 0.25804090131194718 0 0.29998396603516408 0.25367109403683469 0 0.27732307966824282 0.25804090131194718 0 0.29998396603516408 0.25367109403683469 0 0.28730261761608678 0.2401147541676211 0 0.27732307966824282 0.25804090131194718 0 0.29239440064035382 0.27262844354298282 0 0.29998396603516408 0.25367109403683469 0 0.28659742013731793 0.29293925805606641 0 0.27417060300577939 0.27658969017871859 0 0.29239440064035382 0.27262844354298282 0 0.27417060300577939 0.27658969017871859 0 0.27732307966824282 0.25804090131194718 0 0.29239440064035382 0.27262844354298282 0 0.30527952754144649 0.29241556647412748 0 0.29239440064035382 0.27262844354298282 0 0.31238282707830961 0.26692545538212981 0 0.31238282707830961 0.26692545538212981 0 0.29998396603516408 0.25367109403683469 0 0.319878312741532 0.24983477185757469 0 0.29239440064035382 0.27262844354298282 0 0.31238282707830961 0.26692545538212981 0 0.29998396603516408 0.25367109403683469 0 0.29998396603516408 0.25367109403683469 0 0.319878312741532 0.24983477185757469 0 0.31238282707830961 0.26692545538212981 0 0.29998396603516408 0.25367109403683469 0 0.31238282707830961 0.26692545538212981 0 0.32362715348194332 0.26166790106302301 0 0.319878312741532 0.24983477185757469 0 0.32362715348194332 0.26166790106302301 0 0.319878312741532 0.24983477185757469 0 0.32647148921477381 0.24566425718927959 0 0.33468559568936168 0.2673059512255343 0 0.32647148921477381 0.24566425718927959 0 0.3417052103372209 0.25064254883263209 0 0.33468559568936168 0.2673059512255343 0 0.32647148921477381 0.24566425718927959 0 0.3417052103372209 0.25064254883263209 0 0.33468559568936168 0.2673059512255343 0 0.34922072153091338 0.2609775492369788 0 0.32362715348194332 0.26166790106302301 0 0.33468559568936168 0.2673059512255343 0 0.32647148921477381 0.24566425718927959 0 0.33468559568936168 0.2673059512255343 0 0.32436174417593788 0.28017709966897653 0 0.34289970216394772 0.28894764526178979 0 0.33468559568936168 0.2673059512255343 0 0.34522328268426822 0.28673598610006851 0 0.34846970544956279 0.27504800600357399 0 0.33468559568936168 0.2673059512255343 0 0.34289970216394772 0.28894764526178979 0 0.33468559568936168 0.2673059512255343 0 0.34289970216394772 0.28894764526178979 0 0.34522328268426822 0.28673598610006851 0 0.32362715348194332 0.26166790106302301 0 0.33468559568936168 0.2673059512255343 0 0.32436174417593788 0.28017709966897653 0 0.30527952754144649 0.29241556647412748 0 0.31238282707830961 0.26692545538212981 0 0.32436174417593788 0.28017709966897653 0 0.31238282707830961 0.26692545538212981 0 0.32362715348194332 0.26166790106302301 0 0.32436174417593788 0.28017709966897653 0 0.30527952754144649 0.29241556647412748 0 0.32436174417593788 0.28017709966897653 0 0.32729565910061981 0.30380007860725577 0 0.31169161603729217 0.31865251195272248 0 0.30527952754144649 0.29241556647412748 0 0.32729565910061981 0.30380007860725577 0 0.31169161603729217 0.31865251195272248 0 0.32729565910061981 0.30380007860725577 0 0.32729565910061981 0.30380007860725577 0 0.34289970216394772 0.28894764526178979 0 0.35044737974941947 0.30883350010118948 0 0.32436174417593788 0.28017709966897653 0 0.32729565910061981 0.30380007860725577 0 0.34289970216394772 0.28894764526178979 0 0.32729565910061981 0.30380007860725577 0 0.34289970216394772 0.28894764526178979 0 0.35081213470634531 0.28252991009512352 0 0.34522328268426822 0.28673598610006851 0 0.34846970544956279 0.27504800600357399 0 0.34289970216394772 0.28894764526178979 0 0.34522328268426822 0.28673598610006851 0 0.35258797950912768 0.28802597536276542 0 0.35081213470634531 0.28252991009512352 0 0.34522328268426822 0.28673598610006851 0 0.35258797950912768 0.28802597536276542 0 0.34289970216394772 0.28894764526178979 0 0.34522328268426822 0.28673598610006851 0 0.34289970216394772 0.28894764526178979 0 0.35258797950912768 0.28802597536276542 0 0.35505401293201128 0.29726042232628902 0 0.35258797950912768 0.28802597536276542 0 0.35505401293201128 0.29726042232628902 0 0.36361781506205909 0.29152376882599462 0 0.35258797950912768 0.28802597536276542 0 0.36361781506205909 0.29152376882599462 0 0.35696757118242223 0.28030967291408587 0 0.35081213470634531 0.28252991009512352 0 0.35258797950912768 0.28802597536276542 0 0.35696757118242223 0.28030967291408587 0 0.34289970216394772 0.28894764526178979 0 0.35044737974941947 0.30883350010118948 0 0.35505401293201128 0.29726042232628902 0 0.34289970216394772 0.28894764526178979 0 0.35044737974941947 0.30883350010118948 0 0.35044737974941947 0.30883350010118948 0 0.35505401293201128 0.29726042232628902 0 0.36474864726438883 0.30779131183543151 0 0.35505401293201128 0.29726042232628902 0 0.36474864726438883 0.30779131183543151 0 0.36361781506205909 0.29152376882599462 0 0.36474864726438883 0.30779131183543151 0 0.37351704282998233 0.30111727788419629 0 0.36361781506205909 0.29152376882599462 0 0.36474864726438883 0.30779131183543151 0 0.37351704282998233 0.30111727788419629 0 0.37947273115930158 0.31612773084583762 0 0.36361781506205909 0.29152376882599462 0 0.36761525543515522 0.27850014778505988 0 0.35696757118242223 0.28030967291408587 0 0.37351704282998233 0.30111727788419629 0 0.36361781506205909 0.29152376882599462 0 0.37366945645780941 0.28879187505770099 0 0.37366945645780941 0.28879187505770099 0 0.36761525543515522 0.27850014778505988 0 0.3789118174431978 0.27717644893189469 0 0.36361781506205909 0.29152376882599462 0 0.37366945645780941 0.28879187505770099 0 0.36761525543515522 0.27850014778505988 0 0.36761525543515522 0.27850014778505988 0 0.37196738214050218 0.26483261290147492 0 0.3789118174431978 0.27717644893189469 0 0.36761525543515522 0.27850014778505988 0 0.35696757118242223 0.28030967291408587 0 0.35873279296246419 0.26900052412775688 0 0.36761525543515522 0.27850014778505988 0 0.37196738214050218 0.26483261290147492 0 0.35873279296246419 0.26900052412775688 0 0.37196738214050218 0.26483261290147492 0 0.36238086709329498 0.25833936142174968 0 0.37620184814355162 0.25053821619171168 0 0.36238086709329498 0.25833936142174968 0 0.37620184814355162 0.25053821619171168 0 0.3557815906890433 0.24634790465082609 0 0.37196738214050218 0.26483261290147492 0 0.36238086709329498 0.25833936142174968 0 0.35873279296246419 0.26900052412775688 0 0.36238086709329498 0.25833936142174968 0 0.34922072153091338 0.2609775492369788 0 0.35873279296246419 0.26900052412775688 0 0.36238086709329498 0.25833936142174968 0 0.34922072153091338 0.2609775492369788 0 0.3557815906890433 0.24634790465082609 0 0.3417052103372209 0.25064254883263209 0 0.34922072153091338 0.2609775492369788 0 0.3557815906890433 0.24634790465082609 0 0.33468559568936168 0.2673059512255343 0 0.34922072153091338 0.2609775492369788 0 0.34846970544956279 0.27504800600357399 0 0.34846970544956279 0.27504800600357399 0 0.35696757118242223 0.28030967291408587 0 0.35873279296246419 0.26900052412775688 0 0.35081213470634531 0.28252991009512352 0 0.34846970544956279 0.27504800600357399 0 0.35696757118242223 0.28030967291408587 0 0.34922072153091338 0.2609775492369788 0 0.34846970544956279 0.27504800600357399 0 0.35873279296246419 0.26900052412775688 0 0.39116263683550778 0.2755901868848657 0 0.39927167776821948 0.2717737920461839 0 0.4000301351931943 0.28843099269507261 0 0.39927167776821948 0.2717737920461839 0 0.4000301351931943 0.28843099269507261 0 0.39927167776821948 0.2717737920461839 0 0.4000301351931943 0.28843099269507261 0 0.41181653281371838 0.28049066678628659 0 0.39116263683550778 0.2755901868848657 0 0.39927167776821948 0.2717737920461839 0 0.38643691693741861 0.26497951386631169 0 0.39927167776821948 0.2717737920461839 0 0.39662210559805988 0.25472852773259741 0 0.38643691693741861 0.26497951386631169 0 0.3985132203432426 0.25511659139729542 0 0.39841345742274581 0.25292560357210431 0 0.42132370389524187 0.25979738607846348 0 0.39927167776821948 0.2717737920461839 0 0.3985132203432426 0.25511659139729542 0 0.39662210559805988 0.25472852773259741 0 0.39927167776821948 0.2717737920461839 0 0.3985132203432426 0.25511659139729542 0 0.3985132203432426 0.25511659139729542 0 0.39841345742274581 0.25292560357210431 0 0.39841345742274581 0.25292560357210431 0 0.39662210559805988 0.25472852773259741 0 0.3890583669794983 0.24542194912678009 0 0.39841345742274581 0.25292560357210431 0 0.39662210559805988 0.25472852773259741 0 0.3985132203432426 0.25511659139729542 0 0.39841345742274581 0.25292560357210431 0 0.39662210559805988 0.25472852773259741 0 0.3985132203432426 0.25511659139729542 0 0.39662210559805988 0.25472852773259741 0 0.39662210559805988 0.25472852773259741 0 0.38643691693741861 0.26497951386631169 0 0.39662210559805988 0.25472852773259741 0 0.38643691693741861 0.26497951386631169 0 0.37620184814355162 0.25053821619171168 0 0.39662210559805988 0.25472852773259741 0 0.37620184814355162 0.25053821619171168 0 0.39662210559805988 0.25472852773259741 0 0.37620184814355162 0.25053821619171168 0 0.3890583669794983 0.24542194912678009 0 0.37196738214050218 0.26483261290147492 0 0.38643691693741861 0.26497951386631169 0 0.37620184814355162 0.25053821619171168 0 0.39116263683550778 0.2755901868848657 0 0.3789118174431978 0.27717644893189469 0 0.4000301351931943 0.28843099269507261 0 0.37196738214050218 0.26483261290147492 0 0.38643691693741861 0.26497951386631169 0 0.3789118174431978 0.27717644893189469 0 0.39116263683550778 0.2755901868848657 0 0.38643691693741861 0.26497951386631169 0 0.3789118174431978 0.27717644893189469 0 0.3789118174431978 0.27717644893189469 0 0.4000301351931943 0.28843099269507261 0 0.3789118174431978 0.27717644893189469 0 0.38468535151865291 0.29564173186135928 0 0.4000301351931943 0.28843099269507261 0 0.37366945645780941 0.28879187505770099 0 0.3789118174431978 0.27717644893189469 0 0.38468535151865291 0.29564173186135928 0 0.37351704282998233 0.30111727788419629 0 0.37366945645780941 0.28879187505770099 0 0.38468535151865291 0.29564173186135928 0 0.38468535151865291 0.29564173186135928 0 0.40068622866595588 0.30284008180200472 0 0.37947273115930158 0.31612773084583762 0 0.37351704282998233 0.30111727788419629 0 0.38468535151865291 0.29564173186135928 0 0.37947273115930158 0.31612773084583762 0 0.40068622866595588 0.30284008180200472 0 0.37947273115930158 0.31612773084583762 0 0.40068622866595588 0.30284008180200472 0 0.40116360651699168 0.31332422816026012 0 0.37947273115930158 0.31612773084583762 0 0.40068622866595588 0.30284008180200472 0 0.40116360651699168 0.31332422816026012 0 0.40068622866595588 0.30284008180200472 0 0.41142841305581079 0.30984461132358138 0 0.40116360651699168 0.31332422816026012 0 0.38468535151865291 0.29564173186135928 0 0.40068622866595588 0.30284008180200472 0 0.4000301351931943 0.28843099269507261 0 0.40068622866595588 0.30284008180200472 0 0.4000301351931943 0.28843099269507261 0 0.40068622866595588 0.30284008180200472 0 0.4000301351931943 0.28843099269507261 0 0.41281369879437718 0.29524371223562013 0 0.4000301351931943 0.28843099269507261 0 0.41281369879437718 0.29524371223562013 0 0.41181653281371838 0.28049066678628659 0 0.4000301351931943 0.28843099269507261 0 0.41281369879437718 0.29524371223562013 0 0.41281369879437718 0.29524371223562013 0 0.42564344841755969 0.28720745087609262 0 0.41281369879437718 0.29524371223562013 0 0.42564344841755969 0.28720745087609262 0 0.41181653281371838 0.28049066678628659 0 0.41281369879437718 0.29524371223562013 0 0.41142841305581079 0.30984461132358138 0 0.42820240383763569 0.30344478470826042 0 0.41142841305581079 0.30984461132358138 0 0.42820240383763569 0.30344478470826042 0 0.41756553408125352 0.32287271157873498 0 0.40068622866595588 0.30284008180200472 0 0.41281369879437718 0.29524371223562013 0 0.41142841305581079 0.30984461132358138 0 0.40068622866595588 0.30284008180200472 0 0.41281369879437718 0.29524371223562013 0 0.41281369879437718 0.29524371223562013 0 0.42820240383763569 0.30344478470826042 0 0.41281369879437718 0.29524371223562013 0 0.42820240383763569 0.30344478470826042 0 0.42564344841755969 0.28720745087609262 0 0.42820240383763569 0.30344478470826042 0 0.42564344841755969 0.28720745087609262 0 0.44084719607201039 0.29447384543304178 0 0.42564344841755969 0.28720745087609262 0 0.44560545288826442 0.27470370841047648 0 0.44084719607201039 0.29447384543304178 0 0.42820240383763569 0.30344478470826042 0 0.42564344841755969 0.28720745087609262 0 0.42564344841755969 0.28720745087609262 0 0.42132370389524187 0.25979738607846348 0 0.43330983429563569 0.26225698389005858 0 0.42564344841755969 0.28720745087609262 0 0.42132370389524187 0.25979738607846348 0 0.42564344841755969 0.28720745087609262 0 0.43330983429563569 0.26225698389005858 0 0.44560545288826442 0.27470370841047648 0 0.42564344841755969 0.28720745087609262 0 0.44560545288826442 0.27470370841047648 0 0.42564344841755969 0.28720745087609262 0 0.41181653281371838 0.28049066678628659 0 0.42132370389524187 0.25979738607846348 0 0.39927167776821948 0.2717737920461839 0 0.41181653281371838 0.28049066678628659 0 0.42132370389524187 0.25979738607846348 0 0.3985132203432426 0.25511659139729542 0 0.42132370389524187 0.25979738607846348 0 0.39927167776821948 0.2717737920461839 0 0.3985132203432426 0.25511659139729542 0 0.42132370389524187 0.25979738607846348 0 0.42132370389524187 0.25979738607846348 0 0.43330983429563569 0.26225698389005858 0 0.42703560437835469 0.24566011175496391 0 0.43330983429563569 0.26225698389005858 0 0.42703560437835469 0.24566011175496391 0 0.442195627131173 0.24729168846505481 0 0.42132370389524187 0.25979738607846348 0 0.43330983429563569 0.26225698389005858 0 0.44666959291851049 0.26161308667761263 0 0.46556745735896921 0.26219996594486039 0 0.442195627131173 0.24729168846505481 0 0.43330983429563569 0.26225698389005858 0 0.44666959291851049 0.26161308667761263 0 0.442195627131173 0.24729168846505481 0 0.44666959291851049 0.26161308667761263 0 0.44560545288826442 0.27470370841047648 0 0.46556745735896921 0.26219996594486039 0 0.43330983429563569 0.26225698389005858 0 0.44666959291851049 0.26161308667761263 0 0.44560545288826442 0.27470370841047648 0 0.46391349439845292 0.27798786848918239 0 0.46556745735896921 0.26219996594486039 0 0.47496927843754982 0.26819714100940789 0 0.44560545288826442 0.27470370841047648 0 0.46391349439845292 0.27798786848918239 0 0.46556745735896921 0.26219996594486039 0 0.44560545288826442 0.27470370841047648 0 0.46556745735896921 0.26219996594486039 0 0.46556745735896921 0.26219996594486039 0 0.45740662195574372 0.24845115420521979 0 0.442195627131173 0.24729168846505481 0 0.46556745735896921 0.26219996594486039 0 0.46719891760118343 0.24306283654326999 0 0.45740662195574372 0.24845115420521979 0 0.46556745735896921 0.26219996594486039 0 0.442195627131173 0.24729168846505481 0 0.46556745735896921 0.26219996594486039 0 0.48040344773885341 0.25290704131874492 0 0.48040344773885341 0.25290704131874492 0 0.47496927843754982 0.26819714100940789 0 0.48552205068712873 0.27292070596303603 0 0.48040344773885341 0.25290704131874492 0 0.48552205068712873 0.27292070596303603 0 0.46556745735896921 0.26219996594486039 0 0.48040344773885341 0.25290704131874492 0 0.46719891760118343 0.24306283654326999 0 0.46556745735896921 0.26219996594486039 0 0.48040344773885341 0.25290704131874492 0 0.47496927843754982 0.26819714100940789 0 0.46556745735896921 0.26219996594486039 0 0.47496927843754982 0.26819714100940789 0 0.46391349439845292 0.27798786848918239 0 0.47496927843754982 0.26819714100940789 0 0.47629332017556708 0.27938873541322279 0 0.47629332017556708 0.27938873541322279 0 0.48552205068712873 0.27292070596303603 0 0.48573656010562 0.28718545968085168 0 0.47496927843754982 0.26819714100940789 0 0.47629332017556708 0.27938873541322279 0 0.48552205068712873 0.27292070596303603 0 0.48552205068712873 0.27292070596303603 0 0.5 0.26405331248097341 0 0.50000000000000155 0.2874744152136921 0 0.48040344773885341 0.25290704131874492 0 0.5 0.26405331248097341 0 0.49999999999999512 0.24063220974825469 0 0.48040344773885341 0.25290704131874492 0 0.48552205068712873 0.27292070596303603 0 0.5 0.26405331248097341 0 0.48725593367059372 0.30483171909648488 0 0.50000000000000155 0.2874744152136921 0 0.5 0.3143423395860625 0 0.48725593367059372 0.30483171909648488 0 0.50000000000000155 0.2874744152136921 0 0.48573656010562 0.28718545968085168 0 0.48725593367059372 0.30483171909648488 0 0.50000000000000155 0.2874744152136921 0 0.48552205068712873 0.27292070596303603 0 0.50000000000000155 0.2874744152136921 0 0.48573656010562 0.28718545968085168 0 0.48725593367059372 0.30483171909648488 0 0.48573656010562 0.28718545968085168 0 0.47209295363110088 0.29063199843061988 0 0.47629332017556708 0.27938873541322279 0 0.48573656010562 0.28718545968085168 0 0.47209295363110088 0.29063199843061988 0 0.46391349439845292 0.27798786848918239 0 0.47629332017556708 0.27938873541322279 0 0.47209295363110088 0.29063199843061988 0 0.48725593367059372 0.30483171909648488 0 0.46772908597189428 0.30493320473535229 0 0.47451186734118472 0.32218902297927687 0 0.48725593367059372 0.30483171909648488 0 0.47209295363110088 0.29063199843061988 0 0.46772908597189428 0.30493320473535229 0 0.46772908597189428 0.30493320473535229 0 0.45648772313758512 0.29285955018029503 0 0.44829695207900683 0.31415373299008448 0 0.44560545288826442 0.27470370841047648 0 0.46391349439845292 0.27798786848918239 0 0.45648772313758512 0.29285955018029503 0 0.46391349439845292 0.27798786848918239 0 0.47209295363110088 0.29063199843061988 0 0.45648772313758512 0.29285955018029503 0 0.47209295363110088 0.29063199843061988 0 0.46772908597189428 0.30493320473535229 0 0.45648772313758512 0.29285955018029503 0 0.44560545288826442 0.27470370841047648 0 0.45648772313758512 0.29285955018029503 0 0.44084719607201039 0.29447384543304178 0 0.45648772313758512 0.29285955018029503 0 0.44084719607201039 0.29447384543304178 0 0.44829695207900683 0.31415373299008448 0 0.42820240383763569 0.30344478470826042 0 0.44084719607201039 0.29447384543304178 0 0.44829695207900683 0.31415373299008448 0 0.42820240383763569 0.30344478470826042 0 0.44829695207900683 0.31415373299008448 0 0.44829695207900683 0.31415373299008448 0 0.44850879420790091 0.33031081036512339 0 0.4323579913070591 0.32981322414272318 0 0.44850879420790091 0.33031081036512339 0 0.46176780101177572 0.33954632686206893 0 0.43651357877648173 0.35618166357718589 0 0.44850879420790091 0.33031081036512339 0 0.43651357877648173 0.35618166357718589 0 0.4323579913070591 0.32981322414272318 0 0.46176780101177572 0.33954632686206893 0 0.47451186734118472 0.32218902297927687 0 0.44850879420790091 0.33031081036512339 0 0.46176780101177572 0.33954632686206893 0 0.47451186734118472 0.32218902297927687 0 0.44829695207900683 0.31415373299008448 0 0.44850879420790091 0.33031081036512339 0 0.47451186734118472 0.32218902297927687 0 0.46772908597189428 0.30493320473535229 0 0.44829695207900683 0.31415373299008448 0 0.47451186734118472 0.32218902297927687 0 0.48725593367059372 0.30483171909648488 0 0.47451186734118472 0.32218902297927687 0 0.49018383854513481 0.32777630177224781 0 0.48725593367059372 0.30483171909648488 0 0.47451186734118472 0.32218902297927687 0 0.46176780101177572 0.33954632686206893 0 0.47451186734118472 0.32218902297927687 0 0.47933379756785699 0.34140498900125238 0 0.47451186734118472 0.32218902297927687 0 0.47933379756785699 0.34140498900125238 0 0.49018383854513481 0.32777630177224781 0 0.47933379756785699 0.34140498900125238 0 0.5 0.3412102639584329 0 0.49018383854513481 0.32777630177224781 0 0.48725593367059372 0.30483171909648488 0 0.5 0.3143423395860625 0 0.49018383854513481 0.32777630177224781 0 0.5 0.3412102639584329 0 0.5 0.3143423395860625 0 0.49018383854513481 0.32777630177224781 0 0.5 0.3680781883308033 0 0.48179370240608688 0.3629921830593057 0 0.49019210403728508 0.37868934532509452 0 0.47933379756785699 0.34140498900125238 0 0.5 0.3412102639584329 0 0.48179370240608688 0.3629921830593057 0 0.5 0.3412102639584329 0 0.5 0.3680781883308033 0 0.48179370240608688 0.3629921830593057 0 0.47933379756785699 0.34140498900125238 0 0.48179370240608688 0.3629921830593057 0 0.46290963333413088 0.35784388956971241 0 0.48179370240608688 0.3629921830593057 0 0.46764620460662831 0.37423555507086709 0 0.46290963333413088 0.35784388956971241 0 0.46764620460662831 0.37423555507086709 0 0.46290963333413088 0.35784388956971241 0 0.4504027156359558 0.37270261984759462 0 0.46176780101177572 0.33954632686206893 0 0.47933379756785699 0.34140498900125238 0 0.46290963333413088 0.35784388956971241 0 0.46176780101177572 0.33954632686206893 0 0.46290963333413088 0.35784388956971241 0 0.43651357877648173 0.35618166357718589 0 0.46290963333413088 0.35784388956971241 0 0.4504027156359558 0.37270261984759462 0 0.43651357877648173 0.35618166357718589 0 0.4504027156359558 0.37270261984759462 0 0.43289124818501051 0.37055541554951571 0 0.43651357877648173 0.35618166357718589 0 0.43289124818501051 0.37055541554951571 0 0.42019433440197951 0.36253599769418338 0 0.43651357877648173 0.35618166357718589 0 0.43289124818501051 0.37055541554951571 0 0.42019433440197951 0.36253599769418338 0 0.42114120199463029 0.37534822865782402 0 0.42019433440197951 0.36253599769418338 0 0.40936083689448038 0.37223343162551892 0 0.40268609966258462 0.35450168846517688 0 0.42019433440197951 0.36253599769418338 0 0.40936083689448038 0.37223343162551892 0 0.42114120199463029 0.37534822865782402 0 0.42019433440197951 0.36253599769418338 0 0.41952270440878631 0.34354354319870672 0 0.40268609966258462 0.35450168846517688 0 0.42019433440197951 0.36253599769418338 0 0.43651357877648173 0.35618166357718589 0 0.41952270440878631 0.34354354319870672 0 0.43651357877648173 0.35618166357718589 0 0.4323579913070591 0.32981322414272318 0 0.43651357877648173 0.35618166357718589 0 0.4323579913070591 0.32981322414272318 0 0.41952270440878631 0.34354354319870672 0 0.4323579913070591 0.32981322414272318 0 0.41756553408125352 0.32287271157873498 0 0.41952270440878631 0.34354354319870672 0 0.42820240383763569 0.30344478470826042 0 0.4323579913070591 0.32981322414272318 0 0.41756553408125352 0.32287271157873498 0 0.42820240383763569 0.30344478470826042 0 0.44829695207900683 0.31415373299008448 0 0.4323579913070591 0.32981322414272318 0 0.42820240383763569 0.30344478470826042 0 0.4323579913070591 0.32981322414272318 0 0.41756553408125352 0.32287271157873498 0 0.40748753845972319 0.32110409161248671 0 0.40507707840378748 0.33151897915406098 0 0.41142841305581079 0.30984461132358138 0 0.41756553408125352 0.32287271157873498 0 0.40748753845972319 0.32110409161248671 0 0.41142841305581079 0.30984461132358138 0 0.40748753845972319 0.32110409161248671 0 0.40116360651699168 0.31332422816026012 0 0.41952270440878631 0.34354354319870672 0 0.40507707840378748 0.33151897915406098 0 0.40268609966258462 0.35450168846517688 0 0.41756553408125352 0.32287271157873498 0 0.41952270440878631 0.34354354319870672 0 0.40507707840378748 0.33151897915406098 0 0.40507707840378748 0.33151897915406098 0 0.38420205096489068 0.33725307481449718 0 0.40268609966258462 0.35450168846517688 0 0.40507707840378748 0.33151897915406098 0 0.39294700319615061 0.32457760199648261 0 0.38420205096489068 0.33725307481449718 0 0.40116360651699168 0.31332422816026012 0 0.39294700319615061 0.32457760199648261 0 0.37947273115930158 0.31612773084583762 0 0.40748753845972319 0.32110409161248671 0 0.40116360651699168 0.31332422816026012 0 0.39294700319615061 0.32457760199648261 0 0.40748753845972319 0.32110409161248671 0 0.40507707840378748 0.33151897915406098 0 0.39294700319615061 0.32457760199648261 0 0.39294700319615061 0.32457760199648261 0 0.37947273115930158 0.31612773084583762 0 0.38420205096489068 0.33725307481449718 0 0.38420205096489068 0.33725307481449718 0 0.38399294558121178 0.36311017513897292 0 0.40268609966258462 0.35450168846517688 0 0.36750857713992108 0.3537846113340038 0 0.38420205096489068 0.33725307481449718 0 0.38399294558121178 0.36311017513897292 0 0.38399294558121178 0.36311017513897292 0 0.38394527534659573 0.37939005855574393 0 0.37675792062718638 0.37815384277833602 0 0.36750857713992108 0.3537846113340038 0 0.38399294558121178 0.36311017513897292 0 0.37675792062718638 0.37815384277833602 0 0.38399294558121178 0.36311017513897292 0 0.39180289836404403 0.3727101372459497 0 0.38394527534659573 0.37939005855574393 0 0.40936083689448038 0.37223343162551892 0 0.39874247428427162 0.36816120712171779 0 0.40268609966258462 0.35450168846517688 0 0.38399294558121178 0.36311017513897292 0 0.39874247428427162 0.36816120712171779 0 0.40268609966258462 0.35450168846517688 0 0.39180289836404403 0.3727101372459497 0 0.39874247428427162 0.36816120712171779 0 0.39989146187639513 0.37666384620650623 0 0.38399294558121178 0.36311017513897292 0 0.39180289836404403 0.3727101372459497 0 0.39874247428427162 0.36816120712171779 0 0.40936083689448038 0.37223343162551892 0 0.39874247428427162 0.36816120712171779 0 0.39989146187639513 0.37666384620650623 0 0.40075116002139921 0.40058682939362261 0 0.40364585118876362 0.3868239537593221 0 0.41203738480301011 0.40897831989642458 0 0.40075116002139921 0.40058682939362261 0 0.39022149425967928 0.38949555174193862 0 0.38600726411445169 0.40252307422266809 0 0.40075116002139921 0.40058682939362261 0 0.40364585118876362 0.3868239537593221 0 0.39022149425967928 0.38949555174193862 0 0.39989146187639513 0.37666384620650623 0 0.38394527534659573 0.37939005855574393 0 0.40906828861275901 0.3836021189918819 0 0.38394527534659573 0.37939005855574393 0 0.40906828861275901 0.3836021189918819 0 0.40364585118876362 0.3868239537593221 0 0.39022149425967928 0.38949555174193862 0 0.38394527534659573 0.37939005855574393 0 0.39180289836404403 0.3727101372459497 0 0.39989146187639513 0.37666384620650623 0 0.38394527534659573 0.37939005855574393 0 0.40364585118876362 0.3868239537593221 0 0.38394527534659573 0.37939005855574393 0 0.40906828861275901 0.3836021189918819 0 0.40936083689448038 0.37223343162551892 0 0.39989146187639513 0.37666384620650623 0 0.40906828861275901 0.3836021189918819 0 0.37675792062718638 0.37815384277833602 0 0.38600726411445169 0.40252307422266809 0 0.39022149425967928 0.38949555174193862 0 0.37675792062718638 0.37815384277833602 0 0.38600726411445169 0.40252307422266809 0 0.39022149425967928 0.38949555174193862 0 0.38394527534659573 0.37939005855574393 0 0.37675792062718638 0.37815384277833602 0 0.36469455404433998 0.40078955296545909 0 0.37675792062718638 0.37815384277833602 0 0.38600726411445169 0.40252307422266809 0 0.37223151748821831 0.41084020965450402 0 0.38600726411445169 0.40252307422266809 0 0.37861464761577213 0.42097987718444929 0 0.38600726411445169 0.40252307422266809 0 0.37861464761577213 0.42097987718444929 0 0.3952566076017171 0.42689230566700059 0 0.37153426722683081 0.44145995112857528 0 0.37861464761577213 0.42097987718444929 0 0.3952566076017171 0.42689230566700059 0 0.40075116002139921 0.40058682939362261 0 0.38600726411445169 0.40252307422266809 0 0.3952566076017171 0.42689230566700059 0 0.38600726411445169 0.40252307422266809 0 0.3952566076017171 0.42689230566700059 0 0.40075116002139921 0.40058682939362261 0 0.3952566076017171 0.42689230566700059 0 0.41203738480301011 0.40897831989642458 0 0.41203738480301011 0.40897831989642458 0 0.4204289184172566 0.43113268603352722 0 0.3952566076017171 0.42689230566700059 0 0.41203738480301011 0.40897831989642458 0 0.4204289184172566 0.43113268603352722 0 0.3952566076017171 0.42689230566700059 0 0.4204289184172566 0.43113268603352722 0 0.41726953345889739 0.44499582122076953 0 0.4204289184172566 0.43113268603352722 0 0.43875867615916969 0.41158190630590308 0 0.44459887638100892 0.44035457189871541 0 0.41203738480301011 0.40897831989642458 0 0.4204289184172566 0.43113268603352722 0 0.43875867615916969 0.41158190630590308 0 0.41954030052852498 0.39576009567631038 0 0.43419130187892241 0.38781417942801988 0 0.43875867615916969 0.41158190630590308 0 0.41203738480301011 0.40897831989642458 0 0.41954030052852498 0.39576009567631038 0 0.43875867615916969 0.41158190630590308 0 0.40364585118876362 0.3868239537593221 0 0.41203738480301011 0.40897831989642458 0 0.41954030052852498 0.39576009567631038 0 0.40364585118876362 0.3868239537593221 0 0.41203738480301011 0.40897831989642458 0 0.40906828861275901 0.3836021189918819 0 0.42114120199463029 0.37534822865782402 0 0.43419130187892241 0.38781417942801988 0 0.41954030052852498 0.39576009567631038 0 0.40906828861275901 0.3836021189918819 0 0.43419130187892241 0.38781417942801988 0 0.40906828861275901 0.3836021189918819 0 0.43419130187892241 0.38781417942801988 0 0.40364585118876362 0.3868239537593221 0 0.41954030052852498 0.39576009567631038 0 0.40906828861275901 0.3836021189918819 0 0.40936083689448038 0.37223343162551892 0 0.40906828861275901 0.3836021189918819 0 0.42114120199463029 0.37534822865782402 0 0.43289124818501051 0.37055541554951571 0 0.42114120199463029 0.37534822865782402 0 0.43419130187892241 0.38781417942801988 0 0.4504027156359558 0.37270261984759462 0 0.43419130187892241 0.38781417942801988 0 0.45931431514508581 0.39202623986415791 0 0.43419130187892241 0.38781417942801988 0 0.45931431514508581 0.39202623986415791 0 0.4504027156359558 0.37270261984759462 0 0.43289124818501051 0.37055541554951571 0 0.43419130187892241 0.38781417942801988 0 0.43419130187892241 0.38781417942801988 0 0.45931431514508581 0.39202623986415791 0 0.43875867615916969 0.41158190630590308 0 0.45931431514508581 0.39202623986415791 0 0.45907954035807741 0.40974717780342601 0 0.43875867615916969 0.41158190630590308 0 0.46838107358155961 0.40125098155739142 0 0.45931431514508581 0.39202623986415791 0 0.45907954035807741 0.40974717780342601 0 0.46764620460662831 0.37423555507086709 0 0.4504027156359558 0.37270261984759462 0 0.45931431514508581 0.39202623986415791 0 0.46764620460662831 0.37423555507086709 0 0.45931431514508581 0.39202623986415791 0 0.47897471374305278 0.38874089720709509 0 0.48179370240608688 0.3629921830593057 0 0.46764620460662831 0.37423555507086709 0 0.47897471374305278 0.38874089720709509 0 0.48179370240608688 0.3629921830593057 0 0.47897471374305278 0.38874089720709509 0 0.49019210403728508 0.37868934532509452 0 0.48179370240608688 0.3629921830593057 0 0.47897471374305278 0.38874089720709509 0 0.46838107358155961 0.40125098155739142 0 0.47897471374305278 0.38874089720709509 0 0.47615572508002107 0.41448961135488488 0 0.47897471374305278 0.38874089720709509 0 0.4880778625400114 0.40471786202903021 0 0.47615572508002107 0.41448961135488488 0 0.46838107358155961 0.40125098155739142 0 0.45931431514508581 0.39202623986415791 0 0.47897471374305278 0.38874089720709509 0 0.47897471374305278 0.38874089720709509 0 0.47615572508002107 0.41448961135488488 0 0.47897471374305278 0.38874089720709509 0 0.4880778625400114 0.40471786202903021 0 0.50000000000000044 0.3949461127031737 0 0.4880778625400114 0.40471786202903021 0 0.50000000000000044 0.3949461127031737 0 0.5 0.3680781883308033 0 0.50000000000000044 0.3949461127031737 0 0.49019210403728508 0.37868934532509452 0 0.47897471374305278 0.38874089720709509 0 0.50000000000000044 0.3949461127031737 0 0.49019210403728508 0.37868934532509452 0 0.4880778625400114 0.40471786202903021 0 0.47615572508002107 0.41448961135488488 0 0.48320913007945399 0.44186785395643502 0 0.4880778625400114 0.40471786202903021 0 0.48320913007945399 0.44186785395643502 0 0.5 0.45550734412508948 0 0.4880778625400114 0.40471786202903021 0 0.50000000000000044 0.3949461127031737 0 0.5 0.45550734412508948 0 0.4880778625400114 0.40471786202903021 0 0.47615572508002107 0.41448961135488488 0 0.47615572508002107 0.41448961135488488 0 0.47380170877347211 0.43599125617216539 0 0.46037730073051553 0.42742209162680089 0 0.47615572508002107 0.41448961135488488 0 0.47380170877347211 0.43599125617216539 0 0.47615572508002107 0.41448961135488488 0 0.47380170877347211 0.43599125617216539 0 0.48320913007945399 0.44186785395643502 0 0.47380170877347211 0.43599125617216539 0 0.46037730073051553 0.42742209162680089 0 0.46225000952420342 0.44343581095276419 0 0.46037730073051553 0.42742209162680089 0 0.44875452350996292 0.44084062142860481 0 0.46225000952420342 0.44343581095276419 0 0.46838107358155961 0.40125098155739142 0 0.47615572508002107 0.41448961135488488 0 0.45907954035807741 0.40974717780342601 0 0.47615572508002107 0.41448961135488488 0 0.46037730073051553 0.42742209162680089 0 0.47615572508002107 0.41448961135488488 0 0.46037730073051553 0.42742209162680089 0 0.45907954035807741 0.40974717780342601 0 0.46037730073051553 0.42742209162680089 0 0.45907954035807741 0.40974717780342601 0 0.43875867615916969 0.41158190630590308 0 0.46037730073051553 0.42742209162680089 0 0.44459887638100892 0.44035457189871541 0 0.46037730073051553 0.42742209162680089 0 0.43875867615916969 0.41158190630590308 0 0.44459887638100892 0.44035457189871541 0 0.46037730073051553 0.42742209162680089 0 0.44459887638100892 0.44035457189871541 0 0.44875452350996292 0.44084062142860481 0 0.44459887638100892 0.44035457189871541 0 0.44490089798275639 0.45578042449128597 0 0.42882045203150237 0.45328705217063009 0 0.44459887638100892 0.44035457189871541 0 0.44875452350996292 0.44084062142860481 0 0.44490089798275639 0.45578042449128597 0 0.44875452350996292 0.44084062142860481 0 0.44490089798275639 0.45578042449128597 0 0.44977140890387551 0.47042031071430301 0 0.44875452350996292 0.44084062142860481 0 0.44977140890387551 0.47042031071430301 0 0.44875452350996292 0.44084062142860481 0 0.45887746427617843 0.45575043558677281 0 0.44977140890387551 0.47042031071430301 0 0.44490089798275639 0.45578042449128597 0 0.43766731475609832 0.47664352608531702 0 0.44977140890387551 0.47042031071430301 0 0.46216368697592441 0.46656253384874558 0 0.47144769246692558 0.45749290098944623 0 0.46909367616037911 0.47899454580672679 0 0.45887746427617843 0.45575043558677281 0 0.46216368697592441 0.46656253384874558 0 0.44977140890387551 0.47042031071430301 0 0.45887746427617843 0.45575043558677281 0 0.46216368697592441 0.46656253384874558 0 0.47144769246692558 0.45749290098944623 0 0.44875452350996292 0.44084062142860481 0 0.45887746427617843 0.45575043558677281 0 0.46225000952420342 0.44343581095276419 0 0.45887746427617843 0.45575043558677281 0 0.46225000952420342 0.44343581095276419 0 0.47144769246692558 0.45749290098944623 0 0.47380170877347211 0.43599125617216539 0 0.47144769246692558 0.45749290098944623 0 0.47380170877347211 0.43599125617216539 0 0.46225000952420342 0.44343581095276419 0 0.47144769246692558 0.45749290098944623 0 0.47380170877347211 0.43599125617216539 0 0.48320913007945399 0.44186785395643502 0 0.47144769246692558 0.45749290098944623 0 0.47144769246692558 0.45749290098944623 0 0.46909367616037911 0.47899454580672679 0 0.48320913007945399 0.44186785395643502 0 0.47144769246692558 0.45749290098944623 0 0.48513638373173179 0.46802142282880521 0 0.47144769246692558 0.45749290098944623 0 0.48513638373173179 0.46802142282880521 0 0.46909367616037911 0.47899454580672679 0 0.48320913007945399 0.44186785395643502 0 0.48513638373173179 0.46802142282880521 0 0.5 0.45550734412508948 0 0.48513638373173179 0.46802142282880521 0 0.5 0.5 0 0.46909367616037911 0.47899454580672679 0 0.5 0.5 0 0.46909367616037911 0.47899454580672679 0 0.45078829429778788 0.50000000000000111 0 0.48513638373173179 0.46802142282880521 0 0.5 0.45550734412508948 0 0.5 0.5 0 0.46216368697592441 0.46656253384874558 0 0.46909367616037911 0.47899454580672679 0 0.44977140890387551 0.47042031071430301 0 0.46909367616037911 0.47899454580672679 0 0.44977140890387551 0.47042031071430301 0 0.45078829429778788 0.50000000000000111 0 0.43766731475609832 0.47664352608531702 0 0.44977140890387551 0.47042031071430301 0 0.45078829429778788 0.50000000000000111 0 0.44977140890387551 0.47042031071430301 0 0.45078829429778788 0.50000000000000111 0 0.43766731475609832 0.47664352608531702 0 0.44651417748069488 0.50000000000000377 0 0.43766731475609832 0.47664352608531702 0 0.44651417748069488 0.50000000000000377 0 0.45078829429778788 0.50000000000000111 0 0.43766731475609832 0.47664352608531702 0 0.44651417748069488 0.50000000000000377 0 0.42300463806351229 0.49999999999999761 0 0.42300463806351229 0.49999999999999761 0 0.41375529457624771 0.475630768555665 0 0.42300463806351229 0.49999999999999761 0 0.41375529457624771 0.475630768555665 0 0.39536278264516411 0.5 0 0.41375529457624771 0.475630768555665 0 0.4259023559482808 0.4716262728225093 0 0.42070223881848978 0.45994098857738908 0 0.42300463806351229 0.49999999999999761 0 0.41375529457624771 0.475630768555665 0 0.4259023559482808 0.4716262728225093 0 0.43766731475609832 0.47664352608531702 0 0.42300463806351229 0.49999999999999761 0 0.4259023559482808 0.4716262728225093 0 0.4259023559482808 0.4716262728225093 0 0.42882045203150237 0.45328705217063009 0 0.42070223881848978 0.45994098857738908 0 0.44490089798275639 0.45578042449128597 0 0.43766731475609832 0.47664352608531702 0 0.42882045203150237 0.45328705217063009 0 0.43766731475609832 0.47664352608531702 0 0.4259023559482808 0.4716262728225093 0 0.42882045203150237 0.45328705217063009 0 0.43766731475609832 0.47664352608531702 0 0.42882045203150237 0.45328705217063009 0 0.42882045203150237 0.45328705217063009 0 0.42070223881848978 0.45994098857738908 0 0.4204289184172566 0.43113268603352722 0 0.42882045203150237 0.45328705217063009 0 0.4204289184172566 0.43113268603352722 0 0.44459887638100892 0.44035457189871541 0 0.42882045203150237 0.45328705217063009 0 0.4204289184172566 0.43113268603352722 0 0.42882045203150237 0.45328705217063009 0 0.41726953345889739 0.44499582122076953 0 0.44459887638100892 0.44035457189871541 0 0.42882045203150237 0.45328705217063009 0 0.42882045203150237 0.45328705217063009 0 0.41726953345889739 0.44499582122076953 0 0.42070223881848978 0.45994098857738908 0 0.41726953345889739 0.44499582122076953 0 0.42070223881848978 0.45994098857738908 0 0.40450595108898241 0.45126153711133271 0 0.41375529457624771 0.475630768555665 0 0.42070223881848978 0.45994098857738908 0 0.40450595108898241 0.45126153711133271 0 0.41375529457624771 0.475630768555665 0 0.40450595108898241 0.45126153711133271 0 0.40450595108898241 0.45126153711133271 0 0.38678923827225348 0.45036617823909242 0 0.38084110746588401 0.47081429291344751 0 0.41375529457624771 0.475630768555665 0 0.40450595108898241 0.45126153711133271 0 0.38084110746588401 0.47081429291344751 0 0.3952566076017171 0.42689230566700059 0 0.40450595108898241 0.45126153711133271 0 0.38678923827225348 0.45036617823909242 0 0.3952566076017171 0.42689230566700059 0 0.40450595108898241 0.45126153711133271 0 0.3952566076017171 0.42689230566700059 0 0.41726953345889739 0.44499582122076953 0 0.40450595108898241 0.45126153711133271 0 0.37153426722683081 0.44145995112857528 0 0.3952566076017171 0.42689230566700059 0 0.38678923827225348 0.45036617823909242 0 0.37153426722683081 0.44145995112857528 0 0.38678923827225348 0.45036617823909242 0 0.38084110746588401 0.47081429291344751 0 0.41375529457624771 0.475630768555665 0 0.38084110746588401 0.47081429291344751 0 0.39536278264516411 0.5 0 0.36772092722681587 0.5 0 0.38084110746588401 0.47081429291344751 0 0.39536278264516411 0.5 0 0.3231150360436274 0.080545088276505916 0 0.34760945754532502 0.1005447209833536 0 0.3491891069947356 0.081074809225066866 0 0.3364885407066282 0.064053405980583455 0 0.3231150360436274 0.080545088276505916 0 0.3491891069947356 0.081074809225066866 0 0.3231150360436274 0.080545088276505916 0 0.31770116414045069 0.056361512061807603 0 0.30481549364692412 0.077733996341547207 0 0.3231150360436274 0.080545088276505916 0 0.31770116414045069 0.056361512061807603 0 0.3364885407066282 0.064053405980583455 0 0.3231150360436274 0.080545088276505916 0 0.31770116414045069 0.056361512061807603 0 0.3231150360436274 0.080545088276505916 0 0.32852890794680412 0.1047286644912042 0 0.3231150360436274 0.080545088276505916 0 0.32852890794680412 0.1047286644912042 0 0.30883253814462153 0.099085565597219927 0 0.32852890794680412 0.1047286644912042 0 0.31164452049503888 0.1225631432635161 0 0.30883253814462153 0.099085565597219927 0 0.32852890794680412 0.1047286644912042 0 0.31164452049503888 0.1225631432635161 0 0.33394277984998078 0.12891224070590249 0 0.32852890794680412 0.1047286644912042 0 0.33394277984998078 0.12891224070590249 0 0.32852890794680412 0.1047286644912042 0 0.34760945754532502 0.1005447209833536 0 0.33394277984998078 0.12891224070590249 0 0.3231150360436274 0.080545088276505916 0 0.32852890794680412 0.1047286644912042 0 0.34760945754532502 0.1005447209833536 0 0.34760945754532502 0.1005447209833536 0 0.35987154352565498 0.1170972707086885 0 0.37013122330606679 0.093353608801325955 0 0.34760945754532502 0.1005447209833536 0 0.35987154352565498 0.1170972707086885 0 0.33394277984998078 0.12891224070590249 0 0.35987154352565498 0.1170972707086885 0 0.3737183066341207 0.1227588990857422 0 0.37671153772720778 0.1110828360015797 0 0.35987154352565498 0.1170972707086885 0 0.3737183066341207 0.1227588990857422 0 0.36475200417156622 0.1293189439760648 0 0.35987154352565498 0.1170972707086885 0 0.37013122330606679 0.093353608801325955 0 0.37671153772720778 0.1110828360015797 0 0.37013122330606679 0.093353608801325955 0 0.3491891069947356 0.081074809225066866 0 0.37013122330606679 0.093353608801325955 0 0.3491891069947356 0.081074809225066866 0 0.36851912298758599 0.07592937731354811 0 0.34760945754532502 0.1005447209833536 0 0.37013122330606679 0.093353608801325955 0 0.3491891069947356 0.081074809225066866 0 0.3491891069947356 0.081074809225066866 0 0.36851912298758599 0.07592937731354811 0 0.35706400558879731 0.059197723143954911 0 0.3364885407066282 0.064053405980583455 0 0.3491891069947356 0.081074809225066866 0 0.35706400558879731 0.059197723143954911 0 0.36851912298758599 0.07592937731354811 0 0.35706400558879731 0.059197723143954911 0 0.37957571760244913 0.062224180256092262 0 0.36714431184593332 0.04195940538457317 0 0.35706400558879731 0.059197723143954911 0 0.37957571760244913 0.062224180256092262 0 0.36714431184593332 0.04195940538457317 0 0.35176991631628868 0.037482188555191642 0 0.36083704175049719 0.023320216632622539 0 0.35176991631628868 0.037482188555191642 0 0.35706400558879731 0.059197723143954911 0 0.33537339076552991 0.043087897195581981 0 0.36714431184593332 0.04195940538457317 0 0.35176991631628868 0.037482188555191642 0 0.35706400558879731 0.059197723143954911 0 0.35706400558879731 0.059197723143954911 0 0.33537339076552991 0.043087897195581981 0 0.3736528700689532 0.0082629936107709301 0 0.35584829481317498 0.0068725965357478627 0 0.36507280813171161 -0.0078333009997206566 0 0.3736528700689532 0.0082629936107709301 0 0.36083704175049719 0.023320216632622539 0 0.35584829481317498 0.0068725965357478627 0 0.36714431184593332 0.04195940538457317 0 0.36083704175049719 0.023320216632622539 0 0.38039522095105421 0.02661564160026297 0 0.3736528700689532 0.0082629936107709301 0 0.36083704175049719 0.023320216632622539 0 0.38039522095105421 0.02661564160026297 0 0.35176991631628868 0.037482188555191642 0 0.36083704175049719 0.023320216632622539 0 0.33843083163068571 0.01984570041922553 0 0.36083704175049719 0.023320216632622539 0 0.35584829481317498 0.0068725965357478627 0 0.33843083163068571 0.01984570041922553 0 0.35584829481317498 0.0068725965357478627 0 0.33843083163068571 0.01984570041922553 0 0.34144549009991421 -0.0024310249084412219 0 0.33843083163068571 0.01984570041922553 0 0.32096687577749938 0.00013999713015544479 0 0.34144549009991421 -0.0024310249084412219 0 0.33843083163068571 0.01984570041922553 0 0.31368277594226263 0.02697807124720902 0 0.33537339076552991 0.043087897195581981 0 0.33843083163068571 0.01984570041922553 0 0.31368277594226263 0.02697807124720902 0 0.32096687577749938 0.00013999713015544479 0 0.31368277594226263 0.02697807124720902 0 0.32096687577749938 0.00013999713015544479 0 0.30397987236055207 -0.0012468907866667431 0 0.3364885407066282 0.064053405980583455 0 0.35706400558879731 0.059197723143954911 0 0.33537339076552991 0.043087897195581981 0 0.3364885407066282 0.064053405980583455 0 0.33537339076552991 0.043087897195581981 0 0.31770116414045069 0.056361512061807603 0 0.35176991631628868 0.037482188555191642 0 0.33843083163068571 0.01984570041922553 0 0.33537339076552991 0.043087897195581981 0 0.31368277594226263 0.02697807124720902 0 0.33537339076552991 0.043087897195581981 0 0.31770116414045069 0.056361512061807603 0 0.31368277594226263 0.02697807124720902 0 0.33537339076552991 0.043087897195581981 0 0.31368277594226263 0.02697807124720902 0 0.29808210790877421 0.053875787826384067 0 0.29242178978369598 0.036178980936321471 0 0.31368277594226263 0.02697807124720902 0 0.31770116414045069 0.056361512061807603 0 0.29808210790877421 0.053875787826384067 0 0.29808210790877421 0.053875787826384067 0 0.29242178978369598 0.036178980936321471 0 0.27131064826550311 0.045718686138306507 0 0.29808210790877421 0.053875787826384067 0 0.27131064826550311 0.045718686138306507 0 0.27545470946709222 0.063748304657851002 0 0.31368277594226263 0.02697807124720902 0 0.29199216111899501 0.010868245298835981 0 0.30397987236055207 -0.0012468907866667431 0 0.31368277594226263 0.02697807124720902 0 0.28804786505932661 0.024028845305494761 0 0.29199216111899501 0.010868245298835981 0 0.31368277594226263 0.02697807124720902 0 0.29199216111899501 0.010868245298835981 0 0.31368277594226263 0.02697807124720902 0 0.29242178978369598 0.036178980936321471 0 0.28804786505932661 0.024028845305494761 0 0.29242178978369598 0.036178980936321471 0 0.28804786505932661 0.024028845305494761 0 0.27781324720140987 0.03059819868613994 0 0.28804786505932661 0.024028845305494761 0 0.29199216111899501 0.010868245298835981 0 0.28086301508677919 0.013259405142079021 0 0.29199216111899501 0.010868245298835981 0 0.27030154629572611 -0.0052415806495351332 0 0.27311048787306952 0.023382110613520479 0 0.27030154629572611 -0.0052415806495351332 0 0.29199216111899501 0.010868245298835981 0 0.28086301508677919 0.013259405142079021 0 0.27030154629572611 -0.0052415806495351332 0 0.28086301508677919 0.013259405142079021 0 0.27311048787306952 0.023382110613520479 0 0.27030154629572611 -0.0052415806495351332 0 0.27311048787306952 0.023382110613520479 0 0.25704024178540552 0.00164605473580649 0 0.27030154629572611 -0.0052415806495351332 0 0.28804786505932661 0.024028845305494761 0 0.28086301508677919 0.013259405142079021 0 0.27311048787306952 0.023382110613520479 0 0.28804786505932661 0.024028845305494761 0 0.27311048787306952 0.023382110613520479 0 0.27781324720140987 0.03059819868613994 0 0.27311048787306952 0.023382110613520479 0 0.27781324720140987 0.03059819868613994 0 0.26417544502545431 0.0236823704370565 0 0.27311048787306952 0.023382110613520479 0 0.26417544502545431 0.0236823704370565 0 0.25704024178540552 0.00164605473580649 0 0.26417544502545431 0.0236823704370565 0 0.25378409553581782 0.027753119939855849 0 0.25296504279947712 0.01531873922705225 0 0.24752713428859591 0.02033042166504687 0 0.25378409553581782 0.027753119939855849 0 0.25296504279947712 0.01531873922705225 0 0.26417544502545431 0.0236823704370565 0 0.25704024178540552 0.00164605473580649 0 0.26417544502545431 0.0236823704370565 0 0.25296504279947712 0.01531873922705225 0 0.25704024178540552 0.00164605473580649 0 0.2462448439675437 0.0082486099570689524 0 0.25296504279947712 0.01531873922705225 0 0.25704024178540552 0.00164605473580649 0 0.2462448439675437 0.0082486099570689524 0 0.25704024178540552 0.00164605473580649 0 0.2498818982516218 -0.002271085465629063 0 0.27131064826550311 0.045718686138306507 0 0.25772420685117792 0.064535895225650619 0 0.27545470946709222 0.063748304657851002 0 0.29242178978369598 0.036178980936321471 0 0.27781324720140987 0.03059819868613994 0 0.27131064826550311 0.045718686138306507 0 0.27781324720140987 0.03059819868613994 0 0.26417544502545431 0.0236823704370565 0 0.27131064826550311 0.045718686138306507 0 0.26417544502545431 0.0236823704370565 0 0.27131064826550311 0.045718686138306507 0 0.24780396989584361 0.038399061764983873 0 0.25378409553581782 0.027753119939855849 0 0.27131064826550311 0.045718686138306507 0 0.26417544502545431 0.0236823704370565 0 0.25378409553581782 0.027753119939855849 0 0.27131064826550311 0.045718686138306507 0 0.24780396989584361 0.038399061764983873 0 0.25772420685117792 0.064535895225650619 0 0.24780396989584361 0.038399061764983873 0 0.27131064826550311 0.045718686138306507 0 0.25772420685117792 0.064535895225650619 0 0.25772420685117792 0.064535895225650619 0 0.26764444380651198 0.090672728686317358 0 0.24899324599662889 0.0805272582694566 0 0.25772420685117792 0.064535895225650619 0 0.26764444380651198 0.090672728686317358 0 0.24533759262594271 0.097680445434891128 0 0.24899324599662889 0.0805272582694566 0 0.26764444380651198 0.090672728686317358 0 0.25772420685117792 0.064535895225650619 0 0.26764444380651198 0.090672728686317358 0 0.27545470946709222 0.063748304657851002 0 0.26764444380651198 0.090672728686317358 0 0.27545470946709222 0.063748304657851002 0 0.28883622724866048 0.074818310190676973 0 0.29808210790877421 0.053875787826384067 0 0.27545470946709222 0.063748304657851002 0 0.28883622724866048 0.074818310190676973 0 0.28883622724866048 0.074818310190676973 0 0.30481549364692412 0.077733996341547207 0 0.29030660184954299 0.096504492005447931 0 0.26764444380651198 0.090672728686317358 0 0.28883622724866048 0.074818310190676973 0 0.29030660184954299 0.096504492005447931 0 0.3231150360436274 0.080545088276505916 0 0.30481549364692412 0.077733996341547207 0 0.30883253814462153 0.099085565597219927 0 0.30481549364692412 0.077733996341547207 0 0.30883253814462153 0.099085565597219927 0 0.29030660184954299 0.096504492005447931 0 0.31770116414045069 0.056361512061807603 0 0.29808210790877421 0.053875787826384067 0 0.30481549364692412 0.077733996341547207 0 0.29808210790877421 0.053875787826384067 0 0.28883622724866048 0.074818310190676973 0 0.30481549364692412 0.077733996341547207 0 0.31164452049503888 0.1225631432635161 0 0.29458466888579188 0.1124380092050983 0 0.29436003258624621 0.126257242819794 0 0.31164452049503888 0.1225631432635161 0 0.30883253814462153 0.099085565597219927 0 0.29458466888579188 0.1124380092050983 0 0.30883253814462153 0.099085565597219927 0 0.29030660184954299 0.096504492005447931 0 0.29458466888579188 0.1124380092050983 0 0.29030660184954299 0.096504492005447931 0 0.29458466888579188 0.1124380092050983 0 0.27756468076184621 0.1168095621469841 0 0.29458466888579188 0.1124380092050983 0 0.27756468076184621 0.1168095621469841 0 0.29436003258624621 0.126257242819794 0 0.27756468076184621 0.1168095621469841 0 0.26209151933408109 0.10773137159854571 0 0.26858911822916082 0.13182187847932519 0 0.26764444380651198 0.090672728686317358 0 0.27756468076184621 0.1168095621469841 0 0.26209151933408109 0.10773137159854571 0 0.26764444380651198 0.090672728686317358 0 0.27756468076184621 0.1168095621469841 0 0.26764444380651198 0.090672728686317358 0 0.29030660184954299 0.096504492005447931 0 0.27756468076184621 0.1168095621469841 0 0.24533759262594271 0.097680445434891128 0 0.26764444380651198 0.090672728686317358 0 0.26209151933408109 0.10773137159854571 0 0.24969331874114301 0.1206973613509984 0 0.24533759262594271 0.097680445434891128 0 0.26209151933408109 0.10773137159854571 0 0.24969331874114301 0.1206973613509984 0 0.26209151933408109 0.10773137159854571 0 0.26858911822916082 0.13182187847932519 0 0.24969331874114301 0.1206973613509984 0 0.25277366156233982 0.13657867635417301 0 0.26858911822916082 0.13182187847932519 0 0.24969331874114301 0.1206973613509984 0 0.26858911822916082 0.13182187847932519 0 0.27756468076184621 0.1168095621469841 0 0.26858911822916082 0.13182187847932519 0 0.28748491771717921 0.14294639560765129 0 0.26858911822916082 0.13182187847932519 0 0.28748491771717921 0.14294639560765129 0 0.26858911822916082 0.13182187847932519 0 0.26053074556048611 0.1537619508775305 0 0.28748491771717921 0.14294639560765129 0 0.26053074556048611 0.1537619508775305 0 0.27788722792996873 0.17050084250782549 0 0.28748491771717921 0.14294639560765129 0 0.25277366156233982 0.13657867635417301 0 0.26858911822916082 0.13182187847932519 0 0.26053074556048611 0.1537619508775305 0 0.24469027036577351 0.14880694978056691 0 0.25277366156233982 0.13657867635417301 0 0.26053074556048611 0.1537619508775305 0 0.24160161585879761 0.1624254570726936 0 0.26053074556048611 0.1537619508775305 0 0.25029606846190422 0.1797913926751768 0 0.26053074556048611 0.1537619508775305 0 0.25029606846190422 0.1797913926751768 0 0.27788722792996873 0.17050084250782549 0 0.25029606846190422 0.1797913926751768 0 0.27728489888020852 0.18999544356444231 0 0.25029606846190422 0.1797913926751768 0 0.27788722792996873 0.17050084250782549 0 0.27728489888020852 0.18999544356444231 0 0.29772680079681102 0.1699306696306607 0 0.28748491771717921 0.14294639560765129 0 0.27788722792996873 0.17050084250782549 0 0.29772680079681102 0.1699306696306607 0 0.28748491771717921 0.14294639560765129 0 0.27788722792996873 0.17050084250782549 0 0.2939999361632239 0.18657920269149059 0 0.27728489888020852 0.18999544356444231 0 0.27788722792996873 0.17050084250782549 0 0.2939999361632239 0.18657920269149059 0 0.29772680079681102 0.1699306696306607 0 0.29772680079681102 0.1699306696306607 0 0.30796868387644499 0.19691494365366941 0 0.2939999361632239 0.18657920269149059 0 0.29772680079681102 0.1699306696306607 0 0.30796868387644499 0.19691494365366941 0 0.29772680079681102 0.1699306696306607 0 0.30796868387644499 0.19691494365366941 0 0.31433761969180612 0.17050208891185259 0 0.29772680079681102 0.1699306696306607 0 0.3070072964757547 0.15443979852099171 0 0.31433761969180612 0.17050208891185259 0 0.3070072964757547 0.15443979852099171 0 0.30439660292389747 0.13802403975103139 0 0.32148624734526882 0.1439136185432032 0 0.3070072964757547 0.15443979852099171 0 0.28748491771717921 0.14294639560765129 0 0.29772680079681102 0.1699306696306607 0 0.3070072964757547 0.15443979852099171 0 0.28748491771717921 0.14294639560765129 0 0.3070072964757547 0.15443979852099171 0 0.30439660292389747 0.13802403975103139 0 0.28748491771717921 0.14294639560765129 0 0.31164452049503888 0.1225631432635161 0 0.30439660292389747 0.13802403975103139 0 0.29436003258624621 0.126257242819794 0 0.30439660292389747 0.13802403975103139 0 0.29436003258624621 0.126257242819794 0 0.28748491771717921 0.14294639560765129 0 0.27756468076184621 0.1168095621469841 0 0.29436003258624621 0.126257242819794 0 0.28748491771717921 0.14294639560765129 0 0.27756468076184621 0.1168095621469841 0 0.28748491771717921 0.14294639560765129 0 0.27732307966824282 0.25804090131194718 0 0.27408010705656338 0.24132342990046479 0 0.28730261761608678 0.2401147541676211 0 0.27732307966824282 0.25804090131194718 0 0.27408010705656338 0.24132342990046479 0 0.26414982602066872 0.24857322833329409 0 0.27408010705656338 0.24132342990046479 0 0.27462126919700958 0.22655841429840751 0 0.28730261761608678 0.2401147541676211 0 0.27408010705656338 0.24132342990046479 0 0.26414982602066872 0.24857322833329409 0 0.26700374278080907 0.23332985139105411 0 0.24815670256054939 0.24315182117073661 0 0.26414982602066872 0.24857322833329409 0 0.26700374278080907 0.23332985139105411 0 0.25736741807393598 0.2249699039431817 0 0.27462126919700958 0.22655841429840751 0 0.2617803883691 0.21283153455576581 0 0.24165121181977739 0.2238929337544161 0 0.25736741807393598 0.2249699039431817 0 0.25099119371637069 0.21005486848871019 0 0.24815670256054939 0.24315182117073661 0 0.25736741807393598 0.2249699039431817 0 0.26700374278080907 0.23332985139105411 0 0.25736741807393598 0.2249699039431817 0 0.26700374278080907 0.23332985139105411 0 0.27462126919700958 0.22655841429840751 0 0.27462126919700958 0.22655841429840751 0 0.2617803883691 0.21283153455576581 0 0.27408010705656338 0.24132342990046479 0 0.26700374278080907 0.23332985139105411 0 0.27462126919700958 0.22655841429840751 0 0.26700374278080907 0.23332985139105411 0 0.27462126919700958 0.22655841429840751 0 0.27462126919700958 0.22655841429840751 0 0.28730261761608678 0.2401147541676211 0 0.27318368154125561 0.2083319437160836 0 0.27728489888020852 0.18999544356444231 0 0.2894474992477617 0.213378954376059 0 0.27462126919700958 0.22655841429840751 0 0.27318368154125561 0.2083319437160836 0 0.2617803883691 0.21283153455576581 0 0.27462126919700958 0.22655841429840751 0 0.27318368154125561 0.2083319437160836 0 0.2894474992477617 0.213378954376059 0 0.27318368154125561 0.2083319437160836 0 0.2617803883691 0.21283153455576581 0 0.2627843520121978 0.1988953717857434 0 0.25736741807393598 0.2249699039431817 0 0.2617803883691 0.21283153455576581 0 0.25099119371637069 0.21005486848871019 0 0.2489395075411904 0.199104654813124 0 0.2617803883691 0.21283153455576581 0 0.2489395075411904 0.199104654813124 0 0.2617803883691 0.21283153455576581 0 0.25099119371637069 0.21005486848871019 0 0.2489395075411904 0.199104654813124 0 0.2617803883691 0.21283153455576581 0 0.2627843520121978 0.1988953717857434 0 0.2489395075411904 0.199104654813124 0 0.25029606846190422 0.1797913926751768 0 0.2627843520121978 0.1988953717857434 0 0.25029606846190422 0.1797913926751768 0 0.2627843520121978 0.1988953717857434 0 0.27728489888020852 0.18999544356444231 0 0.27318368154125561 0.2083319437160836 0 0.2627843520121978 0.1988953717857434 0 0.27728489888020852 0.18999544356444231 0 0.2939999361632239 0.18657920269149059 0 0.27728489888020852 0.18999544356444231 0 0.30427372929851221 0.20019949445370849 0 0.27728489888020852 0.18999544356444231 0 0.30427372929851221 0.20019949445370849 0 0.2894474992477617 0.213378954376059 0 0.27728489888020852 0.18999544356444231 0 0.30427372929851221 0.20019949445370849 0 0.2939999361632239 0.18657920269149059 0 0.30796868387644499 0.19691494365366941 0 0.30427372929851221 0.20019949445370849 0 0.31004327626559869 0.20238086911677 0 0.30796868387644499 0.19691494365366941 0 0.30796868387644499 0.19691494365366941 0 0.30427372929851221 0.20019949445370849 0 0.31004327626559869 0.20238086911677 0 0.30427372929851221 0.20019949445370849 0 0.31004327626559869 0.20238086911677 0 0.30796868387644499 0.19691494365366941 0 0.30427372929851221 0.20019949445370849 0 0.31004327626559869 0.20238086911677 0 0.30357303705872363 0.2134655750909551 0 0.31825738274018578 0.22402256315302491 0 0.30427372929851221 0.20019949445370849 0 0.30357303705872363 0.2134655750909551 0 0.2894474992477617 0.213378954376059 0 0.31004327626559869 0.20238086911677 0 0.30427372929851221 0.20019949445370849 0 0.30357303705872363 0.2134655750909551 0 0.30357303705872363 0.2134655750909551 0 0.2894474992477617 0.213378954376059 0 0.29584329774155932 0.2273459943552141 0 0.30427372929851221 0.20019949445370849 0 0.2894474992477617 0.213378954376059 0 0.27462126919700958 0.22655841429840751 0 0.29584329774155932 0.2273459943552141 0 0.28730261761608678 0.2401147541676211 0 0.27462126919700958 0.22655841429840751 0 0.2894474992477617 0.213378954376059 0 0.29584329774155932 0.2273459943552141 0 0.27462126919700958 0.22655841429840751 0 0.2894474992477617 0.213378954376059 0 0.29584329774155932 0.2273459943552141 0 0.30795617768155031 0.24010890579325819 0 0.31825738274018578 0.22402256315302491 0 0.30357303705872363 0.2134655750909551 0 0.29584329774155932 0.2273459943552141 0 0.31825738274018578 0.22402256315302491 0 0.29998396603516408 0.25367109403683469 0 0.30795617768155031 0.24010890579325819 0 0.319878312741532 0.24983477185757469 0 0.29584329774155932 0.2273459943552141 0 0.30795617768155031 0.24010890579325819 0 0.28730261761608678 0.2401147541676211 0 0.29998396603516408 0.25367109403683469 0 0.30795617768155031 0.24010890579325819 0 0.28730261761608678 0.2401147541676211 0 0.29998396603516408 0.25367109403683469 0 0.28730261761608678 0.2401147541676211 0 0.32647148921477381 0.24566425718927959 0 0.34236665456201221 0.23291708186054169 0 0.33080507196684522 0.22722726302607971 0 0.3417052103372209 0.25064254883263209 0 0.32647148921477381 0.24566425718927959 0 0.34236665456201221 0.23291708186054169 0 0.32647148921477381 0.24566425718927959 0 0.31825738274018578 0.22402256315302491 0 0.30795617768155031 0.24010890579325819 0 0.319878312741532 0.24983477185757469 0 0.32647148921477381 0.24566425718927959 0 0.30795617768155031 0.24010890579325819 0 0.32647148921477381 0.24566425718927959 0 0.31825738274018578 0.22402256315302491 0 0.32647148921477381 0.24566425718927959 0 0.31825738274018578 0.22402256315302491 0 0.33080507196684522 0.22722726302607971 0 0.31825738274018578 0.22402256315302491 0 0.33080507196684522 0.22722726302607971 0 0.32680075969758299 0.21494616439986461 0 0.34236665456201221 0.23291708186054169 0 0.33732281961561728 0.2125364561183351 0 0.35103208490123089 0.2142436382842636 0 0.34236665456201221 0.23291708186054169 0 0.33080507196684522 0.22722726302607971 0 0.33732281961561728 0.2125364561183351 0 0.33732281961561728 0.2125364561183351 0 0.3281840061494426 0.20559479176964171 0 0.3349441447335928 0.19819329520353371 0 0.33080507196684522 0.22722726302607971 0 0.33732281961561728 0.2125364561183351 0 0.32680075969758299 0.21494616439986461 0 0.33732281961561728 0.2125364561183351 0 0.3281840061494426 0.20559479176964171 0 0.32680075969758299 0.21494616439986461 0 0.31825738274018578 0.22402256315302491 0 0.32680075969758299 0.21494616439986461 0 0.31875865766440592 0.20567601729230769 0 0.31004327626559869 0.20238086911677 0 0.31825738274018578 0.22402256315302491 0 0.31875865766440592 0.20567601729230769 0 0.31004327626559869 0.20238086911677 0 0.31825738274018578 0.22402256315302491 0 0.31004327626559869 0.20238086911677 0 0.31875865766440592 0.20567601729230769 0 0.3281840061494426 0.20559479176964171 0 0.32680075969758299 0.21494616439986461 0 0.31875865766440592 0.20567601729230769 0 0.3281840061494426 0.20559479176964171 0 0.31875865766440592 0.20567601729230769 0 0.32309364903601379 0.19662202583416721 0 0.31004327626559869 0.20238086911677 0 0.30796868387644499 0.19691494365366941 0 0.32309364903601379 0.19662202583416721 0 0.31004327626559869 0.20238086911677 0 0.31875865766440592 0.20567601729230769 0 0.32309364903601379 0.19662202583416721 0 0.30796868387644499 0.19691494365366941 0 0.3235442144836258 0.1830694090367132 0 0.30796868387644499 0.19691494365366941 0 0.32309364903601379 0.19662202583416721 0 0.3235442144836258 0.1830694090367132 0 0.32309364903601379 0.19662202583416721 0 0.3235442144836258 0.1830694090367132 0 0.3375366997275675 0.18485112412659971 0 0.32309364903601379 0.19662202583416721 0 0.3349441447335928 0.19819329520353371 0 0.3375366997275675 0.18485112412659971 0 0.3281840061494426 0.20559479176964171 0 0.32309364903601379 0.19662202583416721 0 0.3349441447335928 0.19819329520353371 0 0.33732281961561728 0.2125364561183351 0 0.3349441447335928 0.19819329520353371 0 0.34582781391940809 0.19802296049054721 0 0.3349441447335928 0.19819329520353371 0 0.34582781391940809 0.19802296049054721 0 0.3375366997275675 0.18485112412659971 0 0.34582781391940809 0.19802296049054721 0 0.3375366997275675 0.18485112412659971 0 0.35321163446293607 0.18416430147984381 0 0.34582781391940809 0.19802296049054721 0 0.35791186946338971 0.20166454428773409 0 0.35321163446293607 0.18416430147984381 0 0.35791186946338971 0.20166454428773409 0 0.36734666806527327 0.19204823538926891 0 0.37508341755997909 0.2037224782472532 0 0.35791186946338971 0.20166454428773409 0 0.36734666806527327 0.19204823538926891 0 0.35321163446293607 0.18416430147984381 0 0.36734666806527327 0.19204823538926891 0 0.37508341755997909 0.2037224782472532 0 0.37898822697909629 0.18922513969906549 0 0.36308755878126708 0.21306409594254511 0 0.37295199355019781 0.22002181866034101 0 0.37508341755997909 0.2037224782472532 0 0.35791186946338971 0.20166454428773409 0 0.36308755878126708 0.21306409594254511 0 0.37508341755997909 0.2037224782472532 0 0.34582781391940809 0.19802296049054721 0 0.35791186946338971 0.20166454428773409 0 0.35103208490123089 0.2142436382842636 0 0.36308755878126708 0.21306409594254511 0 0.35103208490123089 0.2142436382842636 0 0.35842298588025318 0.22597704032017249 0 0.33732281961561728 0.2125364561183351 0 0.34582781391940809 0.19802296049054721 0 0.35103208490123089 0.2142436382842636 0 0.35791186946338971 0.20166454428773409 0 0.36308755878126708 0.21306409594254511 0 0.35103208490123089 0.2142436382842636 0 0.34236665456201221 0.23291708186054169 0 0.35103208490123089 0.2142436382842636 0 0.35842298588025318 0.22597704032017249 0 0.36308755878126708 0.21306409594254511 0 0.35842298588025318 0.22597704032017249 0 0.37295199355019781 0.22002181866034101 0 0.37295199355019781 0.22002181866034101 0 0.36807651668549868 0.23562990843662199 0 0.38044371885239342 0.23341846495438409 0 0.35842298588025318 0.22597704032017249 0 0.37295199355019781 0.22002181866034101 0 0.36807651668549868 0.23562990843662199 0 0.37620184814355162 0.25053821619171168 0 0.3557815906890433 0.24634790465082609 0 0.37620184814355162 0.25053821619171168 0 0.36807651668549868 0.23562990843662199 0 0.3557815906890433 0.24634790465082609 0 0.35842298588025318 0.22597704032017249 0 0.36807651668549868 0.23562990843662199 0 0.3557815906890433 0.24634790465082609 0 0.37620184814355162 0.25053821619171168 0 0.36807651668549868 0.23562990843662199 0 0.38044371885239342 0.23341846495438409 0 0.34236665456201221 0.23291708186054169 0 0.35842298588025318 0.22597704032017249 0 0.3557815906890433 0.24634790465082609 0 0.3417052103372209 0.25064254883263209 0 0.34236665456201221 0.23291708186054169 0 0.3557815906890433 0.24634790465082609 0 0.33935665175315749 0.15309581692060081 0 0.32148624734526882 0.1439136185432032 0 0.32652967523433107 0.1659332014343308 0 0.33935665175315749 0.15309581692060081 0 0.33394277984998078 0.12891224070590249 0 0.32148624734526882 0.1439136185432032 0 0.33935665175315749 0.15309581692060081 0 0.33394277984998078 0.12891224070590249 0 0.33935665175315749 0.15309581692060081 0 0.33394277984998078 0.12891224070590249 0 0.35348946579801771 0.1360153994401585 0 0.31164452049503888 0.1225631432635161 0 0.33394277984998078 0.12891224070590249 0 0.32148624734526882 0.1439136185432032 0 0.31164452049503888 0.1225631432635161 0 0.30439660292389747 0.13802403975103139 0 0.32148624734526882 0.1439136185432032 0 0.3070072964757547 0.15443979852099171 0 0.32148624734526882 0.1439136185432032 0 0.32652967523433107 0.1659332014343308 0 0.3070072964757547 0.15443979852099171 0 0.31433761969180612 0.17050208891185259 0 0.32652967523433107 0.1659332014343308 0 0.3070072964757547 0.15443979852099171 0 0.32652967523433107 0.1659332014343308 0 0.31433761969180612 0.17050208891185259 0 0.32652967523433107 0.1659332014343308 0 0.32652967523433107 0.1659332014343308 0 0.32969540966837119 0.16779696311097 0 0.32652967523433107 0.1659332014343308 0 0.3235442144836258 0.1830694090367132 0 0.32969540966837119 0.16779696311097 0 0.30796868387644499 0.19691494365366941 0 0.31433761969180612 0.17050208891185259 0 0.3235442144836258 0.1830694090367132 0 0.31433761969180612 0.17050208891185259 0 0.32652967523433107 0.1659332014343308 0 0.3235442144836258 0.1830694090367132 0 0.3235442144836258 0.1830694090367132 0 0.3375366997275675 0.18485112412659971 0 0.33911974509080561 0.16922387441975609 0 0.3375366997275675 0.18485112412659971 0 0.33911974509080561 0.16922387441975609 0 0.35321163446293607 0.18416430147984381 0 0.3235442144836258 0.1830694090367132 0 0.32969540966837119 0.16779696311097 0 0.33911974509080561 0.16922387441975609 0 0.3235442144836258 0.1830694090367132 0 0.33911974509080561 0.16922387441975609 0 0.32652967523433107 0.1659332014343308 0 0.33911974509080561 0.16922387441975609 0 0.35469527569798531 0.15537833980279869 0 0.32652967523433107 0.1659332014343308 0 0.35469527569798531 0.15537833980279869 0 0.33935665175315749 0.15309581692060081 0 0.32652967523433107 0.1659332014343308 0 0.35469527569798531 0.15537833980279869 0 0.32652967523433107 0.1659332014343308 0 0.32969540966837119 0.16779696311097 0 0.33911974509080561 0.16922387441975609 0 0.33911974509080561 0.16922387441975609 0 0.35671727948625359 0.1699950153932259 0 0.35469527569798531 0.15537833980279869 0 0.33911974509080561 0.16922387441975609 0 0.35469527569798531 0.15537833980279869 0 0.33911974509080561 0.16922387441975609 0 0.35671727948625359 0.1699950153932259 0 0.35321163446293607 0.18416430147984381 0 0.35671727948625359 0.1699950153932259 0 0.35321163446293607 0.18416430147984381 0 0.37088829205465479 0.17853205731841709 0 0.36734666806527327 0.19204823538926891 0 0.35321163446293607 0.18416430147984381 0 0.37088829205465479 0.17853205731841709 0 0.36734666806527327 0.19204823538926891 0 0.37088829205465479 0.17853205731841709 0 0.37898822697909629 0.18922513969906549 0 0.35671727948625359 0.1699950153932259 0 0.368230927439121 0.16315122450679559 0 0.35469527569798531 0.15537833980279869 0 0.35671727948625359 0.1699950153932259 0 0.37088829205465479 0.17853205731841709 0 0.368230927439121 0.16315122450679559 0 0.37088829205465479 0.17853205731841709 0 0.368230927439121 0.16315122450679559 0 0.37712431978027788 0.1695346770429835 0 0.368230927439121 0.16315122450679559 0 0.37332473305397063 0.1483970810536131 0 0.38022579413256941 0.15903602234547179 0 0.35469527569798531 0.15537833980279869 0 0.35348946579801771 0.1360153994401585 0 0.3725776516513144 0.1394821843818641 0 0.37332473305397063 0.1483970810536131 0 0.35469527569798531 0.15537833980279869 0 0.3725776516513144 0.1394821843818641 0 0.368230927439121 0.16315122450679559 0 0.37332473305397063 0.1483970810536131 0 0.35469527569798531 0.15537833980279869 0 0.37332473305397063 0.1483970810536131 0 0.35469527569798531 0.15537833980279869 0 0.35469527569798531 0.15537833980279869 0 0.3725776516513144 0.1394821843818641 0 0.33935665175315749 0.15309581692060081 0 0.35469527569798531 0.15537833980279869 0 0.35348946579801771 0.1360153994401585 0 0.35987154352565498 0.1170972707086885 0 0.33394277984998078 0.12891224070590249 0 0.35348946579801771 0.1360153994401585 0 0.35987154352565498 0.1170972707086885 0 0.35348946579801771 0.1360153994401585 0 0.36475200417156622 0.1293189439760648 0 0.3737183066341207 0.1227588990857422 0 0.36475200417156622 0.1293189439760648 0 0.3725776516513144 0.1394821843818641 0 0.35348946579801771 0.1360153994401585 0 0.36475200417156622 0.1293189439760648 0 0.3725776516513144 0.1394821843818641 0 0.3725776516513144 0.1394821843818641 0 0.39046002760464332 0.12358602896092941 0 0.3737183066341207 0.1227588990857422 0 0.3725776516513144 0.1394821843818641 0 0.39046002760464332 0.12358602896092941 0 0.3725776516513144 0.1394821843818641 0 0.39195419040995599 0.14141582230442781 0 0.39046002760464332 0.12358602896092941 0 0.40829112576812782 0.1360973550056328 0 0.41201545592872929 0.1179112079538441 0 0.39046002760464332 0.12358602896092941 0 0.39195419040995599 0.14141582230442781 0 0.40829112576812782 0.1360973550056328 0 0.39046002760464332 0.12358602896092941 0 0.39195419040995599 0.14141582230442781 0 0.40379572185326612 0.15055396421777181 0 0.39279832865585401 0.1606922504345254 0 0.39195419040995599 0.14141582230442781 0 0.40379572185326612 0.15055396421777181 0 0.40829112576812782 0.1360973550056328 0 0.37332473305397063 0.1483970810536131 0 0.39195419040995599 0.14141582230442781 0 0.38022579413256941 0.15903602234547179 0 0.37332473305397063 0.1483970810536131 0 0.39195419040995599 0.14141582230442781 0 0.37332473305397063 0.1483970810536131 0 0.3725776516513144 0.1394821843818641 0 0.39195419040995599 0.14141582230442781 0 0.39195419040995599 0.14141582230442781 0 0.38022579413256941 0.15903602234547179 0 0.39279832865585401 0.1606922504345254 0 0.38022579413256941 0.15903602234547179 0 0.37712431978027788 0.1695346770429835 0 0.39279832865585401 0.1606922504345254 0 0.368230927439121 0.16315122450679559 0 0.38022579413256941 0.15903602234547179 0 0.37712431978027788 0.1695346770429835 0 0.37712431978027788 0.1695346770429835 0 0.3870878006184586 0.17839922328087529 0 0.39279832865585401 0.1606922504345254 0 0.3870878006184586 0.17839922328087529 0 0.37898822697909629 0.18922513969906549 0 0.39221385883716159 0.19486797194152519 0 0.37088829205465479 0.17853205731841709 0 0.3870878006184586 0.17839922328087529 0 0.37898822697909629 0.18922513969906549 0 0.37088829205465479 0.17853205731841709 0 0.37712431978027788 0.1695346770429835 0 0.3870878006184586 0.17839922328087529 0 0.3870878006184586 0.17839922328087529 0 0.40611455669724011 0.17991825014170901 0 0.39221385883716159 0.19486797194152519 0 0.3870878006184586 0.17839922328087529 0 0.40611455669724011 0.17991825014170901 0 0.39279832865585401 0.1606922504345254 0 0.40611455669724011 0.17991825014170901 0 0.39279832865585401 0.1606922504345254 0 0.40857362771575428 0.16254790982999059 0 0.40379572185326612 0.15055396421777181 0 0.39279832865585401 0.1606922504345254 0 0.40857362771575428 0.16254790982999059 0 0.40611455669724011 0.17991825014170901 0 0.39279832865585401 0.1606922504345254 0 0.40611455669724011 0.17991825014170901 0 0.42159574480029982 0.16864798528922631 0 0.40857362771575428 0.16254790982999059 0 0.42159574480029982 0.16864798528922631 0 0.40857362771575428 0.16254790982999059 0 0.41856378657211152 0.1529270990667205 0 0.40611455669724011 0.17991825014170901 0 0.42159574480029982 0.16864798528922631 0 0.42450482599386452 0.18501362632660731 0 0.4364947390121337 0.17511933966989629 0 0.42450482599386452 0.18501362632660731 0 0.43559631436458462 0.1911371539067542 0 0.42159574480029982 0.16864798528922631 0 0.4364947390121337 0.17511933966989629 0 0.42450482599386452 0.18501362632660731 0 0.42159574480029982 0.16864798528922631 0 0.4364947390121337 0.17511933966989629 0 0.43749774375809991 0.15513418467149301 0 0.42159574480029982 0.16864798528922631 0 0.43749774375809991 0.15513418467149301 0 0.41856378657211152 0.1529270990667205 0 0.43749774375809991 0.15513418467149301 0 0.4329575722400606 0.13019000753010321 0 0.41856378657211152 0.1529270990667205 0 0.4329575722400606 0.13019000753010321 0 0.40829112576812782 0.1360973550056328 0 0.41201545592872929 0.1179112079538441 0 0.4329575722400606 0.13019000753010321 0 0.40829112576812782 0.1360973550056328 0 0.41856378657211152 0.1529270990667205 0 0.40379572185326612 0.15055396421777181 0 0.40829112576812782 0.1360973550056328 0 0.41856378657211152 0.1529270990667205 0 0.40379572185326612 0.15055396421777181 0 0.40857362771575428 0.16254790982999059 0 0.41856378657211152 0.1529270990667205 0 0.39841345742274581 0.25292560357210431 0 0.39769282761244301 0.2370991709359179 0 0.40722689344057672 0.23417856896257469 0 0.39841345742274581 0.25292560357210431 0 0.39769282761244301 0.2370991709359179 0 0.3890583669794983 0.24542194912678009 0 0.39841345742274581 0.25292560357210431 0 0.39769282761244301 0.2370991709359179 0 0.39769282761244301 0.2370991709359179 0 0.3890583669794983 0.24542194912678009 0 0.39013899441145972 0.23320476864437709 0 0.37620184814355162 0.25053821619171168 0 0.3890583669794983 0.24542194912678009 0 0.38044371885239342 0.23341846495438409 0 0.3890583669794983 0.24542194912678009 0 0.39013899441145972 0.23320476864437709 0 0.38044371885239342 0.23341846495438409 0 0.39013899441145972 0.23320476864437709 0 0.38044371885239342 0.23341846495438409 0 0.39201186231152879 0.21528078116251931 0 0.37295199355019781 0.22002181866034101 0 0.38044371885239342 0.23341846495438409 0 0.39201186231152879 0.21528078116251931 0 0.39787381250745429 0.23072195151767999 0 0.39201186231152879 0.21528078116251931 0 0.41679988535517032 0.23109241089406379 0 0.39201186231152879 0.21528078116251931 0 0.40666844332328123 0.21509153628031699 0 0.41679988535517032 0.23109241089406379 0 0.39013899441145972 0.23320476864437709 0 0.39787381250745429 0.23072195151767999 0 0.39201186231152879 0.21528078116251931 0 0.39201186231152879 0.21528078116251931 0 0.41679988535517032 0.23109241089406379 0 0.39769282761244301 0.2370991709359179 0 0.39013899441145972 0.23320476864437709 0 0.39787381250745429 0.23072195151767999 0 0.39769282761244301 0.2370991709359179 0 0.39787381250745429 0.23072195151767999 0 0.40722689344057672 0.23417856896257469 0 0.40175088171535839 0.20494654738934809 0 0.39201186231152879 0.21528078116251931 0 0.39221385883716159 0.19486797194152519 0 0.40175088171535839 0.20494654738934809 0 0.39201186231152879 0.21528078116251931 0 0.40666844332328123 0.21509153628031699 0 0.40175088171535839 0.20494654738934809 0 0.40848421953816239 0.20862435961250039 0 0.40666844332328123 0.21509153628031699 0 0.39201186231152879 0.21528078116251931 0 0.37508341755997909 0.2037224782472532 0 0.39221385883716159 0.19486797194152519 0 0.37295199355019781 0.22002181866034101 0 0.39201186231152879 0.21528078116251931 0 0.37508341755997909 0.2037224782472532 0 0.37508341755997909 0.2037224782472532 0 0.37898822697909629 0.18922513969906549 0 0.39221385883716159 0.19486797194152519 0 0.40175088171535839 0.20494654738934809 0 0.40275559799437938 0.19497228853317411 0 0.41192679013554329 0.20017117121313091 0 0.40175088171535839 0.20494654738934809 0 0.39221385883716159 0.19486797194152519 0 0.40275559799437938 0.19497228853317411 0 0.40611455669724011 0.17991825014170901 0 0.39221385883716159 0.19486797194152519 0 0.40275559799437938 0.19497228853317411 0 0.40611455669724011 0.17991825014170901 0 0.40275559799437938 0.19497228853317411 0 0.41192679013554329 0.20017117121313091 0 0.40611455669724011 0.17991825014170901 0 0.41192679013554329 0.20017117121313091 0 0.41943078473862622 0.19914424984889259 0 0.40611455669724011 0.17991825014170901 0 0.42450482599386452 0.18501362632660731 0 0.41943078473862622 0.19914424984889259 0 0.40611455669724011 0.17991825014170901 0 0.41943078473862622 0.19914424984889259 0 0.42450482599386452 0.18501362632660731 0 0.41943078473862622 0.19914424984889259 0 0.42798223555389558 0.19460838116815751 0 0.42450482599386452 0.18501362632660731 0 0.42798223555389558 0.19460838116815751 0 0.43559631436458462 0.1911371539067542 0 0.42798223555389558 0.19460838116815751 0 0.43559631436458462 0.1911371539067542 0 0.43239701711850698 0.203138494590376 0 0.41943078473862622 0.19914424984889259 0 0.42798223555389558 0.19460838116815751 0 0.43239701711850698 0.203138494590376 0 0.41943078473862622 0.19914424984889259 0 0.43239701711850698 0.203138494590376 0 0.43274701278001249 0.21837024955607609 0 0.41943078473862622 0.19914424984889259 0 0.43274701278001249 0.21837024955607609 0 0.41436333774535672 0.21563179105359739 0 0.41943078473862622 0.19914424984889259 0 0.43274701278001249 0.21837024955607609 0 0.41192679013554329 0.20017117121313091 0 0.41943078473862622 0.19914424984889259 0 0.41436333774535672 0.21563179105359739 0 0.40175088171535839 0.20494654738934809 0 0.41192679013554329 0.20017117121313091 0 0.40848421953816239 0.20862435961250039 0 0.41192679013554329 0.20017117121313091 0 0.41436333774535672 0.21563179105359739 0 0.40848421953816239 0.20862435961250039 0 0.41192679013554329 0.20017117121313091 0 0.41436333774535672 0.21563179105359739 0 0.41436333774535672 0.21563179105359739 0 0.40848421953816239 0.20862435961250039 0 0.40666844332328123 0.21509153628031699 0 0.41436333774535672 0.21563179105359739 0 0.40666844332328123 0.21509153628031699 0 0.41679988535517032 0.23109241089406379 0 0.39787381250745429 0.23072195151767999 0 0.41679988535517032 0.23109241089406379 0 0.39787381250745429 0.23072195151767999 0 0.40722689344057672 0.23417856896257469 0 0.41679988535517032 0.23109241089406379 0 0.41436333774535672 0.21563179105359739 0 0.41679988535517032 0.23109241089406379 0 0.41882379690337701 0.2323834109852487 0 0.40722689344057672 0.23417856896257469 0 0.41679988535517032 0.23109241089406379 0 0.41725256435265468 0.23396479387632371 0 0.41679988535517032 0.23109241089406379 0 0.41882379690337701 0.2323834109852487 0 0.41679988535517032 0.23109241089406379 0 0.41725256435265468 0.23396479387632371 0 0.41882379690337701 0.2323834109852487 0 0.41679988535517032 0.23109241089406379 0 0.41725256435265468 0.23396479387632371 0 0.41725256435265468 0.23396479387632371 0 0.41882379690337701 0.2323834109852487 0 0.41436333774535672 0.21563179105359739 0 0.41679988535517032 0.23109241089406379 0 0.43274701278001249 0.21837024955607609 0 0.41882379690337701 0.2323834109852487 0 0.43274701278001249 0.21837024955607609 0 0.41882379690337701 0.2323834109852487 0 0.44309378176524361 0.2333089376637095 0 0.43274701278001249 0.21837024955607609 0 0.41436333774535672 0.21563179105359739 0 0.41882379690337701 0.2323834109852487 0 0.41882379690337701 0.2323834109852487 0 0.44309378176524361 0.2333089376637095 0 0.41882379690337701 0.2323834109852487 0 0.442195627131173 0.24729168846505481 0 0.41882379690337701 0.2323834109852487 0 0.442195627131173 0.24729168846505481 0 0.44309378176524361 0.2333089376637095 0 0.41882379690337701 0.2323834109852487 0 0.42703560437835469 0.24566011175496391 0 0.442195627131173 0.24729168846505481 0 0.39841345742274581 0.25292560357210431 0 0.40722689344057672 0.23417856896257469 0 0.41725256435265468 0.23396479387632371 0 0.39841345742274581 0.25292560357210431 0 0.41725256435265468 0.23396479387632371 0 0.42132370389524187 0.25979738607846348 0 0.41725256435265468 0.23396479387632371 0 0.42703560437835469 0.24566011175496391 0 0.39841345742274581 0.25292560357210431 0 0.42132370389524187 0.25979738607846348 0 0.41725256435265468 0.23396479387632371 0 0.42132370389524187 0.25979738607846348 0 0.41725256435265468 0.23396479387632371 0 0.41725256435265468 0.23396479387632371 0 0.41882379690337701 0.2323834109852487 0 0.42703560437835469 0.24566011175496391 0 0.45948224191416842 0.23424650396585511 0 0.47587070206309329 0.23518407026800059 0 0.46719891760118343 0.24306283654326999 0 0.45948224191416842 0.23424650396585511 0 0.47587070206309329 0.23518407026800059 0 0.45466448573164958 0.2412501258676939 0 0.44664371183311491 0.23843433460293739 0 0.45948224191416842 0.23424650396585511 0 0.46719891760118343 0.24306283654326999 0 0.45466448573164958 0.2412501258676939 0 0.45948224191416842 0.23424650396585511 0 0.46719891760118343 0.24306283654326999 0 0.45466448573164958 0.2412501258676939 0 0.45740662195574372 0.24845115420521979 0 0.44664371183311491 0.23843433460293739 0 0.44309378176524361 0.2333089376637095 0 0.45948224191416842 0.23424650396585511 0 0.45466448573164958 0.2412501258676939 0 0.442195627131173 0.24729168846505481 0 0.44664371183311491 0.23843433460293739 0 0.45466448573164958 0.2412501258676939 0 0.45740662195574372 0.24845115420521979 0 0.442195627131173 0.24729168846505481 0 0.442195627131173 0.24729168846505481 0 0.44664371183311491 0.23843433460293739 0 0.44309378176524361 0.2333089376637095 0 0.44664371183311491 0.23843433460293739 0 0.44309378176524361 0.2333089376637095 0 0.44309378176524361 0.2333089376637095 0 0.45948224191416842 0.23424650396585511 0 0.44309378176524361 0.2333089376637095 0 0.45948224191416842 0.23424650396585511 0 0.45229690606330941 0.21872103895059389 0 0.43274701278001249 0.21837024955607609 0 0.44309378176524361 0.2333089376637095 0 0.45229690606330941 0.21872103895059389 0 0.43274701278001249 0.21837024955607609 0 0.44309378176524361 0.2333089376637095 0 0.45948224191416842 0.23424650396585511 0 0.47080223876590688 0.21536645094553419 0 0.47587070206309329 0.23518407026800059 0 0.45948224191416842 0.23424650396585511 0 0.45229690606330941 0.21872103895059389 0 0.47080223876590688 0.21536645094553419 0 0.46573377546872119 0.1955488316230676 0 0.47080223876590688 0.21536645094553419 0 0.45975053387839038 0.2078101685685767 0 0.46573377546872119 0.1955488316230676 0 0.47080223876590688 0.21536645094553419 0 0.45975053387839038 0.2078101685685767 0 0.45229690606330941 0.21872103895059389 0 0.47080223876590688 0.21536645094553419 0 0.45975053387839038 0.2078101685685767 0 0.45229690606330941 0.21872103895059389 0 0.44752684750044902 0.20349493542829369 0 0.43274701278001249 0.21837024955607609 0 0.45229690606330941 0.21872103895059389 0 0.44752684750044902 0.20349493542829369 0 0.43274701278001249 0.21837024955607609 0 0.44752684750044902 0.20349493542829369 0 0.43239701711850698 0.203138494590376 0 0.43274701278001249 0.21837024955607609 0 0.44752684750044902 0.20349493542829369 0 0.43559631436458462 0.1911371539067542 0 0.44752684750044902 0.20349493542829369 0 0.44831666721963098 0.18377289183631321 0 0.44752684750044902 0.20349493542829369 0 0.46230668222088428 0.18861962130051041 0 0.44831666721963098 0.18377289183631321 0 0.43559631436458462 0.1911371539067542 0 0.43239701711850698 0.203138494590376 0 0.44752684750044902 0.20349493542829369 0 0.44752684750044902 0.20349493542829369 0 0.46573377546872119 0.1955488316230676 0 0.46230668222088428 0.18861962130051041 0 0.45975053387839038 0.2078101685685767 0 0.44752684750044902 0.20349493542829369 0 0.46573377546872119 0.1955488316230676 0 0.44752684750044902 0.20349493542829369 0 0.46230668222088428 0.18861962130051041 0 0.46573377546872119 0.1955488316230676 0 0.46230668222088428 0.18861962130051041 0 0.47620595005914917 0.1876177598890007 0 0.46573377546872119 0.1955488316230676 0 0.48285661837987037 0.20261620765424301 0 0.47620595005914917 0.1876177598890007 0 0.48285661837987037 0.20261620765424301 0 0.5 0.2117833778819401 0 0.5 0.18293454601562539 0 0.48285661837987037 0.20261620765424301 0 0.47620595005914917 0.1876177598890007 0 0.5 0.18293454601562539 0 0.48285661837987037 0.20261620765424301 0 0.5 0.2117833778819401 0 0.48418920782581332 0.22020470687318691 0 0.46573377546872119 0.1955488316230676 0 0.48285661837987037 0.20261620765424301 0 0.47080223876590688 0.21536645094553419 0 0.48285661837987037 0.20261620765424301 0 0.47080223876590688 0.21536645094553419 0 0.48418920782581332 0.22020470687318691 0 0.47080223876590688 0.21536645094553419 0 0.47587070206309329 0.23518407026800059 0 0.48418920782581332 0.22020470687318691 0 0.49141647992019633 0.23607342761621661 0 0.47587070206309329 0.23518407026800059 0 0.47080223876590688 0.21536645094553419 0 0.48418920782581332 0.22020470687318691 0 0.47587070206309329 0.23518407026800059 0 0.5 0.2117833778819401 0 0.49999999999999512 0.24063220974825469 0 0.49141647992019633 0.23607342761621661 0 0.5 0.2117833778819401 0 0.48418920782581332 0.22020470687318691 0 0.49141647992019633 0.23607342761621661 0 0.48040344773885341 0.25290704131874492 0 0.49999999999999512 0.24063220974825469 0 0.49141647992019633 0.23607342761621661 0 0.48040344773885341 0.25290704131874492 0 0.49999999999999512 0.24063220974825469 0 0.48040344773885341 0.25290704131874492 0 0.49141647992019633 0.23607342761621661 0 0.47587070206309329 0.23518407026800059 0 0.48040344773885341 0.25290704131874492 0 0.46719891760118343 0.24306283654326999 0 0.47587070206309329 0.23518407026800059 0 0.48040344773885341 0.25290704131874492 0 0.47587070206309329 0.23518407026800059 0 0.49141647992019633 0.23607342761621661 0 0.47587070206309329 0.23518407026800059 0 0.45637678878305921 0.14772668919780041 0 0.46609117205379602 0.16279000325817289 0 0.47854903737325177 0.14760976832937789 0 0.45637678878305921 0.14772668919780041 0 0.47854903737325177 0.14760976832937789 0 0.4700409831536122 0.1223241517249597 0 0.45637678878305921 0.14772668919780041 0 0.4700409831536122 0.1223241517249597 0 0.44951316032401278 0.1180446503327537 0 0.4329575722400606 0.13019000753010321 0 0.45637678878305921 0.14772668919780041 0 0.44951316032401278 0.1180446503327537 0 0.43749774375809991 0.15513418467149301 0 0.4329575722400606 0.13019000753010321 0 0.45637678878305921 0.14772668919780041 0 0.4364947390121337 0.17511933966989629 0 0.43749774375809991 0.15513418467149301 0 0.45466363644221208 0.16974452452877281 0 0.43749774375809991 0.15513418467149301 0 0.45637678878305921 0.14772668919780041 0 0.45466363644221208 0.16974452452877281 0 0.4364947390121337 0.17511933966989629 0 0.43559631436458462 0.1911371539067542 0 0.44831666721963098 0.18377289183631321 0 0.4364947390121337 0.17511933966989629 0 0.44831666721963098 0.18377289183631321 0 0.45466363644221208 0.16974452452877281 0 0.46230668222088428 0.18861962130051041 0 0.44831666721963098 0.18377289183631321 0 0.45716185919669727 0.18012795171835511 0 0.45716185919669727 0.18012795171835511 0 0.46377988072913728 0.1751247270621864 0 0.45466363644221208 0.16974452452877281 0 0.44831666721963098 0.18377289183631321 0 0.45716185919669727 0.18012795171835511 0 0.45466363644221208 0.16974452452877281 0 0.46230668222088428 0.18861962130051041 0 0.46377988072913728 0.1751247270621864 0 0.4770865169413197 0.17374430717272701 0 0.46230668222088428 0.18861962130051041 0 0.45716185919669727 0.18012795171835511 0 0.46377988072913728 0.1751247270621864 0 0.45637678878305921 0.14772668919780041 0 0.45466363644221208 0.16974452452877281 0 0.46609117205379602 0.16279000325817289 0 0.46377988072913728 0.1751247270621864 0 0.45466363644221208 0.16974452452877281 0 0.46609117205379602 0.16279000325817289 0 0.46609117205379602 0.16279000325817289 0 0.4770865169413197 0.17374430717272701 0 0.47854903737325177 0.14760976832937789 0 0.46377988072913728 0.1751247270621864 0 0.46609117205379602 0.16279000325817289 0 0.4770865169413197 0.17374430717272701 0 0.46230668222088428 0.18861962130051041 0 0.4770865169413197 0.17374430717272701 0 0.46230668222088428 0.18861962130051041 0 0.47620595005914917 0.1876177598890007 0 0.4770865169413197 0.17374430717272701 0 0.47620595005914917 0.1876177598890007 0 0.4770865169413197 0.17374430717272701 0 0.5 0.18293454601562539 0 0.4770865169413197 0.17374430717272701 0 0.5 0.18293454601562539 0 0.5 0.1540857141493108 0 0.4770865169413197 0.17374430717272701 0 0.5 0.1540857141493108 0 0.47854903737325177 0.14760976832937789 0 0.5 0.1540857141493108 0 0.47854903737325177 0.14760976832937789 0 0.5 0.1252368822829962 0 0.47854903737325177 0.14760976832937789 0 0.5 0.1252368822829962 0 0.4700409831536122 0.1223241517249597 0 0.5 0.1252368822829962 0 0.5 0.096388050416681526 0 0.48102523490382032 0.1042299915092174 0 0.5 0.096388050416681526 0 0.48102523490382032 0.1042299915092174 0 0.48091184459940978 0.084310429720225386 0 0.48102523490382032 0.1042299915092174 0 0.4700409831536122 0.1223241517249597 0 0.45812359377026002 0.092913252289249335 0 0.48102523490382032 0.1042299915092174 0 0.48091184459940978 0.084310429720225386 0 0.45812359377026002 0.092913252289249335 0 0.5 0.1252368822829962 0 0.48102523490382032 0.1042299915092174 0 0.4700409831536122 0.1223241517249597 0 0.5 0.067539218550366931 0 0.48091184459940978 0.084310429720225386 0 0.46623336244883939 0.060486387687283691 0 0.5 0.096388050416681526 0 0.5 0.067539218550366931 0 0.48091184459940978 0.084310429720225386 0 0.45812359377026002 0.092913252289249335 0 0.44646812591510998 0.068404269051783123 0 0.46623336244883939 0.060486387687283691 0 0.48091184459940978 0.084310429720225386 0 0.45812359377026002 0.092913252289249335 0 0.46623336244883939 0.060486387687283691 0 0.45812359377026002 0.092913252289249335 0 0.44646812591510998 0.068404269051783123 0 0.43662104068737623 0.08235852021283728 0 0.45812359377026002 0.092913252289249335 0 0.43091192286607688 0.1036730476338967 0 0.43662104068737623 0.08235852021283728 0 0.4700409831536122 0.1223241517249597 0 0.45812359377026002 0.092913252289249335 0 0.44951316032401278 0.1180446503327537 0 0.45812359377026002 0.092913252289249335 0 0.44951316032401278 0.1180446503327537 0 0.43091192286607688 0.1036730476338967 0 0.4329575722400606 0.13019000753010321 0 0.44951316032401278 0.1180446503327537 0 0.43091192286607688 0.1036730476338967 0 0.4329575722400606 0.13019000753010321 0 0.41201545592872929 0.1179112079538441 0 0.4329575722400606 0.13019000753010321 0 0.41201545592872929 0.1179112079538441 0 0.43091192286607688 0.1036730476338967 0 0.40812185154277197 0.1001134895392812 0 0.43091192286607688 0.1036730476338967 0 0.41789393940025382 0.083338324249765242 0 0.41201545592872929 0.1179112079538441 0 0.40812185154277197 0.1001134895392812 0 0.43091192286607688 0.1036730476338967 0 0.43091192286607688 0.1036730476338967 0 0.43662104068737623 0.08235852021283728 0 0.41789393940025382 0.083338324249765242 0 0.43662104068737623 0.08235852021283728 0 0.42750596304381799 0.064971260991549373 0 0.41789393940025382 0.083338324249765242 0 0.44646812591510998 0.068404269051783123 0 0.43662104068737623 0.08235852021283728 0 0.42750596304381799 0.064971260991549373 0 0.42750596304381799 0.064971260991549373 0 0.41789393940025382 0.083338324249765242 0 0.40486605683093019 0.065466100350811116 0 0.40812185154277197 0.1001134895392812 0 0.41789393940025382 0.083338324249765242 0 0.39148104283891338 0.08318149219325166 0 0.41789393940025382 0.083338324249765242 0 0.39148104283891338 0.08318149219325166 0 0.40486605683093019 0.065466100350811116 0 0.39148104283891338 0.08318149219325166 0 0.40486605683093019 0.065466100350811116 0 0.37957571760244913 0.062224180256092262 0 0.36851912298758599 0.07592937731354811 0 0.39148104283891338 0.08318149219325166 0 0.37957571760244913 0.062224180256092262 0 0.37013122330606679 0.093353608801325955 0 0.36851912298758599 0.07592937731354811 0 0.39148104283891338 0.08318149219325166 0 0.37013122330606679 0.093353608801325955 0 0.37671153772720778 0.1110828360015797 0 0.3910733396173981 0.105632408377585 0 0.37013122330606679 0.093353608801325955 0 0.3910733396173981 0.105632408377585 0 0.37013122330606679 0.093353608801325955 0 0.39148104283891338 0.08318149219325166 0 0.3910733396173981 0.105632408377585 0 0.3737183066341207 0.1227588990857422 0 0.37671153772720778 0.1110828360015797 0 0.39046002760464332 0.12358602896092941 0 0.37671153772720778 0.1110828360015797 0 0.39046002760464332 0.12358602896092941 0 0.3910733396173981 0.105632408377585 0 0.41201545592872929 0.1179112079538441 0 0.39046002760464332 0.12358602896092941 0 0.3910733396173981 0.105632408377585 0 0.41201545592872929 0.1179112079538441 0 0.3910733396173981 0.105632408377585 0 0.41201545592872929 0.1179112079538441 0 0.40812185154277197 0.1001134895392812 0 0.3910733396173981 0.105632408377585 0 0.40812185154277197 0.1001134895392812 0 0.39148104283891338 0.08318149219325166 0 0.3910733396173981 0.105632408377585 0 0.40222387322964398 0.026702498304171731 0 0.39052595386040329 0.01076126707249991 0 0.38039522095105421 0.02661564160026297 0 0.39052595386040329 0.01076126707249991 0 0.41557872748318991 0.00078904871643307051 0 0.38926055774356211 -0.0093784589387459968 0 0.40222387322964398 0.026702498304171731 0 0.39052595386040329 0.01076126707249991 0 0.41557872748318991 0.00078904871643307051 0 0.39052595386040329 0.01076126707249991 0 0.41557872748318991 0.00078904871643307051 0 0.3736528700689532 0.0082629936107709301 0 0.39052595386040329 0.01076126707249991 0 0.38039522095105421 0.02661564160026297 0 0.3736528700689532 0.0082629936107709301 0 0.39052595386040329 0.01076126707249991 0 0.38926055774356211 -0.0093784589387459968 0 0.36714431184593332 0.04195940538457317 0 0.38039522095105421 0.02661564160026297 0 0.39225735121222471 0.047295185309543998 0 0.36714431184593332 0.04195940538457317 0 0.37957571760244913 0.062224180256092262 0 0.39225735121222471 0.047295185309543998 0 0.40486605683093019 0.065466100350811116 0 0.39225735121222471 0.047295185309543998 0 0.41416973922773681 0.046589465772859093 0 0.40486605683093019 0.065466100350811116 0 0.37957571760244913 0.062224180256092262 0 0.39225735121222471 0.047295185309543998 0 0.40222387322964398 0.026702498304171731 0 0.38039522095105421 0.02661564160026297 0 0.39225735121222471 0.047295185309543998 0 0.40222387322964398 0.026702498304171731 0 0.39225735121222471 0.047295185309543998 0 0.41416973922773681 0.046589465772859093 0 0.40222387322964398 0.026702498304171731 0 0.41416973922773681 0.046589465772859093 0 0.42163368116895777 0.026285568535191348 0 0.42750596304381799 0.064971260991549373 0 0.40486605683093019 0.065466100350811116 0 0.41416973922773681 0.046589465772859093 0 0.42750596304381799 0.064971260991549373 0 0.41416973922773681 0.046589465772859093 0 0.43945335274253178 0.044307030382110951 0 0.41416973922773681 0.046589465772859093 0 0.42163368116895777 0.026285568535191348 0 0.43945335274253178 0.044307030382110951 0 0.42163368116895777 0.026285568535191348 0 0.43874556639473999 0.01506861162550188 0 0.43945335274253178 0.044307030382110951 0 0.40222387322964398 0.026702498304171731 0 0.42163368116895777 0.026285568535191348 0 0.41557872748318991 0.00078904871643307051 0 0.42163368116895777 0.026285568535191348 0 0.41557872748318991 0.00078904871643307051 0 0.43874556639473999 0.01506861162550188 0 0.41557872748318991 0.00078904871643307051 0 0.43874556639473999 0.01506861162550188 0 0.44063150110597638 -0.0091831696396336895 0 0.43874556639473999 0.01506861162550188 0 0.45532156158827242 0.0042154923704404053 0 0.44063150110597638 -0.0091831696396336895 0 0.43874556639473999 0.01506861162550188 0 0.46043280708286122 0.027972389344425669 0 0.45532156158827242 0.0042154923704404053 0 0.43874556639473999 0.01506861162550188 0 0.46043280708286122 0.027972389344425669 0 0.43945335274253178 0.044307030382110951 0 0.46043280708286122 0.027972389344425669 0 0.45532156158827242 0.0042154923704404053 0 0.47516801302407652 0.0054902572769904411 0 0.46043280708286122 0.027972389344425669 0 0.43945335274253178 0.044307030382110951 0 0.46623336244883939 0.060486387687283691 0 0.44646812591510998 0.068404269051783123 0 0.42750596304381799 0.064971260991549373 0 0.43945335274253178 0.044307030382110951 0 0.44646812591510998 0.068404269051783123 0 0.43945335274253178 0.044307030382110951 0 0.46623336244883939 0.060486387687283691 0 0.5 0.067539218550366931 0 0.46623336244883939 0.060486387687283691 0 0.47993403858572609 0.042841654514256713 0 0.46043280708286122 0.027972389344425669 0 0.46623336244883939 0.060486387687283691 0 0.47993403858572609 0.042841654514256713 0 0.46043280708286122 0.027972389344425669 0 0.47993403858572609 0.042841654514256713 0 0.48411718826230621 0.023803928854194849 0 0.47993403858572609 0.042841654514256713 0 0.5 0.038690386684052343 0 0.48411718826230621 0.023803928854194849 0 0.5 0.067539218550366931 0 0.47993403858572609 0.042841654514256713 0 0.5 0.038690386684052343 0 0.46043280708286122 0.027972389344425669 0 0.47516801302407652 0.0054902572769904411 0 0.48411718826230621 0.023803928854194849 0 0.5 0.038690386684052343 0 0.48411718826230621 0.023803928854194849 0 0.5 0.009841554817737741 0 0.47516801302407652 0.0054902572769904411 0 0.48411718826230621 0.023803928854194849 0 0.5 0.009841554817737741 0 0.47516801302407652 0.0054902572769904411 0 0.5 -0.019007277048576961 0 0.46568427472876289 -0.01915538799570049 0 0.5 -0.019007277048576961 0 0.4799573578342371 -0.035416906633687198 0 0.46568427472876289 -0.01915538799570049 0 0.47516801302407652 0.0054902572769904411 0 0.5 0.009841554817737741 0 0.5 -0.019007277048576961 0 0.5 -0.04785610891489156 0 0.47367267976295813 -0.051246632127565313 0 0.4799573578342371 -0.035416906633687198 0 0.5 -0.019007277048576961 0 0.5 -0.04785610891489156 0 0.4799573578342371 -0.035416906633687198 0 0.5 -0.04785610891489156 0 0.47367267976295813 -0.051246632127565313 0 0.4805357143958755 -0.068971283131434399 0 0.47367267976295813 -0.051246632127565313 0 0.4805357143958755 -0.068971283131434399 0 0.4646750906632468 -0.064660127899228412 0 0.47367267976295813 -0.051246632127565313 0 0.4799573578342371 -0.035416906633687198 0 0.46042983467946458 -0.039819127081701738 0 0.4799573578342371 -0.035416906633687198 0 0.46042983467946458 -0.039819127081701738 0 0.46568427472876289 -0.01915538799570049 0 0.47367267976295813 -0.051246632127565313 0 0.46042983467946458 -0.039819127081701738 0 0.45400428838677132 -0.056732304581660002 0 0.47367267976295813 -0.051246632127565313 0 0.45400428838677132 -0.056732304581660002 0 0.4646750906632468 -0.064660127899228412 0 0.46042983467946458 -0.039819127081701738 0 0.45400428838677132 -0.056732304581660002 0 0.43900005470672598 -0.047879235496026913 0 0.45400428838677132 -0.056732304581660002 0 0.44023367345750919 -0.061345049763665831 0 0.44611632519280697 -0.069049099678639383 0 0.45400428838677132 -0.056732304581660002 0 0.43900005470672598 -0.047879235496026913 0 0.44023367345750919 -0.061345049763665831 0 0.46042983467946458 -0.039819127081701738 0 0.43900005470672598 -0.047879235496026913 0 0.44224034609130231 -0.029508267402632241 0 0.44224034609130231 -0.029508267402632241 0 0.44063150110597638 -0.0091831696396336895 0 0.46568427472876289 -0.01915538799570049 0 0.45532156158827242 0.0042154923704404053 0 0.47516801302407652 0.0054902572769904411 0 0.46568427472876289 -0.01915538799570049 0 0.45532156158827242 0.0042154923704404053 0 0.44063150110597638 -0.0091831696396336895 0 0.46568427472876289 -0.01915538799570049 0 0.44063150110597638 -0.0091831696396336895 0 0.46568427472876289 -0.01915538799570049 0 0.46042983467946458 -0.039819127081701738 0 0.44224034609130231 -0.029508267402632241 0 0.46568427472876289 -0.01915538799570049 0 0.46884866961315769 -0.1161637394171751 0 0.48491328751672158 -0.1110502766030996 0 0.48423750386373432 -0.12946991262086649 0 0.49999999999999989 -0.1195422043820585 0 0.48491328751672158 -0.1110502766030996 0 0.48423750386373432 -0.12946991262086649 0 0.49999999999999989 -0.1195422043820585 0 0.48491328751672158 -0.1110502766030996 0 0.5 -0.1055537726475209 0 0.48491328751672158 -0.1110502766030996 0 0.5 -0.1055537726475209 0 0.48620368478129888 -0.095427700484672612 0 0.48620368478129888 -0.095427700484672612 0 0.4705413158859314 -0.10014433006630399 0 0.47704993482171099 -0.091751348054048609 0 0.48491328751672158 -0.1110502766030996 0 0.48620368478129888 -0.095427700484672612 0 0.4705413158859314 -0.10014433006630399 0 0.46884866961315769 -0.1161637394171751 0 0.48491328751672158 -0.1110502766030996 0 0.4705413158859314 -0.10014433006630399 0 0.4705413158859314 -0.10014433006630399 0 0.47704993482171099 -0.091751348054048609 0 0.46825892939433827 -0.091687208755492744 0 0.47311891823174401 -0.084397535689683084 0 0.47704993482171099 -0.091751348054048609 0 0.46825892939433827 -0.091687208755492744 0 0.47311891823174401 -0.084397535689683084 0 0.47704993482171099 -0.091751348054048609 0 0.4868111947580735 -0.081430905819987021 0 0.47311891823174401 -0.084397535689683084 0 0.4868111947580735 -0.081430905819987021 0 0.4805357143958755 -0.068971283131434399 0 0.48620368478129888 -0.095427700484672612 0 0.47704993482171099 -0.091751348054048609 0 0.4868111947580735 -0.081430905819987021 0 0.5 -0.1055537726475209 0 0.48620368478129888 -0.095427700484672612 0 0.5 -0.07670494078120621 0 0.48620368478129888 -0.095427700484672612 0 0.4868111947580735 -0.081430905819987021 0 0.5 -0.07670494078120621 0 0.4868111947580735 -0.081430905819987021 0 0.5 -0.07670494078120621 0 0.4805357143958755 -0.068971283131434399 0 0.5 -0.04785610891489156 0 0.5 -0.07670494078120621 0 0.4805357143958755 -0.068971283131434399 0 0.4805357143958755 -0.068971283131434399 0 0.4646750906632468 -0.064660127899228412 0 0.46393726486078912 -0.075612641709820155 0 0.47311891823174401 -0.084397535689683084 0 0.4805357143958755 -0.068971283131434399 0 0.46393726486078912 -0.075612641709820155 0 0.4646750906632468 -0.064660127899228412 0 0.46393726486078912 -0.075612641709820155 0 0.45543559003998269 -0.070373105037676312 0 0.46393726486078912 -0.075612641709820155 0 0.45543559003998269 -0.070373105037676312 0 0.45615758502716203 -0.079546974458337513 0 0.45543559003998269 -0.070373105037676312 0 0.44976903337545687 -0.075906715394159927 0 0.45615758502716203 -0.079546974458337513 0 0.45400428838677132 -0.056732304581660002 0 0.4646750906632468 -0.064660127899228412 0 0.45543559003998269 -0.070373105037676312 0 0.45400428838677132 -0.056732304581660002 0 0.45543559003998269 -0.070373105037676312 0 0.44611632519280697 -0.069049099678639383 0 0.44023367345750919 -0.061345049763665831 0 0.44611632519280697 -0.069049099678639383 0 0.43645546060976448 -0.070828578201975786 0 0.44611632519280697 -0.069049099678639383 0 0.44273898886027813 -0.078071401337796859 0 0.43645546060976448 -0.070828578201975786 0 0.44611632519280697 -0.069049099678639383 0 0.44273898886027813 -0.078071401337796859 0 0.44976903337545687 -0.075906715394159927 0 0.45543559003998269 -0.070373105037676312 0 0.44611632519280697 -0.069049099678639383 0 0.44976903337545687 -0.075906715394159927 0 0.45183618897692801 -0.085320402892194558 0 0.44851040966706568 -0.082432147889767202 0 0.43500129839306861 -0.092958338634198029 0 0.44976903337545687 -0.075906715394159927 0 0.44851040966706568 -0.082432147889767202 0 0.45615758502716203 -0.079546974458337513 0 0.45183618897692801 -0.085320402892194558 0 0.45997309117242019 -0.087349945506293797 0 0.43500129839306861 -0.092958338634198029 0 0.45997309117242019 -0.087349945506293797 0 0.43500129839306861 -0.092958338634198029 0 0.45183618897692801 -0.085320402892194558 0 0.44851040966706568 -0.082432147889767202 0 0.45615758502716203 -0.079546974458337513 0 0.44273898886027813 -0.078071401337796859 0 0.44976903337545687 -0.075906715394159927 0 0.44851040966706568 -0.082432147889767202 0 0.44273898886027813 -0.078071401337796859 0 0.44851040966706568 -0.082432147889767202 0 0.43500129839306861 -0.092958338634198029 0 0.45183618897692801 -0.085320402892194558 0 0.45997309117242019 -0.087349945506293797 0 0.45831190066080651 -0.083993964138667221 0 0.45183618897692801 -0.085320402892194558 0 0.45615758502716203 -0.079546974458337513 0 0.45831190066080651 -0.083993964138667221 0 0.46393726486078912 -0.075612641709820155 0 0.45615758502716203 -0.079546974458337513 0 0.4612635037051131 -0.081344579914747528 0 0.45615758502716203 -0.079546974458337513 0 0.45831190066080651 -0.083993964138667221 0 0.4612635037051131 -0.081344579914747528 0 0.45997309117242019 -0.087349945506293797 0 0.45831190066080651 -0.083993964138667221 0 0.4612635037051131 -0.081344579914747528 0 0.47311891823174401 -0.084397535689683084 0 0.45997309117242019 -0.087349945506293797 0 0.47311891823174401 -0.084397535689683084 0 0.46393726486078912 -0.075612641709820155 0 0.4612635037051131 -0.081344579914747528 0 0.47311891823174401 -0.084397535689683084 0 0.45997309117242019 -0.087349945506293797 0 0.4612635037051131 -0.081344579914747528 0 0.47311891823174401 -0.084397535689683084 0 0.45997309117242019 -0.087349945506293797 0 0.46825892939433827 -0.091687208755492744 0 0.45997309117242019 -0.087349945506293797 0 0.46825892939433827 -0.091687208755492744 0 0.46329127638336182 -0.094487196429642303 0 0.46884866961315769 -0.1161637394171751 0 0.45733037605047888 -0.099495008684403211 0 0.44738370579366432 -0.1069482129361468 0 0.45997309117242019 -0.087349945506293797 0 0.45733037605047888 -0.099495008684403211 0 0.44738370579366432 -0.1069482129361468 0 0.45997309117242019 -0.087349945506293797 0 0.44738370579366432 -0.1069482129361468 0 0.46884866961315769 -0.1161637394171751 0 0.4705413158859314 -0.10014433006630399 0 0.45733037605047888 -0.099495008684403211 0 0.4705413158859314 -0.10014433006630399 0 0.46825892939433827 -0.091687208755492744 0 0.46329127638336182 -0.094487196429642303 0 0.4705413158859314 -0.10014433006630399 0 0.46329127638336182 -0.094487196429642303 0 0.45733037605047888 -0.099495008684403211 0 0.45997309117242019 -0.087349945506293797 0 0.46329127638336182 -0.094487196429642303 0 0.45733037605047888 -0.099495008684403211 0 0.45997309117242019 -0.087349945506293797 0 0.44738370579366432 -0.1069482129361468 0 0.43500129839306861 -0.092958338634198029 0 0.44738370579366432 -0.1069482129361468 0 0.45121129326441939 -0.1227321202735536 0 0.43479432041490851 -0.126546480366 0 0.44738370579366432 -0.1069482129361468 0 0.43479432041490851 -0.126546480366 0 0.46884866961315769 -0.1161637394171751 0 0.44738370579366432 -0.1069482129361468 0 0.45121129326441939 -0.1227321202735536 0 0.42709025168770542 -0.1102534284144062 0 0.41002950561371648 -0.098566731762100568 0 0.4111337927182464 -0.12736345745607119 0 0.41002950561371648 -0.098566731762100568 0 0.4111337927182464 -0.12736345745607119 0 0.44738370579366432 -0.1069482129361468 0 0.42709025168770542 -0.1102534284144062 0 0.43479432041490851 -0.126546480366 0 0.42709025168770542 -0.1102534284144062 0 0.43479432041490851 -0.126546480366 0 0.4111337927182464 -0.12736345745607119 0 0.44738370579366432 -0.1069482129361468 0 0.42709025168770542 -0.1102534284144062 0 0.43500129839306861 -0.092958338634198029 0 0.42709025168770542 -0.1102534284144062 0 0.41002950561371648 -0.098566731762100568 0 0.43500129839306861 -0.092958338634198029 0 0.41002950561371648 -0.098566731762100568 0 0.43500129839306861 -0.092958338634198029 0 0.41002950561371648 -0.098566731762100568 0 0.42034634304916962 -0.087043019575958655 0 0.4092000761962335 -0.076937527436724565 0 0.41002950561371648 -0.098566731762100568 0 0.42034634304916962 -0.087043019575958655 0 0.43500129839306861 -0.092958338634198029 0 0.41002950561371648 -0.098566731762100568 0 0.4092000761962335 -0.076937527436724565 0 0.42034634304916962 -0.087043019575958655 0 0.42975729065851709 -0.079133541085269349 0 0.4092000761962335 -0.076937527436724565 0 0.42034634304916962 -0.087043019575958655 0 0.43500129839306861 -0.092958338634198029 0 0.42975729065851709 -0.079133541085269349 0 0.44273898886027813 -0.078071401337796859 0 0.43500129839306861 -0.092958338634198029 0 0.42975729065851709 -0.079133541085269349 0 0.44273898886027813 -0.078071401337796859 0 0.42975729065851709 -0.079133541085269349 0 0.43645546060976448 -0.070828578201975786 0 0.42975729065851709 -0.079133541085269349 0 0.43645546060976448 -0.070828578201975786 0 0.42641494602472618 -0.064656293155232053 0 0.44023367345750919 -0.061345049763665831 0 0.43645546060976448 -0.070828578201975786 0 0.42641494602472618 -0.064656293155232053 0 0.42975729065851709 -0.079133541085269349 0 0.42641494602472618 -0.064656293155232053 0 0.4092000761962335 -0.076937527436724565 0 0.42641494602472618 -0.064656293155232053 0 0.4092000761962335 -0.076937527436724565 0 0.4047453804342383 -0.062553586378123638 0 0.4047453804342383 -0.062553586378123638 0 0.3970632931651506 -0.076015137242342962 0 0.38666416644501239 -0.066591953361927053 0 0.4092000761962335 -0.076937527436724565 0 0.4047453804342383 -0.062553586378123638 0 0.3970632931651506 -0.076015137242342962 0 0.3970632931651506 -0.076015137242342962 0 0.38666416644501239 -0.066591953361927053 0 0.38540136519319163 -0.08603001002579834 0 0.38666416644501239 -0.066591953361927053 0 0.38540136519319163 -0.08603001002579834 0 0.37140926728998441 -0.07862546815922325 0 0.38666416644501239 -0.066591953361927053 0 0.37967327637048248 -0.056421610965578378 0 0.37345174830596473 -0.065526222630154562 0 0.38666416644501239 -0.066591953361927053 0 0.37345174830596473 -0.065526222630154562 0 0.37140926728998441 -0.07862546815922325 0 0.38540136519319163 -0.08603001002579834 0 0.37140926728998441 -0.07862546815922325 0 0.36910940361380867 -0.096512415264035131 0 0.38540136519319163 -0.08603001002579834 0 0.39930547755707752 -0.087962609009141199 0 0.39734900219049468 -0.1014146349497327 0 0.41002950561371648 -0.098566731762100568 0 0.4092000761962335 -0.076937527436724565 0 0.39930547755707752 -0.087962609009141199 0 0.3970632931651506 -0.076015137242342962 0 0.38540136519319163 -0.08603001002579834 0 0.39930547755707752 -0.087962609009141199 0 0.4092000761962335 -0.076937527436724565 0 0.3970632931651506 -0.076015137242342962 0 0.39930547755707752 -0.087962609009141199 0 0.41002950561371648 -0.098566731762100568 0 0.39734900219049468 -0.1014146349497327 0 0.39642913999521012 -0.1178821333858929 0 0.41002950561371648 -0.098566731762100568 0 0.39734900219049468 -0.1014146349497327 0 0.41002950561371648 -0.098566731762100568 0 0.39930547755707752 -0.087962609009141199 0 0.39734900219049468 -0.1014146349497327 0 0.38287513032332432 -0.10032342928152201 0 0.37961446933266269 -0.1141634685789292 0 0.36910940361380867 -0.096512415264035131 0 0.38540136519319163 -0.08603001002579834 0 0.38287513032332432 -0.10032342928152201 0 0.36910940361380867 -0.096512415264035131 0 0.38540136519319163 -0.08603001002579834 0 0.39734900219049468 -0.1014146349497327 0 0.38287513032332432 -0.10032342928152201 0 0.38287513032332432 -0.10032342928152201 0 0.38950562174299702 -0.1089129787744732 0 0.37961446933266269 -0.1141634685789292 0 0.39734900219049468 -0.1014146349497327 0 0.38287513032332432 -0.10032342928152201 0 0.38950562174299702 -0.1089129787744732 0 0.38950562174299702 -0.1089129787744732 0 0.37961446933266269 -0.1141634685789292 0 0.39642913999521012 -0.1178821333858929 0 0.37961446933266269 -0.1141634685789292 0 0.36717637813648041 -0.13031094074813701 0 0.38090246017173152 -0.12780341436452999 0 0.37961446933266269 -0.1141634685789292 0 0.39642913999521012 -0.1178821333858929 0 0.38090246017173152 -0.12780341436452999 0 0.39734900219049468 -0.1014146349497327 0 0.38950562174299702 -0.1089129787744732 0 0.39642913999521012 -0.1178821333858929 0 0.41002950561371648 -0.098566731762100568 0 0.39642913999521012 -0.1178821333858929 0 0.4111337927182464 -0.12736345745607119 0 0.41952626682644989 -0.024362819656693051 0 0.39757265082988669 -0.0343766748324313 0 0.40548455072077222 -0.01683222617785932 0 0.41952626682644989 -0.024362819656693051 0 0.39757265082988669 -0.0343766748324313 0 0.41557872748318991 0.00078904871643307051 0 0.41952626682644989 -0.024362819656693051 0 0.40548455072077222 -0.01683222617785932 0 0.41557872748318991 0.00078904871643307051 0 0.44063150110597638 -0.0091831696396336895 0 0.41557872748318991 0.00078904871643307051 0 0.44063150110597638 -0.0091831696396336895 0 0.41952626682644989 -0.024362819656693051 0 0.44224034609130231 -0.029508267402632241 0 0.44063150110597638 -0.0091831696396336895 0 0.41952626682644989 -0.024362819656693051 0 0.44224034609130231 -0.029508267402632241 0 0.41952626682644989 -0.024362819656693051 0 0.42858669678539418 -0.036763170019305069 0 0.43900005470672598 -0.047879235496026913 0 0.42858669678539418 -0.036763170019305069 0 0.41648598825698191 -0.046092776503381942 0 0.43900005470672598 -0.047879235496026913 0 0.44224034609130231 -0.029508267402632241 0 0.42858669678539418 -0.036763170019305069 0 0.43900005470672598 -0.047879235496026913 0 0.44023367345750919 -0.061345049763665831 0 0.42641494602472618 -0.064656293155232053 0 0.43900005470672598 -0.047879235496026913 0 0.42641494602472618 -0.064656293155232053 0 0.41648598825698191 -0.046092776503381942 0 0.42641494602472618 -0.064656293155232053 0 0.4047453804342383 -0.062553586378123638 0 0.41648598825698191 -0.046092776503381942 0 0.41952626682644989 -0.024362819656693051 0 0.41648598825698191 -0.046092776503381942 0 0.39757265082988669 -0.0343766748324313 0 0.41952626682644989 -0.024362819656693051 0 0.42858669678539418 -0.036763170019305069 0 0.41648598825698191 -0.046092776503381942 0 0.41648598825698191 -0.046092776503381942 0 0.39757265082988669 -0.0343766748324313 0 0.39213026681996299 -0.050546125134221423 0 0.4047453804342383 -0.062553586378123638 0 0.41648598825698191 -0.046092776503381942 0 0.39213026681996299 -0.050546125134221423 0 0.4047453804342383 -0.062553586378123638 0 0.38666416644501239 -0.066591953361927053 0 0.39213026681996299 -0.050546125134221423 0 0.39213026681996299 -0.050546125134221423 0 0.37967327637048248 -0.056421610965578378 0 0.37561903483332348 -0.044390530008169587 0 0.38666416644501239 -0.066591953361927053 0 0.39213026681996299 -0.050546125134221423 0 0.37967327637048248 -0.056421610965578378 0 0.39757265082988669 -0.0343766748324313 0 0.37561903483332348 -0.044390530008169587 0 0.39757265082988669 -0.0343766748324313 0 0.39213026681996299 -0.050546125134221423 0 0.37561903483332348 -0.044390530008169587 0 0.39757265082988669 -0.0343766748324313 0 0.37561903483332348 -0.044390530008169587 0 0.3711119797101935 -0.031305905264858228 0 0.38926055774356211 -0.0093784589387459968 0 0.3711119797101935 -0.031305905264858228 0 0.38926055774356211 -0.0093784589387459968 0 0.37079056890512663 -0.017828038841448221 0 0.3711119797101935 -0.031305905264858228 0 0.39757265082988669 -0.0343766748324313 0 0.38926055774356211 -0.0093784589387459968 0 0.3711119797101935 -0.031305905264858228 0 0.39757265082988669 -0.0343766748324313 0 0.40548455072077222 -0.01683222617785932 0 0.38926055774356211 -0.0093784589387459968 0 0.41557872748318991 0.00078904871643307051 0 0.40548455072077222 -0.01683222617785932 0 0.38926055774356211 -0.0093784589387459968 0 0.3736528700689532 0.0082629936107709301 0 0.38926055774356211 -0.0093784589387459968 0 0.36507280813171161 -0.0078333009997206566 0 0.38926055774356211 -0.0093784589387459968 0 0.36507280813171161 -0.0078333009997206566 0 0.37079056890512663 -0.017828038841448221 0 0.36507280813171161 -0.0078333009997206566 0 0.37079056890512663 -0.017828038841448221 0 0.35771693003503929 -0.022794490162467991 0 0.37079056890512663 -0.017828038841448221 0 0.35771693003503929 -0.022794490162467991 0 0.3711119797101935 -0.031305905264858228 0 0.35771693003503929 -0.022794490162467991 0 0.35602586147669069 -0.035652615264667009 0 0.3711119797101935 -0.031305905264858228 0 0.36507280813171161 -0.0078333009997206566 0 0.34666010151661258 -0.016522427343668451 0 0.35771693003503929 -0.022794490162467991 0 0.34666010151661258 -0.016522427343668451 0 0.35771693003503929 -0.022794490162467991 0 0.34250216985450238 -0.035782989140302382 0 0.36507280813171161 -0.0078333009997206566 0 0.34666010151661258 -0.016522427343668451 0 0.34144549009991421 -0.0024310249084412219 0 0.35584829481317498 0.0068725965357478627 0 0.36507280813171161 -0.0078333009997206566 0 0.34144549009991421 -0.0024310249084412219 0 0.32096687577749938 0.00013999713015544479 0 0.34144549009991421 -0.0024310249084412219 0 0.3320409380321776 -0.018332626689633029 0 0.34666010151661258 -0.016522427343668451 0 0.34144549009991421 -0.0024310249084412219 0 0.3320409380321776 -0.018332626689633029 0 0.34144549009991421 -0.0024310249084412219 0 0.3320409380321776 -0.018332626689633029 0 0.3320409380321776 -0.018332626689633029 0 0.34250216985450238 -0.035782989140302382 0 0.3320409380321776 -0.018332626689633029 0 0.32147675091537509 -0.036194986902374222 0 0.34250216985450238 -0.035782989140302382 0 0.34666010151661258 -0.016522427343668451 0 0.3320409380321776 -0.018332626689633029 0 0.34250216985450238 -0.035782989140302382 0 0.3320409380321776 -0.018332626689633029 0 0.31769812144106352 -0.01437525172873471 0 0.32147675091537509 -0.036194986902374222 0 0.31769812144106352 -0.01437525172873471 0 0.32147675091537509 -0.036194986902374222 0 0.30365411937224379 -0.020096799022633619 0 0.3320409380321776 -0.018332626689633029 0 0.32147675091537509 -0.036194986902374222 0 0.32096687577749938 0.00013999713015544479 0 0.31769812144106352 -0.01437525172873471 0 0.30397987236055207 -0.0012468907866667431 0 0.32096687577749938 0.00013999713015544479 0 0.3320409380321776 -0.018332626689633029 0 0.32096687577749938 0.00013999713015544479 0 0.3320409380321776 -0.018332626689633029 0 0.31769812144106352 -0.01437525172873471 0 0.33429384860927042 -0.050249699083505753 0 0.32692763349415588 -0.066600476715377319 0 0.31091256379857268 -0.05405734711511536 0 0.32147675091537509 -0.036194986902374222 0 0.33429384860927042 -0.050249699083505753 0 0.31091256379857268 -0.05405734711511536 0 0.32147675091537509 -0.036194986902374222 0 0.31091256379857268 -0.05405734711511536 0 0.34250216985450238 -0.035782989140302382 0 0.33429384860927042 -0.050249699083505753 0 0.35366541883675873 -0.054404385183904592 0 0.32147675091537509 -0.036194986902374222 0 0.34250216985450238 -0.035782989140302382 0 0.33429384860927042 -0.050249699083505753 0 0.35098057191618881 -0.055629043036892832 0 0.32692763349415588 -0.066600476715377319 0 0.33429384860927042 -0.050249699083505753 0 0.35098057191618881 -0.055629043036892832 0 0.32692763349415588 -0.066600476715377319 0 0.33429384860927042 -0.050249699083505753 0 0.35098057191618881 -0.055629043036892832 0 0.35366541883675873 -0.054404385183904592 0 0.35098057191618881 -0.055629043036892832 0 0.35366541883675873 -0.054404385183904592 0 0.36191724113359408 -0.068169235481073676 0 0.35366541883675873 -0.054404385183904592 0 0.36191724113359408 -0.068169235481073676 0 0.35098057191618881 -0.055629043036892832 0 0.35366541883675873 -0.054404385183904592 0 0.34250216985450238 -0.035782989140302382 0 0.35366541883675873 -0.054404385183904592 0 0.35602586147669069 -0.035652615264667009 0 0.34250216985450238 -0.035782989140302382 0 0.35366541883675873 -0.054404385183904592 0 0.35771693003503929 -0.022794490162467991 0 0.34250216985450238 -0.035782989140302382 0 0.35602586147669069 -0.035652615264667009 0 0.35366541883675873 -0.054404385183904592 0 0.35602586147669069 -0.035652615264667009 0 0.3711119797101935 -0.031305905264858228 0 0.35366541883675873 -0.054404385183904592 0 0.3711119797101935 -0.031305905264858228 0 0.37561903483332348 -0.044390530008169587 0 0.35366541883675873 -0.054404385183904592 0 0.3711119797101935 -0.031305905264858228 0 0.37561903483332348 -0.044390530008169587 0 0.35366541883675873 -0.054404385183904592 0 0.36885652184741108 -0.057724742344901769 0 0.37561903483332348 -0.044390530008169587 0 0.35366541883675873 -0.054404385183904592 0 0.35366541883675873 -0.054404385183904592 0 0.36885652184741108 -0.057724742344901769 0 0.36191724113359408 -0.068169235481073676 0 0.37967327637048248 -0.056421610965578378 0 0.37561903483332348 -0.044390530008169587 0 0.36885652184741108 -0.057724742344901769 0 0.37967327637048248 -0.056421610965578378 0 0.36885652184741108 -0.057724742344901769 0 0.37345174830596473 -0.065526222630154562 0 0.36885652184741108 -0.057724742344901769 0 0.37345174830596473 -0.065526222630154562 0 0.36191724113359408 -0.068169235481073676 0 0.36191724113359408 -0.068169235481073676 0 0.37140926728998441 -0.07862546815922325 0 0.3537175356537885 -0.083435496599620809 0 0.37345174830596473 -0.065526222630154562 0 0.36191724113359408 -0.068169235481073676 0 0.37140926728998441 -0.07862546815922325 0 0.37140926728998441 -0.07862546815922325 0 0.3537175356537885 -0.083435496599620809 0 0.36910940361380867 -0.096512415264035131 0 0.35098057191618881 -0.055629043036892832 0 0.3537175356537885 -0.083435496599620809 0 0.33217782229453008 -0.078346871527596659 0 0.35098057191618881 -0.055629043036892832 0 0.36191724113359408 -0.068169235481073676 0 0.3537175356537885 -0.083435496599620809 0 0.37961446933266269 -0.1141634685789292 0 0.36407753728773068 -0.1119814146980614 0 0.36717637813648041 -0.13031094074813701 0 0.36407753728773068 -0.1119814146980614 0 0.34840637794023938 -0.1168115746038275 0 0.36717637813648041 -0.13031094074813701 0 0.37961446933266269 -0.1141634685789292 0 0.36407753728773068 -0.1119814146980614 0 0.36910940361380867 -0.096512415264035131 0 0.36407753728773068 -0.1119814146980614 0 0.36910940361380867 -0.096512415264035131 0 0.35438155398997689 -0.1015279634750634 0 0.3537175356537885 -0.083435496599620809 0 0.35438155398997689 -0.1015279634750634 0 0.33671424871030031 -0.1040281340010273 0 0.3537175356537885 -0.083435496599620809 0 0.36910940361380867 -0.096512415264035131 0 0.35438155398997689 -0.1015279634750634 0 0.35438155398997689 -0.1015279634750634 0 0.34840637794023938 -0.1168115746038275 0 0.33671424871030031 -0.1040281340010273 0 0.36407753728773068 -0.1119814146980614 0 0.35438155398997689 -0.1015279634750634 0 0.34840637794023938 -0.1168115746038275 0 0.33624744857125571 -0.12359802235197161 0 0.33671424871030031 -0.1040281340010273 0 0.32192523835141179 -0.12019422575326499 0 0.34840637794023938 -0.1168115746038275 0 0.33624744857125571 -0.12359802235197161 0 0.33671424871030031 -0.1040281340010273 0 0.33671424871030031 -0.1040281340010273 0 0.31337507267287068 -0.1010647000183001 0 0.32192523835141179 -0.12019422575326499 0 0.33671424871030031 -0.1040281340010273 0 0.31337507267287068 -0.1010647000183001 0 0.33217782229453008 -0.078346871527596659 0 0.32192523835141179 -0.12019422575326499 0 0.3114990928887208 -0.1151587506998855 0 0.30564212953838921 -0.12602733342769809 0 0.31337507267287068 -0.1010647000183001 0 0.32192523835141179 -0.12019422575326499 0 0.3114990928887208 -0.1151587506998855 0 0.31337507267287068 -0.1010647000183001 0 0.32192523835141179 -0.12019422575326499 0 0.35098057191618881 -0.055629043036892832 0 0.33217782229453008 -0.078346871527596659 0 0.35098057191618881 -0.055629043036892832 0 0.33217782229453008 -0.078346871527596659 0 0.32692763349415588 -0.066600476715377319 0 0.3537175356537885 -0.083435496599620809 0 0.33671424871030031 -0.1040281340010273 0 0.33217782229453008 -0.078346871527596659 0 0.31337507267287068 -0.1010647000183001 0 0.33217782229453008 -0.078346871527596659 0 0.3028746950721225 -0.077571910393861104 0 0.31337507267287068 -0.1010647000183001 0 0.33217782229453008 -0.078346871527596659 0 0.32692763349415588 -0.066600476715377319 0 0.30034837668176911 -0.071919707327855797 0 0.31091256379857268 -0.05405734711511536 0 0.33217782229453008 -0.078346871527596659 0 0.32692763349415588 -0.066600476715377319 0 0.3028746950721225 -0.077571910393861104 0 0.32692763349415588 -0.066600476715377319 0 0.3028746950721225 -0.077571910393861104 0 0.32692763349415588 -0.066600476715377319 0 0.30034837668176911 -0.071919707327855797 0 0.3028746950721225 -0.077571910393861104 0 0.30034837668176911 -0.071919707327855797 0 0.31091256379857268 -0.05405734711511536 0 0.30034837668176911 -0.071919707327855797 0 0.29483729862825397 -0.081238063796177123 0 0.30034837668176911 -0.071919707327855797 0 0.3028746950721225 -0.077571910393861104 0 0.29483729862825397 -0.081238063796177123 0 0.30034837668176911 -0.071919707327855797 0 0.3028746950721225 -0.077571910393861104 0 0.31337507267287068 -0.1010647000183001 0 0.3028746950721225 -0.077571910393861104 0 0.2957250215736052 -0.097248204976776859 0 0.31337507267287068 -0.1010647000183001 0 0.3028746950721225 -0.077571910393861104 0 0.3028746950721225 -0.077571910393861104 0 0.29483729862825397 -0.081238063796177123 0 0.2957250215736052 -0.097248204976776859 0 0.3028746950721225 -0.077571910393861104 0 0.29483729862825397 -0.081238063796177123 0 0.29483729862825397 -0.081238063796177123 0 0.28367164524532118 -0.086331130739528833 0 0.28993149327635082 -0.072308358638793063 0 0.29483729862825397 -0.081238063796177123 0 0.28367164524532118 -0.086331130739528833 0 0.29483729862825397 -0.081238063796177123 0 0.28367164524532118 -0.086331130739528833 0 0.28126732438660712 -0.1041827319757497 0 0.29483729862825397 -0.081238063796177123 0 0.28126732438660712 -0.1041827319757497 0 0.28367164524532118 -0.086331130739528833 0 0.28993149327635082 -0.072308358638793063 0 0.27884457241227961 -0.068910638397337756 0 0.30034837668176911 -0.071919707327855797 0 0.28993149327635082 -0.072308358638793063 0 0.29195557341412742 -0.053142252933064342 0 0.28993149327635082 -0.072308358638793063 0 0.27884457241227961 -0.068910638397337756 0 0.29195557341412742 -0.053142252933064342 0 0.30034837668176911 -0.071919707327855797 0 0.29195557341412742 -0.053142252933064342 0 0.30034837668176911 -0.071919707327855797 0 0.29483729862825397 -0.081238063796177123 0 0.28993149327635082 -0.072308358638793063 0 0.30263771263712752 -0.1149289746343355 0 0.29513426678059951 -0.12191218276395881 0 0.30564212953838921 -0.12602733342769809 0 0.3114990928887208 -0.1151587506998855 0 0.30263771263712752 -0.1149289746343355 0 0.30564212953838921 -0.12602733342769809 0 0.3114990928887208 -0.1151587506998855 0 0.30263771263712752 -0.1149289746343355 0 0.30783617373683952 -0.1077568997544076 0 0.30263771263712752 -0.1149289746343355 0 0.30059103036527701 -0.1055600092532863 0 0.30783617373683952 -0.1077568997544076 0 0.30263771263712752 -0.1149289746343355 0 0.30059103036527701 -0.1055600092532863 0 0.29385709553232181 -0.11194583442523109 0 0.30263771263712752 -0.1149289746343355 0 0.29385709553232181 -0.11194583442523109 0 0.29513426678059951 -0.12191218276395881 0 0.31337507267287068 -0.1010647000183001 0 0.30059103036527701 -0.1055600092532863 0 0.2957250215736052 -0.097248204976776859 0 0.31337507267287068 -0.1010647000183001 0 0.3114990928887208 -0.1151587506998855 0 0.30783617373683952 -0.1077568997544076 0 0.31337507267287068 -0.1010647000183001 0 0.30059103036527701 -0.1055600092532863 0 0.30783617373683952 -0.1077568997544076 0 0.31337507267287068 -0.1010647000183001 0 0.30783617373683952 -0.1077568997544076 0 0.29483729862825397 -0.081238063796177123 0 0.2957250215736052 -0.097248204976776859 0 0.28126732438660712 -0.1041827319757497 0 0.28126732438660712 -0.1041827319757497 0 0.29060842790687708 -0.1057279419122388 0 0.28322674670331749 -0.1143083592643506 0 0.30059103036527701 -0.1055600092532863 0 0.2957250215736052 -0.097248204976776859 0 0.29060842790687708 -0.1057279419122388 0 0.30059103036527701 -0.1055600092532863 0 0.29060842790687708 -0.1057279419122388 0 0.29385709553232181 -0.11194583442523109 0 0.2957250215736052 -0.097248204976776859 0 0.28126732438660712 -0.1041827319757497 0 0.29060842790687708 -0.1057279419122388 0 0.29060842790687708 -0.1057279419122388 0 0.29385709553232181 -0.11194583442523109 0 0.28322674670331749 -0.1143083592643506 0 0.29385709553232181 -0.11194583442523109 0 0.28322674670331749 -0.1143083592643506 0 0.29513426678059951 -0.12191218276395881 0 0.28126732438660712 -0.1041827319757497 0 0.28322674670331749 -0.1143083592643506 0 0.26769735014495888 -0.12712740015532151 0 0.28126732438660712 -0.1041827319757497 0 0.26769735014495888 -0.12712740015532151 0 0.28126732438660712 -0.1041827319757497 0 0.2664288929556477 -0.11089208448786431 0 0.26769735014495888 -0.12712740015532151 0 0.28367164524532118 -0.086331130739528833 0 0.28126732438660712 -0.1041827319757497 0 0.27307324596178562 -0.093991410535634506 0 0.28126732438660712 -0.1041827319757497 0 0.2664288929556477 -0.11089208448786431 0 0.27056524674898252 -0.10172101552949731 0 0.2664288929556477 -0.11089208448786431 0 0.27056524674898252 -0.10172101552949731 0 0.26149152369188983 -0.097817835118740815 0 0.28126732438660712 -0.1041827319757497 0 0.27056524674898252 -0.10172101552949731 0 0.27307324596178562 -0.093991410535634506 0 0.27056524674898252 -0.10172101552949731 0 0.27307324596178562 -0.093991410535634506 0 0.26149152369188983 -0.097817835118740815 0 0.26149152369188983 -0.097817835118740815 0 0.25442911735812762 -0.1067506793913659 0 0.2480933401032667 -0.096517631092886094 0 0.2664288929556477 -0.11089208448786431 0 0.26149152369188983 -0.097817835118740815 0 0.25442911735812762 -0.1067506793913659 0 0.2664288929556477 -0.11089208448786431 0 0.25156957390371798 -0.1189836267597288 0 0.26769735014495888 -0.12712740015532151 0 0.2664288929556477 -0.11089208448786431 0 0.25442911735812762 -0.1067506793913659 0 0.25156957390371798 -0.1189836267597288 0 0.27884457241227961 -0.068910638397337756 0 0.27235628326144429 -0.081665413680119966 0 0.26360977501370619 -0.073432103629552326 0 0.27884457241227961 -0.068910638397337756 0 0.26360977501370619 -0.073432103629552326 0 0.27178694626726901 -0.061361807916044717 0 0.28367164524532118 -0.086331130739528833 0 0.27884457241227961 -0.068910638397337756 0 0.27235628326144429 -0.081665413680119966 0 0.28367164524532118 -0.086331130739528833 0 0.27307324596178562 -0.093991410535634506 0 0.27235628326144429 -0.081665413680119966 0 0.27307324596178562 -0.093991410535634506 0 0.27235628326144429 -0.081665413680119966 0 0.26226890042615808 -0.08474687087167046 0 0.27235628326144429 -0.081665413680119966 0 0.26226890042615808 -0.08474687087167046 0 0.26360977501370619 -0.073432103629552326 0 0.26149152369188983 -0.097817835118740815 0 0.26226890042615808 -0.08474687087167046 0 0.25214254427357802 -0.08680170685222352 0 0.27307324596178562 -0.093991410535634506 0 0.26149152369188983 -0.097817835118740815 0 0.26226890042615808 -0.08474687087167046 0 0.26149152369188983 -0.097817835118740815 0 0.25214254427357802 -0.08680170685222352 0 0.2480933401032667 -0.096517631092886094 0 0.26226890042615808 -0.08474687087167046 0 0.25214254427357802 -0.08680170685222352 0 0.25094003035454532 -0.074772755413751724 0 0.25094003035454532 -0.074772755413751724 0 0.26360977501370619 -0.073432103629552326 0 0.2555741719013559 -0.067581202837984189 0 0.26226890042615808 -0.08474687087167046 0 0.25094003035454532 -0.074772755413751724 0 0.26360977501370619 -0.073432103629552326 0 0.26360977501370619 -0.073432103629552326 0 0.2555741719013559 -0.067581202837984189 0 0.25921417453430112 -0.05907480864815861 0 0.25094003035454532 -0.074772755413751724 0 0.2555741719013559 -0.067581202837984189 0 0.248532707702871 -0.06304514366047409 0 0.2555741719013559 -0.067581202837984189 0 0.25921417453430112 -0.05907480864815861 0 0.248532707702871 -0.06304514366047409 0 0.25921417453430112 -0.05907480864815861 0 0.2485276051359292 -0.05560593421255005 0 0.248532707702871 -0.06304514366047409 0 0.25921417453430112 -0.05907480864815861 0 0.25363781468162039 -0.04257939084088095 0 0.26360977501370619 -0.073432103629552326 0 0.25921417453430112 -0.05907480864815861 0 0.26584036544104572 -0.050701929302879922 0 0.25921417453430112 -0.05907480864815861 0 0.25363781468162039 -0.04257939084088095 0 0.2485276051359292 -0.05560593421255005 0 0.26360977501370619 -0.073432103629552326 0 0.26584036544104572 -0.050701929302879922 0 0.25921417453430112 -0.05907480864815861 0 0.26584036544104572 -0.050701929302879922 0 0.25363781468162039 -0.04257939084088095 0 0.27884457241227961 -0.068910638397337756 0 0.27178694626726901 -0.061361807916044717 0 0.27885307220204442 -0.052402560334408863 0 0.27178694626726901 -0.061361807916044717 0 0.26584036544104572 -0.050701929302879922 0 0.27885307220204442 -0.052402560334408863 0 0.26360977501370619 -0.073432103629552326 0 0.27178694626726901 -0.061361807916044717 0 0.26584036544104572 -0.050701929302879922 0 0.26584036544104572 -0.050701929302879922 0 0.27885307220204442 -0.052402560334408863 0 0.27408179091449059 -0.041360260787942048 0 0.27885307220204442 -0.052402560334408863 0 0.27408179091449059 -0.041360260787942048 0 0.28356277014648767 -0.034364798538271957 0 0.26584036544104572 -0.050701929302879922 0 0.27408179091449059 -0.041360260787942048 0 0.26807095586838509 -0.02797175497620745 0 0.26584036544104572 -0.050701929302879922 0 0.26807095586838509 -0.02797175497620745 0 0.27408179091449059 -0.041360260787942048 0 0.26807095586838509 -0.02797175497620745 0 0.28356277014648767 -0.034364798538271957 0 0.25363781468162039 -0.04257939084088095 0 0.2480614548289399 -0.02608397303360312 0 0.26584036544104572 -0.050701929302879922 0 0.25875091774720582 -0.034708070327958487 0 0.25363781468162039 -0.04257939084088095 0 0.26584036544104572 -0.050701929302879922 0 0.25875091774720582 -0.034708070327958487 0 0.26807095586838509 -0.02797175497620745 0 0.25875091774720582 -0.034708070327958487 0 0.25363781468162039 -0.04257939084088095 0 0.2480614548289399 -0.02608397303360312 0 0.25814399791603793 -0.026203303486220929 0 0.27030154629572611 -0.0052415806495351332 0 0.2499050385453562 -0.02039026096544341 0 0.25814399791603793 -0.026203303486220929 0 0.27030154629572611 -0.0052415806495351332 0 0.26807095586838509 -0.02797175497620745 0 0.25814399791603793 -0.026203303486220929 0 0.2480614548289399 -0.02608397303360312 0 0.2499050385453562 -0.02039026096544341 0 0.25875091774720582 -0.034708070327958487 0 0.25814399791603793 -0.026203303486220929 0 0.2480614548289399 -0.02608397303360312 0 0.25875091774720582 -0.034708070327958487 0 0.25814399791603793 -0.026203303486220929 0 0.26807095586838509 -0.02797175497620745 0 0.25704024178540552 0.00164605473580649 0 0.27030154629572611 -0.0052415806495351332 0 0.2499050385453562 -0.02039026096544341 0 0.25704024178540552 0.00164605473580649 0 0.2499050385453562 -0.02039026096544341 0 0.25704024178540552 0.00164605473580649 0 0.2499050385453562 -0.02039026096544341 0 0.2498818982516218 -0.002271085465629063 0 0.27030154629572611 -0.0052415806495351332 0 0.2499050385453562 -0.02039026096544341 0 0.27030154629572611 -0.0052415806495351332 0 0.26807095586838509 -0.02797175497620745 0 0.27030154629572611 -0.0052415806495351332 0 0.26807095586838509 -0.02797175497620745 0 0.28649569915878731 -0.015455792254539131 0 0.26807095586838509 -0.02797175497620745 0 0.28649569915878731 -0.015455792254539131 0 0.28356277014648767 -0.034364798538271957 0 0.29386417282016047 -0.026787433568355501 0 0.28649569915878731 -0.015455792254539131 0 0.30365411937224379 -0.020096799022633619 0 0.29386417282016047 -0.026787433568355501 0 0.28649569915878731 -0.015455792254539131 0 0.28356277014648767 -0.034364798538271957 0 0.29199216111899501 0.010868245298835981 0 0.28649569915878731 -0.015455792254539131 0 0.30397987236055207 -0.0012468907866667431 0 0.29199216111899501 0.010868245298835981 0 0.27030154629572611 -0.0052415806495351332 0 0.28649569915878731 -0.015455792254539131 0 0.31769812144106352 -0.01437525172873471 0 0.30397987236055207 -0.0012468907866667431 0 0.30365411937224379 -0.020096799022633619 0 0.28649569915878731 -0.015455792254539131 0 0.30397987236055207 -0.0012468907866667431 0 0.30365411937224379 -0.020096799022633619 0 0.32147675091537509 -0.036194986902374222 0 0.30365411937224379 -0.020096799022633619 0 0.30174410260312329 -0.037232344457977309 0 0.29386417282016047 -0.026787433568355501 0 0.30365411937224379 -0.020096799022633619 0 0.30174410260312329 -0.037232344457977309 0 0.32147675091537509 -0.036194986902374222 0 0.30174410260312329 -0.037232344457977309 0 0.31091256379857268 -0.05405734711511536 0 0.30174410260312329 -0.037232344457977309 0 0.31091256379857268 -0.05405734711511536 0 0.29195557341412742 -0.053142252933064342 0 0.30034837668176911 -0.071919707327855797 0 0.31091256379857268 -0.05405734711511536 0 0.29195557341412742 -0.053142252933064342 0 0.27884457241227961 -0.068910638397337756 0 0.27885307220204442 -0.052402560334408863 0 0.29195557341412742 -0.053142252933064342 0 0.29386417282016047 -0.026787433568355501 0 0.30174410260312329 -0.037232344457977309 0 0.28356277014648767 -0.034364798538271957 0 0.30174410260312329 -0.037232344457977309 0 0.29195557341412742 -0.053142252933064342 0 0.28356277014648767 -0.034364798538271957 0 0.27885307220204442 -0.052402560334408863 0 0.29195557341412742 -0.053142252933064342 0 0.28356277014648767 -0.034364798538271957 0 0.29195557341412742 -0.053142252933064342 0 0.28356277014648767 -0.034364798538271957 0 0.28573306768376261 -0.20700994107055601 0 0.29558520151865081 -0.22779701349039869 0 0.28573306768376261 -0.20700994107055601 0 0.29558520151865081 -0.22779701349039869 0 0.28326690888354111 -0.2209070585273791 0 0.29501700287344051 -0.20925240577884169 0 0.28573306768376261 -0.20700994107055601 0 0.29558520151865081 -0.22779701349039869 0 0.29501700287344051 -0.20925240577884169 0 0.28573306768376261 -0.20700994107055601 0 0.29333290101047482 -0.2000890573360887 0 0.29501700287344051 -0.20925240577884169 0 0.29333290101047482 -0.2000890573360887 0 0.30113448462878278 -0.2028139932562758 0 0.28497595374481138 -0.19582548028009239 0 0.27525701320006291 -0.18689459984650919 0 0.2919874074325608 -0.18404393548550471 0 0.28573306768376261 -0.20700994107055601 0 0.28497595374481138 -0.19582548028009239 0 0.27377331571408853 -0.1994709943849331 0 0.28573306768376261 -0.20700994107055601 0 0.28497595374481138 -0.19582548028009239 0 0.29333290101047482 -0.2000890573360887 0 0.29395238660029471 -0.19340844196292981 0 0.30385039232581262 -0.1949308945462703 0 0.2919874074325608 -0.18404393548550471 0 0.28497595374481138 -0.19582548028009239 0 0.29395238660029471 -0.19340844196292981 0 0.2919874074325608 -0.18404393548550471 0 0.28497595374481138 -0.19582548028009239 0 0.29395238660029471 -0.19340844196292981 0 0.29333290101047482 -0.2000890573360887 0 0.29395238660029471 -0.19340844196292981 0 0.29333290101047482 -0.2000890573360887 0 0.30385039232581262 -0.1949308945462703 0 0.29333290101047482 -0.2000890573360887 0 0.30113448462878278 -0.2028139932562758 0 0.30385039232581262 -0.1949308945462703 0 0.30113448462878278 -0.2028139932562758 0 0.30467149229335672 -0.1981407616238495 0 0.30385039232581262 -0.1949308945462703 0 0.29333290101047482 -0.2000890573360887 0 0.30385039232581262 -0.1949308945462703 0 0.30467149229335672 -0.1981407616238495 0 0.30385039232581262 -0.1949308945462703 0 0.30385039232581262 -0.1949308945462703 0 0.31900339055937782 -0.1874993094563368 0 0.30385039232581262 -0.1949308945462703 0 0.31900339055937782 -0.1874993094563368 0 0.31463796710540359 -0.19513378905043541 0 0.31016755813354813 -0.19832861167558541 0 0.30906604360845807 -0.2045142115550353 0 0.31727057056612118 -0.20041315534753301 0 0.30113448462878278 -0.2028139932562758 0 0.30467149229335672 -0.1981407616238495 0 0.30906604360845807 -0.2045142115550353 0 0.30385039232581262 -0.1949308945462703 0 0.31016755813354813 -0.19832861167558541 0 0.31463796710540359 -0.19513378905043541 0 0.30467149229335672 -0.1981407616238495 0 0.31016755813354813 -0.19832861167558541 0 0.30906604360845807 -0.2045142115550353 0 0.30467149229335672 -0.1981407616238495 0 0.30385039232581262 -0.1949308945462703 0 0.31016755813354813 -0.19832861167558541 0 0.29501700287344051 -0.20925240577884169 0 0.30243879179677691 -0.21136123365424969 0 0.29558520151865081 -0.22779701349039869 0 0.30243879179677691 -0.21136123365424969 0 0.29558520151865081 -0.22779701349039869 0 0.31338032398548321 -0.21295007655782999 0 0.30906604360845807 -0.2045142115550353 0 0.30243879179677691 -0.21136123365424969 0 0.31338032398548321 -0.21295007655782999 0 0.30113448462878278 -0.2028139932562758 0 0.30906604360845807 -0.2045142115550353 0 0.30243879179677691 -0.21136123365424969 0 0.29501700287344051 -0.20925240577884169 0 0.30113448462878278 -0.2028139932562758 0 0.30243879179677691 -0.21136123365424969 0 0.31082516668972909 -0.2279753726143724 0 0.29558520151865081 -0.22779701349039869 0 0.31338032398548321 -0.21295007655782999 0 0.29558520151865081 -0.22779701349039869 0 0.31338032398548321 -0.21295007655782999 0 0.31082516668972909 -0.2279753726143724 0 0.3046167831337544 -0.24685279818082301 0 0.29558520151865081 -0.22779701349039869 0 0.31082516668972909 -0.2279753726143724 0 0.3046167831337544 -0.24685279818082301 0 0.31839344055805668 -0.23875651020791949 0 0.3046167831337544 -0.24685279818082301 0 0.29558520151865081 -0.22779701349039869 0 0.3046167831337544 -0.24685279818082301 0 0.29342398052734248 -0.24254561644133329 0 0.29558520151865081 -0.22779701349039869 0 0.3046167831337544 -0.24685279818082301 0 0.29342398052734248 -0.24254561644133329 0 0.29772606969876569 -0.25759016519756739 0 0.29342398052734248 -0.24254561644133329 0 0.28190371294067079 -0.23921183788621311 0 0.29558520151865081 -0.22779701349039869 0 0.29342398052734248 -0.24254561644133329 0 0.28190371294067079 -0.23921183788621311 0 0.28620043957956359 -0.25211907458867228 0 0.29558520151865081 -0.22779701349039869 0 0.28326690888354111 -0.2209070585273791 0 0.27923327454766389 -0.22980981491251909 0 0.28190371294067079 -0.23921183788621311 0 0.29558520151865081 -0.22779701349039869 0 0.27923327454766389 -0.22980981491251909 0 0.28190371294067079 -0.23921183788621311 0 0.29558520151865081 -0.22779701349039869 0 0.28326690888354111 -0.2209070585273791 0 0.27923327454766389 -0.22980981491251909 0 0.27016649632645928 -0.22615977246123159 0 0.28326690888354111 -0.2209070585273791 0 0.27016649632645928 -0.22615977246123159 0 0.27197592162926298 -0.2125271391859847 0 0.27923327454766389 -0.22980981491251909 0 0.27016649632645928 -0.22615977246123159 0 0.26564067295501281 -0.237941809799052 0 0.27016649632645928 -0.22615977246123159 0 0.26564067295501281 -0.237941809799052 0 0.27016649632645928 -0.22615977246123159 0 0.25978302681170018 -0.21834564702079789 0 0.27197592162926298 -0.2125271391859847 0 0.26564067295501281 -0.237941809799052 0 0.28620043957956359 -0.25211907458867228 0 0.28190371294067079 -0.23921183788621311 0 0.26564067295501281 -0.237941809799052 0 0.28620043957956359 -0.25211907458867228 0 0.26564067295501281 -0.237941809799052 0 0.28620043957956359 -0.25211907458867228 0 0.27041912396174622 -0.25300857944255861 0 0.28190371294067079 -0.23921183788621311 0 0.27923327454766389 -0.22980981491251909 0 0.26564067295501281 -0.237941809799052 0 0.26564067295501281 -0.237941809799052 0 0.24459971964430779 -0.24469171935207509 0 0.24233018509292731 -0.22186774802436959 0 0.26564067295501281 -0.237941809799052 0 0.25678271184163343 -0.26100166432917821 0 0.26564067295501281 -0.237941809799052 0 0.25678271184163343 -0.26100166432917821 0 0.24459971964430779 -0.24469171935207509 0 0.26564067295501281 -0.237941809799052 0 0.25978302681170018 -0.21834564702079789 0 0.24233018509292731 -0.22186774802436959 0 0.27016649632645928 -0.22615977246123159 0 0.26564067295501281 -0.237941809799052 0 0.25978302681170018 -0.21834564702079789 0 0.26564067295501281 -0.237941809799052 0 0.24233018509292731 -0.22186774802436959 0 0.25978302681170018 -0.21834564702079789 0 0.2493673996676247 -0.2083853397490959 0 0.24233018509292731 -0.22186774802436959 0 0.26037017915798999 -0.20369832597508941 0 0.25978302681170018 -0.21834564702079789 0 0.2493673996676247 -0.2083853397490959 0 0.26037017915798999 -0.20369832597508941 0 0.25978302681170018 -0.21834564702079789 0 0.27197592162926298 -0.2125271391859847 0 0.26037017915798999 -0.20369832597508941 0 0.27197592162926298 -0.2125271391859847 0 0.27377331571408853 -0.1994709943849331 0 0.28573306768376261 -0.20700994107055601 0 0.27197592162926298 -0.2125271391859847 0 0.27377331571408853 -0.1994709943849331 0 0.28573306768376261 -0.20700994107055601 0 0.28326690888354111 -0.2209070585273791 0 0.27197592162926298 -0.2125271391859847 0 0.28497595374481138 -0.19582548028009239 0 0.27377331571408853 -0.1994709943849331 0 0.27525701320006291 -0.18689459984650919 0 0.26037017915798999 -0.20369832597508941 0 0.27377331571408853 -0.1994709943849331 0 0.26372899649358139 -0.19190419289847169 0 0.27377331571408853 -0.1994709943849331 0 0.26372899649358139 -0.19190419289847169 0 0.27525701320006291 -0.18689459984650919 0 0.26372899649358139 -0.19190419289847169 0 0.26031979738481281 -0.17788034906654579 0 0.2477271522608325 -0.1936441211134905 0 0.26037017915798999 -0.20369832597508941 0 0.26372899649358139 -0.19190419289847169 0 0.2477271522608325 -0.1936441211134905 0 0.26037017915798999 -0.20369832597508941 0 0.2477271522608325 -0.1936441211134905 0 0.2493673996676247 -0.2083853397490959 0 0.26031979738481281 -0.17788034906654579 0 0.25029832467556129 -0.16606009898348689 0 0.24067871187316811 -0.17709033162075011 0 0.25029832467556129 -0.16606009898348689 0 0.26225279893203779 -0.15319972508270699 0 0.23794199051222639 -0.1560699901639446 0 0.26031979738481281 -0.17788034906654579 0 0.25029832467556129 -0.16606009898348689 0 0.26225279893203779 -0.15319972508270699 0 0.26031979738481281 -0.17788034906654579 0 0.27948235932976739 -0.16854297721531461 0 0.26225279893203779 -0.15319972508270699 0 0.26031979738481281 -0.17788034906654579 0 0.27948235932976739 -0.16854297721531461 0 0.27525701320006291 -0.18689459984650919 0 0.26372899649358139 -0.19190419289847169 0 0.26031979738481281 -0.17788034906654579 0 0.27525701320006291 -0.18689459984650919 0 0.25156957390371798 -0.1189836267597288 0 0.26769735014495888 -0.12712740015532151 0 0.24625891810501091 -0.13582118180672781 0 0.26225279893203779 -0.15319972508270699 0 0.26769735014495888 -0.12712740015532151 0 0.24625891810501091 -0.13582118180672781 0 0.27948235932976739 -0.16854297721531461 0 0.26225279893203779 -0.15319972508270699 0 0.29010129524414918 -0.14118253769165709 0 0.26225279893203779 -0.15319972508270699 0 0.26769735014495888 -0.12712740015532151 0 0.29010129524414918 -0.14118253769165709 0 0.28322674670331749 -0.1143083592643506 0 0.26769735014495888 -0.12712740015532151 0 0.29010129524414918 -0.14118253769165709 0 0.28322674670331749 -0.1143083592643506 0 0.29010129524414918 -0.14118253769165709 0 0.28322674670331749 -0.1143083592643506 0 0.29513426678059951 -0.12191218276395881 0 0.29010129524414918 -0.14118253769165709 0 0.29010129524414918 -0.14118253769165709 0 0.29697584378498088 -0.16805671611896369 0 0.29010129524414918 -0.14118253769165709 0 0.3134674646159446 -0.15863974018231281 0 0.31496516077853498 -0.1395321854118296 0 0.29010129524414918 -0.14118253769165709 0 0.29697584378498088 -0.16805671611896369 0 0.3134674646159446 -0.15863974018231281 0 0.29513426678059951 -0.12191218276395881 0 0.29010129524414918 -0.14118253769165709 0 0.30564212953838921 -0.12602733342769809 0 0.29010129524414918 -0.14118253769165709 0 0.30564212953838921 -0.12602733342769809 0 0.31496516077853498 -0.1395321854118296 0 0.27948235932976739 -0.16854297721531461 0 0.27525701320006291 -0.18689459984650919 0 0.2919874074325608 -0.18404393548550471 0 0.27948235932976739 -0.16854297721531461 0 0.2919874074325608 -0.18404393548550471 0 0.29697584378498088 -0.16805671611896369 0 0.27948235932976739 -0.16854297721531461 0 0.29010129524414918 -0.14118253769165709 0 0.29697584378498088 -0.16805671611896369 0 0.29697584378498088 -0.16805671611896369 0 0.31079365621706068 -0.1763885129110562 0 0.3134674646159446 -0.15863974018231281 0 0.30385039232581262 -0.1949308945462703 0 0.29697584378498088 -0.16805671611896369 0 0.31079365621706068 -0.1763885129110562 0 0.30385039232581262 -0.1949308945462703 0 0.2919874074325608 -0.18404393548550471 0 0.29697584378498088 -0.16805671611896369 0 0.30385039232581262 -0.1949308945462703 0 0.31079365621706068 -0.1763885129110562 0 0.31900339055937782 -0.1874993094563368 0 0.30385039232581262 -0.1949308945462703 0 0.29697584378498088 -0.16805671611896369 0 0.32067118979918741 -0.1728159042513972 0 0.32710348324572469 -0.16409311388182141 0 0.33415638879294313 -0.18006772436640339 0 0.31900339055937782 -0.1874993094563368 0 0.32067118979918741 -0.1728159042513972 0 0.33415638879294313 -0.18006772436640339 0 0.31900339055937782 -0.1874993094563368 0 0.33415638879294313 -0.18006772436640339 0 0.32289792394215838 -0.19449697422645171 0 0.31900339055937782 -0.1874993094563368 0 0.33415638879294313 -0.18006772436640339 0 0.31079365621706068 -0.1763885129110562 0 0.31900339055937782 -0.1874993094563368 0 0.32067118979918741 -0.1728159042513972 0 0.31079365621706068 -0.1763885129110562 0 0.32067118979918741 -0.1728159042513972 0 0.3134674646159446 -0.15863974018231281 0 0.3134674646159446 -0.15863974018231281 0 0.32710348324572469 -0.16409311388182141 0 0.32529736073357918 -0.15187027816005169 0 0.32067118979918741 -0.1728159042513972 0 0.3134674646159446 -0.15863974018231281 0 0.32710348324572469 -0.16409311388182141 0 0.33902556970850112 -0.15845327722319169 0 0.33415638879294313 -0.18006772436640339 0 0.3446294186212352 -0.17099092573449201 0 0.32710348324572469 -0.16409311388182141 0 0.33902556970850112 -0.15845327722319169 0 0.33415638879294313 -0.18006772436640339 0 0.33902556970850112 -0.15845327722319169 0 0.33415638879294313 -0.18006772436640339 0 0.32710348324572469 -0.16409311388182141 0 0.33902556970850112 -0.15845327722319169 0 0.32529736073357918 -0.15187027816005169 0 0.33902556970850112 -0.15845327722319169 0 0.3446294186212352 -0.17099092573449201 0 0.33415638879294313 -0.18006772436640339 0 0.34897056891914879 -0.18325620269269341 0 0.33013183348932851 -0.19793285186802509 0 0.32192523835141179 -0.12019422575326499 0 0.30564212953838921 -0.12602733342769809 0 0.31496516077853498 -0.1395321854118296 0 0.32192523835141179 -0.12019422575326499 0 0.33047540402995668 -0.1393237514882282 0 0.32192523835141179 -0.12019422575326499 0 0.31496516077853498 -0.1395321854118296 0 0.33047540402995668 -0.1393237514882282 0 0.3134674646159446 -0.15863974018231281 0 0.31496516077853498 -0.1395321854118296 0 0.32529736073357918 -0.15187027816005169 0 0.31496516077853498 -0.1395321854118296 0 0.32529736073357918 -0.15187027816005169 0 0.33047540402995668 -0.1393237514882282 0 0.33902556970850112 -0.15845327722319169 0 0.33047540402995668 -0.1393237514882282 0 0.3437159738243698 -0.13763242591350949 0 0.33902556970850112 -0.15845327722319169 0 0.33047540402995668 -0.1393237514882282 0 0.33902556970850112 -0.15845327722319169 0 0.3437159738243698 -0.13763242591350949 0 0.33902556970850112 -0.15845327722319169 0 0.32529736073357918 -0.15187027816005169 0 0.33047540402995668 -0.1393237514882282 0 0.33624744857125571 -0.12359802235197161 0 0.32192523835141179 -0.12019422575326499 0 0.33047540402995668 -0.1393237514882282 0 0.34840637794023938 -0.1168115746038275 0 0.33624744857125571 -0.12359802235197161 0 0.3437159738243698 -0.13763242591350949 0 0.33624744857125571 -0.12359802235197161 0 0.33047540402995668 -0.1393237514882282 0 0.3437159738243698 -0.13763242591350949 0 0.34840637794023938 -0.1168115746038275 0 0.3437159738243698 -0.13763242591350949 0 0.3562320851504942 -0.13732595487085869 0 0.34840637794023938 -0.1168115746038275 0 0.3437159738243698 -0.13763242591350949 0 0.34840637794023938 -0.1168115746038275 0 0.3562320851504942 -0.13732595487085869 0 0.36717637813648041 -0.13031094074813701 0 0.33902556970850112 -0.15845327722319169 0 0.3437159738243698 -0.13763242591350949 0 0.34975211318591071 -0.14837203117516221 0 0.3562320851504942 -0.13732595487085869 0 0.34975211318591071 -0.14837203117516221 0 0.36001154595557372 -0.14936616369560821 0 0.3437159738243698 -0.13763242591350949 0 0.3562320851504942 -0.13732595487085869 0 0.34975211318591071 -0.14837203117516221 0 0.33902556970850112 -0.15845327722319169 0 0.34975211318591071 -0.14837203117516221 0 0.34977539129061491 -0.159082334172643 0 0.34975211318591071 -0.14837203117516221 0 0.36001154595557372 -0.14936616369560821 0 0.34977539129061491 -0.159082334172643 0 0.36001154595557372 -0.14936616369560821 0 0.37949034410786753 -0.1419409207912278 0 0.37996744773487562 -0.15760030390351551 0 0.3562320851504942 -0.13732595487085869 0 0.36001154595557372 -0.14936616369560821 0 0.36717637813648041 -0.13031094074813701 0 0.36001154595557372 -0.14936616369560821 0 0.36717637813648041 -0.13031094074813701 0 0.37949034410786753 -0.1419409207912278 0 0.33415638879294313 -0.18006772436640339 0 0.35706191826390937 -0.16883401413495949 0 0.33415638879294313 -0.18006772436640339 0 0.34897056891914879 -0.18325620269269341 0 0.35706191826390937 -0.16883401413495949 0 0.33415638879294313 -0.18006772436640339 0 0.3446294186212352 -0.17099092573449201 0 0.35706191826390937 -0.16883401413495949 0 0.34897056891914879 -0.18325620269269341 0 0.35706191826390937 -0.16883401413495949 0 0.36420083927916141 -0.18217411632593319 0 0.34897056891914879 -0.18325620269269341 0 0.36420083927916141 -0.18217411632593319 0 0.35764451235967448 -0.19264730271545599 0 0.3446294186212352 -0.17099092573449201 0 0.34977539129061491 -0.159082334172643 0 0.35706191826390937 -0.16883401413495949 0 0.36001154595557372 -0.14936616369560821 0 0.34977539129061491 -0.159082334172643 0 0.35706191826390937 -0.16883401413495949 0 0.33902556970850112 -0.15845327722319169 0 0.3446294186212352 -0.17099092573449201 0 0.34977539129061491 -0.159082334172643 0 0.36001154595557372 -0.14936616369560821 0 0.35706191826390937 -0.16883401413495949 0 0.37996744773487562 -0.15760030390351551 0 0.35706191826390937 -0.16883401413495949 0 0.37424428590619668 -0.17401884093267411 0 0.37996744773487562 -0.15760030390351551 0 0.35706191826390937 -0.16883401413495949 0 0.37996744773487562 -0.15760030390351551 0 0.37424428590619668 -0.17401884093267411 0 0.36420083927916141 -0.18217411632593319 0 0.380467256186105 -0.18561134251733691 0 0.36420083927916141 -0.18217411632593319 0 0.37165739765190309 -0.19471005266228569 0 0.380467256186105 -0.18561134251733691 0 0.35706191826390937 -0.16883401413495949 0 0.37424428590619668 -0.17401884093267411 0 0.36420083927916141 -0.18217411632593319 0 0.37165739765190309 -0.19471005266228569 0 0.36386735397808218 -0.20968465788911059 0 0.35764451235967448 -0.19264730271545599 0 0.36420083927916141 -0.18217411632593319 0 0.37165739765190309 -0.19471005266228569 0 0.35764451235967448 -0.19264730271545599 0 0.36386735397808218 -0.20968465788911059 0 0.34419343043484563 -0.2157115294688938 0 0.3484894301376027 -0.2011033237910185 0 0.34897056891914879 -0.18325620269269341 0 0.35764451235967448 -0.19264730271545599 0 0.3484894301376027 -0.2011033237910185 0 0.36386735397808218 -0.20968465788911059 0 0.35764451235967448 -0.19264730271545599 0 0.3484894301376027 -0.2011033237910185 0 0.34897056891914879 -0.18325620269269341 0 0.3484894301376027 -0.2011033237910185 0 0.34018837167829641 -0.19833325261670509 0 0.33415638879294313 -0.18006772436640339 0 0.33013183348932851 -0.19793285186802509 0 0.32289792394215838 -0.19449697422645171 0 0.34897056891914879 -0.18325620269269341 0 0.33013183348932851 -0.19793285186802509 0 0.34018837167829641 -0.19833325261670509 0 0.34897056891914879 -0.18325620269269341 0 0.33013183348932851 -0.19793285186802509 0 0.33415638879294313 -0.18006772436640339 0 0.33013183348932851 -0.19793285186802509 0 0.33476227591373381 -0.20264615724589241 0 0.33013183348932851 -0.19793285186802509 0 0.32969209736772109 -0.20740593728713139 0 0.33476227591373381 -0.20264615724589241 0 0.33013183348932851 -0.19793285186802509 0 0.34018837167829641 -0.19833325261670509 0 0.3484894301376027 -0.2011033237910185 0 0.34018837167829641 -0.19833325261670509 0 0.33799318815660151 -0.20674229945447159 0 0.33476227591373381 -0.20264615724589241 0 0.34018837167829641 -0.19833325261670509 0 0.33799318815660151 -0.20674229945447159 0 0.34419343043484563 -0.2157115294688938 0 0.3484894301376027 -0.2011033237910185 0 0.33799318815660151 -0.20674229945447159 0 0.34419343043484563 -0.2157115294688938 0 0.33799318815660151 -0.20674229945447159 0 0.33159830351839159 -0.21677287327801359 0 0.33476227591373381 -0.20264615724589241 0 0.33799318815660151 -0.20674229945447159 0 0.32969209736772109 -0.20740593728713139 0 0.33799318815660151 -0.20674229945447159 0 0.33159830351839159 -0.21677287327801359 0 0.32969209736772109 -0.20740593728713139 0 0.33013183348932851 -0.19793285186802509 0 0.31338032398548321 -0.21295007655782999 0 0.31727057056612118 -0.20041315534753301 0 0.33013183348932851 -0.19793285186802509 0 0.31338032398548321 -0.21295007655782999 0 0.33013183348932851 -0.19793285186802509 0 0.32969209736772109 -0.20740593728713139 0 0.31338032398548321 -0.21295007655782999 0 0.33159830351839159 -0.21677287327801359 0 0.32969209736772109 -0.20740593728713139 0 0.31338032398548321 -0.21295007655782999 0 0.30906604360845807 -0.2045142115550353 0 0.31338032398548321 -0.21295007655782999 0 0.31727057056612118 -0.20041315534753301 0 0.31727057056612118 -0.20041315534753301 0 0.31463796710540359 -0.19513378905043541 0 0.32289792394215838 -0.19449697422645171 0 0.31016755813354813 -0.19832861167558541 0 0.31727057056612118 -0.20041315534753301 0 0.31463796710540359 -0.19513378905043541 0 0.31900339055937782 -0.1874993094563368 0 0.31463796710540359 -0.19513378905043541 0 0.32289792394215838 -0.19449697422645171 0 0.33013183348932851 -0.19793285186802509 0 0.31727057056612118 -0.20041315534753301 0 0.32289792394215838 -0.19449697422645171 0 0.3046167831337544 -0.24685279818082301 0 0.31839344055805668 -0.23875651020791949 0 0.32237888961991018 -0.25021827180162959 0 0.31839344055805668 -0.23875651020791949 0 0.32605130551465022 -0.22864846018447191 0 0.33389854374767719 -0.24280437977629521 0 0.31839344055805668 -0.23875651020791949 0 0.33389854374767719 -0.24280437977629521 0 0.32237888961991018 -0.25021827180162959 0 0.33159830351839159 -0.21677287327801359 0 0.31338032398548321 -0.21295007655782999 0 0.32605130551465022 -0.22864846018447191 0 0.31082516668972909 -0.2279753726143724 0 0.31839344055805668 -0.23875651020791949 0 0.32605130551465022 -0.22864846018447191 0 0.31082516668972909 -0.2279753726143724 0 0.31338032398548321 -0.21295007655782999 0 0.32605130551465022 -0.22864846018447191 0 0.32605130551465022 -0.22864846018447191 0 0.33924857608970621 -0.23034885569597249 0 0.33389854374767719 -0.24280437977629521 0 0.33159830351839159 -0.21677287327801359 0 0.32605130551465022 -0.22864846018447191 0 0.33924857608970621 -0.23034885569597249 0 0.34419343043484563 -0.2157115294688938 0 0.33159830351839159 -0.21677287327801359 0 0.33924857608970621 -0.23034885569597249 0 0.33389854374767719 -0.24280437977629521 0 0.32237888961991018 -0.25021827180162959 0 0.34174578198070338 -0.25696029936811882 0 0.33924857608970621 -0.23034885569597249 0 0.33389854374767719 -0.24280437977629521 0 0.34608247494111549 -0.243317536911656 0 0.32605130551465022 -0.22864846018447191 0 0.33389854374767719 -0.24280437977629521 0 0.33389854374767719 -0.24280437977629521 0 0.34608247494111549 -0.243317536911656 0 0.34174578198070338 -0.25696029936811882 0 0.33389854374767719 -0.24280437977629521 0 0.34174578198070338 -0.25696029936811882 0 0.34608247494111549 -0.243317536911656 0 0.35483695862673797 -0.23163599414400629 0 0.36041624423564511 -0.25101425144445899 0 0.33924857608970621 -0.23034885569597249 0 0.34608247494111549 -0.243317536911656 0 0.35483695862673797 -0.23163599414400629 0 0.34419343043484563 -0.2157115294688938 0 0.33924857608970621 -0.23034885569597249 0 0.35483695862673797 -0.23163599414400629 0 0.36386735397808218 -0.20968465788911059 0 0.34419343043484563 -0.2157115294688938 0 0.35483695862673797 -0.23163599414400629 0 0.36386735397808218 -0.20968465788911059 0 0.35483695862673797 -0.23163599414400629 0 0.37477179528905791 -0.22779441395805189 0 0.35483695862673797 -0.23163599414400629 0 0.37477179528905791 -0.22779441395805189 0 0.36727792616050692 -0.23887821576682899 0 0.36727792616050692 -0.23887821576682899 0 0.37908670649058668 -0.24506820352079889 0 0.36041624423564511 -0.25101425144445899 0 0.35483695862673797 -0.23163599414400629 0 0.36727792616050692 -0.23887821576682899 0 0.36041624423564511 -0.25101425144445899 0 0.37908670649058668 -0.24506820352079889 0 0.36041624423564511 -0.25101425144445899 0 0.37477179528905791 -0.22779441395805189 0 0.36727792616050692 -0.23887821576682899 0 0.37908670649058668 -0.24506820352079889 0 0.37477179528905791 -0.22779441395805189 0 0.37908670649058668 -0.24506820352079889 0 0.3938742320680087 -0.2352318671852365 0 0.37908670649058668 -0.24506820352079889 0 0.3938742320680087 -0.2352318671852365 0 0.39649039221535809 -0.25121347051770149 0 0.3938742320680087 -0.2352318671852365 0 0.40291901511462919 -0.24372939979452729 0 0.39649039221535809 -0.25121347051770149 0 0.3938742320680087 -0.2352318671852365 0 0.40291901511462919 -0.24372939979452729 0 0.40662264837597473 -0.23535406694849051 0 0.3938742320680087 -0.2352318671852365 0 0.40570951749362449 -0.22163085658094969 0 0.38725644210484572 -0.219401141892276 0 0.3938742320680087 -0.2352318671852365 0 0.40570951749362449 -0.22163085658094969 0 0.40662264837597473 -0.23535406694849051 0 0.36386735397808218 -0.20968465788911059 0 0.37477179528905791 -0.22779441395805189 0 0.38725644210484572 -0.219401141892276 0 0.37477179528905791 -0.22779441395805189 0 0.3938742320680087 -0.2352318671852365 0 0.38725644210484572 -0.219401141892276 0 0.36386735397808218 -0.20968465788911059 0 0.38725644210484572 -0.219401141892276 0 0.39210702645649248 -0.2034328438635917 0 0.36386735397808218 -0.20968465788911059 0 0.39210702645649248 -0.2034328438635917 0 0.37165739765190309 -0.19471005266228569 0 0.39210702645649248 -0.2034328438635917 0 0.380467256186105 -0.18561134251733691 0 0.39210702645649248 -0.2034328438635917 0 0.380467256186105 -0.18561134251733691 0 0.39512131941805573 -0.18574271836977549 0 0.37165739765190309 -0.19471005266228569 0 0.36386735397808218 -0.20968465788911059 0 0.39210702645649248 -0.2034328438635917 0 0.39210702645649248 -0.2034328438635917 0 0.42034669893490312 -0.19718102983807259 0 0.39210702645649248 -0.2034328438635917 0 0.41066259979421749 -0.18751321040571939 0 0.39512131941805573 -0.18574271836977549 0 0.40570951749362449 -0.22163085658094969 0 0.38725644210484572 -0.219401141892276 0 0.39210702645649248 -0.2034328438635917 0 0.40570951749362449 -0.22163085658094969 0 0.39210702645649248 -0.2034328438635917 0 0.42034669893490312 -0.19718102983807259 0 0.41858699319884662 -0.2163420411478523 0 0.42034669893490312 -0.19718102983807259 0 0.42507461395753809 -0.2054567251846193 0 0.40570951749362449 -0.22163085658094969 0 0.41858699319884662 -0.2163420411478523 0 0.42034669893490312 -0.19718102983807259 0 0.40570951749362449 -0.22163085658094969 0 0.42034669893490312 -0.19718102983807259 0 0.39210702645649248 -0.2034328438635917 0 0.41066259979421749 -0.18751321040571939 0 0.41671386220418161 -0.1911358710803695 0 0.39210702645649248 -0.2034328438635917 0 0.42034669893490312 -0.19718102983807259 0 0.41671386220418161 -0.1911358710803695 0 0.41066259979421749 -0.18751321040571939 0 0.41671386220418161 -0.1911358710803695 0 0.42375809248152718 -0.19148266629032679 0 0.42034669893490312 -0.19718102983807259 0 0.41671386220418161 -0.1911358710803695 0 0.42375809248152718 -0.19148266629032679 0 0.42617953641653422 -0.19588973245478611 0 0.44662215430226809 -0.19136406221855881 0 0.42617953641653422 -0.19588973245478611 0 0.43517277847555652 -0.18807967433230971 0 0.44662215430226809 -0.19136406221855881 0 0.42617953641653422 -0.19588973245478611 0 0.44662215430226809 -0.19136406221855881 0 0.43848046779577771 -0.20302062789908359 0 0.42375809248152718 -0.19148266629032679 0 0.42617953641653422 -0.19588973245478611 0 0.43517277847555652 -0.18807967433230971 0 0.42375809248152718 -0.19148266629032679 0 0.42617953641653422 -0.19588973245478611 0 0.42034669893490312 -0.19718102983807259 0 0.42375809248152718 -0.19148266629032679 0 0.42617953641653422 -0.19588973245478611 0 0.42034669893490312 -0.19718102983807259 0 0.42375809248152718 -0.19148266629032679 0 0.42034669893490312 -0.19718102983807259 0 0.42617953641653422 -0.19588973245478611 0 0.42507461395753809 -0.2054567251846193 0 0.42034669893490312 -0.19718102983807259 0 0.42617953641653422 -0.19588973245478611 0 0.42617953641653422 -0.19588973245478611 0 0.43790337323726403 -0.2172273004336667 0 0.43848046779577771 -0.20302062789908359 0 0.42617953641653422 -0.19588973245478611 0 0.42507461395753809 -0.2054567251846193 0 0.43790337323726403 -0.2172273004336667 0 0.42617953641653422 -0.19588973245478611 0 0.43790337323726403 -0.2172273004336667 0 0.41858699319884662 -0.2163420411478523 0 0.42657428702319872 -0.21258408959631339 0 0.42751682565282317 -0.2190642171084311 0 0.41858699319884662 -0.2163420411478523 0 0.42657428702319872 -0.21258408959631339 0 0.42507461395753809 -0.2054567251846193 0 0.42657428702319872 -0.21258408959631339 0 0.42751682565282317 -0.2190642171084311 0 0.43790337323726403 -0.2172273004336667 0 0.42657428702319872 -0.21258408959631339 0 0.42507461395753809 -0.2054567251846193 0 0.43790337323726403 -0.2172273004336667 0 0.42325019816149512 -0.24073854688315549 0 0.44439500562595219 -0.23324397065111879 0 0.44152165453420261 -0.22507116771448449 0 0.42862568490433561 -0.2294621685039471 0 0.42325019816149512 -0.24073854688315549 0 0.44152165453420261 -0.22507116771448449 0 0.42325019816149512 -0.24073854688315549 0 0.44152165453420261 -0.22507116771448449 0 0.43226626749209268 -0.22314083275723101 0 0.44152165453420261 -0.22507116771448449 0 0.43790337323726403 -0.2172273004336667 0 0.43226626749209268 -0.22314083275723101 0 0.42862568490433561 -0.2294621685039471 0 0.44152165453420261 -0.22507116771448449 0 0.43226626749209268 -0.22314083275723101 0 0.42751682565282317 -0.2190642171084311 0 0.43790337323726403 -0.2172273004336667 0 0.41858699319884662 -0.2163420411478523 0 0.42751682565282317 -0.2190642171084311 0 0.42446716311031019 -0.2253698699564429 0 0.43226626749209268 -0.22314083275723101 0 0.42751682565282317 -0.2190642171084311 0 0.42446716311031019 -0.2253698699564429 0 0.43226626749209268 -0.22314083275723101 0 0.42446716311031019 -0.2253698699564429 0 0.42862568490433561 -0.2294621685039471 0 0.42446716311031019 -0.2253698699564429 0 0.42862568490433561 -0.2294621685039471 0 0.42162314122357691 -0.23299042520842181 0 0.42574671342597992 -0.24653841312022781 0 0.44248761719368768 -0.24127362685803391 0 0.42574671342597992 -0.24653841312022781 0 0.42325019816149512 -0.24073854688315549 0 0.44248761719368768 -0.24127362685803391 0 0.42574671342597992 -0.24653841312022781 0 0.44248761719368768 -0.24127362685803391 0 0.43604559370591273 -0.25052061359546901 0 0.42325019816149512 -0.24073854688315549 0 0.44248761719368768 -0.24127362685803391 0 0.44439500562595219 -0.23324397065111879 0 0.42574671342597992 -0.24653841312022781 0 0.42325019816149512 -0.24073854688315549 0 0.41909837230190528 -0.25508694230501539 0 0.42862568490433561 -0.2294621685039471 0 0.42325019816149512 -0.24073854688315549 0 0.42162314122357691 -0.23299042520842181 0 0.40291901511462919 -0.24372939979452729 0 0.41262906112501668 -0.2404416682693811 0 0.40497874178878762 -0.25640592605182672 0 0.42325019816149512 -0.24073854688315549 0 0.41262906112501668 -0.2404416682693811 0 0.40497874178878762 -0.25640592605182672 0 0.42325019816149512 -0.24073854688315549 0 0.40497874178878762 -0.25640592605182672 0 0.42325019816149512 -0.24073854688315549 0 0.41262906112501668 -0.2404416682693811 0 0.42162314122357691 -0.23299042520842181 0 0.40662264837597473 -0.23535406694849051 0 0.41262906112501668 -0.2404416682693811 0 0.41529762917937119 -0.22869278467777179 0 0.40291901511462919 -0.24372939979452729 0 0.40662264837597473 -0.23535406694849051 0 0.41262906112501668 -0.2404416682693811 0 0.40570951749362449 -0.22163085658094969 0 0.40662264837597473 -0.23535406694849051 0 0.41529762917937119 -0.22869278467777179 0 0.40570951749362449 -0.22163085658094969 0 0.41858699319884662 -0.2163420411478523 0 0.41529762917937119 -0.22869278467777179 0 0.41858699319884662 -0.2163420411478523 0 0.42446716311031019 -0.2253698699564429 0 0.41529762917937119 -0.22869278467777179 0 0.41262906112501668 -0.2404416682693811 0 0.41529762917937119 -0.22869278467777179 0 0.42162314122357691 -0.23299042520842181 0 0.42446716311031019 -0.2253698699564429 0 0.41529762917937119 -0.22869278467777179 0 0.42162314122357691 -0.23299042520842181 0 0.39205639796458069 -0.13378508211676779 0 0.40406606107914822 -0.1417681928485296 0 0.4111337927182464 -0.12736345745607119 0 0.39642913999521012 -0.1178821333858929 0 0.39205639796458069 -0.13378508211676779 0 0.4111337927182464 -0.12736345745607119 0 0.39642913999521012 -0.1178821333858929 0 0.39205639796458069 -0.13378508211676779 0 0.38090246017173152 -0.12780341436452999 0 0.36717637813648041 -0.13031094074813701 0 0.38090246017173152 -0.12780341436452999 0 0.37949034410786753 -0.1419409207912278 0 0.39205639796458069 -0.13378508211676779 0 0.38090246017173152 -0.12780341436452999 0 0.37949034410786753 -0.1419409207912278 0 0.37949034410786753 -0.1419409207912278 0 0.40083597381098918 -0.1497640486712371 0 0.37996744773487562 -0.15760030390351551 0 0.39205639796458069 -0.13378508211676779 0 0.40406606107914822 -0.1417681928485296 0 0.40083597381098918 -0.1497640486712371 0 0.39205639796458069 -0.13378508211676779 0 0.37949034410786753 -0.1419409207912278 0 0.40083597381098918 -0.1497640486712371 0 0.39205639796458069 -0.13378508211676779 0 0.40083597381098918 -0.1497640486712371 0 0.40406606107914822 -0.1417681928485296 0 0.40083597381098918 -0.1497640486712371 0 0.41223807982277649 -0.1561601831500421 0 0.40083597381098918 -0.1497640486712371 0 0.39464247933081931 -0.16356847187263021 0 0.37996744773487562 -0.15760030390351551 0 0.40083597381098918 -0.1497640486712371 0 0.40961554965739699 -0.16574301522570681 0 0.40083597381098918 -0.1497640486712371 0 0.39464247933081931 -0.16356847187263021 0 0.40961554965739699 -0.16574301522570681 0 0.40284574658653122 -0.17628176728060441 0 0.40961554965739699 -0.16574301522570681 0 0.39464247933081931 -0.16356847187263021 0 0.40284574658653122 -0.17628176728060441 0 0.40961554965739699 -0.16574301522570681 0 0.39464247933081931 -0.16356847187263021 0 0.38788142252709712 -0.1738039074794227 0 0.40284574658653122 -0.17628176728060441 0 0.37424428590619668 -0.17401884093267411 0 0.37996744773487562 -0.15760030390351551 0 0.38788142252709712 -0.1738039074794227 0 0.39464247933081931 -0.16356847187263021 0 0.37996744773487562 -0.15760030390351551 0 0.38788142252709712 -0.1738039074794227 0 0.37424428590619668 -0.17401884093267411 0 0.38788142252709712 -0.1738039074794227 0 0.380467256186105 -0.18561134251733691 0 0.38788142252709712 -0.1738039074794227 0 0.380467256186105 -0.18561134251733691 0 0.39512131941805573 -0.18574271836977549 0 0.38788142252709712 -0.1738039074794227 0 0.39512131941805573 -0.18574271836977549 0 0.40284574658653122 -0.17628176728060441 0 0.41066259979421749 -0.18751321040571939 0 0.39512131941805573 -0.18574271836977549 0 0.40284574658653122 -0.17628176728060441 0 0.42375809248152718 -0.19148266629032679 0 0.40961554965739699 -0.16574301522570681 0 0.41066259979421749 -0.18751321040571939 0 0.40284574658653122 -0.17628176728060441 0 0.40961554965739699 -0.16574301522570681 0 0.41066259979421749 -0.18751321040571939 0 0.42375809248152718 -0.19148266629032679 0 0.40961554965739699 -0.16574301522570681 0 0.42375809248152718 -0.19148266629032679 0 0.42401682338052121 -0.17458540187297211 0 0.40961554965739699 -0.16574301522570681 0 0.42375809248152718 -0.19148266629032679 0 0.43878828485873722 -0.16637635733260961 0 0.42375809248152718 -0.19148266629032679 0 0.42401682338052121 -0.17458540187297211 0 0.43878828485873722 -0.16637635733260961 0 0.42375809248152718 -0.19148266629032679 0 0.43517277847555652 -0.18807967433230971 0 0.43878828485873722 -0.16637635733260961 0 0.42588540619494331 -0.1611163027401056 0 0.43509828474813772 -0.14829078732189219 0 0.43878828485873722 -0.16637635733260961 0 0.42401682338052121 -0.17458540187297211 0 0.42588540619494331 -0.1611163027401056 0 0.43878828485873722 -0.16637635733260961 0 0.42588540619494331 -0.1611163027401056 0 0.40961554965739699 -0.16574301522570681 0 0.42220493503615247 -0.14614474779585329 0 0.42401682338052121 -0.17458540187297211 0 0.42588540619494331 -0.1611163027401056 0 0.40961554965739699 -0.16574301522570681 0 0.40083597381098918 -0.1497640486712371 0 0.40961554965739699 -0.16574301522570681 0 0.41223807982277649 -0.1561601831500421 0 0.40961554965739699 -0.16574301522570681 0 0.41223807982277649 -0.1561601831500421 0 0.42220493503615247 -0.14614474779585329 0 0.40406606107914822 -0.1417681928485296 0 0.41223807982277649 -0.1561601831500421 0 0.4111337927182464 -0.12736345745607119 0 0.40961554965739699 -0.16574301522570681 0 0.42220493503615247 -0.14614474779585329 0 0.41223807982277649 -0.1561601831500421 0 0.4111337927182464 -0.12736345745607119 0 0.41223807982277649 -0.1561601831500421 0 0.42220493503615247 -0.14614474779585329 0 0.4111337927182464 -0.12736345745607119 0 0.42588540619494331 -0.1611163027401056 0 0.43509828474813772 -0.14829078732189219 0 0.42220493503615247 -0.14614474779585329 0 0.42220493503615247 -0.14614474779585329 0 0.43479432041490851 -0.126546480366 0 0.42220493503615247 -0.14614474779585329 0 0.43479432041490851 -0.126546480366 0 0.4111337927182464 -0.12736345745607119 0 0.43509828474813772 -0.14829078732189219 0 0.42220493503615247 -0.14614474779585329 0 0.43479432041490851 -0.126546480366 0 0.46884866961315769 -0.1161637394171751 0 0.45381847723594743 -0.1412700483748924 0 0.47257890020551208 -0.13977947879293631 0 0.46884866961315769 -0.1161637394171751 0 0.45121129326441939 -0.1227321202735536 0 0.45381847723594743 -0.1412700483748924 0 0.46884866961315769 -0.1161637394171751 0 0.45381847723594743 -0.1412700483748924 0 0.45121129326441939 -0.1227321202735536 0 0.43479432041490851 -0.126546480366 0 0.45381847723594743 -0.1412700483748924 0 0.43509828474813772 -0.14829078732189219 0 0.43479432041490851 -0.126546480366 0 0.45381847723594743 -0.1412700483748924 0 0.45381847723594743 -0.1412700483748924 0 0.43878828485873722 -0.16637635733260961 0 0.43509828474813772 -0.14829078732189219 0 0.45381847723594743 -0.1412700483748924 0 0.43878828485873722 -0.16637635733260961 0 0.45381847723594743 -0.1412700483748924 0 0.46461913390253268 -0.1580026861485602 0 0.43878828485873722 -0.16637635733260961 0 0.45381847723594743 -0.1412700483748924 0 0.46461913390253268 -0.1580026861485602 0 0.47257890020551208 -0.13977947879293631 0 0.46461913390253268 -0.1580026861485602 0 0.45716495387264372 -0.17398300348333051 0 0.47323049558718028 -0.1719990669463797 0 0.46461913390253268 -0.1580026861485602 0 0.43878828485873722 -0.16637635733260961 0 0.45716495387264372 -0.17398300348333051 0 0.43878828485873722 -0.16637635733260961 0 0.45716495387264372 -0.17398300348333051 0 0.44662215430226809 -0.19136406221855881 0 0.43517277847555652 -0.18807967433230971 0 0.43878828485873722 -0.16637635733260961 0 0.44662215430226809 -0.19136406221855881 0 0.46706477218800208 -0.18683839198233121 0 0.45716495387264372 -0.17398300348333051 0 0.44662215430226809 -0.19136406221855881 0 0.46706477218800208 -0.18683839198233121 0 0.45716495387264372 -0.17398300348333051 0 0.47323049558718028 -0.1719990669463797 0 0.46706477218800208 -0.18683839198233121 0 0.48750739007373611 -0.18231272174610369 0 0.46706477218800208 -0.18683839198233121 0 0.47323049558718028 -0.1719990669463797 0 0.48750739007373611 -0.18231272174610369 0 0.47323049558718028 -0.1719990669463797 0 0.48750739007373611 -0.18231272174610369 0 0.48371126919468349 -0.17021519453889691 0 0.49383621476583328 -0.1736686605453418 0 0.49097683693335897 -0.20029616174872991 0 0.48750739007373611 -0.18231272174610369 0 0.4920857160990425 -0.16467281603687209 0 0.48371126919468349 -0.17021519453889691 0 0.48750739007373611 -0.18231272174610369 0 0.49383621476583328 -0.1736686605453418 0 0.49097683693335897 -0.20029616174872991 0 0.49383621476583328 -0.1736686605453418 0 0.5 -0.16399732489333141 0 0.5 -0.19359204527282711 0 0.48750739007373611 -0.18231272174610369 0 0.49383621476583328 -0.1736686605453418 0 0.4920857160990425 -0.16467281603687209 0 0.48750739007373611 -0.18231272174610369 0 0.4920857160990425 -0.16467281603687209 0 0.4920857160990425 -0.16467281603687209 0 0.48016898864408858 -0.16174884894361091 0 0.48371126919468349 -0.17021519453889691 0 0.49383621476583328 -0.1736686605453418 0 0.49669559259830709 -0.14704115934195361 0 0.49383621476583328 -0.1736686605453418 0 0.5 -0.16399732489333141 0 0.49669559259830709 -0.14704115934195361 0 0.49383621476583328 -0.1736686605453418 0 0.4920857160990425 -0.16467281603687209 0 0.49669559259830709 -0.14704115934195361 0 0.4920857160990425 -0.16467281603687209 0 0.48016898864408858 -0.16174884894361091 0 0.48657998279182768 -0.15344666210371211 0 0.47323049558718028 -0.1719990669463797 0 0.48016898864408858 -0.16174884894361091 0 0.48371126919468349 -0.17021519453889691 0 0.46461913390253268 -0.1580026861485602 0 0.48016898864408858 -0.16174884894361091 0 0.4778952053861753 -0.1510323175551746 0 0.46461913390253268 -0.1580026861485602 0 0.47323049558718028 -0.1719990669463797 0 0.48016898864408858 -0.16174884894361091 0 0.46461913390253268 -0.1580026861485602 0 0.4778952053861753 -0.1510323175551746 0 0.47257890020551208 -0.13977947879293631 0 0.48359743696911123 -0.14415390608292861 0 0.4778952053861753 -0.1510323175551746 0 0.47257890020551208 -0.13977947879293631 0 0.48359743696911123 -0.14415390608292861 0 0.4778952053861753 -0.1510323175551746 0 0.48657998279182768 -0.15344666210371211 0 0.48016898864408858 -0.16174884894361091 0 0.4778952053861753 -0.1510323175551746 0 0.48657998279182768 -0.15344666210371211 0 0.4920857160990425 -0.16467281603687209 0 0.48657998279182768 -0.15344666210371211 0 0.49669559259830709 -0.14704115934195361 0 0.4920857160990425 -0.16467281603687209 0 0.49669559259830709 -0.14704115934195361 0 0.5 -0.16399732489333141 0 0.49669559259830709 -0.14704115934195361 0 0.49999999999999978 -0.13440260451383559 0 0.49669559259830709 -0.14704115934195361 0 0.49999999999999978 -0.13440260451383559 0 0.48359743696911123 -0.14415390608292861 0 0.48657998279182768 -0.15344666210371211 0 0.49669559259830709 -0.14704115934195361 0 0.49999999999999989 -0.1195422043820585 0 0.49669559259830709 -0.14704115934195361 0 0.49999999999999978 -0.13440260451383559 0 0.49999999999999989 -0.1195422043820585 0 0.49669559259830709 -0.14704115934195361 0 0.49999999999999989 -0.1195422043820585 0 0.49669559259830709 -0.14704115934195361 0 0.48423750386373432 -0.12946991262086649 0 0.48359743696911123 -0.14415390608292861 0 0.49669559259830709 -0.14704115934195361 0 0.48423750386373432 -0.12946991262086649 0 0.46884866961315769 -0.1161637394171751 0 0.48423750386373432 -0.12946991262086649 0 0.47257890020551208 -0.13977947879293631 0 0.48359743696911123 -0.14415390608292861 0 0.48423750386373432 -0.12946991262086649 0 0.47257890020551208 -0.13977947879293631 0 0.46237460239944339 -0.22793660760295081 0 0.45922852096139521 -0.23600884059583879 0 0.4749140120974788 -0.2310759672339909 0 0.45922852096139521 -0.23600884059583879 0 0.4749140120974788 -0.2310759672339909 0 0.45349068075111942 -0.22628838302012641 0 0.46237460239944339 -0.22793660760295081 0 0.45979311090691011 -0.20940378854581351 0 0.46237460239944339 -0.22793660760295081 0 0.45922852096139521 -0.23600884059583879 0 0.45349068075111942 -0.22628838302012641 0 0.46237460239944339 -0.22793660760295081 0 0.45922852096139521 -0.23600884059583879 0 0.45922852096139521 -0.23600884059583879 0 0.4749140120974788 -0.2310759672339909 0 0.47078247315191718 -0.24622804723256661 0 0.45922852096139521 -0.23600884059583879 0 0.47078247315191718 -0.24622804723256661 0 0.45089596088203499 -0.25738856890620948 0 0.45922852096139521 -0.23600884059583879 0 0.45089596088203499 -0.25738856890620948 0 0.45922852096139521 -0.23600884059583879 0 0.44248761719368768 -0.24127362685803391 0 0.45922852096139521 -0.23600884059583879 0 0.44248761719368768 -0.24127362685803391 0 0.44439500562595219 -0.23324397065111879 0 0.45922852096139521 -0.23600884059583879 0 0.44248761719368768 -0.24127362685803391 0 0.45089596088203499 -0.25738856890620948 0 0.44248761719368768 -0.24127362685803391 0 0.45089596088203499 -0.25738856890620948 0 0.43604559370591273 -0.25052061359546901 0 0.45349068075111942 -0.22628838302012641 0 0.44152165453420261 -0.22507116771448449 0 0.45979311090691011 -0.20940378854581351 0 0.45349068075111942 -0.22628838302012641 0 0.44439500562595219 -0.23324397065111879 0 0.44152165453420261 -0.22507116771448449 0 0.45349068075111942 -0.22628838302012641 0 0.45922852096139521 -0.23600884059583879 0 0.44439500562595219 -0.23324397065111879 0 0.44152165453420261 -0.22507116771448449 0 0.43790337323726403 -0.2172273004336667 0 0.44748397592039102 -0.20877457999218241 0 0.44152165453420261 -0.22507116771448449 0 0.45979311090691011 -0.20940378854581351 0 0.44152165453420261 -0.22507116771448449 0 0.44748397592039102 -0.20877457999218241 0 0.45979311090691011 -0.20940378854581351 0 0.43790337323726403 -0.2172273004336667 0 0.44748397592039102 -0.20877457999218241 0 0.43848046779577771 -0.20302062789908359 0 0.44748397592039102 -0.20877457999218241 0 0.44662215430226809 -0.19136406221855881 0 0.45848781414630269 -0.1965288202276548 0 0.44748397592039102 -0.20877457999218241 0 0.44662215430226809 -0.19136406221855881 0 0.43848046779577771 -0.20302062789908359 0 0.46706477218800208 -0.18683839198233121 0 0.44662215430226809 -0.19136406221855881 0 0.45848781414630269 -0.1965288202276548 0 0.45979311090691011 -0.20940378854581351 0 0.47806456727961749 -0.1937364093771424 0 0.46706477218800208 -0.18683839198233121 0 0.45848781414630269 -0.1965288202276548 0 0.47806456727961749 -0.1937364093771424 0 0.46706477218800208 -0.18683839198233121 0 0.44662215430226809 -0.19136406221855881 0 0.45848781414630269 -0.1965288202276548 0 0.46237460239944339 -0.22793660760295081 0 0.45979311090691011 -0.20940378854581351 0 0.46953031881243978 -0.21865313015722709 0 0.44748397592039102 -0.20877457999218241 0 0.45848781414630269 -0.1965288202276548 0 0.45979311090691011 -0.20940378854581351 0 0.45979311090691011 -0.20940378854581351 0 0.48114313384772822 -0.20652553240397831 0 0.47806456727961749 -0.1937364093771424 0 0.45979311090691011 -0.20940378854581351 0 0.46953031881243978 -0.21865313015722709 0 0.48114313384772822 -0.20652553240397831 0 0.48750739007373611 -0.18231272174610369 0 0.48114313384772822 -0.20652553240397831 0 0.46706477218800208 -0.18683839198233121 0 0.48750739007373611 -0.18231272174610369 0 0.47806456727961749 -0.1937364093771424 0 0.48750739007373611 -0.18231272174610369 0 0.48114313384772822 -0.20652553240397831 0 0.47806456727961749 -0.1937364093771424 0 0.45979311090691011 -0.20940378854581351 0 0.47806456727961749 -0.1937364093771424 0 0.48750739007373611 -0.18231272174610369 0 0.48114313384772822 -0.20652553240397831 0 0.49097683693335897 -0.20029616174872991 0 0.49383621476583328 -0.1736686605453418 0 0.49097683693335897 -0.20029616174872991 0 0.5 -0.19359204527282711 0 0.48114313384772822 -0.20652553240397831 0 0.49097683693335897 -0.20029616174872991 0 0.48811745910087972 -0.22692366295211749 0 0.49097683693335897 -0.20029616174872991 0 0.5 -0.19359204527282711 0 0.499999999999999 -0.2231867656523229 0 0.49097683693335897 -0.20029616174872991 0 0.48811745910087972 -0.22692366295211749 0 0.49097683693335897 -0.20029616174872991 0 0.499999999999999 -0.2231867656523229 0 0.48811745910087972 -0.22692366295211749 0 0.499999999999999 -0.2231867656523229 0 0.48811745910087972 -0.22692366295211749 0 0.48114313384772822 -0.20652553240397831 0 0.4749140120974788 -0.2310759672339909 0 0.46953031881243978 -0.21865313015722709 0 0.48114313384772822 -0.20652553240397831 0 0.4749140120974788 -0.2310759672339909 0 0.48114313384772822 -0.20652553240397831 0 0.48811745910087972 -0.22692366295211749 0 0.4749140120974788 -0.2310759672339909 0 0.48811745910087972 -0.22692366295211749 0 0.4749140120974788 -0.2310759672339909 0 0.46237460239944339 -0.22793660760295081 0 0.46953031881243978 -0.21865313015722709 0 0.4749140120974788 -0.2310759672339909 0 0.48811745910087972 -0.22692366295211749 0 0.4749140120974788 -0.2310759672339909 0 0.47078247315191718 -0.24622804723256661 0 0.48811745910087972 -0.22692366295211749 0 0.47078247315191718 -0.24622804723256661 0 0.48562051777060949 -0.25017603188412518 0 0.499999999999999 -0.2231867656523229 0 0.48811745910087972 -0.22692366295211749 0 0.5 -0.25319545340015481 0 0.48811745910087972 -0.22692366295211749 0 0.48562051777060949 -0.25017603188412518 0 0.48811745910087972 -0.22692366295211749 0 0.5 -0.25319545340015481 0 0.48562051777060949 -0.25017603188412518 0 0.5 -0.25319545340015481 0 0.48562051777060949 -0.25017603188412518 0 0.48312357644033421 -0.27342840081613229 0 0.5 -0.25319545340015481 0 0.48312357644033421 -0.27342840081613229 0 0.5 -0.28320414114798659 0 0.48312357644033421 -0.27342840081613229 0 0.4592920022249608 -0.27706791872796721 0 0.47037419618928611 -0.2874815938232847 0 0.48312357644033421 -0.27342840081613229 0 0.4700499070446667 -0.26064313182454291 0 0.4592920022249608 -0.27706791872796721 0 0.48562051777060949 -0.25017603188412518 0 0.48312357644033421 -0.27342840081613229 0 0.4700499070446667 -0.26064313182454291 0 0.48562051777060949 -0.25017603188412518 0 0.48312357644033421 -0.27342840081613229 0 0.47078247315191718 -0.24622804723256661 0 0.48562051777060949 -0.25017603188412518 0 0.4700499070446667 -0.26064313182454291 0 0.4700499070446667 -0.26064313182454291 0 0.4592920022249608 -0.27706791872796721 0 0.45089596088203499 -0.25738856890620948 0 0.47078247315191718 -0.24622804723256661 0 0.4700499070446667 -0.26064313182454291 0 0.45089596088203499 -0.25738856890620948 0 0.4592920022249608 -0.27706791872796721 0 0.44256340080267659 -0.27876829721658097 0 0.45089596088203499 -0.25738856890620948 0 0.44256340080267659 -0.27876829721658097 0 0.45089596088203499 -0.25738856890620948 0 0.44256340080267659 -0.27876829721658097 0 0.45089596088203499 -0.25738856890620948 0 0.43561231269328321 -0.26085865643430239 0 0.45089596088203499 -0.25738856890620948 0 0.43561231269328321 -0.26085865643430239 0 0.43604559370591273 -0.25052061359546901 0 0.44984479584299331 -0.30695071184260092 0 0.44990474726250329 -0.29237272412562798 0 0.43423084072331819 -0.30014802552695258 0 0.44984479584299331 -0.30695071184260092 0 0.44361194275408661 -0.32476634377080299 0 0.43423084072331819 -0.30014802552695258 0 0.4592920022249608 -0.27706791872796721 0 0.44256340080267659 -0.27876829721658097 0 0.44990474726250329 -0.29237272412562798 0 0.44256340080267659 -0.27876829721658097 0 0.44990474726250329 -0.29237272412562798 0 0.43423084072331819 -0.30014802552695258 0 0.44256340080267659 -0.27876829721658097 0 0.43423084072331819 -0.30014802552695258 0 0.4592920022249608 -0.27706791872796721 0 0.46351402110775802 -0.30131050105396301 0 0.47037419618928611 -0.2874815938232847 0 0.4592920022249608 -0.27706791872796721 0 0.44990474726250329 -0.29237272412562798 0 0.46351402110775802 -0.30131050105396301 0 0.4592920022249608 -0.27706791872796721 0 0.46351402110775802 -0.30131050105396301 0 0.44984479584299331 -0.30695071184260092 0 0.44990474726250329 -0.29237272412562798 0 0.46351402110775802 -0.30131050105396301 0 0.44984479584299331 -0.30695071184260092 0 0.46351402110775802 -0.30131050105396301 0 0.45796242736730008 -0.3161559647356581 0 0.48062663511005899 -0.29668076974813939 0 0.4781296937797837 -0.31993313868014639 0 0.47250159749703891 -0.31086937321555191 0 0.48062663511005899 -0.29668076974813939 0 0.4781296937797837 -0.31993313868014639 0 0.48062663511005899 -0.29668076974813939 0 0.48843455342794612 -0.30714845990467871 0 0.4781296937797837 -0.31993313868014639 0 0.46351402110775802 -0.30131050105396301 0 0.47250159749703891 -0.31086937321555191 0 0.48062663511005899 -0.29668076974813939 0 0.48312357644033421 -0.27342840081613229 0 0.47037419618928611 -0.2874815938232847 0 0.48062663511005899 -0.29668076974813939 0 0.46351402110775802 -0.30131050105396301 0 0.47037419618928611 -0.2874815938232847 0 0.48062663511005899 -0.29668076974813939 0 0.48312357644033421 -0.27342840081613229 0 0.48062663511005899 -0.29668076974813939 0 0.48312357644033421 -0.27342840081613229 0 0.48062663511005899 -0.29668076974813939 0 0.5 -0.28320414114798659 0 0.48062663511005899 -0.29668076974813939 0 0.5 -0.28320414114798659 0 0.48843455342794612 -0.30714845990467871 0 0.5 -0.28320414114798659 0 0.48843455342794612 -0.30714845990467871 0 0.50000000000001255 -0.31321282889581847 0 0.50000000000001255 -0.31321282889581847 0 0.48521929419379772 -0.33523969509025892 0 0.48386801999528462 -0.31938295613789081 0 0.48843455342794612 -0.30714845990467871 0 0.50000000000001255 -0.31321282889581847 0 0.48386801999528462 -0.31938295613789081 0 0.50000000000001255 -0.31321282889581847 0 0.48386801999528462 -0.31938295613789081 0 0.50000000000001255 -0.31321282889581847 0 0.5 -0.34113824135468801 0 0.48521929419379772 -0.33523969509025892 0 0.5 -0.34113824135468801 0 0.48521929419379772 -0.33523969509025892 0 0.47265126867047408 -0.3537760352974762 0 0.48521929419379772 -0.33523969509025892 0 0.47465886202149388 -0.33542473871441358 0 0.47265126867047408 -0.3537760352974762 0 0.47465886202149388 -0.33542473871441358 0 0.47265126867047408 -0.3537760352974762 0 0.46838791953880998 -0.32929613713076789 0 0.47265126867047408 -0.3537760352974762 0 0.46838791953880998 -0.32929613713076789 0 0.48521929419379772 -0.33523969509025892 0 0.47671650340140198 -0.3291625700709262 0 0.47465886202149388 -0.33542473871441358 0 0.47671650340140198 -0.3291625700709262 0 0.47465886202149388 -0.33542473871441358 0 0.47031932430298568 -0.329649255982638 0 0.47465886202149388 -0.33542473871441358 0 0.47031932430298568 -0.329649255982638 0 0.46838791953880998 -0.32929613713076789 0 0.47031932430298568 -0.329649255982638 0 0.46773603999055502 -0.32555308337995881 0 0.46838791953880998 -0.32929613713076789 0 0.47031932430298568 -0.329649255982638 0 0.46838791953880998 -0.32929613713076789 0 0.47671650340140198 -0.3291625700709262 0 0.48386801999528462 -0.31938295613789081 0 0.46773603999055502 -0.32555308337995881 0 0.47671650340140198 -0.3291625700709262 0 0.47031932430298568 -0.329649255982638 0 0.46773603999055502 -0.32555308337995881 0 0.48521929419379772 -0.33523969509025892 0 0.47671650340140198 -0.3291625700709262 0 0.48386801999528462 -0.31938295613789081 0 0.48386801999528462 -0.31938295613789081 0 0.46773603999055502 -0.32555308337995881 0 0.48386801999528462 -0.31938295613789081 0 0.4781296937797837 -0.31993313868014639 0 0.46773603999055502 -0.32555308337995881 0 0.47250159749703891 -0.31086937321555191 0 0.4781296937797837 -0.31993313868014639 0 0.46773603999055502 -0.32555308337995881 0 0.48843455342794612 -0.30714845990467871 0 0.48386801999528462 -0.31938295613789081 0 0.4781296937797837 -0.31993313868014639 0 0.5 -0.34113824135468801 0 0.5 -0.36906365381355732 0 0.47265126867047408 -0.3537760352974762 0 0.5 -0.36906365381355732 0 0.47265126867047408 -0.3537760352974762 0 0.47515107112876992 -0.38244888776607688 0 0.47265126867047408 -0.3537760352974762 0 0.45867577015360311 -0.36919948003168551 0 0.47515107112876992 -0.38244888776607688 0 0.47265126867047408 -0.3537760352974762 0 0.45867577015360311 -0.36919948003168551 0 0.44886786412055579 -0.35576060187019309 0 0.47265126867047408 -0.3537760352974762 0 0.44886786412055579 -0.35576060187019309 0 0.45993581700419461 -0.34141548429051122 0 0.44886786412055579 -0.35576060187019309 0 0.45993581700419461 -0.34141548429051122 0 0.43902551410388929 -0.33653422753309331 0 0.44886786412055579 -0.35576060187019309 0 0.43902551410388929 -0.33653422753309331 0 0.42585873644965838 -0.36081944428177137 0 0.44886786412055579 -0.35576060187019309 0 0.44034131792118492 -0.37302191895940368 0 0.42585873644965838 -0.36081944428177137 0 0.45867577015360311 -0.36919948003168551 0 0.44886786412055579 -0.35576060187019309 0 0.44034131792118492 -0.37302191895940368 0 0.46351402110775802 -0.30131050105396301 0 0.47250159749703891 -0.31086937321555191 0 0.46773603999055502 -0.32555308337995881 0 0.46351402110775802 -0.30131050105396301 0 0.45796242736730008 -0.3161559647356581 0 0.46773603999055502 -0.32555308337995881 0 0.46351402110775802 -0.30131050105396301 0 0.46773603999055502 -0.32555308337995881 0 0.45796242736730008 -0.3161559647356581 0 0.46132560486421481 -0.32800493370428152 0 0.44361194275408661 -0.32476634377080299 0 0.45796242736730008 -0.3161559647356581 0 0.46132560486421481 -0.32800493370428152 0 0.46773603999055502 -0.32555308337995881 0 0.46132560486421481 -0.32800493370428152 0 0.46773603999055502 -0.32555308337995881 0 0.46132560486421481 -0.32800493370428152 0 0.46773603999055502 -0.32555308337995881 0 0.46838791953880998 -0.32929613713076789 0 0.46773603999055502 -0.32555308337995881 0 0.46838791953880998 -0.32929613713076789 0 0.46132560486421481 -0.32800493370428152 0 0.46838791953880998 -0.32929613713076789 0 0.46132560486421481 -0.32800493370428152 0 0.46838791953880998 -0.32929613713076789 0 0.45993581700419461 -0.34141548429051122 0 0.46132560486421481 -0.32800493370428152 0 0.45993581700419461 -0.34141548429051122 0 0.43902551410388929 -0.33653422753309331 0 0.47265126867047408 -0.3537760352974762 0 0.46838791953880998 -0.32929613713076789 0 0.45993581700419461 -0.34141548429051122 0 0.46132560486421481 -0.32800493370428152 0 0.43902551410388929 -0.33653422753309331 0 0.44361194275408661 -0.32476634377080299 0 0.46132560486421481 -0.32800493370428152 0 0.43902551410388929 -0.33653422753309331 0 0.44984479584299331 -0.30695071184260092 0 0.45796242736730008 -0.3161559647356581 0 0.44361194275408661 -0.32476634377080299 0 0.46132560486421481 -0.32800493370428152 0 0.44361194275408661 -0.32476634377080299 0 0.43902551410388929 -0.33653422753309331 0 0.44361194275408661 -0.32476634377080299 0 0.42589828064395852 -0.32152775383732368 0 0.44361194275408661 -0.32476634377080299 0 0.42589828064395852 -0.32152775383732368 0 0.44361194275408661 -0.32476634377080299 0 0.42589828064395852 -0.32152775383732368 0 0.43423084072331819 -0.30014802552695258 0 0.43902551410388929 -0.33653422753309331 0 0.42589828064395852 -0.32152775383732368 0 0.41672542334356288 -0.34506352136190221 0 0.43902551410388929 -0.33653422753309331 0 0.41672542334356288 -0.34506352136190221 0 0.42589828064395852 -0.32152775383732368 0 0.41672542334356288 -0.34506352136190221 0 0.42589828064395852 -0.32152775383732368 0 0.4131214658581488 -0.32609829341163987 0 0.41672542334356288 -0.34506352136190221 0 0.4131214658581488 -0.32609829341163987 0 0.41672542334356288 -0.34506352136190221 0 0.40261876889155862 -0.34001264084145238 0 0.42589828064395852 -0.32152775383732368 0 0.4131214658581488 -0.32609829341163987 0 0.40741424025854928 -0.31814831559637441 0 0.42589828064395852 -0.32152775383732368 0 0.40741424025854928 -0.31814831559637441 0 0.41765869009918383 -0.31092719483206582 0 0.42589828064395852 -0.32152775383732368 0 0.40741424025854928 -0.31814831559637441 0 0.44034131792118492 -0.37302191895940368 0 0.42585873644965838 -0.36081944428177137 0 0.42134799696349279 -0.38759807091028042 0 0.43902551410388929 -0.33653422753309331 0 0.42585873644965838 -0.36081944428177137 0 0.41672542334356288 -0.34506352136190221 0 0.42585873644965838 -0.36081944428177137 0 0.41672542334356288 -0.34506352136190221 0 0.40774424222415728 -0.36810748509097629 0 0.41672542334356288 -0.34506352136190221 0 0.40774424222415728 -0.36810748509097629 0 0.42585873644965838 -0.36081944428177137 0 0.40774424222415728 -0.36810748509097629 0 0.42134799696349279 -0.38759807091028042 0 0.40774424222415728 -0.36810748509097629 0 0.38929512831123531 -0.35555500539469798 0 0.38376243554737549 -0.37597803881276293 0 0.41672542334356288 -0.34506352136190221 0 0.38929512831123531 -0.35555500539469798 0 0.41672542334356288 -0.34506352136190221 0 0.40774424222415728 -0.36810748509097629 0 0.38929512831123531 -0.35555500539469798 0 0.41672542334356288 -0.34506352136190221 0 0.38929512831123531 -0.35555500539469798 0 0.40261876889155862 -0.34001264084145238 0 0.38929512831123531 -0.35555500539469798 0 0.38376243554737549 -0.37597803881276293 0 0.36186483327890628 -0.36604648942748991 0 0.38929512831123531 -0.35555500539469798 0 0.36186483327890628 -0.36604648942748991 0 0.4131214658581488 -0.32609829341163987 0 0.40741424025854928 -0.31814831559637441 0 0.39133305805328988 -0.33333374319757059 0 0.40741424025854928 -0.31814831559637441 0 0.39133305805328988 -0.33333374319757059 0 0.38893019987314009 -0.31476887735542541 0 0.40741424025854928 -0.31814831559637441 0 0.38893019987314009 -0.31476887735542541 0 0.40741424025854928 -0.31814831559637441 0 0.38893019987314009 -0.31476887735542541 0 0.40373312634499697 -0.30586519656721561 0 0.38929512831123531 -0.35555500539469798 0 0.39133305805328988 -0.33333374319757059 0 0.40261876889155862 -0.34001264084145238 0 0.4131214658581488 -0.32609829341163987 0 0.39133305805328988 -0.33333374319757059 0 0.40261876889155862 -0.34001264084145238 0 0.4131214658581488 -0.32609829341163987 0 0.39133305805328988 -0.33333374319757059 0 0.38929512831123531 -0.35555500539469798 0 0.39133305805328988 -0.33333374319757059 0 0.36954465024843108 -0.34056919298350119 0 0.39133305805328988 -0.33333374319757059 0 0.37390592373185583 -0.31705746731241302 0 0.36954465024843108 -0.34056919298350119 0 0.39133305805328988 -0.33333374319757059 0 0.36954465024843108 -0.34056919298350119 0 0.39133305805328988 -0.33333374319757059 0 0.38893019987314009 -0.31476887735542541 0 0.37390592373185583 -0.31705746731241302 0 0.38893019987314009 -0.31476887735542541 0 0.37936997328051297 -0.30156843321594079 0 0.37390592373185583 -0.31705746731241302 0 0.38893019987314009 -0.31476887735542541 0 0.37936997328051297 -0.30156843321594079 0 0.3935804525049188 -0.2962430225215566 0 0.38893019987314009 -0.31476887735542541 0 0.40373312634499697 -0.30586519656721561 0 0.3935804525049188 -0.2962430225215566 0 0.40373312634499697 -0.30586519656721561 0 0.3935804525049188 -0.2962430225215566 0 0.40652094409829909 -0.29625389172679589 0 0.40253654224880919 -0.28770231730197082 0 0.39245801690914961 -0.28281422541743839 0 0.40162836103177568 -0.27613098926234808 0 0.40253654224880919 -0.28770231730197082 0 0.3935804525049188 -0.2962430225215566 0 0.40652094409829909 -0.29625389172679589 0 0.40253654224880919 -0.28770231730197082 0 0.3935804525049188 -0.2962430225215566 0 0.39245801690914961 -0.28281422541743839 0 0.39245801690914961 -0.28281422541743839 0 0.38123568933058932 -0.28691996455400509 0 0.38189593868108768 -0.27683382610968249 0 0.3935804525049188 -0.2962430225215566 0 0.39245801690914961 -0.28281422541743839 0 0.38123568933058932 -0.28691996455400509 0 0.37936997328051297 -0.30156843321594079 0 0.3935804525049188 -0.2962430225215566 0 0.38123568933058932 -0.28691996455400509 0 0.37936997328051297 -0.30156843321594079 0 0.38123568933058932 -0.28691996455400509 0 0.37157034655606602 -0.29231501428144818 0 0.38123568933058932 -0.28691996455400509 0 0.38189593868108768 -0.27683382610968249 0 0.36997718509612609 -0.2801945668111967 0 0.38189593868108768 -0.27683382610968249 0 0.37435873452599361 -0.26354068020136051 0 0.36997718509612609 -0.2801945668111967 0 0.38189593868108768 -0.27683382610968249 0 0.39145006754358019 -0.27069969356441193 0 0.37435873452599361 -0.26354068020136051 0 0.39245801690914961 -0.28281422541743839 0 0.38189593868108768 -0.27683382610968249 0 0.39145006754358019 -0.27069969356441193 0 0.37908670649058668 -0.24506820352079889 0 0.39649039221535809 -0.25121347051770149 0 0.37435873452599361 -0.26354068020136051 0 0.39649039221535809 -0.25121347051770149 0 0.37435873452599361 -0.26354068020136051 0 0.3960366079338461 -0.26148967139010643 0 0.39145006754358019 -0.27069969356441193 0 0.37435873452599361 -0.26354068020136051 0 0.39649039221535809 -0.25121347051770149 0 0.3960366079338461 -0.26148967139010643 0 0.37435873452599361 -0.26354068020136051 0 0.3960366079338461 -0.26148967139010643 0 0.40497874178878762 -0.25640592605182672 0 0.40262088551395192 -0.26641551765197852 0 0.39649039221535809 -0.25121347051770149 0 0.3960366079338461 -0.26148967139010643 0 0.40497874178878762 -0.25640592605182672 0 0.40291901511462919 -0.24372939979452729 0 0.39649039221535809 -0.25121347051770149 0 0.40497874178878762 -0.25640592605182672 0 0.39245801690914961 -0.28281422541743839 0 0.39145006754358019 -0.27069969356441193 0 0.40162836103177568 -0.27613098926234808 0 0.3960366079338461 -0.26148967139010643 0 0.39145006754358019 -0.27069969356441193 0 0.40262088551395192 -0.26641551765197852 0 0.40262088551395192 -0.26641551765197852 0 0.40162836103177568 -0.27613098926234808 0 0.40968844836769508 -0.27077933450861691 0 0.39145006754358019 -0.27069969356441193 0 0.40262088551395192 -0.26641551765197852 0 0.40162836103177568 -0.27613098926234808 0 0.40253654224880919 -0.28770231730197082 0 0.40162836103177568 -0.27613098926234808 0 0.41169908698187457 -0.27966410300242972 0 0.40162836103177568 -0.27613098926234808 0 0.41169908698187457 -0.27966410300242972 0 0.40968844836769508 -0.27077933450861691 0 0.41169908698187457 -0.27966410300242972 0 0.42246697149165541 -0.2684841382853691 0 0.42166740907090788 -0.28559172781797881 0 0.40262088551395192 -0.26641551765197852 0 0.40968844836769508 -0.27077933450861691 0 0.41194308641802679 -0.26298749113456099 0 0.40968844836769508 -0.27077933450861691 0 0.41194308641802679 -0.26298749113456099 0 0.42246697149165541 -0.2684841382853691 0 0.41169908698187457 -0.27966410300242972 0 0.40968844836769508 -0.27077933450861691 0 0.42246697149165541 -0.2684841382853691 0 0.42325019816149512 -0.24073854688315549 0 0.40497874178878762 -0.25640592605182672 0 0.41909837230190528 -0.25508694230501539 0 0.40497874178878762 -0.25640592605182672 0 0.40262088551395192 -0.26641551765197852 0 0.41194308641802679 -0.26298749113456099 0 0.40497874178878762 -0.25640592605182672 0 0.41194308641802679 -0.26298749113456099 0 0.41909837230190528 -0.25508694230501539 0 0.41194308641802679 -0.26298749113456099 0 0.41909837230190528 -0.25508694230501539 0 0.42246697149165541 -0.2684841382853691 0 0.42574671342597992 -0.24653841312022781 0 0.41909837230190528 -0.25508694230501539 0 0.42770164758818052 -0.25590759474449659 0 0.42770164758818052 -0.25590759474449659 0 0.43561231269328321 -0.26085865643430239 0 0.42246697149165541 -0.2684841382853691 0 0.41909837230190528 -0.25508694230501539 0 0.42770164758818052 -0.25590759474449659 0 0.42246697149165541 -0.2684841382853691 0 0.42574671342597992 -0.24653841312022781 0 0.42770164758818052 -0.25590759474449659 0 0.43604559370591273 -0.25052061359546901 0 0.42770164758818052 -0.25590759474449659 0 0.43561231269328321 -0.26085865643430239 0 0.43604559370591273 -0.25052061359546901 0 0.44256340080267659 -0.27876829721658097 0 0.43561231269328321 -0.26085865643430239 0 0.42246697149165541 -0.2684841382853691 0 0.44256340080267659 -0.27876829721658097 0 0.42246697149165541 -0.2684841382853691 0 0.42166740907090788 -0.28559172781797881 0 0.43423084072331819 -0.30014802552695258 0 0.41579038557562309 -0.29920116339617031 0 0.42166740907090788 -0.28559172781797881 0 0.44256340080267659 -0.27876829721658097 0 0.43423084072331819 -0.30014802552695258 0 0.42166740907090788 -0.28559172781797881 0 0.42589828064395852 -0.32152775383732368 0 0.43423084072331819 -0.30014802552695258 0 0.41765869009918383 -0.31092719483206582 0 0.43423084072331819 -0.30014802552695258 0 0.41579038557562309 -0.29920116339617031 0 0.41765869009918383 -0.31092719483206582 0 0.42589828064395852 -0.32152775383732368 0 0.43423084072331819 -0.30014802552695258 0 0.40741424025854928 -0.31814831559637441 0 0.40373312634499697 -0.30586519656721561 0 0.41765869009918383 -0.31092719483206582 0 0.40373312634499697 -0.30586519656721561 0 0.41579038557562309 -0.29920116339617031 0 0.41765869009918383 -0.31092719483206582 0 0.40373312634499697 -0.30586519656721561 0 0.41579038557562309 -0.29920116339617031 0 0.40652094409829909 -0.29625389172679589 0 0.40253654224880919 -0.28770231730197082 0 0.40652094409829909 -0.29625389172679589 0 0.41191907739198519 -0.28949331992542437 0 0.41579038557562309 -0.29920116339617031 0 0.40652094409829909 -0.29625389172679589 0 0.41191907739198519 -0.28949331992542437 0 0.40253654224880919 -0.28770231730197082 0 0.41169908698187457 -0.27966410300242972 0 0.41191907739198519 -0.28949331992542437 0 0.41169908698187457 -0.27966410300242972 0 0.41191907739198519 -0.28949331992542437 0 0.42166740907090788 -0.28559172781797881 0 0.41579038557562309 -0.29920116339617031 0 0.41191907739198519 -0.28949331992542437 0 0.42166740907090788 -0.28559172781797881 0 0.44522531331405518 -0.48235597643434758 0 0.45805168770176352 -0.5 0 0.42876873382138192 -0.5 0 0.44522531331405518 -0.48235597643434758 0 0.45672765879018229 -0.4625395150177728 0 0.42763867577929932 -0.46408430758067942 0 0.47227678427314418 -0.48157039387311579 0 0.45672765879018229 -0.4625395150177728 0 0.44522531331405518 -0.48235597643434758 0 0.47227678427314418 -0.48157039387311579 0 0.44522531331405518 -0.48235597643434758 0 0.47227678427314418 -0.48157039387311579 0 0.45672765879018229 -0.4625395150177728 0 0.44522531331405518 -0.48235597643434758 0 0.45805168770176352 -0.5 0 0.47227678427314418 -0.48157039387311579 0 0.45805168770176352 -0.5 0 0.48733464158214501 -0.50000000000000289 0 0.47227678427314418 -0.48157039387311579 0 0.48733464158214501 -0.50000000000000289 0 0.47227678427314418 -0.48157039387311579 0 0.48733464158214501 -0.50000000000000289 0 0.49999999999999828 -0.48076530364903503 0 0.47227678427314418 -0.48157039387311579 0 0.5 -0.5 0 0.48733464158214501 -0.50000000000000289 0 0.49999999999999828 -0.48076530364903503 0 0.49999999999999828 -0.48076530364903503 0 0.47227678427314418 -0.48157039387311579 0 0.49999999999999828 -0.48076530364903503 0 0.47227678427314418 -0.48157039387311579 0 0.48363340940192651 -0.46478798410211319 0 0.47227678427314418 -0.48157039387311579 0 0.48363340940192651 -0.46478798410211319 0 0.45672765879018229 -0.4625395150177728 0 0.48363340940192651 -0.46478798410211319 0 0.47576878755956181 -0.44611260096510358 0 0.45672765879018229 -0.4625395150177728 0 0.49999999999999828 -0.48076530364903503 0 0.48363340940192651 -0.46478798410211319 0 0.5 -0.45283989119016549 0 0.48363340940192651 -0.46478798410211319 0 0.5 -0.45283989119016549 0 0.47576878755956181 -0.44611260096510358 0 0.5 -0.45283989119016549 0 0.47576878755956181 -0.44611260096510358 0 0.5 -0.42491447873129612 0 0.47576878755956181 -0.44611260096510358 0 0.45890938353836669 -0.43902260907559282 0 0.45672765879018229 -0.4625395150177728 0 0.45672765879018229 -0.4625395150177728 0 0.44117853330721929 -0.44350863616243053 0 0.42763867577929932 -0.46408430758067942 0 0.45890938353836669 -0.43902260907559282 0 0.45672765879018229 -0.4625395150177728 0 0.44117853330721929 -0.44350863616243053 0 0.45672765879018229 -0.4625395150177728 0 0.44117853330721929 -0.44350863616243053 0 0.45890938353836669 -0.43902260907559282 0 0.44117853330721929 -0.44350863616243053 0 0.44578100140292648 -0.41925352238235919 0 0.44578100140292648 -0.41925352238235919 0 0.44946845130813701 -0.39571531876246441 0 0.42383682811642881 -0.41705512373673859 0 0.46691125967130181 -0.42257640990081818 0 0.47928945225941427 -0.40439516952986232 0 0.44946845130813701 -0.39571531876246441 0 0.44578100140292648 -0.41925352238235919 0 0.46691125967130181 -0.42257640990081818 0 0.44946845130813701 -0.39571531876246441 0 0.45890938353836669 -0.43902260907559282 0 0.44578100140292648 -0.41925352238235919 0 0.46691125967130181 -0.42257640990081818 0 0.47576878755956181 -0.44611260096510358 0 0.45890938353836669 -0.43902260907559282 0 0.46691125967130181 -0.42257640990081818 0 0.47576878755956181 -0.44611260096510358 0 0.46691125967130181 -0.42257640990081818 0 0.5 -0.42491447873129612 0 0.46691125967130181 -0.42257640990081818 0 0.5 -0.42491447873129612 0 0.47928945225941427 -0.40439516952986232 0 0.5 -0.42491447873129612 0 0.47928945225941427 -0.40439516952986232 0 0.5 -0.39698906627242669 0 0.47928945225941427 -0.40439516952986232 0 0.5 -0.39698906627242669 0 0.47515107112876992 -0.38244888776607688 0 0.5 -0.36906365381355732 0 0.5 -0.39698906627242669 0 0.47515107112876992 -0.38244888776607688 0 0.45867577015360311 -0.36919948003168551 0 0.47515107112876992 -0.38244888776607688 0 0.44946845130813701 -0.39571531876246441 0 0.47928945225941427 -0.40439516952986232 0 0.47515107112876992 -0.38244888776607688 0 0.44946845130813701 -0.39571531876246441 0 0.45867577015360311 -0.36919948003168551 0 0.44034131792118492 -0.37302191895940368 0 0.44946845130813701 -0.39571531876246441 0 0.44034131792118492 -0.37302191895940368 0 0.44946845130813701 -0.39571531876246441 0 0.42134799696349279 -0.38759807091028042 0 0.44946845130813701 -0.39571531876246441 0 0.42134799696349279 -0.38759807091028042 0 0.42383682811642881 -0.41705512373673859 0 0.42134799696349279 -0.38759807091028042 0 0.40670458119979908 -0.40751873589333909 0 0.42383682811642881 -0.41705512373673859 0 0.42134799696349279 -0.38759807091028042 0 0.3987630611047544 -0.39115144882005137 0 0.40670458119979908 -0.40751873589333909 0 0.40774424222415728 -0.36810748509097629 0 0.42134799696349279 -0.38759807091028042 0 0.3987630611047544 -0.39115144882005137 0 0.40774424222415728 -0.36810748509097629 0 0.3987630611047544 -0.39115144882005137 0 0.40774424222415728 -0.36810748509097629 0 0.38376243554737549 -0.37597803881276293 0 0.3987630611047544 -0.39115144882005137 0 0.38376243554737549 -0.37597803881276293 0 0.3987630611047544 -0.39115144882005137 0 0.37174905089330879 -0.39470448690436388 0 0.3987630611047544 -0.39115144882005137 0 0.38978187998535152 -0.4141954125491264 0 0.37174905089330879 -0.39470448690436388 0 0.3987630611047544 -0.39115144882005137 0 0.38978187998535152 -0.4141954125491264 0 0.40670458119979908 -0.40751873589333909 0 0.3987630611047544 -0.39115144882005137 0 0.38978187998535152 -0.4141954125491264 0 0.38978187998535152 -0.4141954125491264 0 0.40215241260423362 -0.43341193708697479 0 0.40670458119979908 -0.40751873589333909 0 0.38978187998535152 -0.4141954125491264 0 0.36910953910754901 -0.41855308197478092 0 0.37174905089330879 -0.39470448690436388 0 0.38978187998535152 -0.4141954125491264 0 0.38080069886594858 -0.43723937627820142 0 0.38978187998535152 -0.4141954125491264 0 0.38080069886594858 -0.43723937627820142 0 0.36910953910754901 -0.41855308197478092 0 0.38978187998535152 -0.4141954125491264 0 0.38080069886594858 -0.43723937627820142 0 0.40215241260423362 -0.43341193708697479 0 0.40215241260423362 -0.43341193708697479 0 0.42383682811642881 -0.41705512373673859 0 0.42025849337348969 -0.44299412196661853 0 0.40215241260423362 -0.43341193708697479 0 0.40670458119979908 -0.40751873589333909 0 0.42383682811642881 -0.41705512373673859 0 0.44117853330721929 -0.44350863616243053 0 0.44578100140292648 -0.41925352238235919 0 0.42383682811642881 -0.41705512373673859 0 0.44117853330721929 -0.44350863616243053 0 0.42383682811642881 -0.41705512373673859 0 0.42025849337348969 -0.44299412196661853 0 0.44117853330721929 -0.44350863616243053 0 0.42763867577929932 -0.46408430758067942 0 0.42025849337348969 -0.44299412196661853 0 0.42763867577929932 -0.46408430758067942 0 0.40648601706026782 -0.45691060526626959 0 0.40435609237136583 -0.47347885481849628 0 0.42763867577929932 -0.46408430758067942 0 0.40648601706026782 -0.45691060526626959 0 0.42025849337348969 -0.44299412196661853 0 0.40215241260423362 -0.43341193708697479 0 0.40648601706026782 -0.45691060526626959 0 0.42025849337348969 -0.44299412196661853 0 0.40215241260423362 -0.43341193708697479 0 0.40648601706026782 -0.45691060526626959 0 0.38745150721622368 -0.45363130963172199 0 0.38080069886594858 -0.43723937627820142 0 0.38745150721622368 -0.45363130963172199 0 0.36712566936238011 -0.45431027165623539 0 0.38080069886594858 -0.43723937627820142 0 0.40215241260423362 -0.43341193708697479 0 0.38745150721622368 -0.45363130963172199 0 0.38745150721622368 -0.45363130963172199 0 0.39331811649702447 -0.4675469761184734 0 0.3771745944413879 -0.46978696931907182 0 0.38745150721622368 -0.45363130963172199 0 0.3771745944413879 -0.46978696931907182 0 0.36712566936238011 -0.45431027165623539 0 0.40648601706026782 -0.45691060526626959 0 0.39331811649702447 -0.4675469761184734 0 0.40435609237136583 -0.47347885481849628 0 0.40648601706026782 -0.45691060526626959 0 0.38745150721622368 -0.45363130963172199 0 0.39331811649702447 -0.4675469761184734 0 0.39331811649702447 -0.4675469761184734 0 0.39112237139587708 -0.48392714155680699 0 0.40435609237136583 -0.47347885481849628 0 0.39112237139587708 -0.48392714155680699 0 0.41817384235496607 -0.48314155899557731 0 0.39112237139587708 -0.48392714155680699 0 0.40435609237136583 -0.47347885481849628 0 0.41817384235496607 -0.48314155899557731 0 0.39112237139587708 -0.48392714155680699 0 0.3771745944413879 -0.46978696931907182 0 0.36407090043678803 -0.48471272411803668 0 0.39331811649702447 -0.4675469761184734 0 0.39112237139587708 -0.48392714155680699 0 0.3771745944413879 -0.46978696931907182 0 0.39112237139587708 -0.48392714155680699 0 0.36407090043678803 -0.48471272411803668 0 0.39112237139587708 -0.48392714155680699 0 0.39948577994100037 -0.5 0 0.37020282606061877 -0.5 0 0.39112237139587708 -0.48392714155680699 0 0.37020282606061877 -0.5 0 0.36407090043678803 -0.48471272411803668 0 0.39112237139587708 -0.48392714155680699 0 0.39948577994100037 -0.5 0 0.41817384235496607 -0.48314155899557731 0 0.39948577994100037 -0.5 0 0.41817384235496607 -0.48314155899557731 0 0.42876873382138192 -0.5 0 0.42763867577929932 -0.46408430758067942 0 0.40435609237136583 -0.47347885481849628 0 0.41817384235496607 -0.48314155899557731 0 0.44522531331405518 -0.48235597643434758 0 0.41817384235496607 -0.48314155899557731 0 0.44522531331405518 -0.48235597643434758 0 0.42763867577929932 -0.46408430758067942 0 0.41817384235496607 -0.48314155899557731 0 0.44522531331405518 -0.48235597643434758 0 0.41817384235496607 -0.48314155899557731 0 0.42876873382138192 -0.5 0 0.32703121218833159 -0.48115477665093009 0 0.34091987218023728 -0.5 0 0.31163691829985601 -0.5 0 0.32703121218833159 -0.48115477665093009 0 0.30416151185852452 -0.48352405466362502 0 0.31163691829985601 -0.5 0 0.32703121218833159 -0.48115477665093009 0 0.31021738433804541 -0.46630700083328219 0 0.30416151185852452 -0.48352405466362502 0 0.32703121218833159 -0.48115477665093009 0 0.33030893169056541 -0.46241894008545742 0 0.31021738433804541 -0.46630700083328219 0 0.32703121218833159 -0.48115477665093009 0 0.34177356629494549 -0.47209669774536922 0 0.33030893169056541 -0.46241894008545742 0 0.32703121218833159 -0.48115477665093009 0 0.34177356629494549 -0.47209669774536922 0 0.3503072997035851 -0.48474730066711669 0 0.32703121218833159 -0.48115477665093009 0 0.34091987218023728 -0.5 0 0.3503072997035851 -0.48474730066711669 0 0.34091987218023728 -0.5 0 0.3503072997035851 -0.48474730066711669 0 0.37020282606061877 -0.5 0 0.3503072997035851 -0.48474730066711669 0 0.37020282606061877 -0.5 0 0.36407090043678803 -0.48471272411803668 0 0.3771745944413879 -0.46978696931907182 0 0.36407090043678803 -0.48471272411803668 0 0.35784542106058947 -0.47051960548836452 0 0.34177356629494549 -0.47209669774536922 0 0.3503072997035851 -0.48474730066711669 0 0.35784542106058947 -0.47051960548836452 0 0.3503072997035851 -0.48474730066711669 0 0.36407090043678803 -0.48471272411803668 0 0.35784542106058947 -0.47051960548836452 0 0.34177356629494549 -0.47209669774536922 0 0.35784542106058947 -0.47051960548836452 0 0.34832431372297012 -0.45625450924927502 0 0.35784542106058947 -0.47051960548836452 0 0.34832431372297012 -0.45625450924927502 0 0.36712566936238011 -0.45431027165623539 0 0.3771745944413879 -0.46978696931907182 0 0.35784542106058947 -0.47051960548836452 0 0.36712566936238011 -0.45431027165623539 0 0.38080069886594858 -0.43723937627820142 0 0.36712566936238011 -0.45431027165623539 0 0.35515082783654262 -0.43457173913978348 0 0.34832431372297012 -0.45625450924927502 0 0.36712566936238011 -0.45431027165623539 0 0.35515082783654262 -0.43457173913978348 0 0.34832431372297012 -0.45625450924927502 0 0.33774146609279831 -0.44360980138043982 0 0.35515082783654262 -0.43457173913978348 0 0.33774146609279831 -0.44360980138043982 0 0.32070781733533382 -0.4504200630844325 0 0.32898749054495308 -0.43060879235497201 0 0.33774146609279831 -0.44360980138043982 0 0.33030893169056541 -0.46241894008545742 0 0.32070781733533382 -0.4504200630844325 0 0.34832431372297012 -0.45625450924927502 0 0.33774146609279831 -0.44360980138043982 0 0.33030893169056541 -0.46241894008545742 0 0.34177356629494549 -0.47209669774536922 0 0.34832431372297012 -0.45625450924927502 0 0.33030893169056541 -0.46241894008545742 0 0.33030893169056541 -0.46241894008545742 0 0.32070781733533382 -0.4504200630844325 0 0.31021738433804541 -0.46630700083328219 0 0.32070781733533382 -0.4504200630844325 0 0.31273580362560971 -0.4374559050757168 0 0.30563964964378992 -0.45278314186825402 0 0.32070781733533382 -0.4504200630844325 0 0.31273580362560971 -0.4374559050757168 0 0.32898749054495308 -0.43060879235497201 0 0.31552726464900871 -0.42472468786320128 0 0.32687106938274257 -0.41257145800014861 0 0.32898749054495308 -0.43060879235497201 0 0.31273580362560971 -0.4374559050757168 0 0.31552726464900871 -0.42472468786320128 0 0.32898749054495308 -0.43060879235497201 0 0.31552726464900871 -0.42472468786320128 0 0.32687106938274257 -0.41257145800014861 0 0.30202878107347408 -0.41281011015907509 0 0.32687106938274257 -0.41257145800014861 0 0.34806523795659322 -0.41205439500242919 0 0.33529818193964761 -0.39554414587359449 0 0.32687106938274257 -0.41257145800014861 0 0.34148059278442289 -0.42625349805619273 0 0.34806523795659322 -0.41205439500242919 0 0.32687106938274257 -0.41257145800014861 0 0.32898749054495308 -0.43060879235497201 0 0.34148059278442289 -0.42625349805619273 0 0.33774146609279831 -0.44360980138043982 0 0.32898749054495308 -0.43060879235497201 0 0.34148059278442289 -0.42625349805619273 0 0.33774146609279831 -0.44360980138043982 0 0.34148059278442289 -0.42625349805619273 0 0.35515082783654262 -0.43457173913978348 0 0.34148059278442289 -0.42625349805619273 0 0.35515082783654262 -0.43457173913978348 0 0.34806523795659322 -0.41205439500242919 0 0.38080069886594858 -0.43723937627820142 0 0.35515082783654262 -0.43457173913978348 0 0.36910953910754901 -0.41855308197478092 0 0.36910953910754901 -0.41855308197478092 0 0.34806523795659322 -0.41205439500242919 0 0.37174905089330879 -0.39470448690436388 0 0.35515082783654262 -0.43457173913978348 0 0.36910953910754901 -0.41855308197478092 0 0.34806523795659322 -0.41205439500242919 0 0.34806523795659322 -0.41205439500242919 0 0.37174905089330879 -0.39470448690436388 0 0.3502823684630067 -0.38897749813363192 0 0.34806523795659322 -0.41205439500242919 0 0.3502823684630067 -0.38897749813363192 0 0.33529818193964761 -0.39554414587359449 0 0.37174905089330879 -0.39470448690436388 0 0.3502823684630067 -0.38897749813363192 0 0.36186483327890628 -0.36604648942748991 0 0.38376243554737549 -0.37597803881276293 0 0.37174905089330879 -0.39470448690436388 0 0.36186483327890628 -0.36604648942748991 0 0.3502823684630067 -0.38897749813363192 0 0.33443453824657737 -0.37653797346028173 0 0.36186483327890628 -0.36604648942748991 0 0.33443453824657737 -0.37653797346028173 0 0.33529818193964761 -0.39554414587359449 0 0.31712066812009598 -0.38992645403680171 0 0.3502823684630067 -0.38897749813363192 0 0.33443453824657737 -0.37653797346028173 0 0.33529818193964761 -0.39554414587359449 0 0.32687106938274257 -0.41257145800014861 0 0.31712066812009598 -0.38992645403680171 0 0.30202878107347408 -0.41281011015907509 0 0.32687106938274257 -0.41257145800014861 0 0.33529818193964761 -0.39554414587359449 0 0.31712066812009598 -0.38992645403680171 0 0.33443453824657737 -0.37653797346028173 0 0.30700424321424841 -0.3870294574930736 0 0.31622383729027348 -0.369541827677346 0 0.33443453824657737 -0.37653797346028173 0 0.30700424321424841 -0.3870294574930736 0 0.33443453824657737 -0.37653797346028173 0 0.31712066812009598 -0.38992645403680171 0 0.30700424321424841 -0.3870294574930736 0 0.30700424321424841 -0.3870294574930736 0 0.27957394818192022 -0.39752094152586759 0 0.27494798134585507 -0.37353784765599202 0 0.31712066812009598 -0.38992645403680171 0 0.30202878107347408 -0.41281011015907509 0 0.31712066812009598 -0.38992645403680171 0 0.30700424321424841 -0.3870294574930736 0 0.30202878107347408 -0.41281011015907509 0 0.30700424321424841 -0.3870294574930736 0 0.27957394818192022 -0.39752094152586759 0 0.30700424321424841 -0.3870294574930736 0 0.27957394818192022 -0.39752094152586759 0 0.30202878107347408 -0.41281011015907509 0 0.26318229795679571 -0.38775152563888798 0 0.27957394818192022 -0.39752094152586759 0 0.27494798134585507 -0.37353784765599202 0 0.27957394818192022 -0.39752094152586759 0 0.27494798134585507 -0.37353784765599202 0 0.26318229795679571 -0.38775152563888798 0 0.2570745260390761 -0.37496176060221259 0 0.24676596406711199 -0.38481043520233238 0 0.26318229795679571 -0.38775152563888798 0 0.27494798134585507 -0.37353784765599202 0 0.2570745260390761 -0.37496176060221259 0 0.26318229795679571 -0.38775152563888798 0 0.2564273998440364 -0.40637398674520908 0 0.24676596406711199 -0.38481043520233238 0 0.27957394818192022 -0.39752094152586759 0 0.2564273998440364 -0.40637398674520908 0 0.26318229795679571 -0.38775152563888798 0 0.27957394818192022 -0.39752094152586759 0 0.2564273998440364 -0.40637398674520908 0 0.27957394818192022 -0.39752094152586759 0 0.26861429797058761 -0.41745267149375992 0 0.28325542110438612 -0.41660735390360798 0 0.27957394818192022 -0.39752094152586759 0 0.26861429797058761 -0.41745267149375992 0 0.2564273998440364 -0.40637398674520908 0 0.2564273998440364 -0.40637398674520908 0 0.25477979716351118 -0.42793760440202661 0 0.24462940770010039 -0.42056901522014761 0 0.26861429797058761 -0.41745267149375992 0 0.2564273998440364 -0.40637398674520908 0 0.25477979716351118 -0.42793760440202661 0 0.25477979716351118 -0.42793760440202661 0 0.27072669729982052 -0.43546292123825292 0 0.25692474494065293 -0.44625734206771511 0 0.26861429797058761 -0.41745267149375992 0 0.25477979716351118 -0.42793760440202661 0 0.27072669729982052 -0.43546292123825292 0 0.26861429797058761 -0.41745267149375992 0 0.27072669729982052 -0.43546292123825292 0 0.28325542110438612 -0.41660735390360798 0 0.27072669729982052 -0.43546292123825292 0 0.28693689402685202 -0.43569376628134832 0 0.28325542110438612 -0.41660735390360798 0 0.28693689402685202 -0.43569376628134832 0 0.3037112732430739 -0.43019621747492931 0 0.29967667015283012 -0.44030613986972311 0 0.28693689402685202 -0.43569376628134832 0 0.30202878107347408 -0.41281011015907509 0 0.28693689402685202 -0.43569376628134832 0 0.28325542110438612 -0.41660735390360798 0 0.27957394818192022 -0.39752094152586759 0 0.28325542110438612 -0.41660735390360798 0 0.30202878107347408 -0.41281011015907509 0 0.28693689402685202 -0.43569376628134832 0 0.28325542110438612 -0.41660735390360798 0 0.30202878107347408 -0.41281011015907509 0 0.27957394818192022 -0.39752094152586759 0 0.28325542110438612 -0.41660735390360798 0 0.31552726464900871 -0.42472468786320128 0 0.30202878107347408 -0.41281011015907509 0 0.3037112732430739 -0.43019621747492931 0 0.28693689402685202 -0.43569376628134832 0 0.30202878107347408 -0.41281011015907509 0 0.3037112732430739 -0.43019621747492931 0 0.31273580362560971 -0.4374559050757168 0 0.31552726464900871 -0.42472468786320128 0 0.3037112732430739 -0.43019621747492931 0 0.31273580362560971 -0.4374559050757168 0 0.3037112732430739 -0.43019621747492931 0 0.29967667015283012 -0.44030613986972311 0 0.29967667015283012 -0.44030613986972311 0 0.30563964964378992 -0.45278314186825402 0 0.28947699862380383 -0.44886281161757041 0 0.31273580362560971 -0.4374559050757168 0 0.29967667015283012 -0.44030613986972311 0 0.30563964964378992 -0.45278314186825402 0 0.32070781733533382 -0.4504200630844325 0 0.30563964964378992 -0.45278314186825402 0 0.31021738433804541 -0.46630700083328219 0 0.30563964964378992 -0.45278314186825402 0 0.29562278435564698 -0.45938561890038432 0 0.28947699862380383 -0.44886281161757041 0 0.31021738433804541 -0.46630700083328219 0 0.29562278435564698 -0.45938561890038432 0 0.28841498262409321 -0.47358184465774522 0 0.30563964964378992 -0.45278314186825402 0 0.31021738433804541 -0.46630700083328219 0 0.29562278435564698 -0.45938561890038432 0 0.29562278435564698 -0.45938561890038432 0 0.28408382092282047 -0.45934978826737771 0 0.28947699862380383 -0.44886281161757041 0 0.29562278435564698 -0.45938561890038432 0 0.28408382092282047 -0.45934978826737771 0 0.28841498262409321 -0.47358184465774522 0 0.28408382092282047 -0.45934978826737771 0 0.28947699862380383 -0.44886281161757041 0 0.27774700476977598 -0.44962829050029152 0 0.28693689402685202 -0.43569376628134832 0 0.29967667015283012 -0.44030613986972311 0 0.28947699862380383 -0.44886281161757041 0 0.28693689402685202 -0.43569376628134832 0 0.28947699862380383 -0.44886281161757041 0 0.27774700476977598 -0.44962829050029152 0 0.28693689402685202 -0.43569376628134832 0 0.28947699862380383 -0.44886281161757041 0 0.28693689402685202 -0.43569376628134832 0 0.27774700476977598 -0.44962829050029152 0 0.27072669729982052 -0.43546292123825292 0 0.28693689402685202 -0.43569376628134832 0 0.27774700476977598 -0.44962829050029152 0 0.27072669729982052 -0.43546292123825292 0 0.27774700476977598 -0.44962829050029152 0 0.26690943628071201 -0.45191788577432562 0 0.25477979716351118 -0.42793760440202661 0 0.25692474494065293 -0.44625734206771511 0 0.24429483055626899 -0.44143762443535461 0 0.27072669729982052 -0.43546292123825292 0 0.26690943628071201 -0.45191788577432562 0 0.25692474494065293 -0.44625734206771511 0 0.26690943628071201 -0.45191788577432562 0 0.25692474494065293 -0.44625734206771511 0 0.2569187946599672 -0.45956481514080211 0 0.2569187946599672 -0.45956481514080211 0 0.25471513024465259 -0.47457186038339438 0 0.24330581021201581 -0.45828679983422022 0 0.25692474494065293 -0.44625734206771511 0 0.2569187946599672 -0.45956481514080211 0 0.24330581021201581 -0.45828679983422022 0 0.26690943628071201 -0.45191788577432562 0 0.2569187946599672 -0.45956481514080211 0 0.26855711551269978 -0.46356281471923461 0 0.2569187946599672 -0.45956481514080211 0 0.26855711551269978 -0.46356281471923461 0 0.25471513024465259 -0.47457186038339438 0 0.28408382092282047 -0.45934978826737771 0 0.26855711551269978 -0.46356281471923461 0 0.28841498262409321 -0.47358184465774522 0 0.27774700476977598 -0.44962829050029152 0 0.26690943628071201 -0.45191788577432562 0 0.26855711551269978 -0.46356281471923461 0 0.27774700476977598 -0.44962829050029152 0 0.26855711551269978 -0.46356281471923461 0 0.28408382092282047 -0.45934978826737771 0 0.27774700476977598 -0.44962829050029152 0 0.26855711551269978 -0.46356281471923461 0 0.26855711551269978 -0.46356281471923461 0 0.27206416033134168 -0.48243780374757927 0 0.28841498262409321 -0.47358184465774522 0 0.26855711551269978 -0.46356281471923461 0 0.27206416033134168 -0.48243780374757927 0 0.25471513024465259 -0.47457186038339438 0 0.27206416033134168 -0.48243780374757927 0 0.25471513024465259 -0.47457186038339438 0 0.25307101053909309 -0.5 0 0.27206416033134168 -0.48243780374757927 0 0.25307101053909309 -0.5 0 0.28235396441947458 -0.5 0 0.27206416033134168 -0.48243780374757927 0 0.28235396441947458 -0.5 0 0.28841498262409321 -0.47358184465774522 0 0.28235396441947458 -0.5 0 0.28841498262409321 -0.47358184465774522 0 0.30416151185852452 -0.48352405466362502 0 0.31021738433804541 -0.46630700083328219 0 0.28841498262409321 -0.47358184465774522 0 0.30416151185852452 -0.48352405466362502 0 0.28235396441947458 -0.5 0 0.30416151185852452 -0.48352405466362502 0 0.31163691829985601 -0.5 0 0.33151404988391342 -0.28740493017423852 0 0.35222707683662902 -0.27586788988501942 0 0.33151404988391342 -0.28740493017423852 0 0.35222707683662902 -0.27586788988501942 0 0.34695837859793838 -0.28815416523595261 0 0.33151404988391342 -0.28740493017423852 0 0.34695837859793838 -0.28815416523595261 0 0.34426040036796779 -0.29975717531417961 0 0.32635885874494203 -0.30632900582512163 0 0.34426040036796779 -0.29975717531417961 0 0.34119778444840171 -0.31790144893096589 0 0.33151404988391342 -0.28740493017423852 0 0.32635885874494203 -0.30632900582512163 0 0.34426040036796779 -0.29975717531417961 0 0.32635885874494203 -0.30632900582512163 0 0.30732649364020331 -0.31420398272309558 0 0.31080102293119782 -0.29894197046345761 0 0.33151404988391342 -0.28740493017423852 0 0.32635885874494203 -0.30632900582512163 0 0.31080102293119782 -0.29894197046345761 0 0.33151404988391342 -0.28740493017423852 0 0.32106297302557318 -0.28155270644852259 0 0.31080102293119782 -0.29894197046345761 0 0.32106297302557318 -0.28155270644852259 0 0.30602203525949961 -0.28439915863820231 0 0.31080102293119782 -0.29894197046345761 0 0.33151404988391342 -0.28740493017423852 0 0.31080102293119782 -0.29894197046345761 0 0.32106297302557318 -0.28155270644852259 0 0.3136483647488581 -0.26590858287124708 0 0.3106058239985019 -0.27539436948415058 0 0.32106297302557318 -0.28155270644852259 0 0.3136483647488581 -0.26590858287124708 0 0.32759323338526691 -0.26974677112204531 0 0.32106297302557318 -0.28155270644852259 0 0.3136483647488581 -0.26590858287124708 0 0.32106297302557318 -0.28155270644852259 0 0.30602203525949961 -0.28439915863820231 0 0.3106058239985019 -0.27539436948415058 0 0.32106297302557318 -0.28155270644852259 0 0.32759323338526691 -0.26974677112204531 0 0.33391581378593299 -0.2745654958002926 0 0.3136483647488581 -0.26590858287124708 0 0.32237888961991018 -0.25021827180162959 0 0.34174578198070338 -0.25696029936811882 0 0.3046167831337544 -0.24685279818082301 0 0.3136483647488581 -0.26590858287124708 0 0.32237888961991018 -0.25021827180162959 0 0.3136483647488581 -0.26590858287124708 0 0.34174578198070338 -0.25696029936811882 0 0.3136483647488581 -0.26590858287124708 0 0.32759323338526691 -0.26974677112204531 0 0.34174578198070338 -0.25696029936811882 0 0.32759323338526691 -0.26974677112204531 0 0.34174578198070338 -0.25696029936811882 0 0.33391581378593299 -0.2745654958002926 0 0.34174578198070338 -0.25696029936811882 0 0.33391581378593299 -0.2745654958002926 0 0.35222707683662902 -0.27586788988501942 0 0.33151404988391342 -0.28740493017423852 0 0.33391581378593299 -0.2745654958002926 0 0.35222707683662902 -0.27586788988501942 0 0.33151404988391342 -0.28740493017423852 0 0.32106297302557318 -0.28155270644852259 0 0.33391581378593299 -0.2745654958002926 0 0.34174578198070338 -0.25696029936811882 0 0.35222707683662902 -0.27586788988501942 0 0.34174578198070338 -0.25696029936811882 0 0.35222707683662902 -0.27586788988501942 0 0.35718695939474282 -0.26184578022473942 0 0.34174578198070338 -0.25696029936811882 0 0.36041624423564511 -0.25101425144445899 0 0.34608247494111549 -0.243317536911656 0 0.34174578198070338 -0.25696029936811882 0 0.36041624423564511 -0.25101425144445899 0 0.34174578198070338 -0.25696029936811882 0 0.35718695939474282 -0.26184578022473942 0 0.36041624423564511 -0.25101425144445899 0 0.35718695939474282 -0.26184578022473942 0 0.36041624423564511 -0.25101425144445899 0 0.37435873452599361 -0.26354068020136051 0 0.37908670649058668 -0.24506820352079889 0 0.36041624423564511 -0.25101425144445899 0 0.37435873452599361 -0.26354068020136051 0 0.35222707683662902 -0.27586788988501942 0 0.37435873452599361 -0.26354068020136051 0 0.35222707683662902 -0.27586788988501942 0 0.37435873452599361 -0.26354068020136051 0 0.36997718509612609 -0.2801945668111967 0 0.35222707683662902 -0.27586788988501942 0 0.35718695939474282 -0.26184578022473942 0 0.37435873452599361 -0.26354068020136051 0 0.38123568933058932 -0.28691996455400509 0 0.36997718509612609 -0.2801945668111967 0 0.37157034655606602 -0.29231501428144818 0 0.35222707683662902 -0.27586788988501942 0 0.36997718509612609 -0.2801945668111967 0 0.35983198730324328 -0.28958666557037283 0 0.35983198730324328 -0.28958666557037283 0 0.36743689776985872 -0.30330544125572562 0 0.37157034655606602 -0.29231501428144818 0 0.35983198730324328 -0.28958666557037283 0 0.36743689776985872 -0.30330544125572562 0 0.36997718509612609 -0.2801945668111967 0 0.37157034655606602 -0.29231501428144818 0 0.35983198730324328 -0.28958666557037283 0 0.35222707683662902 -0.27586788988501942 0 0.35983198730324328 -0.28958666557037283 0 0.35222707683662902 -0.27586788988501942 0 0.35983198730324328 -0.28958666557037283 0 0.34695837859793838 -0.28815416523595261 0 0.35983198730324328 -0.28958666557037283 0 0.34695837859793838 -0.28815416523595261 0 0.34426040036796779 -0.29975717531417961 0 0.35983198730324328 -0.28958666557037283 0 0.35499307419860021 -0.30939987622172782 0 0.34426040036796779 -0.29975717531417961 0 0.35499307419860021 -0.30939987622172782 0 0.34426040036796779 -0.29975717531417961 0 0.34119778444840171 -0.31790144893096589 0 0.35983198730324328 -0.28958666557037283 0 0.35499307419860021 -0.30939987622172782 0 0.36743689776985872 -0.30330544125572562 0 0.35499307419860021 -0.30939987622172782 0 0.36743689776985872 -0.30330544125572562 0 0.37390592373185583 -0.31705746731241302 0 0.37936997328051297 -0.30156843321594079 0 0.37157034655606602 -0.29231501428144818 0 0.36743689776985872 -0.30330544125572562 0 0.37936997328051297 -0.30156843321594079 0 0.36743689776985872 -0.30330544125572562 0 0.37390592373185583 -0.31705746731241302 0 0.35969155224906341 -0.32243502818235897 0 0.37390592373185583 -0.31705746731241302 0 0.36954465024843108 -0.34056919298350119 0 0.35499307419860021 -0.30939987622172782 0 0.35969155224906341 -0.32243502818235897 0 0.37390592373185583 -0.31705746731241302 0 0.35969155224906341 -0.32243502818235897 0 0.36954465024843108 -0.34056919298350119 0 0.35047469321469521 -0.33279522111741372 0 0.35047469321469521 -0.33279522111741372 0 0.34775624244357223 -0.34780464276943179 0 0.33418323668400768 -0.33526579272081047 0 0.36954465024843108 -0.34056919298350119 0 0.35047469321469521 -0.33279522111741372 0 0.34775624244357223 -0.34780464276943179 0 0.35499307419860021 -0.30939987622172782 0 0.35969155224906341 -0.32243502818235897 0 0.34119778444840171 -0.31790144893096589 0 0.35969155224906341 -0.32243502818235897 0 0.35047469321469521 -0.33279522111741372 0 0.34119778444840171 -0.31790144893096589 0 0.36954465024843108 -0.34056919298350119 0 0.36186483327890628 -0.36604648942748991 0 0.34775624244357223 -0.34780464276943179 0 0.38929512831123531 -0.35555500539469798 0 0.36954465024843108 -0.34056919298350119 0 0.36186483327890628 -0.36604648942748991 0 0.36954465024843108 -0.34056919298350119 0 0.34775624244357223 -0.34780464276943179 0 0.33443453824657737 -0.37653797346028173 0 0.36186483327890628 -0.36604648942748991 0 0.34775624244357223 -0.34780464276943179 0 0.33443453824657737 -0.37653797346028173 0 0.36186483327890628 -0.36604648942748991 0 0.33443453824657737 -0.37653797346028173 0 0.34775624244357223 -0.34780464276943179 0 0.32596783463871343 -0.35504009255536251 0 0.34775624244357223 -0.34780464276943179 0 0.32596783463871343 -0.35504009255536251 0 0.34775624244357223 -0.34780464276943179 0 0.32596783463871343 -0.35504009255536251 0 0.33418323668400768 -0.33526579272081047 0 0.32596783463871343 -0.35504009255536251 0 0.33418323668400768 -0.33526579272081047 0 0.31552356823052269 -0.3411622078279678 0 0.32596783463871343 -0.35504009255536251 0 0.31552356823052269 -0.3411622078279678 0 0.30042236044519249 -0.35915884978195728 0 0.32596783463871343 -0.35504009255536251 0 0.31622383729027348 -0.369541827677346 0 0.30042236044519249 -0.35915884978195728 0 0.33443453824657737 -0.37653797346028173 0 0.32596783463871343 -0.35504009255536251 0 0.31622383729027348 -0.369541827677346 0 0.32635885874494203 -0.30632900582512163 0 0.34119778444840171 -0.31790144893096589 0 0.32073820251795321 -0.32470995870756109 0 0.34119778444840171 -0.31790144893096589 0 0.33418323668400768 -0.33526579272081047 0 0.32073820251795321 -0.32470995870756109 0 0.35047469321469521 -0.33279522111741372 0 0.34119778444840171 -0.31790144893096589 0 0.33418323668400768 -0.33526579272081047 0 0.33418323668400768 -0.33526579272081047 0 0.31552356823052269 -0.3411622078279678 0 0.32073820251795321 -0.32470995870756109 0 0.32635885874494203 -0.30632900582512163 0 0.32073820251795321 -0.32470995870756109 0 0.30732649364020331 -0.31420398272309558 0 0.32073820251795321 -0.32470995870756109 0 0.30732649364020331 -0.31420398272309558 0 0.30010676779429429 -0.3335306401443634 0 0.30732649364020331 -0.31420398272309558 0 0.30010676779429429 -0.3335306401443634 0 0.29198964752419793 -0.31107628017629091 0 0.31552356823052269 -0.3411622078279678 0 0.32073820251795321 -0.32470995870756109 0 0.30010676779429429 -0.3335306401443634 0 0.30010676779429429 -0.3335306401443634 0 0.28165322400487658 -0.33162585129776362 0 0.28586357455817968 -0.34985867990819502 0 0.28165322400487658 -0.33162585129776362 0 0.27570222036804048 -0.31312596585318597 0 0.29198964752419793 -0.31107628017629091 0 0.30010676779429429 -0.3335306401443634 0 0.28165322400487658 -0.33162585129776362 0 0.29198964752419793 -0.31107628017629091 0 0.30700424321424841 -0.3870294574930736 0 0.30042236044519249 -0.35915884978195728 0 0.27494798134585507 -0.37353784765599202 0 0.30700424321424841 -0.3870294574930736 0 0.31622383729027348 -0.369541827677346 0 0.30042236044519249 -0.35915884978195728 0 0.31552356823052269 -0.3411622078279678 0 0.30010676779429429 -0.3335306401443634 0 0.30042236044519249 -0.35915884978195728 0 0.30010676779429429 -0.3335306401443634 0 0.30042236044519249 -0.35915884978195728 0 0.28586357455817968 -0.34985867990819502 0 0.30042236044519249 -0.35915884978195728 0 0.28586357455817968 -0.34985867990819502 0 0.27494798134585507 -0.37353784765599202 0 0.27494798134585507 -0.37353784765599202 0 0.2703220145097896 -0.34955475378611639 0 0.27494798134585507 -0.37353784765599202 0 0.2703220145097896 -0.34955475378611639 0 0.25881051436626951 -0.36173843839454273 0 0.28586357455817968 -0.34985867990819502 0 0.27494798134585507 -0.37353784765599202 0 0.2703220145097896 -0.34955475378611639 0 0.25109454396796321 -0.34685822982731052 0 0.25881051436626951 -0.36173843839454273 0 0.2416658724593482 -0.36697055611930818 0 0.2703220145097896 -0.34955475378611639 0 0.25109454396796321 -0.34685822982731052 0 0.25881051436626951 -0.36173843839454273 0 0.25881051436626951 -0.36173843839454273 0 0.2570745260390761 -0.37496176060221259 0 0.2416658724593482 -0.36697055611930818 0 0.27494798134585507 -0.37353784765599202 0 0.25881051436626951 -0.36173843839454273 0 0.2570745260390761 -0.37496176060221259 0 0.28165322400487658 -0.33162585129776362 0 0.26569604767372418 -0.32557165991624099 0 0.27570222036804048 -0.31312596585318597 0 0.26569604767372418 -0.32557165991624099 0 0.27570222036804048 -0.31312596585318597 0 0.26011811299002718 -0.30454940854173052 0 0.28165322400487658 -0.33162585129776362 0 0.28586357455817968 -0.34985867990819502 0 0.2703220145097896 -0.34955475378611639 0 0.2703220145097896 -0.34955475378611639 0 0.26569604767372418 -0.32557165991624099 0 0.28165322400487658 -0.33162585129776362 0 0.2703220145097896 -0.34955475378611639 0 0.26569604767372418 -0.32557165991624099 0 0.25109454396796321 -0.34685822982731052 0 0.26569604767372418 -0.32557165991624099 0 0.24841074786797221 -0.32752402185243118 0 0.2703220145097896 -0.34955475378611639 0 0.25109454396796321 -0.34685822982731052 0 0.26569604767372418 -0.32557165991624099 0 0.26569604767372418 -0.32557165991624099 0 0.26011811299002718 -0.30454940854173052 0 0.24841074786797221 -0.32752402185243118 0 0.26011811299002718 -0.30454940854173052 0 0.26556626314110338 -0.2810412552044107 0 0.24792475072825901 -0.28406151885930608 0 0.26011811299002718 -0.30454940854173052 0 0.27905406964737711 -0.29280662933390372 0 0.26556626314110338 -0.2810412552044107 0 0.27570222036804048 -0.31312596585318597 0 0.26011811299002718 -0.30454940854173052 0 0.27905406964737711 -0.29280662933390372 0 0.27570222036804048 -0.31312596585318597 0 0.27905406964737711 -0.29280662933390372 0 0.29198964752419793 -0.31107628017629091 0 0.27905406964737711 -0.29280662933390372 0 0.29198964752419793 -0.31107628017629091 0 0.2953043051528752 -0.2957906805692152 0 0.27905406964737711 -0.29280662933390372 0 0.2953043051528752 -0.2957906805692152 0 0.29171590834475009 -0.27980216710827999 0 0.2953043051528752 -0.2957906805692152 0 0.30602203525949961 -0.28439915863820231 0 0.31080102293119782 -0.29894197046345761 0 0.2953043051528752 -0.2957906805692152 0 0.30602203525949961 -0.28439915863820231 0 0.29171590834475009 -0.27980216710827999 0 0.30732649364020331 -0.31420398272309558 0 0.2953043051528752 -0.2957906805692152 0 0.31080102293119782 -0.29894197046345761 0 0.30732649364020331 -0.31420398272309558 0 0.29198964752419793 -0.31107628017629091 0 0.2953043051528752 -0.2957906805692152 0 0.3046167831337544 -0.24685279818082301 0 0.3136483647488581 -0.26590858287124708 0 0.29772606969876569 -0.25759016519756739 0 0.3136483647488581 -0.26590858287124708 0 0.29772606969876569 -0.25759016519756739 0 0.30168992296007668 -0.26971702997863067 0 0.3046167831337544 -0.24685279818082301 0 0.3136483647488581 -0.26590858287124708 0 0.3136483647488581 -0.26590858287124708 0 0.30168992296007668 -0.26971702997863067 0 0.3136483647488581 -0.26590858287124708 0 0.3106058239985019 -0.27539436948415058 0 0.30168992296007668 -0.26971702997863067 0 0.30602203525949961 -0.28439915863820231 0 0.3106058239985019 -0.27539436948415058 0 0.30168992296007668 -0.26971702997863067 0 0.30602203525949961 -0.28439915863820231 0 0.30168992296007668 -0.26971702997863067 0 0.29171590834475009 -0.27980216710827999 0 0.30168992296007668 -0.26971702997863067 0 0.2909190110955337 -0.2659812196214103 0 0.29171590834475009 -0.27980216710827999 0 0.27905406964737711 -0.29280662933390372 0 0.29171590834475009 -0.27980216710827999 0 0.27734949701176531 -0.26955890778273511 0 0.2909190110955337 -0.2659812196214103 0 0.29171590834475009 -0.27980216710827999 0 0.27734949701176531 -0.26955890778273511 0 0.2909190110955337 -0.2659812196214103 0 0.28620043957956359 -0.25211907458867228 0 0.27734949701176531 -0.26955890778273511 0 0.29772606969876569 -0.25759016519756739 0 0.30168992296007668 -0.26971702997863067 0 0.2909190110955337 -0.2659812196214103 0 0.29772606969876569 -0.25759016519756739 0 0.2909190110955337 -0.2659812196214103 0 0.28620043957956359 -0.25211907458867228 0 0.29342398052734248 -0.24254561644133329 0 0.29772606969876569 -0.25759016519756739 0 0.28620043957956359 -0.25211907458867228 0 0.28620043957956359 -0.25211907458867228 0 0.27041912396174622 -0.25300857944255861 0 0.27734949701176531 -0.26955890778273511 0 0.27041912396174622 -0.25300857944255861 0 0.27734949701176531 -0.26955890778273511 0 0.25678271184163343 -0.26100166432917821 0 0.27734949701176531 -0.26955890778273511 0 0.26556626314110338 -0.2810412552044107 0 0.25678271184163343 -0.26100166432917821 0 0.27905406964737711 -0.29280662933390372 0 0.27734949701176531 -0.26955890778273511 0 0.26556626314110338 -0.2810412552044107 0 0.26556626314110338 -0.2810412552044107 0 0.25678271184163343 -0.26100166432917821 0 0.24792475072825901 -0.28406151885930608 0 0.25678271184163343 -0.26100166432917821 0 0.24792475072825901 -0.28406151885930608 0 0.26564067295501281 -0.237941809799052 0 0.27041912396174622 -0.25300857944255861 0 0.25678271184163343 -0.26100166432917821 0 0.25678271184163343 -0.26100166432917821 0 0.22985715824854019 -0.2716993345041096 0 0.24459971964430779 -0.24469171935207509 0 0.25678271184163343 -0.26100166432917821 0 0.22985715824854019 -0.2716993345041096 0 0.24792475072825901 -0.28406151885930608 0 0.22985715824854019 -0.2716993345041096 0 0.20821187878118269 -0.28024207259355949 0 0.2246351555093006 -0.29041008309154392 0 0.22985715824854019 -0.2716993345041096 0 0.20957198256866749 -0.26346688968608928 0 0.2244204392317353 -0.24338583917491921 0 0.22985715824854019 -0.2716993345041096 0 0.24459971964430779 -0.24469171935207509 0 0.2244204392317353 -0.24338583917491921 0 0.20957198256866749 -0.26346688968608928 0 0.2244204392317353 -0.24338583917491921 0 0.20806627738608871 -0.2462272448888235 0 0.20957198256866749 -0.26346688968608928 0 0.1921931639271513 -0.25129532114029068 0 0.20806627738608871 -0.2462272448888235 0 0.22985715824854019 -0.2716993345041096 0 0.20957198256866749 -0.26346688968608928 0 0.20821187878118269 -0.28024207259355949 0 0.20957198256866749 -0.26346688968608928 0 0.19085260679678229 -0.27730035001639819 0 0.1817262583875402 -0.26850644305710342 0 0.20957198256866749 -0.26346688968608928 0 0.20821187878118269 -0.28024207259355949 0 0.19085260679678229 -0.27730035001639819 0 0.20957198256866749 -0.26346688968608928 0 0.1817262583875402 -0.26850644305710342 0 0.19085260679678229 -0.27730035001639819 0 0.1963343358038884 -0.289025983691518 0 0.17745736761954309 -0.27552593885550553 0 0.20957198256866749 -0.26346688968608928 0 0.1921931639271513 -0.25129532114029068 0 0.1817262583875402 -0.26850644305710342 0 0.20718495464750469 -0.31179693130287389 0 0.18416108079349899 -0.293412634686186 0 0.20718495464750469 -0.31179693130287389 0 0.18416108079349899 -0.293412634686186 0 0.18724809441997539 -0.31078272589235528 0 0.20766448332149989 -0.29759773412457391 0 0.20718495464750469 -0.31179693130287389 0 0.18416108079349899 -0.293412634686186 0 0.1963343358038884 -0.289025983691518 0 0.20766448332149989 -0.29759773412457391 0 0.18416108079349899 -0.293412634686186 0 0.20821187878118269 -0.28024207259355949 0 0.19085260679678229 -0.27730035001639819 0 0.1963343358038884 -0.289025983691518 0 0.20821187878118269 -0.28024207259355949 0 0.20766448332149989 -0.29759773412457391 0 0.2246351555093006 -0.29041008309154392 0 0.20821187878118269 -0.28024207259355949 0 0.1963343358038884 -0.289025983691518 0 0.20766448332149989 -0.29759773412457391 0 0.20766448332149989 -0.29759773412457391 0 0.22175204231894 -0.30742146996559749 0 0.2246351555093006 -0.29041008309154392 0 0.20766448332149989 -0.29759773412457391 0 0.20718495464750469 -0.31179693130287389 0 0.22175204231894 -0.30742146996559749 0 0.22175204231894 -0.30742146996559749 0 0.2246351555093006 -0.29041008309154392 0 0.23906678961488459 -0.30712137338943402 0 0.22985715824854019 -0.2716993345041096 0 0.2246351555093006 -0.29041008309154392 0 0.24792475072825901 -0.28406151885930608 0 0.2246351555093006 -0.29041008309154392 0 0.24792475072825901 -0.28406151885930608 0 0.23906678961488459 -0.30712137338943402 0 0.24792475072825901 -0.28406151885930608 0 0.23906678961488459 -0.30712137338943402 0 0.26011811299002718 -0.30454940854173052 0 0.24792475072825901 -0.28406151885930608 0 0.23906678961488459 -0.30712137338943402 0 0.23906678961488459 -0.30712137338943402 0 0.2302088285015102 -0.33018122791956189 0 0.26011811299002718 -0.30454940854173052 0 0.23906678961488459 -0.30712137338943402 0 0.24841074786797221 -0.32752402185243118 0 0.23906678961488459 -0.30712137338943402 0 0.24841074786797221 -0.32752402185243118 0 0.2302088285015102 -0.33018122791956189 0 0.25109454396796321 -0.34685822982731052 0 0.24841074786797221 -0.32752402185243118 0 0.2302088285015102 -0.33018122791956189 0 0.25109454396796321 -0.34685822982731052 0 0.2302088285015102 -0.33018122791956189 0 0.25109454396796321 -0.34685822982731052 0 0.2302088285015102 -0.33018122791956189 0 0.23589559204414479 -0.35126942274083062 0 0.2302088285015102 -0.33018122791956189 0 0.22145128800919961 -0.35297965830434541 0 0.21657190500707771 -0.33763339086346128 0 0.2302088285015102 -0.33018122791956189 0 0.22145128800919961 -0.35297965830434541 0 0.2302088285015102 -0.33018122791956189 0 0.20972699849219659 -0.32517587132085468 0 0.21657190500707771 -0.33763339086346128 0 0.22175204231894 -0.30742146996559749 0 0.23906678961488459 -0.30712137338943402 0 0.2302088285015102 -0.33018122791956189 0 0.20718495464750469 -0.31179693130287389 0 0.22175204231894 -0.30742146996559749 0 0.2302088285015102 -0.33018122791956189 0 0.2416658724593482 -0.36697055611930818 0 0.23589559204414479 -0.35126942274083062 0 0.23083167191174481 -0.36122695847508018 0 0.25109454396796321 -0.34685822982731052 0 0.2416658724593482 -0.36697055611930818 0 0.23589559204414479 -0.35126942274083062 0 0.2302088285015102 -0.33018122791956189 0 0.23589559204414479 -0.35126942274083062 0 0.22145128800919961 -0.35297965830434541 0 0.23589559204414479 -0.35126942274083062 0 0.22145128800919961 -0.35297965830434541 0 0.23083167191174481 -0.36122695847508018 0 0.2416658724593482 -0.36697055611930818 0 0.22431393513428641 -0.37368819673583659 0 0.2343238886319037 -0.38118771860102602 0 0.22145128800919961 -0.35297965830434541 0 0.22431393513428641 -0.37368819673583659 0 0.2126937475168891 -0.37577808868912899 0 0.22145128800919961 -0.35297965830434541 0 0.23083167191174481 -0.36122695847508018 0 0.22431393513428641 -0.37368819673583659 0 0.2416658724593482 -0.36697055611930818 0 0.23083167191174481 -0.36122695847508018 0 0.22431393513428641 -0.37368819673583659 0 0.22145128800919961 -0.35297965830434541 0 0.20269409518152759 -0.35988475386110003 0 0.2126937475168891 -0.37577808868912899 0 0.22145128800919961 -0.35297965830434541 0 0.2126937475168891 -0.37577808868912899 0 0.22431393513428641 -0.37368819673583659 0 0.2126937475168891 -0.37577808868912899 0 0.22145128800919961 -0.35297965830434541 0 0.20269409518152759 -0.35988475386110003 0 0.20490050502540441 -0.3421968059090833 0 0.22145128800919961 -0.35297965830434541 0 0.20490050502540441 -0.3421968059090833 0 0.21657190500707771 -0.33763339086346128 0 0.20269409518152759 -0.35988475386110003 0 0.20490050502540441 -0.3421968059090833 0 0.18675054785560141 -0.34839025157686132 0 0.20269409518152759 -0.35988475386110003 0 0.18903370828357949 -0.36193740855113649 0 0.18675054785560141 -0.34839025157686132 0 0.20269409518152759 -0.35988475386110003 0 0.2126937475168891 -0.37577808868912899 0 0.19166201140820249 -0.37956064861884192 0 0.20269409518152759 -0.35988475386110003 0 0.18903370828357949 -0.36193740855113649 0 0.19166201140820249 -0.37956064861884192 0 0.20718495464750469 -0.31179693130287389 0 0.2302088285015102 -0.33018122791956189 0 0.20718495464750469 -0.31179693130287389 0 0.2302088285015102 -0.33018122791956189 0 0.20972699849219659 -0.32517587132085468 0 0.20972699849219659 -0.32517587132085468 0 0.20490050502540441 -0.3421968059090833 0 0.21657190500707771 -0.33763339086346128 0 0.20490050502540441 -0.3421968059090833 0 0.1911762989574004 -0.32939784724752957 0 0.18675054785560141 -0.34839025157686132 0 0.20972699849219659 -0.32517587132085468 0 0.20490050502540441 -0.3421968059090833 0 0.1911762989574004 -0.32939784724752957 0 0.20972699849219659 -0.32517587132085468 0 0.1911762989574004 -0.32939784724752957 0 0.18724809441997539 -0.31078272589235528 0 0.20972699849219659 -0.32517587132085468 0 0.18724809441997539 -0.31078272589235528 0 0.20718495464750469 -0.31179693130287389 0 0.20972699849219659 -0.32517587132085468 0 0.18724809441997539 -0.31078272589235528 0 0.1911762989574004 -0.32939784724752957 0 0.16807020117017399 -0.32364662116747439 0 0.18724809441997539 -0.31078272589235528 0 0.1911762989574004 -0.32939784724752957 0 0.17709784859254779 -0.3366682748141866 0 0.16807020117017399 -0.32364662116747439 0 0.1911762989574004 -0.32939784724752957 0 0.17709784859254779 -0.3366682748141866 0 0.18675054785560141 -0.34839025157686132 0 0.17709784859254779 -0.3366682748141866 0 0.16807020117017399 -0.32364662116747439 0 0.1647328488948914 -0.34657628491483627 0 0.16807020117017399 -0.32364662116747439 0 0.1647328488948914 -0.34657628491483627 0 0.14382245166546981 -0.33659316478713019 0 0.16807020117017399 -0.32364662116747439 0 0.15034912835678699 -0.32010102450386457 0 0.164769190347754 -0.29638958046385599 0 0.18903370828357949 -0.36193740855113649 0 0.1753435970524054 -0.3637814302311157 0 0.19166201140820249 -0.37956064861884192 0 0.1753435970524054 -0.3637814302311157 0 0.18675054785560141 -0.34839025157686132 0 0.1647328488948914 -0.34657628491483627 0 0.17709784859254779 -0.3366682748141866 0 0.18675054785560141 -0.34839025157686132 0 0.1647328488948914 -0.34657628491483627 0 0.18903370828357949 -0.36193740855113649 0 0.1753435970524054 -0.3637814302311157 0 0.18675054785560141 -0.34839025157686132 0 0.1753435970524054 -0.3637814302311157 0 0.1647328488948914 -0.34657628491483627 0 0.1556462529867029 -0.36789156522211092 0 0.1753435970524054 -0.3637814302311157 0 0.1556462529867029 -0.36789156522211092 0 0.17063027529951619 -0.38334320854855669 0 0.1556462529867029 -0.36789156522211092 0 0.14330429871307249 -0.35467148838947532 0 0.1334112792555546 -0.36981158194157598 0 0.1556462529867029 -0.36789156522211092 0 0.1334112792555546 -0.36981158194157598 0 0.15341644673091229 -0.38643911740952702 0 0.1647328488948914 -0.34657628491483627 0 0.1556462529867029 -0.36789156522211092 0 0.14330429871307249 -0.35467148838947532 0 0.1647328488948914 -0.34657628491483627 0 0.14330429871307249 -0.35467148838947532 0 0.14382245166546981 -0.33659316478713019 0 0.14330429871307249 -0.35467148838947532 0 0.1334112792555546 -0.36981158194157598 0 0.11957470216076579 -0.34953970840678589 0 0.14330429871307249 -0.35467148838947532 0 0.14382245166546981 -0.33659316478713019 0 0.11957470216076579 -0.34953970840678589 0 0.16807020117017399 -0.32364662116747439 0 0.15034912835678699 -0.32010102450386457 0 0.14382245166546981 -0.33659316478713019 0 0.15034912835678699 -0.32010102450386457 0 0.14382245166546981 -0.33659316478713019 0 0.132759356249668 -0.32370860499886139 0 0.16807020117017399 -0.32364662116747439 0 0.14382245166546981 -0.33659316478713019 0 0.14382245166546981 -0.33659316478713019 0 0.11957470216076579 -0.34953970840678589 0 0.14382245166546981 -0.33659316478713019 0 0.11868082408184701 -0.3329768044732706 0 0.11957470216076579 -0.34953970840678589 0 0.14382245166546981 -0.33659316478713019 0 0.132759356249668 -0.32370860499886139 0 0.11868082408184701 -0.3329768044732706 0 0.15034912835678699 -0.32010102450386457 0 0.132759356249668 -0.32370860499886139 0 0.13301616913552181 -0.31049640420533597 0 0.132759356249668 -0.32370860499886139 0 0.13301616913552181 -0.31049640420533597 0 0.1177436955112441 -0.31769016004013079 0 0.13301616913552181 -0.31049640420533597 0 0.13088037227655899 -0.2942857276262526 0 0.1203053819633965 -0.30326126531445879 0 0.13301616913552181 -0.31049640420533597 0 0.1444270415094169 -0.30050262947136069 0 0.13088037227655899 -0.2942857276262526 0 0.15034912835678699 -0.32010102450386457 0 0.1444270415094169 -0.30050262947136069 0 0.164769190347754 -0.29638958046385599 0 0.15034912835678699 -0.32010102450386457 0 0.13301616913552181 -0.31049640420533597 0 0.1444270415094169 -0.30050262947136069 0 0.1444270415094169 -0.30050262947136069 0 0.14045622103294089 -0.28082209096247979 0 0.164769190347754 -0.29638958046385599 0 0.14045622103294089 -0.28082209096247979 0 0.164769190347754 -0.29638958046385599 0 0.16341806706359069 -0.28182413945472629 0 0.14045622103294089 -0.28082209096247979 0 0.164769190347754 -0.29638958046385599 0 0.13088037227655899 -0.2942857276262526 0 0.13732373088378849 -0.27654246703362351 0 0.1444270415094169 -0.30050262947136069 0 0.13088037227655899 -0.2942857276262526 0 0.14045622103294089 -0.28082209096247979 0 0.13088037227655899 -0.2942857276262526 0 0.13732373088378849 -0.27654246703362351 0 0.1207837240153115 -0.27953589779622062 0 0.13088037227655899 -0.2942857276262526 0 0.14045622103294089 -0.28082209096247979 0 0.13732373088378849 -0.27654246703362351 0 0.13255816919029889 -0.27683576964546203 0 0.13732373088378849 -0.27654246703362351 0 0.1207837240153115 -0.27953589779622062 0 0.13732373088378849 -0.27654246703362351 0 0.1207837240153115 -0.27953589779622062 0 0.13255816919029889 -0.27683576964546203 0 0.13255133477306699 -0.26568128814098352 0 0.1207837240153115 -0.27953589779622062 0 0.13255133477306699 -0.26568128814098352 0 0.1207837240153115 -0.27953589779622062 0 0.13255816919029889 -0.27683576964546203 0 0.13255133477306699 -0.26568128814098352 0 0.1387186258351768 -0.27270130497351069 0 0.1387186258351768 -0.27270130497351069 0 0.13732373088378849 -0.27654246703362351 0 0.13255816919029889 -0.27683576964546203 0 0.1387186258351768 -0.27270130497351069 0 0.13732373088378849 -0.27654246703362351 0 0.13255816919029889 -0.27683576964546203 0 0.1387186258351768 -0.27270130497351069 0 0.13255133477306699 -0.26568128814098352 0 0.1387186258351768 -0.27270130497351069 0 0.14589088039571849 -0.25295086277996659 0 0.13255133477306699 -0.26568128814098352 0 0.14431894553082231 -0.25182667848574608 0 0.1247112926720263 -0.25243123502020148 0 0.13255133477306699 -0.26568128814098352 0 0.14431894553082231 -0.25182667848574608 0 0.1387186258351768 -0.27270130497351069 0 0.14589088039571849 -0.25295086277996659 0 0.1387186258351768 -0.27270130497351069 0 0.14589088039571849 -0.25295086277996659 0 0.15666563817808579 -0.2606565341430076 0 0.13255133477306699 -0.26568128814098352 0 0.14589088039571849 -0.25295086277996659 0 0.14431894553082231 -0.25182667848574608 0 0.14589088039571849 -0.25295086277996659 0 0.14431894553082231 -0.25182667848574608 0 0.1477780575942047 -0.24775408903845361 0 0.14589088039571849 -0.25295086277996659 0 0.1477780575942047 -0.24775408903845361 0 0.14589088039571849 -0.25295086277996659 0 0.14431894553082231 -0.25182667848574608 0 0.14589088039571849 -0.25295086277996659 0 0.15194569556453669 -0.25147539128871121 0 0.15666563817808579 -0.2606565341430076 0 0.14589088039571849 -0.25295086277996659 0 0.15666563817808579 -0.2606565341430076 0 0.15194569556453669 -0.25147539128871121 0 0.15666563817808579 -0.2606565341430076 0 0.15654015862906581 -0.2497742971247944 0 0.14589088039571849 -0.25295086277996659 0 0.15194569556453669 -0.25147539128871121 0 0.1477780575942047 -0.24775408903845361 0 0.14045622103294089 -0.28082209096247979 0 0.15390509999494881 -0.27354155048152828 0 0.16341806706359069 -0.28182413945472629 0 0.1387186258351768 -0.27270130497351069 0 0.15666563817808579 -0.2606565341430076 0 0.14045622103294089 -0.28082209096247979 0 0.13732373088378849 -0.27654246703362351 0 0.15390509999494881 -0.27354155048152828 0 0.13732373088378849 -0.27654246703362351 0 0.15390509999494881 -0.27354155048152828 0 0.1387186258351768 -0.27270130497351069 0 0.15390509999494881 -0.27354155048152828 0 0.15666563817808579 -0.2606565341430076 0 0.1387186258351768 -0.27270130497351069 0 0.13732373088378849 -0.27654246703362351 0 0.15390509999494881 -0.27354155048152828 0 0.15390509999494881 -0.27354155048152828 0 0.17048646910610951 -0.27054063392943528 0 0.15390509999494881 -0.27354155048152828 0 0.17048646910610951 -0.27054063392943528 0 0.16341806706359069 -0.28182413945472629 0 0.15390509999494881 -0.27354155048152828 0 0.17048646910610951 -0.27054063392943528 0 0.15666563817808579 -0.2606565341430076 0 0.17048646910610951 -0.27054063392943528 0 0.16865511442320999 -0.26384563540445127 0 0.17468967604591909 -0.26457287943604813 0 0.17048646910610951 -0.27054063392943528 0 0.17745736761954309 -0.27552593885550553 0 0.16341806706359069 -0.28182413945472629 0 0.15666563817808579 -0.2606565341430076 0 0.1777066761820576 -0.24653527117447149 0 0.16972168558007919 -0.24595602287593349 0 0.15666563817808579 -0.2606565341430076 0 0.1777066761820576 -0.24653527117447149 0 0.15666563817808579 -0.2606565341430076 0 0.17612819116024159 -0.25398366141942452 0 0.17277867436272629 -0.25961249410931431 0 0.15666563817808579 -0.2606565341430076 0 0.16865511442320999 -0.26384563540445127 0 0.17277867436272629 -0.25961249410931431 0 0.15666563817808579 -0.2606565341430076 0 0.17612819116024159 -0.25398366141942452 0 0.1777066761820576 -0.24653527117447149 0 0.15666563817808579 -0.2606565341430076 0 0.1624002888965472 -0.24608417769258731 0 0.16972168558007919 -0.24595602287593349 0 0.15666563817808579 -0.2606565341430076 0 0.1624002888965472 -0.24608417769258731 0 0.15654015862906581 -0.2497742971247944 0 0.17048646910610951 -0.27054063392943528 0 0.15666563817808579 -0.2606565341430076 0 0.17048646910610951 -0.27054063392943528 0 0.15666563817808579 -0.2606565341430076 0 0.16865511442320999 -0.26384563540445127 0 0.1921931639271513 -0.25129532114029068 0 0.1817262583875402 -0.26850644305710342 0 0.1921931639271513 -0.25129532114029068 0 0.18022704203181861 -0.25914306247768581 0 0.1817262583875402 -0.26850644305710342 0 0.17612819116024159 -0.25398366141942452 0 0.1777066761820576 -0.24653527117447149 0 0.18091931253471741 -0.24989865598488301 0 0.17612819116024159 -0.25398366141942452 0 0.17277867436272629 -0.25961249410931431 0 0.18022704203181861 -0.25914306247768581 0 0.17468967604591909 -0.26457287943604813 0 0.18022704203181861 -0.25914306247768581 0 0.1817262583875402 -0.26850644305710342 0 0.17277867436272629 -0.25961249410931431 0 0.17468967604591909 -0.26457287943604813 0 0.18022704203181861 -0.25914306247768581 0 0.16865511442320999 -0.26384563540445127 0 0.17277867436272629 -0.25961249410931431 0 0.17468967604591909 -0.26457287943604813 0 0.1921931639271513 -0.25129532114029068 0 0.18022704203181861 -0.25914306247768581 0 0.18324522649797029 -0.25249941636546303 0 0.1921931639271513 -0.25129532114029068 0 0.18324522649797029 -0.25249941636546303 0 0.1865971562986003 -0.2465762749801732 0 0.17612819116024159 -0.25398366141942452 0 0.18022704203181861 -0.25914306247768581 0 0.18324522649797029 -0.25249941636546303 0 0.17612819116024159 -0.25398366141942452 0 0.18324522649797029 -0.25249941636546303 0 0.18091931253471741 -0.24989865598488301 0 0.17048646910610951 -0.27054063392943528 0 0.17745736761954309 -0.27552593885550553 0 0.1817262583875402 -0.26850644305710342 0 0.17048646910610951 -0.27054063392943528 0 0.17745736761954309 -0.27552593885550553 0 0.17048646910610951 -0.27054063392943528 0 0.17468967604591909 -0.26457287943604813 0 0.1817262583875402 -0.26850644305710342 0 0.17048646910610951 -0.27054063392943528 0 0.1817262583875402 -0.26850644305710342 0 0.17745736761954309 -0.27552593885550553 0 0.1817262583875402 -0.26850644305710342 0 0.19085260679678229 -0.27730035001639819 0 0.17745736761954309 -0.27552593885550553 0 0.1817262583875402 -0.26850644305710342 0 0.1963343358038884 -0.289025983691518 0 0.17745736761954309 -0.27552593885550553 0 0.1963343358038884 -0.289025983691518 0 0.17745736761954309 -0.27552593885550553 0 0.18416108079349899 -0.293412634686186 0 0.17745736761954309 -0.27552593885550553 0 0.18416108079349899 -0.293412634686186 0 0.164769190347754 -0.29638958046385599 0 0.18724809441997539 -0.31078272589235528 0 0.164769190347754 -0.29638958046385599 0 0.18416108079349899 -0.293412634686186 0 0.18724809441997539 -0.31078272589235528 0 0.164769190347754 -0.29638958046385599 0 0.16807020117017399 -0.32364662116747439 0 0.18724809441997539 -0.31078272589235528 0 0.164769190347754 -0.29638958046385599 0 0.15034912835678699 -0.32010102450386457 0 0.164769190347754 -0.29638958046385599 0 0.17745736761954309 -0.27552593885550553 0 0.164769190347754 -0.29638958046385599 0 0.16341806706359069 -0.28182413945472629 0 0.17745736761954309 -0.27552593885550553 0 0.164769190347754 -0.29638958046385599 0 0.19716888270160601 -0.4895198715634006 0 0.18829582471590231 -0.49999999999999761 0 0.18967462988060391 -0.47801333321687228 0 0.19716888270160601 -0.4895198715634006 0 0.18829582471590231 -0.49999999999999761 0 0.206041940687307 -0.5 0 0.18829582471590231 -0.49999999999999761 0 0.18967462988060391 -0.47801333321687228 0 0.19716888270160601 -0.4895198715634006 0 0.18967462988060391 -0.47801333321687228 0 0.21669576613428659 -0.47379067958529297 0 0.18967462988060391 -0.47801333321687228 0 0.21669576613428659 -0.47379067958529297 0 0.1910534350453057 -0.45602666643374712 0 0.21669576613428659 -0.47379067958529297 0 0.206041940687307 -0.5 0 0.22378805665871171 -0.49999999999999889 0 0.19716888270160601 -0.4895198715634006 0 0.21669576613428659 -0.47379067958529297 0 0.206041940687307 -0.5 0 0.21669576613428659 -0.47379067958529297 0 0.22378805665871171 -0.49999999999999889 0 0.2356365849343364 -0.47947256897005047 0 0.21669576613428659 -0.47379067958529297 0 0.22378805665871171 -0.49999999999999889 0 0.25471513024465259 -0.47457186038339438 0 0.25307101053909309 -0.5 0 0.2356365849343364 -0.47947256897005047 0 0.25307101053909309 -0.5 0 0.22378805665871171 -0.49999999999999889 0 0.2356365849343364 -0.47947256897005047 0 0.25471513024465259 -0.47457186038339438 0 0.2356365849343364 -0.47947256897005047 0 0.24330581021201581 -0.45828679983422022 0 0.21669576613428659 -0.47379067958529297 0 0.2356365849343364 -0.47947256897005047 0 0.22585208586011779 -0.45776520879922972 0 0.22585208586011779 -0.45776520879922972 0 0.24330581021201581 -0.45828679983422022 0 0.23036340349470871 -0.44494048679445408 0 0.2356365849343364 -0.47947256897005047 0 0.22585208586011779 -0.45776520879922972 0 0.24330581021201581 -0.45828679983422022 0 0.24330581021201581 -0.45828679983422022 0 0.24429483055626899 -0.44143762443535461 0 0.23036340349470871 -0.44494048679445408 0 0.25692474494065293 -0.44625734206771511 0 0.24330581021201581 -0.45828679983422022 0 0.24429483055626899 -0.44143762443535461 0 0.24330581021201581 -0.45828679983422022 0 0.23036340349470871 -0.44494048679445408 0 0.24429483055626899 -0.44143762443535461 0 0.23036340349470871 -0.44494048679445408 0 0.2361003969704564 -0.42976588907835739 0 0.22585208586011779 -0.45776520879922972 0 0.23036340349470871 -0.44494048679445408 0 0.21950747477549809 -0.44251935844077289 0 0.23036340349470871 -0.44494048679445408 0 0.21950747477549809 -0.44251935844077289 0 0.21742099677740151 -0.43159417375468812 0 0.23036340349470871 -0.44494048679445408 0 0.21742099677740151 -0.43159417375468812 0 0.22585208586011779 -0.45776520879922972 0 0.21950747477549809 -0.44251935844077289 0 0.2096034756098612 -0.44758135917058722 0 0.2096034756098612 -0.44758135917058722 0 0.1924322402100079 -0.4340399996506219 0 0.21742099677740151 -0.43159417375468812 0 0.21950747477549809 -0.44251935844077289 0 0.2096034756098612 -0.44758135917058722 0 0.21742099677740151 -0.43159417375468812 0 0.21669576613428659 -0.47379067958529297 0 0.2096034756098612 -0.44758135917058722 0 0.1910534350453057 -0.45602666643374712 0 0.21669576613428659 -0.47379067958529297 0 0.2096034756098612 -0.44758135917058722 0 0.21669576613428659 -0.47379067958529297 0 0.22585208586011779 -0.45776520879922972 0 0.2096034756098612 -0.44758135917058722 0 0.18967462988060391 -0.47801333321687228 0 0.1910534350453057 -0.45602666643374712 0 0.2096034756098612 -0.44758135917058722 0 0.1910534350453057 -0.45602666643374712 0 0.1924322402100079 -0.4340399996506219 0 0.1910534350453057 -0.45602666643374712 0 0.1924322402100079 -0.4340399996506219 0 0.20227598854642109 -0.42708570954339581 0 0.19333658143396801 -0.41961921732510421 0 0.2101343031682702 -0.42408007718389529 0 0.1924322402100079 -0.4340399996506219 0 0.19333658143396801 -0.41961921732510421 0 0.18748739172099421 -0.41475759297074261 0 0.20227598854642109 -0.42708570954339581 0 0.19333658143396801 -0.41961921732510421 0 0.20227598854642109 -0.42708570954339581 0 0.1924322402100079 -0.4340399996506219 0 0.19333658143396801 -0.41961921732510421 0 0.20227598854642109 -0.42708570954339581 0 0.1924322402100079 -0.4340399996506219 0 0.20448468552261809 -0.42888509807130321 0 0.1924322402100079 -0.4340399996506219 0 0.19333658143396801 -0.41961921732510421 0 0.19411750420029639 -0.40762857548997411 0 0.2101343031682702 -0.42408007718389529 0 0.19333658143396801 -0.41961921732510421 0 0.19411750420029639 -0.40762857548997411 0 0.2101343031682702 -0.42408007718389529 0 0.19333658143396801 -0.41961921732510421 0 0.18748739172099421 -0.41475759297074261 0 0.19411750420029639 -0.40762857548997411 0 0.18359890854818109 -0.40458413168608443 0 0.18748739172099421 -0.41475759297074261 0 0.19333658143396801 -0.41961921732510421 0 0.19411750420029639 -0.40762857548997411 0 0.18748739172099421 -0.41475759297074261 0 0.19333658143396801 -0.41961921732510421 0 0.19411750420029639 -0.40762857548997411 0 0.19411750420029639 -0.40762857548997411 0 0.18748739172099421 -0.41475759297074261 0 0.19411750420029639 -0.40762857548997411 0 0.21378289536292261 -0.40893164287208889 0 0.2101343031682702 -0.42408007718389529 0 0.1924322402100079 -0.4340399996506219 0 0.20448468552261809 -0.42888509807130321 0 0.21742099677740151 -0.43159417375468812 0 0.1924322402100079 -0.4340399996506219 0 0.21742099677740151 -0.43159417375468812 0 0.2101343031682702 -0.42408007718389529 0 0.21742099677740151 -0.43159417375468812 0 0.2242341371055705 -0.4251667929953733 0 0.2101343031682702 -0.42408007718389529 0 0.21742099677740151 -0.43159417375468812 0 0.2101343031682702 -0.42408007718389529 0 0.20448468552261809 -0.42888509807130321 0 0.21742099677740151 -0.43159417375468812 0 0.20227598854642109 -0.42708570954339581 0 0.2101343031682702 -0.42408007718389529 0 0.20448468552261809 -0.42888509807130321 0 0.20227598854642109 -0.42708570954339581 0 0.2101343031682702 -0.42408007718389529 0 0.20227598854642109 -0.42708570954339581 0 0.20448468552261809 -0.42888509807130321 0 0.23036340349470871 -0.44494048679445408 0 0.21742099677740151 -0.43159417375468812 0 0.2361003969704564 -0.42976588907835739 0 0.21742099677740151 -0.43159417375468812 0 0.2361003969704564 -0.42976588907835739 0 0.21742099677740151 -0.43159417375468812 0 0.2242341371055705 -0.4251667929953733 0 0.2361003969704564 -0.42976588907835739 0 0.2242341371055705 -0.4251667929953733 0 0.2361003969704564 -0.42976588907835739 0 0.23328085150615349 -0.41522703196455268 0 0.25477979716351118 -0.42793760440202661 0 0.2361003969704564 -0.42976588907835739 0 0.25477979716351118 -0.42793760440202661 0 0.24429483055626899 -0.44143762443535461 0 0.2361003969704564 -0.42976588907835739 0 0.25477979716351118 -0.42793760440202661 0 0.2361003969704564 -0.42976588907835739 0 0.24462940770010039 -0.42056901522014761 0 0.2564273998440364 -0.40637398674520908 0 0.24462940770010039 -0.42056901522014761 0 0.23328085150615349 -0.41522703196455268 0 0.2564273998440364 -0.40637398674520908 0 0.23328085150615349 -0.41522703196455268 0 0.2361003969704564 -0.42976588907835739 0 0.24462940770010039 -0.42056901522014761 0 0.23328085150615349 -0.41522703196455268 0 0.21378289536292261 -0.40893164287208889 0 0.23328085150615349 -0.41522703196455268 0 0.22019338083956561 -0.39728088599556111 0 0.2101343031682702 -0.42408007718389529 0 0.23328085150615349 -0.41522703196455268 0 0.2101343031682702 -0.42408007718389529 0 0.2242341371055705 -0.4251667929953733 0 0.23328085150615349 -0.41522703196455268 0 0.21378289536292261 -0.40893164287208889 0 0.2101343031682702 -0.42408007718389529 0 0.23328085150615349 -0.41522703196455268 0 0.23328085150615349 -0.41522703196455268 0 0.22019338083956561 -0.39728088599556111 0 0.2355630410671698 -0.3951771244185579 0 0.22019338083956561 -0.39728088599556111 0 0.2355630410671698 -0.3951771244185579 0 0.22331063043160199 -0.38529228052909448 0 0.2564273998440364 -0.40637398674520908 0 0.2355630410671698 -0.3951771244185579 0 0.24676596406711199 -0.38481043520233238 0 0.2564273998440364 -0.40637398674520908 0 0.23328085150615349 -0.41522703196455268 0 0.2355630410671698 -0.3951771244185579 0 0.2416658724593482 -0.36697055611930818 0 0.24676596406711199 -0.38481043520233238 0 0.2343238886319037 -0.38118771860102602 0 0.2570745260390761 -0.37496176060221259 0 0.2416658724593482 -0.36697055611930818 0 0.24676596406711199 -0.38481043520233238 0 0.2355630410671698 -0.3951771244185579 0 0.24676596406711199 -0.38481043520233238 0 0.2343238886319037 -0.38118771860102602 0 0.22431393513428641 -0.37368819673583659 0 0.2343238886319037 -0.38118771860102602 0 0.22331063043160199 -0.38529228052909448 0 0.2355630410671698 -0.3951771244185579 0 0.2343238886319037 -0.38118771860102602 0 0.22331063043160199 -0.38529228052909448 0 0.22019338083956561 -0.39728088599556111 0 0.22331063043160199 -0.38529228052909448 0 0.21528069116276649 -0.38716350446663239 0 0.22431393513428641 -0.37368819673583659 0 0.22331063043160199 -0.38529228052909448 0 0.2126937475168891 -0.37577808868912899 0 0.2126937475168891 -0.37577808868912899 0 0.20902543468593271 -0.38532777615898378 0 0.21528069116276649 -0.38716350446663239 0 0.22331063043160199 -0.38529228052909448 0 0.2126937475168891 -0.37577808868912899 0 0.21528069116276649 -0.38716350446663239 0 0.2126937475168891 -0.37577808868912899 0 0.20902543468593271 -0.38532777615898378 0 0.19166201140820249 -0.37956064861884192 0 0.2126937475168891 -0.37577808868912899 0 0.20902543468593271 -0.38532777615898378 0 0.20902543468593271 -0.38532777615898378 0 0.2099029509296472 -0.39084834394692852 0 0.19954679912914841 -0.39051942411305829 0 0.20902543468593271 -0.38532777615898378 0 0.21528069116276649 -0.38716350446663239 0 0.2099029509296472 -0.39084834394692852 0 0.22019338083956561 -0.39728088599556111 0 0.2095137511246441 -0.4011710977252983 0 0.2099029509296472 -0.39084834394692852 0 0.19411750420029639 -0.40762857548997411 0 0.2095137511246441 -0.4011710977252983 0 0.2099029509296472 -0.39084834394692852 0 0.19411750420029639 -0.40762857548997411 0 0.21378289536292261 -0.40893164287208889 0 0.2095137511246441 -0.4011710977252983 0 0.22019338083956561 -0.39728088599556111 0 0.21528069116276649 -0.38716350446663239 0 0.2099029509296472 -0.39084834394692852 0 0.21378289536292261 -0.40893164287208889 0 0.22019338083956561 -0.39728088599556111 0 0.2095137511246441 -0.4011710977252983 0 0.19411750420029639 -0.40762857548997411 0 0.2099029509296472 -0.39084834394692852 0 0.19427402941319749 -0.40467050892634321 0 0.19411750420029639 -0.40762857548997411 0 0.2099029509296472 -0.39084834394692852 0 0.2099029509296472 -0.39084834394692852 0 0.19427402941319749 -0.40467050892634321 0 0.19954679912914841 -0.39051942411305829 0 0.19427402941319749 -0.40467050892634321 0 0.19286956920876211 -0.39218984291419401 0 0.19954679912914841 -0.39051942411305829 0 0.19411750420029639 -0.40762857548997411 0 0.19427402941319749 -0.40467050892634321 0 0.1823621995150975 -0.39544126237733951 0 0.19411750420029639 -0.40762857548997411 0 0.1823621995150975 -0.39544126237733951 0 0.19411750420029639 -0.40762857548997411 0 0.19427402941319749 -0.40467050892634321 0 0.19427402941319749 -0.40467050892634321 0 0.19286956920876211 -0.39218984291419401 0 0.1823621995150975 -0.39544126237733951 0 0.19286956920876211 -0.39218984291419401 0 0.19166201140820249 -0.37956064861884192 0 0.1823621995150975 -0.39544126237733951 0 0.19286956920876211 -0.39218984291419401 0 0.19166201140820249 -0.37956064861884192 0 0.19954679912914841 -0.39051942411305829 0 0.20902543468593271 -0.38532777615898378 0 0.19166201140820249 -0.37956064861884192 0 0.19954679912914841 -0.39051942411305829 0 0.2126937475168891 -0.37577808868912899 0 0.19166201140820249 -0.37956064861884192 0 0.1753435970524054 -0.3637814302311157 0 0.19166201140820249 -0.37956064861884192 0 0.17063027529951619 -0.38334320854855669 0 0.19166201140820249 -0.37956064861884192 0 0.1823621995150975 -0.39544126237733951 0 0.17063027529951619 -0.38334320854855669 0 0.19166201140820249 -0.37956064861884192 0 0.17063027529951619 -0.38334320854855669 0 0.1823621995150975 -0.39544126237733951 0 0.17063027529951619 -0.38334320854855669 0 0.1823621995150975 -0.39544126237733951 0 0.1704519192259534 -0.40059835519013459 0 0.17063027529951619 -0.38334320854855669 0 0.19411750420029639 -0.40762857548997411 0 0.1823621995150975 -0.39544126237733951 0 0.18359890854818109 -0.40458413168608443 0 0.1823621995150975 -0.39544126237733951 0 0.18359890854818109 -0.40458413168608443 0 0.1704519192259534 -0.40059835519013459 0 0.1704519192259534 -0.40059835519013459 0 0.15341644673091229 -0.38643911740952702 0 0.15399028540095361 -0.39860438877770238 0 0.1704519192259534 -0.40059835519013459 0 0.15399028540095361 -0.39860438877770238 0 0.16639151627742929 -0.4108781757518688 0 0.1704519192259534 -0.40059835519013459 0 0.15341644673091229 -0.38643911740952702 0 0.17063027529951619 -0.38334320854855669 0 0.15341644673091229 -0.38643911740952702 0 0.1556462529867029 -0.36789156522211092 0 0.17063027529951619 -0.38334320854855669 0 0.15341644673091229 -0.38643911740952702 0 0.1704519192259534 -0.40059835519013459 0 0.17063027529951619 -0.38334320854855669 0 0.15341644673091229 -0.38643911740952702 0 0.1556462529867029 -0.36789156522211092 0 0.17063027529951619 -0.38334320854855669 0 0.1334112792555546 -0.36981158194157598 0 0.15341644673091229 -0.38643911740952702 0 0.1334112792555546 -0.36981158194157598 0 0.15341644673091229 -0.38643911740952702 0 0.12725189714160451 -0.39114481437834081 0 0.15341644673091229 -0.38643911740952702 0 0.12725189714160451 -0.39114481437834081 0 0.15341644673091229 -0.38643911740952702 0 0.12725189714160451 -0.39114481437834081 0 0.14070411570931271 -0.39424870109535082 0 0.12802270691877779 -0.40003014787840468 0 0.12725189714160451 -0.39114481437834081 0 0.14070411570931271 -0.39424870109535082 0 0.12802270691877779 -0.40003014787840468 0 0.15399028540095361 -0.39860438877770238 0 0.12802270691877779 -0.40003014787840468 0 0.15399028540095361 -0.39860438877770238 0 0.1416149193159934 -0.41039857655841738 0 0.12802270691877779 -0.40003014787840468 0 0.14070411570931271 -0.39424870109535082 0 0.15399028540095361 -0.39860438877770238 0 0.15341644673091229 -0.38643911740952702 0 0.14070411570931271 -0.39424870109535082 0 0.15399028540095361 -0.39860438877770238 0 0.15399028540095361 -0.39860438877770238 0 0.1548096842198077 -0.41185385019294318 0 0.1416149193159934 -0.41039857655841738 0 0.1548096842198077 -0.41185385019294318 0 0.1416149193159934 -0.41039857655841738 0 0.1511224923650395 -0.4246062718627438 0 0.1416149193159934 -0.41039857655841738 0 0.13846498190176459 -0.42094919657183211 0 0.1511224923650395 -0.4246062718627438 0 0.12802270691877779 -0.40003014787840468 0 0.1416149193159934 -0.41039857655841738 0 0.13194492910737199 -0.41329640802299972 0 0.1416149193159934 -0.41039857655841738 0 0.13846498190176459 -0.42094919657183211 0 0.13194492910737199 -0.41329640802299972 0 0.13846498190176459 -0.42094919657183211 0 0.13194492910737199 -0.41329640802299972 0 0.12846067519268911 -0.42276261806267212 0 0.13194492910737199 -0.41329640802299972 0 0.12846067519268911 -0.42276261806267212 0 0.1225260189244171 -0.41238793071833962 0 0.12802270691877779 -0.40003014787840468 0 0.13194492910737199 -0.41329640802299972 0 0.1225260189244171 -0.41238793071833962 0 0.12846067519268911 -0.42276261806267212 0 0.1268836670266639 -0.43831997877941448 0 0.12044603089668909 -0.43014949443199219 0 0.12846067519268911 -0.42276261806267212 0 0.139181893527729 -0.43368210835232701 0 0.1268836670266639 -0.43831997877941448 0 0.13846498190176459 -0.42094919657183211 0 0.12846067519268911 -0.42276261806267212 0 0.139181893527729 -0.43368210835232701 0 0.1511224923650395 -0.4246062718627438 0 0.15902708527063961 -0.43177143592475231 0 0.15109548250380711 -0.45357452418474792 0 0.139181893527729 -0.43368210835232701 0 0.1511224923650395 -0.4246062718627438 0 0.15109548250380711 -0.45357452418474792 0 0.13846498190176459 -0.42094919657183211 0 0.139181893527729 -0.43368210835232701 0 0.1511224923650395 -0.4246062718627438 0 0.15902708527063961 -0.43177143592475231 0 0.16708356684173811 -0.43652105314300199 0 0.16457951121241449 -0.42268060511623412 0 0.15902708527063961 -0.43177143592475231 0 0.16495108075432 -0.43672977460064227 0 0.16708356684173811 -0.43652105314300199 0 0.16495108075432 -0.43672977460064227 0 0.16708356684173811 -0.43652105314300199 0 0.1511224923650395 -0.4246062718627438 0 0.15902708527063961 -0.43177143592475231 0 0.16457951121241449 -0.42268060511623412 0 0.1548096842198077 -0.41185385019294318 0 0.1511224923650395 -0.4246062718627438 0 0.16457951121241449 -0.42268060511623412 0 0.1548096842198077 -0.41185385019294318 0 0.16457951121241449 -0.42268060511623412 0 0.16639151627742929 -0.4108781757518688 0 0.15399028540095361 -0.39860438877770238 0 0.1548096842198077 -0.41185385019294318 0 0.16639151627742929 -0.4108781757518688 0 0.18359890854818109 -0.40458413168608443 0 0.1704519192259534 -0.40059835519013459 0 0.18748739172099421 -0.41475759297074261 0 0.1704519192259534 -0.40059835519013459 0 0.16639151627742929 -0.4108781757518688 0 0.18748739172099421 -0.41475759297074261 0 0.1704519192259534 -0.40059835519013459 0 0.18748739172099421 -0.41475759297074261 0 0.16457951121241449 -0.42268060511623412 0 0.16639151627742929 -0.4108781757518688 0 0.18748739172099421 -0.41475759297074261 0 0.1924322402100079 -0.4340399996506219 0 0.16708356684173811 -0.43652105314300199 0 0.18748739172099421 -0.41475759297074261 0 0.1924322402100079 -0.4340399996506219 0 0.16708356684173811 -0.43652105314300199 0 0.16708356684173811 -0.43652105314300199 0 0.16457951121241449 -0.42268060511623412 0 0.18748739172099421 -0.41475759297074261 0 0.16708356684173811 -0.43652105314300199 0 0.18748739172099421 -0.41475759297074261 0 0.1924322402100079 -0.4340399996506219 0 0.16708356684173811 -0.43652105314300199 0 0.1757965321386965 -0.45029468496566061 0 0.1910534350453057 -0.45602666643374712 0 0.1924322402100079 -0.4340399996506219 0 0.1757965321386965 -0.45029468496566061 0 0.1910534350453057 -0.45602666643374712 0 0.1757965321386965 -0.45029468496566061 0 0.17074302498473021 -0.46578954744639889 0 0.18967462988060391 -0.47801333321687228 0 0.1910534350453057 -0.45602666643374712 0 0.17074302498473021 -0.46578954744639889 0 0.1757965321386965 -0.45029468496566061 0 0.17074302498473021 -0.46578954744639889 0 0.15109548250380711 -0.45357452418474792 0 0.17074302498473021 -0.46578954744639889 0 0.15109548250380711 -0.45357452418474792 0 0.15107383905694899 -0.4767872620923736 0 0.16708356684173811 -0.43652105314300199 0 0.15109548250380711 -0.45357452418474792 0 0.16495108075432 -0.43672977460064227 0 0.16708356684173811 -0.43652105314300199 0 0.15109548250380711 -0.45357452418474792 0 0.16708356684173811 -0.43652105314300199 0 0.1757965321386965 -0.45029468496566061 0 0.15109548250380711 -0.45357452418474792 0 0.15902708527063961 -0.43177143592475231 0 0.16495108075432 -0.43672977460064227 0 0.15109548250380711 -0.45357452418474792 0 0.1511224923650395 -0.4246062718627438 0 0.15109548250380711 -0.45357452418474792 0 0.139181893527729 -0.43368210835232701 0 0.13766484745951571 -0.44774416233830128 0 0.15109548250380711 -0.45357452418474792 0 0.139181893527729 -0.43368210835232701 0 0.13766484745951571 -0.44774416233830128 0 0.1268836670266639 -0.43831997877941448 0 0.13766484745951571 -0.44774416233830128 0 0.1268836670266639 -0.43831997877941448 0 0.12605919161706439 -0.45524364713338378 0 0.12605919161706439 -0.45524364713338378 0 0.13279436751248899 -0.47309515767275651 0 0.1239165503978229 -0.46636988786898248 0 0.13766484745951571 -0.44774416233830128 0 0.15109548250380711 -0.45357452418474792 0 0.13279436751248899 -0.47309515767275651 0 0.13766484745951571 -0.44774416233830128 0 0.12605919161706439 -0.45524364713338378 0 0.13279436751248899 -0.47309515767275651 0 0.15109548250380711 -0.45357452418474792 0 0.13279436751248899 -0.47309515767275651 0 0.15109548250380711 -0.45357452418474792 0 0.15107383905694899 -0.4767872620923736 0 0.13279436751248899 -0.47309515767275651 0 0.15109548250380711 -0.45357452418474792 0 0.15107383905694899 -0.4767872620923736 0 0.15107383905694899 -0.4767872620923736 0 0.13279436751248899 -0.47309515767275651 0 0.1336077197479405 -0.48774595884769278 0 0.13279436751248899 -0.47309515767275651 0 0.1336077197479405 -0.48774595884769278 0 0.12088904241202381 -0.48402457606638821 0 0.13279436751248899 -0.47309515767275651 0 0.12275571258900669 -0.47329520669818642 0 0.12088904241202381 -0.48402457606638821 0 0.13279436751248899 -0.47309515767275651 0 0.12275571258900669 -0.47329520669818642 0 0.1239165503978229 -0.46636988786898248 0 0.12502710643106191 -0.5 0 0.1336077197479405 -0.48774595884769278 0 0.15105219561009089 -0.49999999999999928 0 0.12502710643106191 -0.5 0 0.1336077197479405 -0.48774595884769278 0 0.122913279847484 -0.49270351500779969 0 0.1336077197479405 -0.48774595884769278 0 0.122913279847484 -0.49270351500779969 0 0.12088904241202381 -0.48402457606638821 0 0.15107383905694899 -0.4767872620923736 0 0.1336077197479405 -0.48774595884769278 0 0.15105219561009089 -0.49999999999999928 0 0.15107383905694899 -0.4767872620923736 0 0.15105219561009089 -0.49999999999999928 0 0.15107383905694899 -0.4767872620923736 0 0.15105219561009089 -0.49999999999999928 0 0.16079688774224171 -0.48963148424483183 0 0.16967401016299649 -0.5 0 0.16079688774224171 -0.48963148424483183 0 0.17305323998480859 -0.48298366615793858 0 0.15105219561009089 -0.49999999999999928 0 0.16967401016299649 -0.5 0 0.16079688774224171 -0.48963148424483183 0 0.17074302498473021 -0.46578954744639889 0 0.15107383905694899 -0.4767872620923736 0 0.17305323998480859 -0.48298366615793858 0 0.15107383905694899 -0.4767872620923736 0 0.16079688774224171 -0.48963148424483183 0 0.17305323998480859 -0.48298366615793858 0 0.18967462988060391 -0.47801333321687228 0 0.17074302498473021 -0.46578954744639889 0 0.17305323998480859 -0.48298366615793858 0 0.18829582471590231 -0.49999999999999761 0 0.18967462988060391 -0.47801333321687228 0 0.17305323998480859 -0.48298366615793858 0 0.18829582471590231 -0.49999999999999761 0 0.16967401016299649 -0.5 0 0.17305323998480859 -0.48298366615793858 0 0.072976928073003905 -0.50000000000000067 0 0.069712818436367188 -0.48098769899632088 0 0.051550303941418053 -0.48379326127895839 0 0.072976928073003905 -0.50000000000000067 0 0.069712818436367188 -0.48098769899632088 0 0.089675369733312207 -0.48308055977991438 0 0.080352157882852202 -0.47030550088557499 0 0.054009332551249942 -0.46775917303715547 0 0.069712818436367188 -0.48098769899632088 0 0.080352157882852202 -0.47030550088557499 0 0.054009332551249942 -0.46775917303715547 0 0.069712818436367188 -0.48098769899632088 0 0.080352157882852202 -0.47030550088557499 0 0.089675369733312207 -0.48308055977991438 0 0.080352157882852202 -0.47030550088557499 0 0.1066949832144545 -0.47285182873399462 0 0.080352157882852202 -0.47030550088557499 0 0.089675369733312207 -0.48308055977991438 0 0.1066949832144545 -0.47285182873399462 0 0.072976928073003905 -0.50000000000000067 0 0.089675369733312207 -0.48308055977991438 0 0.099002017252032948 -0.5 0 0.099002017252032948 -0.5 0 0.10546110872783281 -0.48439927524471749 0 0.1154948706108387 -0.5 0 0.089675369733312207 -0.48308055977991438 0 0.099002017252032948 -0.5 0 0.10546110872783281 -0.48439927524471749 0 0.1154948706108387 -0.5 0 0.12088904241202381 -0.48402457606638821 0 0.1134228900336909 -0.46969120518461871 0 0.1154948706108387 -0.5 0 0.122913279847484 -0.49270351500779969 0 0.12088904241202381 -0.48402457606638821 0 0.10546110872783281 -0.48439927524471749 0 0.1154948706108387 -0.5 0 0.1134228900336909 -0.46969120518461871 0 0.1154948706108387 -0.5 0 0.1134228900336909 -0.46969120518461871 0 0.12502710643106191 -0.5 0 0.1154948706108387 -0.5 0 0.122913279847484 -0.49270351500779969 0 0.12275571258900669 -0.47329520669818642 0 0.1134228900336909 -0.46969120518461871 0 0.1239165503978229 -0.46636988786898248 0 0.12275571258900669 -0.47329520669818642 0 0.12088904241202381 -0.48402457606638821 0 0.1134228900336909 -0.46969120518461871 0 0.10546110872783281 -0.48439927524471749 0 0.1134228900336909 -0.46969120518461871 0 0.1066949832144545 -0.47285182873399462 0 0.089675369733312207 -0.48308055977991438 0 0.10546110872783281 -0.48439927524471749 0 0.1066949832144545 -0.47285182873399462 0 0.080352157882852202 -0.47030550088557499 0 0.1066949832144545 -0.47285182873399462 0 0.094746046100415079 -0.45969342538129621 0 0.094746046100415079 -0.45969342538129621 0 0.1056252205324175 -0.46183362337229861 0 0.10010212376624079 -0.45077881917093748 0 0.1056252205324175 -0.46183362337229861 0 0.1107888457979409 -0.45204167690054781 0 0.10010212376624079 -0.45077881917093748 0 0.1134228900336909 -0.46969120518461871 0 0.1066949832144545 -0.47285182873399462 0 0.1056252205324175 -0.46183362337229861 0 0.1066949832144545 -0.47285182873399462 0 0.094746046100415079 -0.45969342538129621 0 0.1056252205324175 -0.46183362337229861 0 0.1134228900336909 -0.46969120518461871 0 0.1056252205324175 -0.46183362337229861 0 0.1107888457979409 -0.45204167690054781 0 0.1134228900336909 -0.46969120518461871 0 0.1194291645334906 -0.45084452598612001 0 0.1113509094565432 -0.44012327284706282 0 0.12605919161706439 -0.45524364713338378 0 0.1134228900336909 -0.46969120518461871 0 0.1194291645334906 -0.45084452598612001 0 0.1134228900336909 -0.46969120518461871 0 0.1107888457979409 -0.45204167690054781 0 0.1113509094565432 -0.44012327284706282 0 0.1134228900336909 -0.46969120518461871 0 0.1113509094565432 -0.44012327284706282 0 0.12605919161706439 -0.45524364713338378 0 0.1134228900336909 -0.46969120518461871 0 0.1239165503978229 -0.46636988786898248 0 0.1107888457979409 -0.45204167690054781 0 0.1113509094565432 -0.44012327284706282 0 0.1064219871172722 -0.42674879193982701 0 0.1268836670266639 -0.43831997877941448 0 0.12605919161706439 -0.45524364713338378 0 0.1194291645334906 -0.45084452598612001 0 0.1268836670266639 -0.43831997877941448 0 0.1194291645334906 -0.45084452598612001 0 0.1113509094565432 -0.44012327284706282 0 0.1107888457979409 -0.45204167690054781 0 0.09990118670850387 -0.44064485148093402 0 0.1064219871172722 -0.42674879193982701 0 0.094746046100415079 -0.45969342538129621 0 0.10010212376624079 -0.45077881917093748 0 0.090394264082929901 -0.4440589834674139 0 0.1107888457979409 -0.45204167690054781 0 0.1064219871172722 -0.42674879193982701 0 0.1107888457979409 -0.45204167690054781 0 0.10010212376624079 -0.45077881917093748 0 0.09990118670850387 -0.44064485148093402 0 0.09990118670850387 -0.44064485148093402 0 0.090394264082929901 -0.4440589834674139 0 0.091995576192928002 -0.43050816608173598 0 0.10010212376624079 -0.45077881917093748 0 0.09990118670850387 -0.44064485148093402 0 0.090394264082929901 -0.4440589834674139 0 0.090394264082929901 -0.4440589834674139 0 0.077982811745184163 -0.43901819131981562 0 0.091995576192928002 -0.43050816608173598 0 0.094746046100415079 -0.45969342538129621 0 0.090394264082929901 -0.4440589834674139 0 0.079913619129139163 -0.45446201660389851 0 0.090394264082929901 -0.4440589834674139 0 0.079913619129139163 -0.45446201660389851 0 0.077982811745184163 -0.43901819131981562 0 0.080352157882852202 -0.47030550088557499 0 0.094746046100415079 -0.45969342538129621 0 0.079913619129139163 -0.45446201660389851 0 0.080352157882852202 -0.47030550088557499 0 0.067108396817992924 -0.4587642215460167 0 0.054009332551249942 -0.46775917303715547 0 0.079913619129139163 -0.45446201660389851 0 0.067108396817992924 -0.4587642215460167 0 0.06613879356164204 -0.44674923975339947 0 0.080352157882852202 -0.47030550088557499 0 0.079913619129139163 -0.45446201660389851 0 0.067108396817992924 -0.4587642215460167 0 0.067108396817992924 -0.4587642215460167 0 0.06613879356164204 -0.44674923975339947 0 0.055128080965081261 -0.45454517745005502 0 0.06613879356164204 -0.44674923975339947 0 0.077982811745184163 -0.43901819131981562 0 0.064309015829448368 -0.43420630728615067 0 0.079913619129139163 -0.45446201660389851 0 0.06613879356164204 -0.44674923975339947 0 0.077982811745184163 -0.43901819131981562 0 0.077756739606364214 -0.4228098701093565 0 0.050592188426177312 -0.42163180058887562 0 0.077756739606364214 -0.4228098701093565 0 0.064309015829448368 -0.43420630728615067 0 0.050592188426177312 -0.42163180058887562 0 0.077982811745184163 -0.43901819131981562 0 0.077756739606364214 -0.4228098701093565 0 0.064309015829448368 -0.43420630728615067 0 0.077756739606364214 -0.4228098701093565 0 0.063833604015479856 -0.41222962464876278 0 0.077075019604782524 -0.40282744870865039 0 0.077756739606364214 -0.4228098701093565 0 0.063833604015479856 -0.41222962464876278 0 0.050592188426177312 -0.42163180058887562 0 0.063833604015479856 -0.41222962464876278 0 0.077075019604782524 -0.40282744870865039 0 0.054750879541551313 -0.40418412994507091 0 0.063833604015479856 -0.41222962464876278 0 0.077075019604782524 -0.40282744870865039 0 0.0918639682070055 -0.41648389339713532 0 0.1020551284366021 -0.40145590697910671 0 0.077075019604782524 -0.40282744870865039 0 0.077756739606364214 -0.4228098701093565 0 0.0918639682070055 -0.41648389339713532 0 0.077075019604782524 -0.40282744870865039 0 0.077756739606364214 -0.4228098701093565 0 0.0918639682070055 -0.41648389339713532 0 0.091995576192928002 -0.43050816608173598 0 0.077982811745184163 -0.43901819131981562 0 0.077756739606364214 -0.4228098701093565 0 0.091995576192928002 -0.43050816608173598 0 0.09990118670850387 -0.44064485148093402 0 0.091995576192928002 -0.43050816608173598 0 0.1064219871172722 -0.42674879193982701 0 0.1113509094565432 -0.44012327284706282 0 0.1064219871172722 -0.42674879193982701 0 0.1092789288793955 -0.41055534050950648 0 0.0918639682070055 -0.41648389339713532 0 0.091995576192928002 -0.43050816608173598 0 0.1064219871172722 -0.42674879193982701 0 0.1113509094565432 -0.44012327284706282 0 0.1092789288793955 -0.41055534050950648 0 0.1113509094565432 -0.44012327284706282 0 0.1174629010244934 -0.42210898180674461 0 0.1092789288793955 -0.41055534050950648 0 0.1113509094565432 -0.44012327284706282 0 0.1174629010244934 -0.42210898180674461 0 0.12044603089668909 -0.43014949443199219 0 0.12846067519268911 -0.42276261806267212 0 0.1174629010244934 -0.42210898180674461 0 0.12044603089668909 -0.43014949443199219 0 0.1268836670266639 -0.43831997877941448 0 0.1113509094565432 -0.44012327284706282 0 0.12044603089668909 -0.43014949443199219 0 0.12802270691877779 -0.40003014787840468 0 0.1225260189244171 -0.41238793071833962 0 0.1092789288793955 -0.41055534050950648 0 0.12846067519268911 -0.42276261806267212 0 0.1174629010244934 -0.42210898180674461 0 0.1225260189244171 -0.41238793071833962 0 0.1174629010244934 -0.42210898180674461 0 0.1225260189244171 -0.41238793071833962 0 0.1092789288793955 -0.41055534050950648 0 0.1064219871172722 -0.42674879193982701 0 0.1020551284366021 -0.40145590697910671 0 0.0918639682070055 -0.41648389339713532 0 0.1064219871172722 -0.42674879193982701 0 0.1020551284366021 -0.40145590697910671 0 0.1064219871172722 -0.42674879193982701 0 0.1092789288793955 -0.41055534050950648 0 0.1020551284366021 -0.40145590697910671 0 0.10108734755229661 -0.39585051134715288 0 0.099538115131240862 -0.38687734315725131 0 0.082088744623623283 -0.39926741206267791 0 0.10108734755229661 -0.39585051134715288 0 0.1020551284366021 -0.40145590697910671 0 0.082088744623623283 -0.39926741206267791 0 0.10108734755229661 -0.39585051134715288 0 0.099538115131240862 -0.38687734315725131 0 0.10108734755229661 -0.39585051134715288 0 0.1020551284366021 -0.40145590697910671 0 0.12802270691877779 -0.40003014787840468 0 0.1020551284366021 -0.40145590697910671 0 0.12802270691877779 -0.40003014787840468 0 0.1092789288793955 -0.41055534050950648 0 0.1020551284366021 -0.40145590697910671 0 0.12725189714160451 -0.39114481437834081 0 0.10108734755229661 -0.39585051134715288 0 0.12802270691877779 -0.40003014787840468 0 0.12725189714160451 -0.39114481437834081 0 0.1020551284366021 -0.40145590697910671 0 0.12725189714160451 -0.39114481437834081 0 0.10108734755229661 -0.39585051134715288 0 0.1020551284366021 -0.40145590697910671 0 0.12725189714160451 -0.39114481437834081 0 0.10108734755229661 -0.39585051134715288 0 0.1109143394755432 -0.37879956158639477 0 0.1334112792555546 -0.36981158194157598 0 0.12725189714160451 -0.39114481437834081 0 0.1109143394755432 -0.37879956158639477 0 0.10108734755229661 -0.39585051134715288 0 0.1109143394755432 -0.37879956158639477 0 0.099538115131240862 -0.38687734315725131 0 0.1109143394755432 -0.37879956158639477 0 0.099538115131240862 -0.38687734315725131 0 0.095326952656062003 -0.36248625202644208 0 0.1109143394755432 -0.37879956158639477 0 0.099538115131240862 -0.38687734315725131 0 0.085869354972197595 -0.38080683549947458 0 0.082088744623623283 -0.39926741206267791 0 0.070730611682772601 -0.38560590218519708 0 0.085869354972197595 -0.38080683549947458 0 0.070730611682772601 -0.38560590218519708 0 0.086592111782717224 -0.36716513241097398 0 0.099538115131240862 -0.38687734315725131 0 0.085869354972197595 -0.38080683549947458 0 0.090397191640633701 -0.36511838768127158 0 0.099538115131240862 -0.38687734315725131 0 0.085869354972197595 -0.38080683549947458 0 0.082088744623623283 -0.39926741206267791 0 0.070730611682772601 -0.38560590218519708 0 0.086592111782717224 -0.36716513241097398 0 0.1020551284366021 -0.40145590697910671 0 0.082088744623623283 -0.39926741206267791 0 0.077075019604782524 -0.40282744870865039 0 0.10108734755229661 -0.39585051134715288 0 0.082088744623623283 -0.39926741206267791 0 0.099538115131240862 -0.38687734315725131 0 0.082088744623623283 -0.39926741206267791 0 0.1020551284366021 -0.40145590697910671 0 0.077075019604782524 -0.40282744870865039 0 0.082088744623623283 -0.39926741206267791 0 0.077075019604782524 -0.40282744870865039 0 0.082088744623623283 -0.39926741206267791 0 0.077075019604782524 -0.40282744870865039 0 0.054750879541551313 -0.40418412994507091 0 0.077075019604782524 -0.40282744870865039 0 0.054750879541551313 -0.40418412994507091 0 0.082088744623623283 -0.39926741206267791 0 0.070730611682772601 -0.38560590218519708 0 0.054750879541551313 -0.40418412994507091 0 0.082088744623623283 -0.39926741206267791 0 0.054750879541551313 -0.40418412994507091 0 0.070730611682772601 -0.38560590218519708 0 0.054750879541551313 -0.40418412994507091 0 0.070730611682772601 -0.38560590218519708 0 0.05613593546215892 -0.38576610119348498 0 0.063568905868525094 -0.3712067755730098 0 0.05613593546215892 -0.38576610119348498 0 0.042138495862141183 -0.37834127308425503 0 0.063568905868525094 -0.3712067755730098 0 0.048518877032343401 -0.38841554778219961 0 0.05613593546215892 -0.38576610119348498 0 0.042138495862141183 -0.37834127308425503 0 0.048518877032343401 -0.38841554778219961 0 0.05613593546215892 -0.38576610119348498 0 0.0502672478555291 -0.39484028232221391 0 0.05613593546215892 -0.38576610119348498 0 0.054750879541551313 -0.40418412994507091 0 0.0502672478555291 -0.39484028232221391 0 0.070730611682772601 -0.38560590218519708 0 0.05613593546215892 -0.38576610119348498 0 0.054750879541551313 -0.40418412994507091 0 0.054750879541551313 -0.40418412994507091 0 0.0502672478555291 -0.39484028232221391 0 0.046212888207936023 -0.40452194497199367 0 0.054750879541551313 -0.40418412994507091 0 0.046212888207936023 -0.40452194497199367 0 0.048518877032343401 -0.38841554778219961 0 0.0502672478555291 -0.39484028232221391 0 0.041930754374507342 -0.39313490341173202 0 0.054750879541551313 -0.40418412994507091 0 0.037957627700213152 -0.40720439803784148 0 0.054750879541551313 -0.40418412994507091 0 0.046212888207936023 -0.40452194497199367 0 0.037957627700213152 -0.40720439803784148 0 0.036334179528293771 -0.39966864111966027 0 0.02116437585887487 -0.41022466613061143 0 0.037957627700213152 -0.40720439803784148 0 0.0502672478555291 -0.39484028232221391 0 0.041930754374507342 -0.39313490341173202 0 0.046212888207936023 -0.40452194497199367 0 0.041930754374507342 -0.39313490341173202 0 0.046212888207936023 -0.40452194497199367 0 0.036334179528293771 -0.39966864111966027 0 0.046212888207936023 -0.40452194497199367 0 0.036334179528293771 -0.39966864111966027 0 0.037957627700213152 -0.40720439803784148 0 0.041930754374507342 -0.39313490341173202 0 0.036334179528293771 -0.39966864111966027 0 0.032394838990591097 -0.39091046843921817 0 0.041930754374507342 -0.39313490341173202 0 0.032394838990591097 -0.39091046843921817 0 0.042138495862141183 -0.37834127308425503 0 0.042138495862141183 -0.37834127308425503 0 0.02070808585575731 -0.38547577059550031 0 0.032394838990591097 -0.39091046843921817 0 0.042138495862141183 -0.37834127308425503 0 0.02070808585575731 -0.38547577059550031 0 0.042138495862141183 -0.37834127308425503 0 0.02070808585575731 -0.38547577059550031 0 0.031192281789381032 -0.36161333819547931 0 0.048518877032343401 -0.38841554778219961 0 0.041930754374507342 -0.39313490341173202 0 0.042138495862141183 -0.37834127308425503 0 -0.00072232415062651462 -0.39261026810674549 0 0.02070808585575731 -0.38547577059550031 0 0.0058916104488833509 -0.37833181594326631 0 -0.00072232415062651462 -0.39261026810674549 0 0.02070808585575731 -0.38547577059550031 0 0.02070808585575731 -0.38547577059550031 0 0.0058916104488833509 -0.37833181594326631 0 0.01073991848365162 -0.36351689085440531 0 -0.00072232415062651462 -0.39261026810674549 0 0.02070808585575731 -0.38547577059550031 0 0.01062110188700204 -0.39884729649858569 0 0.00077620197462267013 -0.40325672237600563 0 0.01062110188700204 -0.39884729649858569 0 0.01016082468092764 -0.41174702203513819 0 -0.00072232415062651462 -0.39261026810674549 0 0.00077620197462267013 -0.40325672237600563 0 0.01062110188700204 -0.39884729649858569 0 0.01062110188700204 -0.39884729649858569 0 0.020862679332255891 -0.39793175398494363 0 0.01016082468092764 -0.41174702203513819 0 0.036334179528293771 -0.39966864111966027 0 0.020862679332255891 -0.39793175398494363 0 0.01016082468092764 -0.41174702203513819 0 0.036334179528293771 -0.39966864111966027 0 0.01016082468092764 -0.41174702203513819 0 0.02070808585575731 -0.38547577059550031 0 0.01062110188700204 -0.39884729649858569 0 0.020862679332255891 -0.39793175398494363 0 0.036334179528293771 -0.39966864111966027 0 0.032394838990591097 -0.39091046843921817 0 0.020862679332255891 -0.39793175398494363 0 0.032394838990591097 -0.39091046843921817 0 0.02070808585575731 -0.38547577059550031 0 0.020862679332255891 -0.39793175398494363 0 0.029179533989026681 -0.4147005836873523 0 0.02116437585887487 -0.41022466613061143 0 0.037957627700213152 -0.40720439803784148 0 0.029179533989026681 -0.4147005836873523 0 0.017462432533074109 -0.42019503267102032 0 0.040133699863944952 -0.42117823790993641 0 0.036334179528293771 -0.39966864111966027 0 0.02116437585887487 -0.41022466613061143 0 0.01016082468092764 -0.41174702203513819 0 0.02116437585887487 -0.41022466613061143 0 0.037957627700213152 -0.40720439803784148 0 0.017462432533074109 -0.42019503267102032 0 0.040133699863944952 -0.42117823790993641 0 0.029179533989026681 -0.4147005836873523 0 0.017462432533074109 -0.42019503267102032 0 0.02116437585887487 -0.41022466613061143 0 0.017462432533074109 -0.42019503267102032 0 0.02116437585887487 -0.41022466613061143 0 0.01016082468092764 -0.41174702203513819 0 -0.0081126324668909892 -0.41123767716410042 0 0.00077620197462267013 -0.40325672237600563 0 0.01016082468092764 -0.41174702203513819 0 -0.0053503916519833756 -0.41890507954911932 0 0.017462432533074109 -0.42019503267102032 0 0.0029814021335089918 -0.42568077098759632 0 -0.0053503916519833756 -0.41890507954911932 0 0.017462432533074109 -0.42019503267102032 0 -0.0053503916519833756 -0.41890507954911932 0 0.017462432533074109 -0.42019503267102032 0 0.01016082468092764 -0.41174702203513819 0 -0.0053503916519833756 -0.41890507954911932 0 0.01016082468092764 -0.41174702203513819 0 -0.00072542549580032715 -0.4354249626967972 0 0.0072262268012842131 -0.43241232281379188 0 0.0037527775864003251 -0.44018732198252952 0 -0.00072542549580032715 -0.4354249626967972 0 0.0072262268012842131 -0.43241232281379188 0 0.0029814021335089918 -0.42568077098759632 0 0.0072262268012842131 -0.43241232281379188 0 0.0029814021335089918 -0.42568077098759632 0 0.011119832510844609 -0.42672282238543269 0 0.017462432533074109 -0.42019503267102032 0 0.011119832510844609 -0.42672282238543269 0 0.018041535421306449 -0.43008373060159821 0 0.017462432533074109 -0.42019503267102032 0 0.0029814021335089918 -0.42568077098759632 0 0.011119832510844609 -0.42672282238543269 0 0.0072262268012842131 -0.43241232281379188 0 0.011119832510844609 -0.42672282238543269 0 0.018041535421306449 -0.43008373060159821 0 0.0072262268012842131 -0.43241232281379188 0 0.018041535421306449 -0.43008373060159821 0 0.010492521662714161 -0.44068172168700059 0 0.017462432533074109 -0.42019503267102032 0 0.018041535421306449 -0.43008373060159821 0 0.040133699863944952 -0.42117823790993641 0 0.018041535421306449 -0.43008373060159821 0 0.040133699863944952 -0.42117823790993641 0 0.0227220698110304 -0.44142120731236101 0 0.018041535421306449 -0.43008373060159821 0 0.0227220698110304 -0.44142120731236101 0 0.010492521662714161 -0.44068172168700059 0 0.036657129118603853 -0.4315265039506182 0 0.0227220698110304 -0.44142120731236101 0 0.036657129118603853 -0.4315265039506182 0 0.050592188426177312 -0.42163180058887562 0 0.050219861572690143 -0.44042785735031942 0 0.036657129118603853 -0.4315265039506182 0 0.040133699863944952 -0.42117823790993641 0 0.0227220698110304 -0.44142120731236101 0 0.040133699863944952 -0.42117823790993641 0 0.0227220698110304 -0.44142120731236101 0 0.036657129118603853 -0.4315265039506182 0 0.040133699863944952 -0.42117823790993641 0 0.050592188426177312 -0.42163180058887562 0 0.036657129118603853 -0.4315265039506182 0 0.050592188426177312 -0.42163180058887562 0 0.029179533989026681 -0.4147005836873523 0 0.037957627700213152 -0.40720439803784148 0 0.040133699863944952 -0.42117823790993641 0 0.054750879541551313 -0.40418412994507091 0 0.037957627700213152 -0.40720439803784148 0 0.040133699863944952 -0.42117823790993641 0 0.040133699863944952 -0.42117823790993641 0 0.050592188426177312 -0.42163180058887562 0 0.054750879541551313 -0.40418412994507091 0 0.040133699863944952 -0.42117823790993641 0 0.050592188426177312 -0.42163180058887562 0 0.054750879541551313 -0.40418412994507091 0 0.040133699863944952 -0.42117823790993641 0 0.063833604015479856 -0.41222962464876278 0 0.054750879541551313 -0.40418412994507091 0 0.050592188426177312 -0.42163180058887562 0 0.063833604015479856 -0.41222962464876278 0 0.050592188426177312 -0.42163180058887562 0 0.064309015829448368 -0.43420630728615067 0 0.050592188426177312 -0.42163180058887562 0 0.050219861572690143 -0.44042785735031942 0 0.06613879356164204 -0.44674923975339947 0 0.050219861572690143 -0.44042785735031942 0 0.055128080965081261 -0.45454517745005502 0 0.06613879356164204 -0.44674923975339947 0 0.064309015829448368 -0.43420630728615067 0 0.050219861572690143 -0.44042785735031942 0 0.050219861572690143 -0.44042785735031942 0 0.055128080965081261 -0.45454517745005502 0 0.044015006826124317 -0.45143750944464339 0 0.067108396817992924 -0.4587642215460167 0 0.055128080965081261 -0.45454517745005502 0 0.054009332551249942 -0.46775917303715547 0 0.055128080965081261 -0.45454517745005502 0 0.054009332551249942 -0.46775917303715547 0 0.043074481931974919 -0.45924277668627561 0 0.055128080965081261 -0.45454517745005502 0 0.043074481931974919 -0.45924277668627561 0 0.044015006826124317 -0.45143750944464339 0 0.043074481931974919 -0.45924277668627561 0 0.034553482097771593 -0.45725917831078799 0 0.027418673634129729 -0.46554050130607538 0 0.054009332551249942 -0.46775917303715547 0 0.027418673634129729 -0.46554050130607538 0 0.030123679809832559 -0.46758652255791572 0 0.054009332551249942 -0.46775917303715547 0 0.043074481931974919 -0.45924277668627561 0 0.027418673634129729 -0.46554050130607538 0 0.054009332551249942 -0.46775917303715547 0 0.027418673634129729 -0.46554050130607538 0 0.043074481931974919 -0.45924277668627561 0 0.034553482097771593 -0.45725917831078799 0 0.044015006826124317 -0.45143750944464339 0 0.050219861572690143 -0.44042785735031942 0 0.044015006826124317 -0.45143750944464339 0 0.034061349264943752 -0.44527446207319971 0 0.034553482097771593 -0.45725917831078799 0 0.034061349264943752 -0.44527446207319971 0 0.026497242312590159 -0.45108604568933203 0 0.036657129118603853 -0.4315265039506182 0 0.050219861572690143 -0.44042785735031942 0 0.034061349264943752 -0.44527446207319971 0 0.034553482097771593 -0.45725917831078799 0 0.044015006826124317 -0.45143750944464339 0 0.034061349264943752 -0.44527446207319971 0 0.036657129118603853 -0.4315265039506182 0 0.034061349264943752 -0.44527446207319971 0 0.0227220698110304 -0.44142120731236101 0 0.034061349264943752 -0.44527446207319971 0 0.026497242312590159 -0.45108604568933203 0 0.0227220698110304 -0.44142120731236101 0 0.026497242312590159 -0.45108604568933203 0 0.0227220698110304 -0.44142120731236101 0 0.013524286459978579 -0.45211466027337799 0 0.0227220698110304 -0.44142120731236101 0 0.0086970556782464906 -0.45137978383687383 0 0.0227220698110304 -0.44142120731236101 0 0.013524286459978579 -0.45211466027337799 0 0.0227220698110304 -0.44142120731236101 0 0.010492521662714161 -0.44068172168700059 0 0.0086970556782464906 -0.45137978383687383 0 0.0227220698110304 -0.44142120731236101 0 0.013524286459978579 -0.45211466027337799 0 0.0086970556782464906 -0.45137978383687383 0 0.010492521662714161 -0.44068172168700059 0 0.0086970556782464906 -0.45137978383687383 0 0.0045823816277680979 -0.44826751347413002 0 0.0086970556782464906 -0.45137978383687383 0 0.0045823816277680979 -0.44826751347413002 0 0.0072262268012842131 -0.43241232281379188 0 0.010492521662714161 -0.44068172168700059 0 0.0037527775864003251 -0.44018732198252952 0 0.010492521662714161 -0.44068172168700059 0 0.0045823816277680979 -0.44826751347413002 0 0.0037527775864003251 -0.44018732198252952 0 -0.003664230010532391 -0.44570336902629643 0 0.0045823816277680979 -0.44826751347413002 0 0.0037527775864003251 -0.44018732198252952 0 -0.0077442852071358884 -0.46305409302634359 0 0.0086970556782464906 -0.45137978383687383 0 0.0104743022432467 -0.47129735715269849 0 -0.0077442852071358884 -0.46305409302634359 0 0.0086970556782464906 -0.45137978383687383 0 0.0045823816277680979 -0.44826751347413002 0 0.0086970556782464906 -0.45137978383687383 0 0.027418673634129729 -0.46554050130607538 0 0.0104743022432467 -0.47129735715269849 0 -0.0077442852071358884 -0.46305409302634359 0 0.0086970556782464906 -0.45137978383687383 0 0.013524286459978579 -0.45211466027337799 0 0.0086970556782464906 -0.45137978383687383 0 0.027418673634129729 -0.46554050130607538 0 0.0086970556782464906 -0.45137978383687383 0 0.027418673634129729 -0.46554050130607538 0 0.027418673634129729 -0.46554050130607538 0 0.030123679809832559 -0.46758652255791572 0 0.0104743022432467 -0.47129735715269849 0 0.013524286459978579 -0.45211466027337799 0 0.02556037952249695 -0.45641818236555848 0 0.027418673634129729 -0.46554050130607538 0 0.026497242312590159 -0.45108604568933203 0 0.013524286459978579 -0.45211466027337799 0 0.02556037952249695 -0.45641818236555848 0 0.034553482097771593 -0.45725917831078799 0 0.02556037952249695 -0.45641818236555848 0 0.027418673634129729 -0.46554050130607538 0 0.034553482097771593 -0.45725917831078799 0 0.026497242312590159 -0.45108604568933203 0 0.02556037952249695 -0.45641818236555848 0 0.027418673634129729 -0.46554050130607538 0 0.030123679809832559 -0.46758652255791572 0 0.030123679809832559 -0.46758652255791572 0 0.0104743022432467 -0.47129735715269849 0 0.031143132876922549 -0.48643404474995228 0 0.0104743022432467 -0.47129735715269849 0 0.0087783883482265655 -0.48831305638716738 0 0.031143132876922549 -0.48643404474995228 0 -0.006205207030923446 -0.48109721305138509 0 0.0104743022432467 -0.47129735715269849 0 0.0087783883482265655 -0.48831305638716738 0 -0.0045963692354046293 -0.5 0 0.0087783883482265655 -0.48831305638716738 0 0.021261396534064891 -0.5 0 0.0087783883482265655 -0.48831305638716738 0 0.031143132876922549 -0.48643404474995228 0 0.021261396534064891 -0.5 0 0.031143132876922549 -0.48643404474995228 0 0.051550303941418053 -0.48379326127895839 0 0.047119162303534412 -0.5 0 0.031143132876922549 -0.48643404474995228 0 0.021261396534064891 -0.5 0 0.047119162303534412 -0.5 0 0.054009332551249942 -0.46775917303715547 0 0.030123679809832559 -0.46758652255791572 0 0.051550303941418053 -0.48379326127895839 0 0.030123679809832559 -0.46758652255791572 0 0.031143132876922549 -0.48643404474995228 0 0.051550303941418053 -0.48379326127895839 0 0.030123679809832559 -0.46758652255791572 0 0.051550303941418053 -0.48379326127895839 0 0.069712818436367188 -0.48098769899632088 0 0.054009332551249942 -0.46775917303715547 0 0.051550303941418053 -0.48379326127895839 0 0.072976928073003905 -0.50000000000000067 0 0.051550303941418053 -0.48379326127895839 0 0.047119162303534412 -0.5 0 0.072976928073003905 -0.50000000000000067 0 0.051550303941418053 -0.48379326127895839 0 0.082814569181570624 -0.29001441381336751 0 0.093732775453719996 -0.29838285620396371 0 0.09587779751157853 -0.28323264046624808 0 0.082814569181570624 -0.29001441381336751 0 0.093732775453719996 -0.29838285620396371 0 0.086985363673068306 -0.31417169321772559 0 0.093732775453719996 -0.29838285620396371 0 0.095062856596484419 -0.30981838974957759 0 0.086985363673068306 -0.31417169321772559 0 0.082814569181570624 -0.29001441381336751 0 0.086985363673068306 -0.31417169321772559 0 0.082814569181570624 -0.29001441381336751 0 0.065853360027395558 -0.29424655867063337 0 0.086985363673068306 -0.31417169321772559 0 0.065853360027395558 -0.29424655867063337 0 0.086985363673068306 -0.31417169321772559 0 0.061185766484342909 -0.3115625110044265 0 0.082814569181570624 -0.29001441381336751 0 0.065853360027395558 -0.29424655867063337 0 0.078643774690072929 -0.26585713440900938 0 0.078643774690072929 -0.26585713440900938 0 0.060155279619458477 -0.26416776316292262 0 0.054728118350911431 -0.2804694376981528 0 0.065853360027395558 -0.29424655867063337 0 0.078643774690072929 -0.26585713440900938 0 0.054728118350911431 -0.2804694376981528 0 0.060155279619458477 -0.26416776316292262 0 0.054684051400864082 -0.24953415243883439 0 0.074472980198575317 -0.24169985500465119 0 0.078643774690072929 -0.26585713440900938 0 0.074472980198575317 -0.24169985500465119 0 0.078643774690072929 -0.26585713440900938 0 0.060155279619458477 -0.26416776316292262 0 0.074472980198575317 -0.24169985500465119 0 0.092199982951821177 -0.25867563791187392 0 0.078643774690072929 -0.26585713440900938 0 0.098920580017200402 -0.26919594064847718 0 0.085687542678866233 -0.25030418618935529 0 0.078643774690072929 -0.26585713440900938 0 0.074472980198575317 -0.24169985500465119 0 0.085687542678866233 -0.25030418618935529 0 0.092199982951821177 -0.25867563791187392 0 0.078643774690072929 -0.26585713440900938 0 0.085687542678866233 -0.25030418618935529 0 0.092199982951821177 -0.25867563791187392 0 0.096911880283940793 -0.24882234865630171 0 0.082814569181570624 -0.29001441381336751 0 0.078643774690072929 -0.26585713440900938 0 0.09587779751157853 -0.28323264046624808 0 0.078643774690072929 -0.26585713440900938 0 0.098920580017200402 -0.26919594064847718 0 0.09587779751157853 -0.28323264046624808 0 0.082814569181570624 -0.29001441381336751 0 0.078643774690072929 -0.26585713440900938 0 0.098920580017200402 -0.26919594064847718 0 0.1149947158017532 -0.27138234512663068 0 0.10901816013060441 -0.28166524400217169 0 0.098920580017200402 -0.26919594064847718 0 0.1136997800725823 -0.26083335504530042 0 0.1149947158017532 -0.27138234512663068 0 0.098920580017200402 -0.26919594064847718 0 0.10901816013060441 -0.28166524400217169 0 0.09587779751157853 -0.28323264046624808 0 0.092199982951821177 -0.25867563791187392 0 0.10210932133637519 -0.25773456337797762 0 0.096911880283940793 -0.24882234865630171 0 0.092199982951821177 -0.25867563791187392 0 0.098920580017200402 -0.26919594064847718 0 0.10210932133637519 -0.25773456337797762 0 0.098920580017200402 -0.26919594064847718 0 0.10210932133637519 -0.25773456337797762 0 0.1136997800725823 -0.26083335504530042 0 0.10210932133637519 -0.25773456337797762 0 0.1136997800725823 -0.26083335504530042 0 0.11136075185103041 -0.24821750207143811 0 0.10210932133637519 -0.25773456337797762 0 0.11136075185103041 -0.24821750207143811 0 0.096911880283940793 -0.24882234865630171 0 0.13255133477306699 -0.26568128814098352 0 0.1136997800725823 -0.26083335504530042 0 0.1247112926720263 -0.25243123502020148 0 0.1136997800725823 -0.26083335504530042 0 0.1247112926720263 -0.25243123502020148 0 0.11136075185103041 -0.24821750207143811 0 0.13255133477306699 -0.26568128814098352 0 0.1136997800725823 -0.26083335504530042 0 0.1149947158017532 -0.27138234512663068 0 0.13255133477306699 -0.26568128814098352 0 0.1149947158017532 -0.27138234512663068 0 0.1207837240153115 -0.27953589779622062 0 0.1207837240153115 -0.27953589779622062 0 0.10901816013060441 -0.28166524400217169 0 0.1149947158017532 -0.27138234512663068 0 0.1207837240153115 -0.27953589779622062 0 0.10901816013060441 -0.28166524400217169 0 0.13088037227655899 -0.2942857276262526 0 0.1207837240153115 -0.27953589779622062 0 0.1199731921402913 -0.29294000862745778 0 0.13088037227655899 -0.2942857276262526 0 0.1199731921402913 -0.29294000862745778 0 0.1203053819633965 -0.30326126531445879 0 0.1207837240153115 -0.27953589779622062 0 0.10901816013060441 -0.28166524400217169 0 0.10792329030589801 -0.29467714377289922 0 0.1207837240153115 -0.27953589779622062 0 0.1199731921402913 -0.29294000862745778 0 0.10792329030589801 -0.29467714377289922 0 0.1207837240153115 -0.27953589779622062 0 0.10792329030589801 -0.29467714377289922 0 0.10901816013060441 -0.28166524400217169 0 0.10792329030589801 -0.29467714377289922 0 0.09587779751157853 -0.28323264046624808 0 0.093732775453719996 -0.29838285620396371 0 0.10792329030589801 -0.29467714377289922 0 0.09587779751157853 -0.28323264046624808 0 0.10792329030589801 -0.29467714377289922 0 0.095062856596484419 -0.30981838974957759 0 0.093732775453719996 -0.29838285620396371 0 0.10792329030589801 -0.29467714377289922 0 0.095062856596484419 -0.30981838974957759 0 0.10792329030589801 -0.29467714377289922 0 0.095062856596484419 -0.30981838974957759 0 0.1090325669781675 -0.30825997337196132 0 0.095062856596484419 -0.30981838974957759 0 0.1090325669781675 -0.30825997337196132 0 0.1035852989147725 -0.31545280090330929 0 0.1090325669781675 -0.30825997337196132 0 0.1203053819633965 -0.30326126531445879 0 0.1177436955112441 -0.31769016004013079 0 0.10792329030589801 -0.29467714377289922 0 0.1090325669781675 -0.30825997337196132 0 0.1203053819633965 -0.30326126531445879 0 0.1199731921402913 -0.29294000862745778 0 0.10792329030589801 -0.29467714377289922 0 0.1203053819633965 -0.30326126531445879 0 0.13301616913552181 -0.31049640420533597 0 0.1203053819633965 -0.30326126531445879 0 0.1177436955112441 -0.31769016004013079 0 0.1090325669781675 -0.30825997337196132 0 0.1177436955112441 -0.31769016004013079 0 0.1035852989147725 -0.31545280090330929 0 0.1177436955112441 -0.31769016004013079 0 0.11868082408184701 -0.3329768044732706 0 0.1050978419658385 -0.32482748945804107 0 0.132759356249668 -0.32370860499886139 0 0.1177436955112441 -0.31769016004013079 0 0.11868082408184701 -0.3329768044732706 0 0.11868082408184701 -0.3329768044732706 0 0.11957470216076579 -0.34953970840678589 0 0.091156158164565987 -0.33832897262208372 0 0.11868082408184701 -0.3329768044732706 0 0.1050978419658385 -0.32482748945804107 0 0.091156158164565987 -0.33832897262208372 0 0.096161985049313239 -0.32036579409841498 0 0.1050978419658385 -0.32482748945804107 0 0.091156158164565987 -0.33832897262208372 0 0.095062856596484419 -0.30981838974957759 0 0.096161985049313239 -0.32036579409841498 0 0.1035852989147725 -0.31545280090330929 0 0.096161985049313239 -0.32036579409841498 0 0.1035852989147725 -0.31545280090330929 0 0.1050978419658385 -0.32482748945804107 0 0.1177436955112441 -0.31769016004013079 0 0.1035852989147725 -0.31545280090330929 0 0.1050978419658385 -0.32482748945804107 0 0.1334112792555546 -0.36981158194157598 0 0.1148068183869818 -0.36515927599029963 0 0.11957470216076579 -0.34953970840678589 0 0.1334112792555546 -0.36981158194157598 0 0.1109143394755432 -0.37879956158639477 0 0.1148068183869818 -0.36515927599029963 0 0.1148068183869818 -0.36515927599029963 0 0.11957470216076579 -0.34953970840678589 0 0.095326952656062003 -0.36248625202644208 0 0.11957470216076579 -0.34953970840678589 0 0.095326952656062003 -0.36248625202644208 0 0.11957470216076579 -0.34953970840678589 0 0.095326952656062003 -0.36248625202644208 0 0.091156158164565987 -0.33832897262208372 0 0.099538115131240862 -0.38687734315725131 0 0.095326952656062003 -0.36248625202644208 0 0.090397191640633701 -0.36511838768127158 0 0.099538115131240862 -0.38687734315725131 0 0.095326952656062003 -0.36248625202644208 0 0.1109143394755432 -0.37879956158639477 0 0.1148068183869818 -0.36515927599029963 0 0.095326952656062003 -0.36248625202644208 0 0.086592111782717224 -0.36716513241097398 0 0.084999315874908998 -0.36407227806176451 0 0.063568905868525094 -0.3712067755730098 0 0.085869354972197595 -0.38080683549947458 0 0.086592111782717224 -0.36716513241097398 0 0.090397191640633701 -0.36511838768127158 0 0.095326952656062003 -0.36248625202644208 0 0.090397191640633701 -0.36511838768127158 0 0.086273384733444827 -0.35973569490244239 0 0.086592111782717224 -0.36716513241097398 0 0.090397191640633701 -0.36511838768127158 0 0.084999315874908998 -0.36407227806176451 0 0.095326952656062003 -0.36248625202644208 0 0.090397191640633701 -0.36511838768127158 0 0.090397191640633701 -0.36511838768127158 0 0.086273384733444827 -0.35973569490244239 0 0.084999315874908998 -0.36407227806176451 0 0.086273384733444827 -0.35973569490244239 0 0.084999315874908998 -0.36407227806176451 0 0.077506677677703362 -0.35698262337046788 0 0.095326952656062003 -0.36248625202644208 0 0.091156158164565987 -0.33832897262208372 0 0.095326952656062003 -0.36248625202644208 0 0.08313678581791438 -0.35001893337226658 0 0.091156158164565987 -0.33832897262208372 0 0.086273384733444827 -0.35973569490244239 0 0.08313678581791438 -0.35001893337226658 0 0.077506677677703362 -0.35698262337046788 0 0.095326952656062003 -0.36248625202644208 0 0.086273384733444827 -0.35973569490244239 0 0.08313678581791438 -0.35001893337226658 0 0.067925802050405354 -0.34969622921928301 0 0.06891651634109569 -0.36044561995496832 0 0.052454223562743423 -0.35688453156672723 0 0.08313678581791438 -0.35001893337226658 0 0.067925802050405354 -0.34969622921928301 0 0.074544324899306069 -0.33336975506005162 0 0.08313678581791438 -0.35001893337226658 0 0.067925802050405354 -0.34969622921928301 0 0.077506677677703362 -0.35698262337046788 0 0.067925802050405354 -0.34969622921928301 0 0.077506677677703362 -0.35698262337046788 0 0.06891651634109569 -0.36044561995496832 0 0.084999315874908998 -0.36407227806176451 0 0.077506677677703362 -0.35698262337046788 0 0.06891651634109569 -0.36044561995496832 0 0.084999315874908998 -0.36407227806176451 0 0.063568905868525094 -0.3712067755730098 0 0.084999315874908998 -0.36407227806176451 0 0.06891651634109569 -0.36044561995496832 0 0.063568905868525094 -0.3712067755730098 0 0.070730611682772601 -0.38560590218519708 0 0.086592111782717224 -0.36716513241097398 0 0.063568905868525094 -0.3712067755730098 0 0.096161985049313239 -0.32036579409841498 0 0.086985363673068306 -0.31417169321772559 0 0.091156158164565987 -0.33832897262208372 0 0.086985363673068306 -0.31417169321772559 0 0.091156158164565987 -0.33832897262208372 0 0.095062856596484419 -0.30981838974957759 0 0.096161985049313239 -0.32036579409841498 0 0.086985363673068306 -0.31417169321772559 0 0.086985363673068306 -0.31417169321772559 0 0.091156158164565987 -0.33832897262208372 0 0.074544324899306069 -0.33336975506005162 0 0.08313678581791438 -0.35001893337226658 0 0.091156158164565987 -0.33832897262208372 0 0.074544324899306069 -0.33336975506005162 0 0.067925802050405354 -0.34969622921928301 0 0.074544324899306069 -0.33336975506005162 0 0.056876073205539418 -0.33644019092452432 0 0.086985363673068306 -0.31417169321772559 0 0.074544324899306069 -0.33336975506005162 0 0.061185766484342909 -0.3115625110044265 0 0.074544324899306069 -0.33336975506005162 0 0.056876073205539418 -0.33644019092452432 0 0.061185766484342909 -0.3115625110044265 0 0.047371763704752393 -0.32299177779569999 0 0.036701484343674373 -0.3030216108774596 0 0.061185766484342909 -0.3115625110044265 0 0.047371763704752393 -0.32299177779569999 0 0.056876073205539418 -0.33644019092452432 0 0.061185766484342909 -0.3115625110044265 0 0.047371763704752393 -0.32299177779569999 0 0.056876073205539418 -0.33644019092452432 0 0.040578273080719943 -0.3412017683833759 0 0.047371763704752393 -0.32299177779569999 0 0.040578273080719943 -0.3412017683833759 0 0.031444910940004622 -0.32519530661257151 0 0.040578273080719943 -0.3412017683833759 0 0.031444910940004622 -0.32519530661257151 0 0.022031987267423659 -0.34459848579355701 0 0.047371763704752393 -0.32299177779569999 0 0.031444910940004622 -0.32519530661257151 0 0.036701484343674373 -0.3030216108774596 0 0.042138495862141183 -0.37834127308425503 0 0.063568905868525094 -0.3712067755730098 0 0.052454223562743423 -0.35688453156672723 0 0.042138495862141183 -0.37834127308425503 0 0.063568905868525094 -0.3712067755730098 0 0.06891651634109569 -0.36044561995496832 0 0.063568905868525094 -0.3712067755730098 0 0.052454223562743423 -0.35688453156672723 0 0.056876073205539418 -0.33644019092452432 0 0.040578273080719943 -0.3412017683833759 0 0.052454223562743423 -0.35688453156672723 0 0.067925802050405354 -0.34969622921928301 0 0.056876073205539418 -0.33644019092452432 0 0.052454223562743423 -0.35688453156672723 0 0.040578273080719943 -0.3412017683833759 0 0.031192281789381032 -0.36161333819547931 0 0.022031987267423659 -0.34459848579355701 0 0.040578273080719943 -0.3412017683833759 0 0.052454223562743423 -0.35688453156672723 0 0.031192281789381032 -0.36161333819547931 0 0.042138495862141183 -0.37834127308425503 0 0.052454223562743423 -0.35688453156672723 0 0.031192281789381032 -0.36161333819547931 0 0.02070808585575731 -0.38547577059550031 0 0.031192281789381032 -0.36161333819547931 0 0.01073991848365162 -0.36351689085440531 0 0.031192281789381032 -0.36161333819547931 0 0.022031987267423659 -0.34459848579355701 0 0.01073991848365162 -0.36351689085440531 0 -0.01062982243337058 -0.35234142963879839 0 0.0053148931994630687 -0.34826805892008872 0 0.01073991848365162 -0.36351689085440531 0 0.022031987267423659 -0.34459848579355701 0 0.0053148931994630687 -0.34826805892008872 0 0.01073991848365162 -0.36351689085440531 0 -0.0071592383932490072 -0.37172433421641388 0 0.0058916104488833509 -0.37833181594326631 0 0.01073991848365162 -0.36351689085440531 0 0.031444910940004622 -0.32519530661257151 0 0.01405688136534995 -0.33050197413672361 0 0.014570048831001711 -0.31576128941966503 0 0.031444910940004622 -0.32519530661257151 0 0.014570048831001711 -0.31576128941966503 0 0.036701484343674373 -0.3030216108774596 0 0.031444910940004622 -0.32519530661257151 0 0.022031987267423659 -0.34459848579355701 0 0.01405688136534995 -0.33050197413672361 0 0.0053148931994630687 -0.34826805892008872 0 0.01405688136534995 -0.33050197413672361 0 0.00093598445714682533 -0.33501187277556899 0 0.022031987267423659 -0.34459848579355701 0 0.0053148931994630687 -0.34826805892008872 0 0.01405688136534995 -0.33050197413672361 0 -0.00064033772500888425 -0.3207383258129487 0 0.01405688136534995 -0.33050197413672361 0 0.00093598445714682533 -0.33501187277556899 0 -0.00064033772500888425 -0.3207383258129487 0 0.014570048831001711 -0.31576128941966503 0 0.0033306333990243669 -0.30365637841515741 0 -0.00064033772500888425 -0.3207383258129487 0 0.01405688136534995 -0.33050197413672361 0 0.014570048831001711 -0.31576128941966503 0 0.014570048831001711 -0.31576128941966503 0 0.0033306333990243669 -0.30365637841515741 0 0.01770077404424417 -0.29867652724824278 0 -0.011111708647086689 -0.28917869030745319 0 0.0033306333990243669 -0.30365637841515741 0 0.0079978645729627401 -0.28683117843660327 0 0.0033306333990243669 -0.30365637841515741 0 0.0079978645729627401 -0.28683117843660327 0 0.01770077404424417 -0.29867652724824278 0 0.0079978645729627401 -0.28683117843660327 0 0.02590383907455766 -0.28411217909232889 0 0.01770077404424417 -0.29867652724824278 0 0.02590383907455766 -0.28411217909232889 0 0.01770077404424417 -0.29867652724824278 0 0.036701484343674373 -0.3030216108774596 0 0.014570048831001711 -0.31576128941966503 0 0.01770077404424417 -0.29867652724824278 0 0.036701484343674373 -0.3030216108774596 0 0.02590383907455766 -0.28411217909232889 0 0.036701484343674373 -0.3030216108774596 0 0.036701484343674373 -0.3030216108774596 0 0.054728118350911431 -0.2804694376981528 0 0.038933151571368382 -0.27360934790977998 0 0.02590383907455766 -0.28411217909232889 0 0.036701484343674373 -0.3030216108774596 0 0.038933151571368382 -0.27360934790977998 0 0.065853360027395558 -0.29424655867063337 0 0.036701484343674373 -0.3030216108774596 0 0.054728118350911431 -0.2804694376981528 0 0.065853360027395558 -0.29424655867063337 0 0.036701484343674373 -0.3030216108774596 0 0.061185766484342909 -0.3115625110044265 0 0.060155279619458477 -0.26416776316292262 0 0.034895122603152827 -0.25736844987301749 0 0.054684051400864082 -0.24953415243883439 0 0.060155279619458477 -0.26416776316292262 0 0.054728118350911431 -0.2804694376981528 0 0.038933151571368382 -0.27360934790977998 0 0.060155279619458477 -0.26416776316292262 0 0.038933151571368382 -0.27360934790977998 0 0.034895122603152827 -0.25736844987301749 0 0.034895122603152827 -0.25736844987301749 0 0.054684051400864082 -0.24953415243883439 0 0.038933151571368382 -0.27360934790977998 0 0.034895122603152827 -0.25736844987301749 0 0.01510619380544069 -0.26520274730719828 0 0.034895122603152827 -0.25736844987301749 0 0.01510619380544069 -0.26520274730719828 0 0.034895122603152827 -0.25736844987301749 0 0.023412610558693921 -0.25052230213807941 0 0.01510619380544069 -0.26520274730719828 0 0.023412610558693921 -0.25052230213807941 0 0.0090855535829359943 -0.25465907016715222 0 0.01510619380544069 -0.26520274730719828 0 0.0079978645729627401 -0.28683117843660327 0 0.02590383907455766 -0.28411217909232889 0 0.01510619380544069 -0.26520274730719828 0 0.02590383907455766 -0.28411217909232889 0 0.01510619380544069 -0.26520274730719828 0 0.02590383907455766 -0.28411217909232889 0 0.038933151571368382 -0.27360934790977998 0 0.01510619380544069 -0.26520274730719828 0 -0.0007582654871422026 -0.27148337492484942 0 0.01510619380544069 -0.26520274730719828 0 -0.0007582654871422026 -0.27148337492484942 0 0.0079978645729627401 -0.28683117843660327 0 0.01510619380544069 -0.26520274730719828 0 -0.0007582654871422026 -0.27148337492484942 0 0.0090855535829359943 -0.25465907016715222 0 0.01510619380544069 -0.26520274730719828 0 -0.0007582654871422026 -0.27148337492484942 0 -0.004144784243036481 -0.25526440730861449 0 0.0090855535829359943 -0.25465907016715222 0 -0.0007582654871422026 -0.27148337492484942 0 0.0090855535829359943 -0.25465907016715222 0 0.0090855535829359943 -0.25465907016715222 0 0.01510619380544069 -0.26520274730719828 0 -0.004144784243036481 -0.25526440730861449 0 0.0090855535829359943 -0.25465907016715222 0 0.0012919838376714949 -0.2410105410862598 0 0.0012919838376714949 -0.2410105410862598 0 0.0065230745022584018 -0.22741006197419361 0 0.01992763334331191 -0.23612861437584839 0 0.0090855535829359943 -0.25465907016715222 0 0.01992763334331191 -0.23612861437584839 0 0.0090855535829359943 -0.25465907016715222 0 0.0012919838376714949 -0.2410105410862598 0 0.01992763334331191 -0.23612861437584839 0 0.0090855535829359943 -0.25465907016715222 0 0.0012919838376714949 -0.2410105410862598 0 0.0065230745022584018 -0.22741006197419361 0 0.015612739034694321 -0.21882955936914361 0 0.002394388801066951 -0.21052884480337411 0 -0.0065015859075924099 -0.22736201200536699 0 0.0065230745022584018 -0.22741006197419361 0 0.002394388801066951 -0.21052884480337411 0 -0.0065015859075924099 -0.22736201200536699 0 0.0012919838376714949 -0.2410105410862598 0 0.0065230745022584018 -0.22741006197419361 0 0.0065230745022584018 -0.22741006197419361 0 0.015612739034694321 -0.21882955936914361 0 0.01992763334331191 -0.23612861437584839 0 0.015612739034694321 -0.21882955936914361 0 0.01992763334331191 -0.23612861437584839 0 0.03076971310368478 -0.21759815858454279 0 0.01992763334331191 -0.23612861437584839 0 0.03076971310368478 -0.21759815858454279 0 0.01992763334331191 -0.23612861437584839 0 0.03076971310368478 -0.21759815858454279 0 0.038048549458629427 -0.23925262896717989 0 0.023412610558693921 -0.25052230213807941 0 0.0090855535829359943 -0.25465907016715222 0 0.01992763334331191 -0.23612861437584839 0 0.023412610558693921 -0.25052230213807941 0 0.01992763334331191 -0.23612861437584839 0 0.038048549458629427 -0.23925262896717989 0 0.011290363509728049 -0.19369567760138209 0 0.01488613828157305 -0.20374308115014669 0 0.002394388801066951 -0.21052884480337411 0 0.011290363509728049 -0.19369567760138209 0 0.0020364241398806481 -0.1995724166759115 0 0.002394388801066951 -0.21052884480337411 0 0.011290363509728049 -0.19369567760138209 0 0.002394388801066951 -0.21052884480337411 0 -0.001786670059977728 -0.18929840057947059 0 0.011290363509728049 -0.19369567760138209 0 0.0020364241398806481 -0.1995724166759115 0 0.015612739034694321 -0.21882955936914361 0 0.01488613828157305 -0.20374308115014669 0 0.002394388801066951 -0.21052884480337411 0 0.03076971310368478 -0.21759815858454279 0 0.02829084846228715 -0.20164480524511941 0 0.03449506584423763 -0.1979978902406522 0 0.03076971310368478 -0.21759815858454279 0 0.022389859720559822 -0.2104539010872381 0 0.02829084846228715 -0.20164480524511941 0 0.015612739034694321 -0.21882955936914361 0 0.03076971310368478 -0.21759815858454279 0 0.022389859720559822 -0.2104539010872381 0 0.015612739034694321 -0.21882955936914361 0 0.01488613828157305 -0.20374308115014669 0 0.022389859720559822 -0.2104539010872381 0 0.01488613828157305 -0.20374308115014669 0 0.022389859720559822 -0.2104539010872381 0 0.02829084846228715 -0.20164480524511941 0 0.01488613828157305 -0.20374308115014669 0 0.037021989516430737 -0.1912594216366432 0 0.022572720723816608 -0.1868788791225981 0 0.01488613828157305 -0.20374308115014669 0 0.02829084846228715 -0.20164480524511941 0 0.037021989516430737 -0.1912594216366432 0 0.011290363509728049 -0.19369567760138209 0 0.01488613828157305 -0.20374308115014669 0 0.022572720723816608 -0.1868788791225981 0 0.01488613828157305 -0.20374308115014669 0 0.037021989516430737 -0.1912594216366432 0 0.037021989516430737 -0.1912594216366432 0 0.041611792864057681 -0.19906770279323721 0 0.053254008731157272 -0.19743886173583711 0 0.02829084846228715 -0.20164480524511941 0 0.037021989516430737 -0.1912594216366432 0 0.03449506584423763 -0.1979978902406522 0 0.037021989516430737 -0.1912594216366432 0 0.03449506584423763 -0.1979978902406522 0 0.041611792864057681 -0.19906770279323721 0 0.03076971310368478 -0.21759815858454279 0 0.041611792864057681 -0.19906770279323721 0 0.03076971310368478 -0.21759815858454279 0 0.050106509974623042 -0.21076876502455641 0 0.050670536547716472 -0.22493339972446449 0 0.03076971310368478 -0.21759815858454279 0 0.03449506584423763 -0.1979978902406522 0 0.041611792864057681 -0.19906770279323721 0 0.03076971310368478 -0.21759815858454279 0 0.041611792864057681 -0.19906770279323721 0 0.050106509974623042 -0.21076876502455641 0 0.057892365658553893 -0.2162681327612678 0 0.050106509974623042 -0.21076876502455641 0 0.050670536547716472 -0.22493339972446449 0 0.057892365658553893 -0.2162681327612678 0 0.050106509974623042 -0.21076876502455641 0 0.06445252765667267 -0.2085370866734417 0 0.050106509974623042 -0.21076876502455641 0 0.053254008731157272 -0.19743886173583711 0 0.06445252765667267 -0.2085370866734417 0 0.037021989516430737 -0.1912594216366432 0 0.053254008731157272 -0.19743886173583711 0 0.059157840751288389 -0.1787757621231397 0 0.053254008731157272 -0.19743886173583711 0 0.066135016261777244 -0.1957521075015233 0 0.059157840751288389 -0.1787757621231397 0 0.041611792864057681 -0.19906770279323721 0 0.050106509974623042 -0.21076876502455641 0 0.053254008731157272 -0.19743886173583711 0 0.053254008731157272 -0.19743886173583711 0 0.06445252765667267 -0.2085370866734417 0 0.066135016261777244 -0.1957521075015233 0 0.034895122603152827 -0.25736844987301749 0 0.023412610558693921 -0.25052230213807941 0 0.038048549458629427 -0.23925262896717989 0 0.034895122603152827 -0.25736844987301749 0 0.038048549458629427 -0.23925262896717989 0 0.054684051400864082 -0.24953415243883439 0 0.03076971310368478 -0.21759815858454279 0 0.038048549458629427 -0.23925262896717989 0 0.050670536547716472 -0.22493339972446449 0 0.038048549458629427 -0.23925262896717989 0 0.050670536547716472 -0.22493339972446449 0 0.06053018746782899 -0.23488488472728469 0 0.057892365658553893 -0.2162681327612678 0 0.050670536547716472 -0.22493339972446449 0 0.06583628735792138 -0.22246994352547811 0 0.050670536547716472 -0.22493339972446449 0 0.06053018746782899 -0.23488488472728469 0 0.06583628735792138 -0.22246994352547811 0 0.038048549458629427 -0.23925262896717989 0 0.054684051400864082 -0.24953415243883439 0 0.06053018746782899 -0.23488488472728469 0 0.054684051400864082 -0.24953415243883439 0 0.074472980198575317 -0.24169985500465119 0 0.054684051400864082 -0.24953415243883439 0 0.06053018746782899 -0.23488488472728469 0 0.074472980198575317 -0.24169985500465119 0 0.06053018746782899 -0.23488488472728469 0 0.074472980198575317 -0.24169985500465119 0 0.072767697280484087 -0.2318228409250114 0 0.074472980198575317 -0.24169985500465119 0 0.072767697280484087 -0.2318228409250114 0 0.074472980198575317 -0.24169985500465119 0 0.088665591547335693 -0.2360811002044009 0 0.072767697280484087 -0.2318228409250114 0 0.085687542678866233 -0.25030418618935529 0 0.074472980198575317 -0.24169985500465119 0 0.088665591547335693 -0.2360811002044009 0 0.074472980198575317 -0.24169985500465119 0 0.088665591547335693 -0.2360811002044009 0 0.085687542678866233 -0.25030418618935529 0 0.088665591547335693 -0.2360811002044009 0 0.096911880283940793 -0.24882234865630171 0 0.088665591547335693 -0.2360811002044009 0 0.086145967383346581 -0.22190256742379069 0 0.098932356734434845 -0.21936802422933471 0 0.088665591547335693 -0.2360811002044009 0 0.077967544878394884 -0.22551183259123711 0 0.072767697280484087 -0.2318228409250114 0 0.088665591547335693 -0.2360811002044009 0 0.086145967383346581 -0.22190256742379069 0 0.077967544878394884 -0.22551183259123711 0 0.086145967383346581 -0.22190256742379069 0 0.077967544878394884 -0.22551183259123711 0 0.076258401329997436 -0.21635434221493319 0 0.077967544878394884 -0.22551183259123711 0 0.06583628735792138 -0.22246994352547811 0 0.076258401329997436 -0.21635434221493319 0 0.077967544878394884 -0.22551183259123711 0 0.072767697280484087 -0.2318228409250114 0 0.06583628735792138 -0.22246994352547811 0 0.06053018746782899 -0.23488488472728469 0 0.072767697280484087 -0.2318228409250114 0 0.06583628735792138 -0.22246994352547811 0 0.057892365658553893 -0.2162681327612678 0 0.06583628735792138 -0.22246994352547811 0 0.06445252765667267 -0.2085370866734417 0 0.06583628735792138 -0.22246994352547811 0 0.06445252765667267 -0.2085370866734417 0 0.076258401329997436 -0.21635434221493319 0 0.06445252765667267 -0.2085370866734417 0 0.07659349124015874 -0.20511701361401791 0 0.066135016261777244 -0.1957521075015233 0 0.06445252765667267 -0.2085370866734417 0 0.07659349124015874 -0.20511701361401791 0 0.076258401329997436 -0.21635434221493319 0 0.07659349124015874 -0.20511701361401791 0 0.066135016261777244 -0.1957521075015233 0 0.077217212929609175 -0.18889181336117991 0 0.066135016261777244 -0.1957521075015233 0 0.077217212929609175 -0.18889181336117991 0 0.059157840751288389 -0.1787757621231397 0 0.07659349124015874 -0.20511701361401791 0 0.077217212929609175 -0.18889181336117991 0 0.087056122981510914 -0.19880729082051449 0 0.077217212929609175 -0.18889181336117991 0 0.087056122981510914 -0.19880729082051449 0 0.091316030458297129 -0.18581800007690699 0 0.087056122981510914 -0.19880729082051449 0 0.088905942426570017 -0.21219753787904741 0 0.1004314188966224 -0.19751483051826599 0 0.087056122981510914 -0.19880729082051449 0 0.1004314188966224 -0.19751483051826599 0 0.091316030458297129 -0.18581800007690699 0 0.07659349124015874 -0.20511701361401791 0 0.076258401329997436 -0.21635434221493319 0 0.088905942426570017 -0.21219753787904741 0 0.086145967383346581 -0.22190256742379069 0 0.076258401329997436 -0.21635434221493319 0 0.088905942426570017 -0.21219753787904741 0 0.07659349124015874 -0.20511701361401791 0 0.087056122981510914 -0.19880729082051449 0 0.088905942426570017 -0.21219753787904741 0 0.086145967383346581 -0.22190256742379069 0 0.088905942426570017 -0.21219753787904741 0 0.098932356734434845 -0.21936802422933471 0 0.10799241367531311 -0.2082446501541429 0 0.1004314188966224 -0.19751483051826599 0 0.098932356734434845 -0.21936802422933471 0 0.10799241367531311 -0.2082446501541429 0 0.1197620525411254 -0.21356208913140801 0 0.098932356734434845 -0.21936802422933471 0 0.088905942426570017 -0.21219753787904741 0 0.098932356734434845 -0.21936802422933471 0 0.1004314188966224 -0.19751483051826599 0 0.098932356734434845 -0.21936802422933471 0 0.088905942426570017 -0.21219753787904741 0 0.1004314188966224 -0.19751483051826599 0 0.098932356734434845 -0.21936802422933471 0 0.10799241367531311 -0.2082446501541429 0 0.1004314188966224 -0.19751483051826599 0 0.1165223794856555 -0.19743642180091739 0 0.1004314188966224 -0.19751483051826599 0 0.1165223794856555 -0.19743642180091739 0 0.1137289395421745 -0.18563405717561929 0 0.1165223794856555 -0.19743642180091739 0 0.1137289395421745 -0.18563405717561929 0 0.12767687559112709 -0.18700981645158871 0 0.1165223794856555 -0.19743642180091739 0 0.1197620525411254 -0.21356208913140801 0 0.13698071479679749 -0.2016101276466106 0 0.10799241367531311 -0.2082446501541429 0 0.1165223794856555 -0.19743642180091739 0 0.1197620525411254 -0.21356208913140801 0 0.12162565113262939 -0.23559735135753929 0 0.098932356734434845 -0.21936802422933471 0 0.1197620525411254 -0.21356208913140801 0 0.12162565113262939 -0.23559735135753929 0 0.098932356734434845 -0.21936802422933471 0 0.1247112926720263 -0.25243123502020148 0 0.12162565113262939 -0.23559735135753929 0 0.11136075185103041 -0.24821750207143811 0 0.12162565113262939 -0.23559735135753929 0 0.11136075185103041 -0.24821750207143811 0 0.10718848582980491 -0.23786273940013941 0 0.088665591547335693 -0.2360811002044009 0 0.096911880283940793 -0.24882234865630171 0 0.098932356734434845 -0.21936802422933471 0 0.10718848582980491 -0.23786273940013941 0 0.096911880283940793 -0.24882234865630171 0 0.098932356734434845 -0.21936802422933471 0 0.11136075185103041 -0.24821750207143811 0 0.10718848582980491 -0.23786273940013941 0 0.096911880283940793 -0.24882234865630171 0 0.096911880283940793 -0.24882234865630171 0 0.098932356734434845 -0.21936802422933471 0 0.12162565113262939 -0.23559735135753929 0 0.10718848582980491 -0.23786273940013941 0 0.098932356734434845 -0.21936802422933471 0 0.105245266586261 -0.12733899077612529 0 0.089060970052445482 -0.13593005308265091 0 0.089799020460722107 -0.1166878231181251 0 0.1034295432210014 -0.15380844309612871 0 0.105245266586261 -0.12733899077612529 0 0.089060970052445482 -0.13593005308265091 0 0.1034295432210014 -0.15380844309612871 0 0.105245266586261 -0.12733899077612529 0 0.105245266586261 -0.12733899077612529 0 0.12763569286038981 -0.1239215236016821 0 0.12554447269925231 -0.14133658254545051 0 0.105245266586261 -0.12733899077612529 0 0.12554447269925231 -0.14133658254545051 0 0.1034295432210014 -0.15380844309612871 0 0.117464539126081 -0.16255135438451021 0 0.12554447269925231 -0.14133658254545051 0 0.1034295432210014 -0.15380844309612871 0 0.12554447269925231 -0.14133658254545051 0 0.1034295432210014 -0.15380844309612871 0 0.105245266586261 -0.12733899077612529 0 0.12554447269925231 -0.14133658254545051 0 0.117464539126081 -0.16255135438451021 0 0.13037551585724591 -0.16521290458990351 0 0.12554447269925231 -0.14133658254545051 0 0.117464539126081 -0.16255135438451021 0 0.1209797667976001 -0.17516793943393069 0 0.1019304810588106 -0.17566163680719721 0 0.117464539126081 -0.16255135438451021 0 0.1209797667976001 -0.17516793943393069 0 0.13037551585724591 -0.16521290458990351 0 0.1209797667976001 -0.17516793943393069 0 0.1137289395421745 -0.18563405717561929 0 0.1019304810588106 -0.17566163680719721 0 0.1209797667976001 -0.17516793943393069 0 0.1137289395421745 -0.18563405717561929 0 0.12767687559112709 -0.18700981645158871 0 0.1004314188966224 -0.19751483051826599 0 0.1019304810588106 -0.17566163680719721 0 0.1004314188966224 -0.19751483051826599 0 0.1137289395421745 -0.18563405717561929 0 0.1019304810588106 -0.17566163680719721 0 0.1004314188966224 -0.19751483051826599 0 0.1019304810588106 -0.17566163680719721 0 0.091316030458297129 -0.18581800007690699 0 0.1034295432210014 -0.15380844309612871 0 0.1019304810588106 -0.17566163680719721 0 0.081293691986146041 -0.1662921026096362 0 0.1034295432210014 -0.15380844309612871 0 0.1019304810588106 -0.17566163680719721 0 0.1034295432210014 -0.15380844309612871 0 0.117464539126081 -0.16255135438451021 0 0.1019304810588106 -0.17566163680719721 0 0.1034295432210014 -0.15380844309612871 0 0.081293691986146041 -0.1662921026096362 0 0.1034295432210014 -0.15380844309612871 0 0.081293691986146041 -0.1662921026096362 0 0.083893122983947688 -0.15136619918215349 0 0.1019304810588106 -0.17566163680719721 0 0.081293691986146041 -0.1662921026096362 0 0.091316030458297129 -0.18581800007690699 0 0.077217212929609175 -0.18889181336117991 0 0.081293691986146041 -0.1662921026096362 0 0.091316030458297129 -0.18581800007690699 0 0.081293691986146041 -0.1662921026096362 0 0.059157840751288389 -0.1787757621231397 0 0.077217212929609175 -0.18889181336117991 0 0.081293691986146041 -0.1662921026096362 0 0.059157840751288389 -0.1787757621231397 0 0.081293691986146041 -0.1662921026096362 0 0.083893122983947688 -0.15136619918215349 0 0.059836425018594187 -0.15310931659908561 0 0.081293691986146041 -0.1662921026096362 0 0.059836425018594187 -0.15310931659908561 0 0.059157840751288389 -0.1787757621231397 0 0.074967953069567633 -0.14060976914102449 0 0.063191818280704193 -0.13271432445204209 0 0.059836425018594187 -0.15310931659908561 0 0.083893122983947688 -0.15136619918215349 0 0.074967953069567633 -0.14060976914102449 0 0.059836425018594187 -0.15310931659908561 0 0.1034295432210014 -0.15380844309612871 0 0.083893122983947688 -0.15136619918215349 0 0.089060970052445482 -0.13593005308265091 0 0.083893122983947688 -0.15136619918215349 0 0.089060970052445482 -0.13593005308265091 0 0.074967953069567633 -0.14060976914102449 0 0.089060970052445482 -0.13593005308265091 0 0.076265357153930874 -0.12527069007267511 0 0.089799020460722107 -0.1166878231181251 0 0.089060970052445482 -0.13593005308265091 0 0.076265357153930874 -0.12527069007267511 0 0.074967953069567633 -0.14060976914102449 0 0.076265357153930874 -0.12527069007267511 0 0.074967953069567633 -0.14060976914102449 0 0.063191818280704193 -0.13271432445204209 0 0.063191818280704193 -0.13271432445204209 0 0.059836425018594187 -0.15310931659908561 0 0.046396680345847721 -0.13471784454825969 0 0.046396680345847721 -0.13471784454825969 0 0.06245779714778936 -0.1165243258711893 0 0.063191818280704193 -0.13271432445204209 0 0.046396680345847721 -0.13471784454825969 0 0.06245779714778936 -0.1165243258711893 0 0.046396680345847721 -0.13471784454825969 0 0.05524256192011287 -0.12288591932480129 0 0.042980591833718232 -0.1230360593151873 0 0.046396680345847721 -0.13471784454825969 0 0.030335563543905909 -0.15291136322533 0 0.059836425018594187 -0.15310931659908561 0 0.046396680345847721 -0.13471784454825969 0 0.030335563543905909 -0.15291136322533 0 0.032458158350679903 -0.13077753630964159 0 0.046396680345847721 -0.13471784454825969 0 0.030335563543905909 -0.15291136322533 0 0.032458158350679903 -0.13077753630964159 0 0.046396680345847721 -0.13471784454825969 0 0.042980591833718232 -0.1230360593151873 0 0.037021989516430737 -0.1912594216366432 0 0.059157840751288389 -0.1787757621231397 0 0.059836425018594187 -0.15310931659908561 0 0.059157840751288389 -0.1787757621231397 0 0.039143888097207931 -0.16775256302207051 0 0.059836425018594187 -0.15310931659908561 0 0.039143888097207931 -0.16775256302207051 0 0.030335563543905909 -0.15291136322533 0 0.037021989516430737 -0.1912594216366432 0 0.059157840751288389 -0.1787757621231397 0 0.034434177166141548 -0.17915430156137041 0 0.059157840751288389 -0.1787757621231397 0 0.039143888097207931 -0.16775256302207051 0 0.034434177166141548 -0.17915430156137041 0 0.037021989516430737 -0.1912594216366432 0 0.034434177166141548 -0.17915430156137041 0 0.022572720723816608 -0.1868788791225981 0 0.011290363509728049 -0.19369567760138209 0 0.022572720723816608 -0.1868788791225981 0 0.014274446741964091 -0.17110488190240031 0 0.034434177166141548 -0.17915430156137041 0 0.022572720723816608 -0.1868788791225981 0 0.014274446741964091 -0.17110488190240031 0 0.039143888097207931 -0.16775256302207051 0 0.034434177166141548 -0.17915430156137041 0 0.014274446741964091 -0.17110488190240031 0 0.014935513255805151 -0.16566555537702529 0 0.014274446741964091 -0.17110488190240031 0 0.030335563543905909 -0.15291136322533 0 0.014274446741964091 -0.17110488190240031 0 0.030335563543905909 -0.15291136322533 0 0.039143888097207931 -0.16775256302207051 0 0.014274446741964091 -0.17110488190240031 0 0.030335563543905909 -0.15291136322533 0 0.014935513255805151 -0.16566555537702529 0 0.030335563543905909 -0.15291136322533 0 0.013873537458913839 -0.1508049432497662 0 -0.0020086241853944091 -0.1547870315339249 0 0.014935513255805151 -0.16566555537702529 0 -0.0020086241853944091 -0.1547870315339249 0 0.014935513255805151 -0.16566555537702529 0 0.013873537458913839 -0.1508049432497662 0 -0.0020086241853944091 -0.1547870315339249 0 0.002193658633994617 -0.1668768133420033 0 0.014935513255805151 -0.16566555537702529 0 0.002193658633994617 -0.1668768133420033 0 0.014935513255805151 -0.16566555537702529 0 0.014274446741964091 -0.17110488190240031 0 -0.001786670059977728 -0.18929840057947059 0 0.011290363509728049 -0.19369567760138209 0 0.014274446741964091 -0.17110488190240031 0 -0.001786670059977728 -0.18929840057947059 0 0.014274446741964091 -0.17110488190240031 0 -0.001786670059977728 -0.18929840057947059 0 0.002193658633994617 -0.1668768133420033 0 0.014274446741964091 -0.17110488190240031 0 0.02047667081085772 -0.13891709285519041 0 0.0124767335756797 -0.11323722619768301 0 0.032458158350679903 -0.13077753630964159 0 0.02047667081085772 -0.13891709285519041 0 0.0124767335756797 -0.11323722619768301 0 0.02047667081085772 -0.13891709285519041 0 0.030335563543905909 -0.15291136322533 0 0.013873537458913839 -0.1508049432497662 0 0.032458158350679903 -0.13077753630964159 0 0.02047667081085772 -0.13891709285519041 0 0.030335563543905909 -0.15291136322533 0 0.02047667081085772 -0.13891709285519041 0 0.013873537458913839 -0.1508049432497662 0 0.0048852549988201268 -0.14179469452142321 0 -0.0020086241853944091 -0.1547870315339249 0 0.013873537458913839 -0.1508049432497662 0 0.0048852549988201268 -0.14179469452142321 0 -0.0021704942975181371 -0.1276442308107418 0 0.02047667081085772 -0.13891709285519041 0 0.0048852549988201268 -0.14179469452142321 0 -0.0021704942975181371 -0.1276442308107418 0 0.02047667081085772 -0.13891709285519041 0 0.0124767335756797 -0.11323722619768301 0 -0.0083572851437748626 -0.1064103685077297 0 -0.0021704942975181371 -0.1276442308107418 0 0.0124767335756797 -0.11323722619768301 0 0.0124767335756797 -0.11323722619768301 0 0.026722835165749869 -0.1014048984470997 0 0.032423965115347328 -0.11544849561504431 0 0.032458158350679903 -0.13077753630964159 0 0.0124767335756797 -0.11323722619768301 0 0.032423965115347328 -0.11544849561504431 0 0.0124767335756797 -0.11323722619768301 0 0.026722835165749869 -0.1014048984470997 0 0.0044767963405016884 -0.087557359540175544 0 0.0124767335756797 -0.11323722619768301 0 0.0044767963405016884 -0.087557359540175544 0 -0.0083572851437748626 -0.1064103685077297 0 0.0124767335756797 -0.11323722619768301 0 0.0044767963405016884 -0.087557359540175544 0 -0.0035231408946746041 -0.061877492882667577 0 0.0044767963405016884 -0.087557359540175544 0 0.0098657146083999028 -0.071792547091377515 0 -0.0035231408946746041 -0.061877492882667577 0 0.0098657146083999028 -0.071792547091377515 0 0.02387717468602708 -0.062778738898558867 0 -0.0035231408946746041 -0.061877492882667577 0 0.0044767963405016884 -0.087557359540175544 0 0.0044767963405016884 -0.087557359540175544 0 0.0098657146083999028 -0.071792547091377515 0 0.02180112263268762 -0.07494855136970581 0 0.0098657146083999028 -0.071792547091377515 0 0.02180112263268762 -0.07494855136970581 0 0.02387717468602708 -0.062778738898558867 0 0.02180112263268762 -0.07494855136970581 0 0.028480487091578872 -0.085331249387868457 0 0.03729589469615719 -0.071785831348146437 0 0.02180112263268762 -0.07494855136970581 0 0.02387717468602708 -0.062778738898558867 0 0.03729589469615719 -0.071785831348146437 0 0.0044767963405016884 -0.087557359540175544 0 0.02180112263268762 -0.07494855136970581 0 0.028480487091578872 -0.085331249387868457 0 0.026722835165749869 -0.1014048984470997 0 0.0044767963405016884 -0.087557359540175544 0 0.028480487091578872 -0.085331249387868457 0 0.026722835165749869 -0.1014048984470997 0 0.028480487091578872 -0.085331249387868457 0 0.05102912064223622 -0.089953515008935059 0 0.028480487091578872 -0.085331249387868457 0 0.04954424193556483 -0.076801539120190429 0 0.05102912064223622 -0.089953515008935059 0 0.028480487091578872 -0.085331249387868457 0 0.03729589469615719 -0.071785831348146437 0 0.04954424193556483 -0.076801539120190429 0 0.02387717468602708 -0.062778738898558867 0 0.03729589469615719 -0.071785831348146437 0 0.051277490266728773 -0.063679984914450746 0 0.02387717468602708 -0.062778738898558867 0 0.051277490266728773 -0.063679984914450746 0 0.03729589469615719 -0.071785831348146437 0 0.051277490266728773 -0.063679984914450746 0 0.04954424193556483 -0.076801539120190429 0 0.051277490266728773 -0.063679984914450746 0 0.04954424193556483 -0.076801539120190429 0 0.064810236569451729 -0.075247665365429053 0 0.04954424193556483 -0.076801539120190429 0 0.066837951883020177 -0.087426137328945053 0 0.064810236569451729 -0.075247665365429053 0 0.04954424193556483 -0.076801539120190429 0 0.05102912064223622 -0.089953515008935059 0 0.066837951883020177 -0.087426137328945053 0 0.05102912064223622 -0.089953515008935059 0 0.058344930025636177 -0.1055063594576359 0 0.047178905858914828 -0.1106410518708878 0 0.05102912064223622 -0.089953515008935059 0 0.07271389645360421 -0.10490654507953109 0 0.05102912064223622 -0.089953515008935059 0 0.058344930025636177 -0.1055063594576359 0 0.07271389645360421 -0.10490654507953109 0 0.06245779714778936 -0.1165243258711893 0 0.05524256192011287 -0.12288591932480129 0 0.047178905858914828 -0.1106410518708878 0 0.046396680345847721 -0.13471784454825969 0 0.06245779714778936 -0.1165243258711893 0 0.05524256192011287 -0.12288591932480129 0 0.058344930025636177 -0.1055063594576359 0 0.06245779714778936 -0.1165243258711893 0 0.047178905858914828 -0.1106410518708878 0 0.06245779714778936 -0.1165243258711893 0 0.05524256192011287 -0.12288591932480129 0 0.05524256192011287 -0.12288591932480129 0 0.047178905858914828 -0.1106410518708878 0 0.042980591833718232 -0.1230360593151873 0 0.047178905858914828 -0.1106410518708878 0 0.042980591833718232 -0.1230360593151873 0 0.032423965115347328 -0.11544849561504431 0 0.032458158350679903 -0.13077753630964159 0 0.042980591833718232 -0.1230360593151873 0 0.032423965115347328 -0.11544849561504431 0 0.026722835165749869 -0.1014048984470997 0 0.047178905858914828 -0.1106410518708878 0 0.032423965115347328 -0.11544849561504431 0 0.026722835165749869 -0.1014048984470997 0 0.05102912064223622 -0.089953515008935059 0 0.047178905858914828 -0.1106410518708878 0 0.027753781738422491 -0.0028387788095733798 0 0.026332487083191532 -0.020847482506614751 0 0.03771394557960292 -0.01686645339503598 0 0.027753781738422491 -0.0028387788095733798 0 0.011402600186323291 -0.0064230577428618721 0 0.026332487083191532 -0.020847482506614751 0 -0.0031752882931124259 -0.01515272796499229 0 -0.0079842835926580199 0.01140056467584467 0 0.011402600186323291 -0.0064230577428618721 0 -0.0031752882931124259 -0.01515272796499229 0 0.011402600186323291 -0.0064230577428618721 0 0.01250908525101737 -0.02706312918159889 0 -0.0031752882931124259 -0.01515272796499229 0 0.01250908525101737 -0.02706312918159889 0 0.001586025533247544 -0.03758510872839553 0 0.011402600186323291 -0.0064230577428618721 0 0.01250908525101737 -0.02706312918159889 0 0.026332487083191532 -0.020847482506614751 0 0.01250908525101737 -0.02706312918159889 0 0.026332487083191532 -0.020847482506614751 0 0.02475504596845041 -0.037686508819461409 0 0.026332487083191532 -0.020847482506614751 0 0.02475504596845041 -0.037686508819461409 0 0.034146903704747177 -0.029597629243951439 0 0.01250908525101737 -0.02706312918159889 0 0.02475504596845041 -0.037686508819461409 0 0.013342722009943341 -0.043409283045993063 0 0.02475504596845041 -0.037686508819461409 0 0.033603912033596653 -0.039481866248535162 0 0.034146903704747177 -0.029597629243951439 0 0.02475504596845041 -0.037686508819461409 0 0.0277851804941384 -0.045244534950783802 0 0.033603912033596653 -0.039481866248535162 0 0.02475504596845041 -0.037686508819461409 0 0.0277851804941384 -0.045244534950783802 0 0.020506896314217319 -0.04789531556371613 0 0.02475504596845041 -0.037686508819461409 0 0.013342722009943341 -0.043409283045993063 0 0.020506896314217319 -0.04789531556371613 0 0.01250908525101737 -0.02706312918159889 0 0.001586025533247544 -0.03758510872839553 0 0.013342722009943341 -0.043409283045993063 0 0.001586025533247544 -0.03758510872839553 0 0.013342722009943341 -0.043409283045993063 0 0.0070042374510395329 -0.048974603911983418 0 -0.0045054633023061596 -0.058724229588092328 0 -0.0035231408946746041 -0.061877492882667577 0 0.015848918347177079 -0.057344983865764178 0 0.01516335814437692 -0.050711911933408238 0 0.0094633791140550233 -0.053821705775443707 0 0.0070042374510395329 -0.048974603911983418 0 -0.0035231408946746041 -0.061877492882667577 0 0.02387717468602708 -0.062778738898558867 0 -0.0045054633023061596 -0.058724229588092328 0 0.001586025533247544 -0.03758510872839553 0 0.0070042374510395329 -0.048974603911983418 0 -0.0045054633023061596 -0.058724229588092328 0 0.015848918347177079 -0.057344983865764178 0 -0.0045054633023061596 -0.058724229588092328 0 0.0094633791140550233 -0.053821705775443707 0 0.015848918347177079 -0.057344983865764178 0 -0.0035231408946746041 -0.061877492882667577 0 0.02387717468602708 -0.062778738898558867 0 0.015848918347177079 -0.057344983865764178 0 0.013342722009943341 -0.043409283045993063 0 0.01516335814437692 -0.050711911933408238 0 0.0070042374510395329 -0.048974603911983418 0 0.01516335814437692 -0.050711911933408238 0 0.014447398101576791 -0.053951423841942979 0 0.0094633791140550233 -0.053821705775443707 0 0.01516335814437692 -0.050711911933408238 0 0.014447398101576791 -0.053951423841942979 0 0.016976673675372742 -0.053330991775678432 0 -0.0045054633023061596 -0.058724229588092328 0 0.0094633791140550233 -0.053821705775443707 0 0.0070042374510395329 -0.048974603911983418 0 0.014447398101576791 -0.053951423841942979 0 0.0094633791140550233 -0.053821705775443707 0 0.015848918347177079 -0.057344983865764178 0 0.02387717468602708 -0.062778738898558867 0 0.015848918347177079 -0.057344983865764178 0 0.030160527607409109 -0.056295655182842047 0 0.015848918347177079 -0.057344983865764178 0 0.030160527607409109 -0.056295655182842047 0 0.015848918347177079 -0.057344983865764178 0 0.020804129985453772 -0.053736759379470991 0 0.025135563176002081 -0.054301026293575291 0 0.015848918347177079 -0.057344983865764178 0 0.016976673675372742 -0.053330991775678432 0 0.020804129985453772 -0.053736759379470991 0 0.014447398101576791 -0.053951423841942979 0 0.015848918347177079 -0.057344983865764178 0 0.016976673675372742 -0.053330991775678432 0 0.01516335814437692 -0.050711911933408238 0 0.016976673675372742 -0.053330991775678432 0 0.019278989813219911 -0.051457595796136138 0 0.016976673675372742 -0.053330991775678432 0 0.019278989813219911 -0.051457595796136138 0 0.020804129985453772 -0.053736759379470991 0 0.013342722009943341 -0.043409283045993063 0 0.01516335814437692 -0.050711911933408238 0 0.020506896314217319 -0.04789531556371613 0 0.01516335814437692 -0.050711911933408238 0 0.019278989813219911 -0.051457595796136138 0 0.020506896314217319 -0.04789531556371613 0 0.020506896314217319 -0.04789531556371613 0 0.022943890946678831 -0.051613000328406877 0 0.025486936945448541 -0.049835363353286179 0 0.019278989813219911 -0.051457595796136138 0 0.020506896314217319 -0.04789531556371613 0 0.022943890946678831 -0.051613000328406877 0 0.020804129985453772 -0.053736759379470991 0 0.022943890946678831 -0.051613000328406877 0 0.025135563176002081 -0.054301026293575291 0 0.019278989813219911 -0.051457595796136138 0 0.020804129985453772 -0.053736759379470991 0 0.022943890946678831 -0.051613000328406877 0 0.022943890946678831 -0.051613000328406877 0 0.025135563176002081 -0.054301026293575291 0 0.026974972852160661 -0.052743513032523413 0 0.022943890946678831 -0.051613000328406877 0 0.026974972852160661 -0.052743513032523413 0 0.025486936945448541 -0.049835363353286179 0 0.026974972852160661 -0.052743513032523413 0 0.025486936945448541 -0.049835363353286179 0 0.028961859500486131 -0.050512025602951108 0 0.025135563176002081 -0.054301026293575291 0 0.026974972852160661 -0.052743513032523413 0 0.02840585168227382 -0.053189361958002383 0 0.0277851804941384 -0.045244534950783802 0 0.020506896314217319 -0.04789531556371613 0 0.025486936945448541 -0.049835363353286179 0 0.0277851804941384 -0.045244534950783802 0 0.025486936945448541 -0.049835363353286179 0 0.028961859500486131 -0.050512025602951108 0 0.0277851804941384 -0.045244534950783802 0 0.028961859500486131 -0.050512025602951108 0 0.03316358325053588 -0.046595337450735047 0 0.025135563176002081 -0.054301026293575291 0 0.02840585168227382 -0.053189361958002383 0 0.030160527607409109 -0.056295655182842047 0 0.026974972852160661 -0.052743513032523413 0 0.028961859500486131 -0.050512025602951108 0 0.02840585168227382 -0.053189361958002383 0 0.028961859500486131 -0.050512025602951108 0 0.03070125496648668 -0.052971422231966887 0 0.032695328421470202 -0.050681678657183531 0 0.028961859500486131 -0.050512025602951108 0 0.02840585168227382 -0.053189361958002383 0 0.03070125496648668 -0.052971422231966887 0 0.02840585168227382 -0.053189361958002383 0 0.03070125496648668 -0.052971422231966887 0 0.030160527607409109 -0.056295655182842047 0 0.015848918347177079 -0.057344983865764178 0 0.025135563176002081 -0.054301026293575291 0 0.030160527607409109 -0.056295655182842047 0 0.02387717468602708 -0.062778738898558867 0 0.030160527607409109 -0.056295655182842047 0 0.036060345273834178 -0.055863079936493393 0 0.036060345273834178 -0.055863079936493393 0 0.044681165965025298 -0.052611640651690918 0 0.056557681646143297 -0.054586492421107573 0 0.02387717468602708 -0.062778738898558867 0 0.051277490266728773 -0.063679984914450746 0 0.036060345273834178 -0.055863079936493393 0 0.036060345273834178 -0.055863079936493393 0 0.056557681646143297 -0.054586492421107573 0 0.030160527607409109 -0.056295655182842047 0 0.036060345273834178 -0.055863079936493393 0 0.030160527607409109 -0.056295655182842047 0 0.036060345273834178 -0.055863079936493393 0 0.033169510858385778 -0.054826857735812827 0 0.036060345273834178 -0.055863079936493393 0 0.033169510858385778 -0.054826857735812827 0 0.035109317353392462 -0.054114899416975809 0 0.03070125496648668 -0.052971422231966887 0 0.030160527607409109 -0.056295655182842047 0 0.033169510858385778 -0.054826857735812827 0 0.03070125496648668 -0.052971422231966887 0 0.033169510858385778 -0.054826857735812827 0 0.032695328421470202 -0.050681678657183531 0 0.034739340379170328 -0.052498828397876847 0 0.032695328421470202 -0.050681678657183531 0 0.036615777886863363 -0.049481744454970888 0 0.033169510858385778 -0.054826857735812827 0 0.034739340379170328 -0.052498828397876847 0 0.032695328421470202 -0.050681678657183531 0 0.033169510858385778 -0.054826857735812827 0 0.034739340379170328 -0.052498828397876847 0 0.035109317353392462 -0.054114899416975809 0 0.032695328421470202 -0.050681678657183531 0 0.036615777886863363 -0.049481744454970888 0 0.03316358325053588 -0.046595337450735047 0 0.028961859500486131 -0.050512025602951108 0 0.032695328421470202 -0.050681678657183531 0 0.03316358325053588 -0.046595337450735047 0 0.036615777886863363 -0.049481744454970888 0 0.040833937168292082 -0.049366569370952171 0 0.039319441166660592 -0.044170174789985819 0 0.036615777886863363 -0.049481744454970888 0 0.038586497998416958 -0.05138847541677332 0 0.040833937168292082 -0.049366569370952171 0 0.036060345273834178 -0.055863079936493393 0 0.037483021942691819 -0.053356920022990972 0 0.040135629425887047 -0.052493987590790173 0 0.036060345273834178 -0.055863079936493393 0 0.034739340379170328 -0.052498828397876847 0 0.037483021942691819 -0.053356920022990972 0 0.036060345273834178 -0.055863079936493393 0 0.034739340379170328 -0.052498828397876847 0 0.035109317353392462 -0.054114899416975809 0 0.034739340379170328 -0.052498828397876847 0 0.036615777886863363 -0.049481744454970888 0 0.037483021942691819 -0.053356920022990972 0 0.038586497998416958 -0.05138847541677332 0 0.037483021942691819 -0.053356920022990972 0 0.040135629425887047 -0.052493987590790173 0 0.036615777886863363 -0.049481744454970888 0 0.038586497998416958 -0.05138847541677332 0 0.037483021942691819 -0.053356920022990972 0 0.040135629425887047 -0.052493987590790173 0 0.040833937168292082 -0.049366569370952171 0 0.044681165965025298 -0.052611640651690918 0 0.036060345273834178 -0.055863079936493393 0 0.040135629425887047 -0.052493987590790173 0 0.044681165965025298 -0.052611640651690918 0 0.038586497998416958 -0.05138847541677332 0 0.040135629425887047 -0.052493987590790173 0 0.040833937168292082 -0.049366569370952171 0 0.040833937168292082 -0.049366569370952171 0 0.044681165965025298 -0.052611640651690918 0 0.045773217255035553 -0.046683980036850203 0 0.044681165965025298 -0.052611640651690918 0 0.050002221322596109 -0.049623168177082157 0 0.045773217255035553 -0.046683980036850203 0 0.051277490266728773 -0.063679984914450746 0 0.036060345273834178 -0.055863079936493393 0 0.056557681646143297 -0.054586492421107573 0 0.051277490266728773 -0.063679984914450746 0 0.056557681646143297 -0.054586492421107573 0 0.078677805847430629 -0.064581230930342626 0 0.056557681646143297 -0.054586492421107573 0 0.053460601832914331 -0.043676588400269722 0 0.066385907745193234 -0.04932608558774778 0 0.056557681646143297 -0.054586492421107573 0 0.050002221322596109 -0.049623168177082157 0 0.053460601832914331 -0.043676588400269722 0 0.044681165965025298 -0.052611640651690918 0 0.056557681646143297 -0.054586492421107573 0 0.050002221322596109 -0.049623168177082157 0 0.053460601832914331 -0.043676588400269722 0 0.051868278721726807 -0.033782842933390698 0 0.046341936074724942 -0.040655738831120398 0 0.050002221322596109 -0.049623168177082157 0 0.053460601832914331 -0.043676588400269722 0 0.045773217255035553 -0.046683980036850203 0 0.053460601832914331 -0.043676588400269722 0 0.046341936074724942 -0.040655738831120398 0 0.045773217255035553 -0.046683980036850203 0 0.053460601832914331 -0.043676588400269722 0 0.063601561963017861 -0.039206349399501607 0 0.066385907745193234 -0.04932608558774778 0 0.053460601832914331 -0.043676588400269722 0 0.051868278721726807 -0.033782842933390698 0 0.063601561963017861 -0.039206349399501607 0 0.051868278721726807 -0.033782842933390698 0 0.062304712043446397 -0.026963330306662259 0 0.063601561963017861 -0.039206349399501607 0 0.051868278721726807 -0.033782842933390698 0 0.041853493382391783 -0.03477555113605818 0 0.046341936074724942 -0.040655738831120398 0 0.051868278721726807 -0.033782842933390698 0 0.041853493382391783 -0.03477555113605818 0 0.044217581773046633 -0.025286462831549211 0 0.041853493382391783 -0.03477555113605818 0 0.046341936074724942 -0.040655738831120398 0 0.039319441166660592 -0.044170174789985819 0 0.046341936074724942 -0.040655738831120398 0 0.045773217255035553 -0.046683980036850203 0 0.039319441166660592 -0.044170174789985819 0 0.040833937168292082 -0.049366569370952171 0 0.045773217255035553 -0.046683980036850203 0 0.039319441166660592 -0.044170174789985819 0 0.041853493382391783 -0.03477555113605818 0 0.039319441166660592 -0.044170174789985819 0 0.033603912033596653 -0.039481866248535162 0 0.036615777886863363 -0.049481744454970888 0 0.039319441166660592 -0.044170174789985819 0 0.03316358325053588 -0.046595337450735047 0 0.039319441166660592 -0.044170174789985819 0 0.03316358325053588 -0.046595337450735047 0 0.033603912033596653 -0.039481866248535162 0 0.0277851804941384 -0.045244534950783802 0 0.03316358325053588 -0.046595337450735047 0 0.033603912033596653 -0.039481866248535162 0 0.041853493382391783 -0.03477555113605818 0 0.033603912033596653 -0.039481866248535162 0 0.034146903704747177 -0.029597629243951439 0 0.034146903704747177 -0.029597629243951439 0 0.03771394557960292 -0.01686645339503598 0 0.044217581773046633 -0.025286462831549211 0 0.026332487083191532 -0.020847482506614751 0 0.034146903704747177 -0.029597629243951439 0 0.03771394557960292 -0.01686645339503598 0 0.03771394557960292 -0.01686645339503598 0 0.044217581773046633 -0.025286462831549211 0 0.048786211058372483 -0.015000432131251041 0 0.041853493382391783 -0.03477555113605818 0 0.034146903704747177 -0.029597629243951439 0 0.044217581773046633 -0.025286462831549211 0 0.051868278721726807 -0.033782842933390698 0 0.044217581773046633 -0.025286462831549211 0 0.0532688411945915 -0.023866727422709691 0 0.051868278721726807 -0.033782842933390698 0 0.0532688411945915 -0.023866727422709691 0 0.062304712043446397 -0.026963330306662259 0 0.0532688411945915 -0.023866727422709691 0 0.062304712043446397 -0.026963330306662259 0 0.059707042157494422 -0.01556053462714216 0 0.0532688411945915 -0.023866727422709691 0 0.048786211058372483 -0.015000432131251041 0 0.059707042157494422 -0.01556053462714216 0 0.044217581773046633 -0.025286462831549211 0 0.0532688411945915 -0.023866727422709691 0 0.048786211058372483 -0.015000432131251041 0 0.070357783949645841 0.0021354467124046661 0 0.059707042157494422 -0.01556053462714216 0 0.055050956031401199 -0.0040217381168727107 0 0.048786211058372483 -0.015000432131251041 0 0.059707042157494422 -0.01556053462714216 0 0.055050956031401199 -0.0040217381168727107 0 0.048786211058372483 -0.015000432131251041 0 0.055050956031401199 -0.0040217381168727107 0 0.042758899614098268 -0.0044006763941964993 0 0.03771394557960292 -0.01686645339503598 0 0.048786211058372483 -0.015000432131251041 0 0.042758899614098268 -0.0044006763941964993 0 0.027753781738422491 -0.0028387788095733798 0 0.03771394557960292 -0.01686645339503598 0 0.042758899614098268 -0.0044006763941964993 0 0.070357783949645841 0.0021354467124046661 0 0.09061825243524696 0.00077075998008834803 0 0.088593950635458912 -0.014380604165995989 0 0.070357783949645841 0.0021354467124046661 0 0.088593950635458912 -0.014380604165995989 0 0.073349897314449963 -0.017898104252013009 0 0.070357783949645841 0.0021354467124046661 0 0.059707042157494422 -0.01556053462714216 0 0.073349897314449963 -0.017898104252013009 0 0.062304712043446397 -0.026963330306662259 0 0.059707042157494422 -0.01556053462714216 0 0.073349897314449963 -0.017898104252013009 0 0.062304712043446397 -0.026963330306662259 0 0.073349897314449963 -0.017898104252013009 0 0.072000539455211413 -0.032651113644050947 0 0.073349897314449963 -0.017898104252013009 0 0.087288401467825377 -0.031096344387618321 0 0.072000539455211413 -0.032651113644050947 0 0.088593950635458912 -0.014380604165995989 0 0.073349897314449963 -0.017898104252013009 0 0.087288401467825377 -0.031096344387618321 0 0.088593950635458912 -0.014380604165995989 0 0.087288401467825377 -0.031096344387618321 0 0.10435306793578911 -0.030659099827524149 0 0.087288401467825377 -0.031096344387618321 0 0.078844843025951017 -0.045064892005441073 0 0.095894626772709879 -0.042973660053029897 0 0.087288401467825377 -0.031096344387618321 0 0.078844843025951017 -0.045064892005441073 0 0.072000539455211413 -0.032651113644050947 0 0.078844843025951017 -0.045064892005441073 0 0.072000539455211413 -0.032651113644050947 0 0.063601561963017861 -0.039206349399501607 0 0.062304712043446397 -0.026963330306662259 0 0.072000539455211413 -0.032651113644050947 0 0.063601561963017861 -0.039206349399501607 0 0.078844843025951017 -0.045064892005441073 0 0.063601561963017861 -0.039206349399501607 0 0.066385907745193234 -0.04932608558774778 0 0.078844843025951017 -0.045064892005441073 0 0.066385907745193234 -0.04932608558774778 0 0.078677805847430629 -0.064581230930342626 0 0.056557681646143297 -0.054586492421107573 0 0.066385907745193234 -0.04932608558774778 0 0.078677805847430629 -0.064581230930342626 0 0.078844843025951017 -0.045064892005441073 0 0.087436301002091224 -0.055333088998801912 0 0.095894626772709879 -0.042973660053029897 0 0.087436301002091224 -0.055333088998801912 0 0.099119566745254975 -0.060406615202021063 0 0.078677805847430629 -0.064581230930342626 0 0.078844843025951017 -0.045064892005441073 0 0.087436301002091224 -0.055333088998801912 0 0.078677805847430629 -0.064581230930342626 0 0.099119566745254975 -0.060406615202021063 0 0.1106933537900887 -0.04791726429732128 0 0.1060781214281325 -0.065482476946234519 0 0.087436301002091224 -0.055333088998801912 0 0.099119566745254975 -0.060406615202021063 0 0.1004411563235431 -0.050996984281995332 0 0.087436301002091224 -0.055333088998801912 0 0.1004411563235431 -0.050996984281995332 0 0.095894626772709879 -0.042973660053029897 0 0.1004411563235431 -0.050996984281995332 0 0.1106933537900887 -0.04791726429732128 0 0.1048556727491875 -0.046402398870770273 0 0.099119566745254975 -0.060406615202021063 0 0.1106933537900887 -0.04791726429732128 0 0.099119566745254975 -0.060406615202021063 0 0.1004411563235431 -0.050996984281995332 0 0.1106933537900887 -0.04791726429732128 0 0.1106933537900887 -0.04791726429732128 0 0.1087893028960777 -0.075674347407046538 0 0.1149246459668995 -0.059064779479619231 0 0.1106933537900887 -0.04791726429732128 0 0.1087893028960777 -0.075674347407046538 0 0.1149246459668995 -0.059064779479619231 0 0.12149491056729381 -0.053551456403129478 0 0.12682729081650959 -0.059770452073072702 0 0.1149246459668995 -0.059064779479619231 0 0.12149491056729381 -0.053551456403129478 0 0.1152800115924893 -0.052090917813419943 0 0.12149491056729381 -0.053551456403129478 0 0.1180425444914714 -0.047556102882565399 0 0.1283775989289844 -0.049048737984897027 0 0.12149491056729381 -0.053551456403129478 0 0.1180425444914714 -0.047556102882565399 0 0.1152800115924893 -0.052090917813419943 0 0.1149246459668995 -0.059064779479619231 0 0.1152800115924893 -0.052090917813419943 0 0.1106933537900887 -0.04791726429732128 0 0.1149159879323608 -0.047784357872344918 0 0.1152800115924893 -0.052090917813419943 0 0.1106933537900887 -0.04791726429732128 0 0.1180425444914714 -0.047556102882565399 0 0.1149159879323608 -0.047784357872344918 0 0.1152800115924893 -0.052090917813419943 0 0.1106933537900887 -0.04791726429732128 0 0.1108455290996589 -0.045698866286894652 0 0.1164303996580516 -0.041726379781839643 0 0.1106933537900887 -0.04791726429732128 0 0.1108455290996589 -0.045698866286894652 0 0.1164303996580516 -0.041726379781839643 0 0.13219656472774069 -0.024713005748437641 0 0.1108455290996589 -0.045698866286894652 0 0.1164303996580516 -0.041726379781839643 0 0.1066137660638888 -0.040624512889689858 0 0.1106933537900887 -0.04791726429732128 0 0.1164303996580516 -0.041726379781839643 0 0.1180425444914714 -0.047556102882565399 0 0.1149159879323608 -0.047784357872344918 0 0.1164303996580516 -0.041726379781839643 0 0.1149159879323608 -0.047784357872344918 0 0.1106933537900887 -0.04791726429732128 0 0.1164303996580516 -0.041726379781839643 0 0.1180425444914714 -0.047556102882565399 0 0.1164303996580516 -0.041726379781839643 0 0.1180425444914714 -0.047556102882565399 0 0.1164303996580516 -0.041726379781839643 0 0.13065797003270471 -0.040499121826618079 0 0.1164303996580516 -0.041726379781839643 0 0.1066137660638888 -0.040624512889689858 0 0.10435306793578911 -0.030659099827524149 0 0.1066137660638888 -0.040624512889689858 0 0.095894626772709879 -0.042973660053029897 0 0.10435306793578911 -0.030659099827524149 0 0.087288401467825377 -0.031096344387618321 0 0.095894626772709879 -0.042973660053029897 0 0.10435306793578911 -0.030659099827524149 0 0.1066137660638888 -0.040624512889689858 0 0.1048556727491875 -0.046402398870770273 0 0.095894626772709879 -0.042973660053029897 0 0.1108455290996589 -0.045698866286894652 0 0.1066137660638888 -0.040624512889689858 0 0.1048556727491875 -0.046402398870770273 0 0.1106933537900887 -0.04791726429732128 0 0.1108455290996589 -0.045698866286894652 0 0.1048556727491875 -0.046402398870770273 0 0.1004411563235431 -0.050996984281995332 0 0.1048556727491875 -0.046402398870770273 0 0.095894626772709879 -0.042973660053029897 0 0.088593950635458912 -0.014380604165995989 0 0.10435306793578911 -0.030659099827524149 0 0.10902821013279961 -0.014959110255728429 0 0.1164303996580516 -0.041726379781839643 0 0.10902821013279961 -0.014959110255728429 0 0.10902821013279961 -0.014959110255728429 0 0.12858579313274959 -0.0093695092745615677 0 0.13219656472774069 -0.024713005748437641 0 0.1164303996580516 -0.041726379781839643 0 0.10902821013279961 -0.014959110255728429 0 0.13219656472774069 -0.024713005748437641 0 0.1164303996580516 -0.041726379781839643 0 0.10435306793578911 -0.030659099827524149 0 0.10902821013279961 -0.014959110255728429 0 0.1198239109624907 0.00097693126500603697 0 0.10902821013279961 -0.014959110255728429 0 0.12858579313274959 -0.0093695092745615677 0 0.1198239109624907 0.00097693126500603697 0 0.10162602060754861 0.011808159270382959 0 0.10902821013279961 -0.014959110255728429 0 0.09061825243524696 0.00077075998008834803 0 0.088593950635458912 -0.014380604165995989 0 0.10902821013279961 -0.014959110255728429 0 0.09061825243524696 0.00077075998008834803 0 0.10162602060754861 0.011808159270382959 0 0.10902821013279961 -0.014959110255728429 0 0.10162602060754861 0.011808159270382959 0 0.10902821013279961 -0.014959110255728429 0 0.074352774335183239 -0.10603665546012481 0 0.091571038615629347 -0.090855501433584437 0 0.089799020460722107 -0.1166878231181251 0 0.074352774335183239 -0.10603665546012481 0 0.091571038615629347 -0.090855501433584437 0 0.074352774335183239 -0.10603665546012481 0 0.085686146233630439 -0.090211996028742858 0 0.091571038615629347 -0.090855501433584437 0 0.07271389645360421 -0.10490654507953109 0 0.085686146233630439 -0.090211996028742858 0 0.076265357153930874 -0.12527069007267511 0 0.089799020460722107 -0.1166878231181251 0 0.074352774335183239 -0.10603665546012481 0 0.089799020460722107 -0.1166878231181251 0 0.074352774335183239 -0.10603665546012481 0 0.076265357153930874 -0.12527069007267511 0 0.06245779714778936 -0.1165243258711893 0 0.074352774335183239 -0.10603665546012481 0 0.076265357153930874 -0.12527069007267511 0 0.063191818280704193 -0.13271432445204209 0 0.06245779714778936 -0.1165243258711893 0 0.06245779714778936 -0.1165243258711893 0 0.074352774335183239 -0.10603665546012481 0 0.06245779714778936 -0.1165243258711893 0 0.07271389645360421 -0.10490654507953109 0 0.07271389645360421 -0.10490654507953109 0 0.066837951883020177 -0.087426137328945053 0 0.07537496650784907 -0.090948375741644438 0 0.06245779714778936 -0.1165243258711893 0 0.07271389645360421 -0.10490654507953109 0 0.074352774335183239 -0.10603665546012481 0 0.058344930025636177 -0.1055063594576359 0 0.06245779714778936 -0.1165243258711893 0 0.07271389645360421 -0.10490654507953109 0 0.07271389645360421 -0.10490654507953109 0 0.074352774335183239 -0.10603665546012481 0 0.085686146233630439 -0.090211996028742858 0 0.05102912064223622 -0.089953515008935059 0 0.07271389645360421 -0.10490654507953109 0 0.066837951883020177 -0.087426137328945053 0 0.07271389645360421 -0.10490654507953109 0 0.074352774335183239 -0.10603665546012481 0 0.07271389645360421 -0.10490654507953109 0 0.07537496650784907 -0.090948375741644438 0 0.085686146233630439 -0.090211996028742858 0 0.066837951883020177 -0.087426137328945053 0 0.07626187146114162 -0.08124882452935861 0 0.064810236569451729 -0.075247665365429053 0 0.066837951883020177 -0.087426137328945053 0 0.07626187146114162 -0.08124882452935861 0 0.07537496650784907 -0.090948375741644438 0 0.051277490266728773 -0.063679984914450746 0 0.078677805847430629 -0.064581230930342626 0 0.07626187146114162 -0.08124882452935861 0 0.064810236569451729 -0.075247665365429053 0 0.078677805847430629 -0.064581230930342626 0 0.051277490266728773 -0.063679984914450746 0 0.064810236569451729 -0.075247665365429053 0 0.078677805847430629 -0.064581230930342626 0 0.078677805847430629 -0.064581230930342626 0 0.1060781214281325 -0.065482476946234519 0 0.07626187146114162 -0.08124882452935861 0 0.078677805847430629 -0.064581230930342626 0 0.085080416245086984 -0.076604079372012482 0 0.078677805847430629 -0.064581230930342626 0 0.085080416245086984 -0.076604079372012482 0 0.098658396013658126 -0.075517446977955774 0 0.07626187146114162 -0.08124882452935861 0 0.07537496650784907 -0.090948375741644438 0 0.085686146233630439 -0.090211996028742858 0 0.07626187146114162 -0.08124882452935861 0 0.085080416245086984 -0.076604079372012482 0 0.085686146233630439 -0.090211996028742858 0 0.085080416245086984 -0.076604079372012482 0 0.085686146233630439 -0.090211996028742858 0 0.098658396013658126 -0.075517446977955774 0 0.085686146233630439 -0.090211996028742858 0 0.098658396013658126 -0.075517446977955774 0 0.085686146233630439 -0.090211996028742858 0 0.091571038615629347 -0.090855501433584437 0 0.098658396013658126 -0.075517446977955774 0 0.1087893028960777 -0.075674347407046538 0 0.10701728474116939 -0.1015066690915859 0 0.091571038615629347 -0.090855501433584437 0 0.098658396013658126 -0.075517446977955774 0 0.1087893028960777 -0.075674347407046538 0 0.091571038615629347 -0.090855501433584437 0 0.1087893028960777 -0.075674347407046538 0 0.10701728474116939 -0.1015066690915859 0 0.091571038615629347 -0.090855501433584437 0 0.1087893028960777 -0.075674347407046538 0 0.1106933537900887 -0.04791726429732128 0 0.1087893028960777 -0.075674347407046538 0 0.1060781214281325 -0.065482476946234519 0 0.099119566745254975 -0.060406615202021063 0 0.078677805847430629 -0.064581230930342626 0 0.1060781214281325 -0.065482476946234519 0 0.078677805847430629 -0.064581230930342626 0 0.098658396013658126 -0.075517446977955774 0 0.1060781214281325 -0.065482476946234519 0 0.098658396013658126 -0.075517446977955774 0 0.1087893028960777 -0.075674347407046538 0 0.1060781214281325 -0.065482476946234519 0 0.1087893028960777 -0.075674347407046538 0 0.12682729081650959 -0.059770452073072702 0 0.1149246459668995 -0.059064779479619231 0 0.1087893028960777 -0.075674347407046538 0 0.12682729081650959 -0.059770452073072702 0 0.1087893028960777 -0.075674347407046538 0 0.12658148048410231 -0.078640221884167999 0 0.12682729081650959 -0.059770452073072702 0 0.1087893028960777 -0.075674347407046538 0 0.1188359512938451 -0.092104264194748681 0 0.12658148048410231 -0.078640221884167999 0 0.1087893028960777 -0.075674347407046538 0 0.1188359512938451 -0.092104264194748681 0 0.10701728474116939 -0.1015066690915859 0 0.1188359512938451 -0.092104264194748681 0 0.12062720953860839 -0.1084549220977164 0 0.13172789807192009 -0.095560150892111242 0 0.1188359512938451 -0.092104264194748681 0 0.12062720953860839 -0.1084549220977164 0 0.10701728474116939 -0.1015066690915859 0 0.089799020460722107 -0.1166878231181251 0 0.091571038615629347 -0.090855501433584437 0 0.10701728474116939 -0.1015066690915859 0 0.105245266586261 -0.12733899077612529 0 0.10701728474116939 -0.1015066690915859 0 0.105245266586261 -0.12733899077612529 0 0.089799020460722107 -0.1166878231181251 0 0.10701728474116939 -0.1015066690915859 0 0.105245266586261 -0.12733899077612529 0 0.089799020460722107 -0.1166878231181251 0 0.105245266586261 -0.12733899077612529 0 0.12062720953860839 -0.1084549220977164 0 0.12763569286038981 -0.1239215236016821 0 0.105245266586261 -0.12733899077612529 0 0.12062720953860839 -0.1084549220977164 0 0.10701728474116939 -0.1015066690915859 0 0.12763569286038981 -0.1239215236016821 0 0.13330116367806449 -0.11029793403004549 0 0.14340996522301239 -0.12124420334520811 0 0.12062720953860839 -0.1084549220977164 0 0.12763569286038981 -0.1239215236016821 0 0.13330116367806449 -0.11029793403004549 0 0.13330116367806449 -0.11029793403004549 0 0.14340996522301239 -0.12124420334520811 0 0.14978272565487069 -0.10310953686720679 0 0.14340996522301239 -0.12124420334520811 0 0.14978272565487069 -0.10310953686720679 0 0.1586817010605748 -0.11623192624076061 0 0.14340996522301239 -0.12124420334520811 0 0.1586817010605748 -0.11623192624076061 0 0.1534333555455312 -0.1317103682192525 0 0.14978272565487069 -0.10310953686720679 0 0.13172789807192009 -0.095560150892111242 0 0.1443690014307723 -0.084538200426262894 0 0.13330116367806449 -0.11029793403004549 0 0.14978272565487069 -0.10310953686720679 0 0.13172789807192009 -0.095560150892111242 0 0.12062720953860839 -0.1084549220977164 0 0.13330116367806449 -0.11029793403004549 0 0.13172789807192009 -0.095560150892111242 0 0.13172789807192009 -0.095560150892111242 0 0.12658148048410231 -0.078640221884167999 0 0.1443690014307723 -0.084538200426262894 0 0.1188359512938451 -0.092104264194748681 0 0.13172789807192009 -0.095560150892111242 0 0.12658148048410231 -0.078640221884167999 0 0.12658148048410231 -0.078640221884167999 0 0.13672717089818831 -0.069116495141081272 0 0.12682729081650959 -0.059770452073072702 0 0.12658148048410231 -0.078640221884167999 0 0.13672717089818831 -0.069116495141081272 0 0.1443690014307723 -0.084538200426262894 0 0.13672717089818831 -0.069116495141081272 0 0.12682729081650959 -0.059770452073072702 0 0.14242385694963319 -0.058717113525783099 0 0.1495680050815138 -0.067224858844282642 0 0.1443690014307723 -0.084538200426262894 0 0.1589622963580451 -0.07694919113291207 0 0.13672717089818831 -0.069116495141081272 0 0.1495680050815138 -0.067224858844282642 0 0.1443690014307723 -0.084538200426262894 0 0.13672717089818831 -0.069116495141081272 0 0.1495680050815138 -0.067224858844282642 0 0.14242385694963319 -0.058717113525783099 0 0.14978272565487069 -0.10310953686720679 0 0.1443690014307723 -0.084538200426262894 0 0.16581268092036619 -0.091560209173861054 0 0.1443690014307723 -0.084538200426262894 0 0.16581268092036619 -0.091560209173861054 0 0.1589622963580451 -0.07694919113291207 0 0.16581268092036619 -0.091560209173861054 0 0.1589622963580451 -0.07694919113291207 0 0.17302886367066339 -0.076706537721211027 0 0.1495680050815138 -0.067224858844282642 0 0.1589622963580451 -0.07694919113291207 0 0.16445092348729501 -0.062224287675709013 0 0.1589622963580451 -0.07694919113291207 0 0.17302886367066339 -0.076706537721211027 0 0.16445092348729501 -0.062224287675709013 0 0.18580625904657691 -0.076123762063713588 0 0.17835504189367851 -0.060455118716527 0 0.17302886367066339 -0.076706537721211027 0 0.18580625904657691 -0.076123762063713588 0 0.17835504189367851 -0.060455118716527 0 0.17302886367066339 -0.076706537721211027 0 0.16445092348729501 -0.062224287675709013 0 0.17835504189367851 -0.060455118716527 0 0.18580625904657691 -0.076123762063713588 0 0.17835504189367851 -0.060455118716527 0 0.1880299261560851 -0.061682021799831642 0 0.17302886367066339 -0.076706537721211027 0 0.18580625904657691 -0.076123762063713588 0 0.18478598031801871 -0.092926657564543422 0 0.16581268092036619 -0.091560209173861054 0 0.17302886367066339 -0.076706537721211027 0 0.18478598031801871 -0.092926657564543422 0 0.18478598031801871 -0.092926657564543422 0 0.17234720870807169 -0.1084026165571562 0 0.1855951725596367 -0.116919402522132 0 0.16581268092036619 -0.091560209173861054 0 0.18478598031801871 -0.092926657564543422 0 0.17234720870807169 -0.1084026165571562 0 0.17234720870807169 -0.1084026165571562 0 0.1855951725596367 -0.116919402522132 0 0.17229662237054219 -0.13172792898251401 0 0.1855951725596367 -0.116919402522132 0 0.17229662237054219 -0.13172792898251401 0 0.17234720870807169 -0.1084026165571562 0 0.1586817010605748 -0.11623192624076061 0 0.17229662237054219 -0.13172792898251401 0 0.1586817010605748 -0.11623192624076061 0 0.17229662237054219 -0.13172792898251401 0 0.14978272565487069 -0.10310953686720679 0 0.16581268092036619 -0.091560209173861054 0 0.17234720870807169 -0.1084026165571562 0 0.14978272565487069 -0.10310953686720679 0 0.17234720870807169 -0.1084026165571562 0 0.1586817010605748 -0.11623192624076061 0 0.15308483325949879 -0.0073161646002937591 0 0.14796272979742839 -0.0076996317150342612 0 0.15936098325540399 -0.0025009147929627188 0 0.15308483325949879 -0.0073161646002937591 0 0.14796272979742839 -0.0076996317150342612 0 0.148961764407671 -0.020014072964650988 0 0.1351296703374181 0.001718252669329701 0 0.14796272979742839 -0.0076996317150342612 0 0.12858579313274959 -0.0093695092745615677 0 0.14796272979742839 -0.0076996317150342612 0 0.12858579313274959 -0.0093695092745615677 0 0.13219656472774069 -0.024713005748437641 0 0.1198239109624907 0.00097693126500603697 0 0.1351296703374181 0.001718252669329701 0 0.12858579313274959 -0.0093695092745615677 0 0.14796272979742839 -0.0076996317150342612 0 0.13219656472774069 -0.024713005748437641 0 0.14355892159194861 -0.03096411634274206 0 0.148961764407671 -0.020014072964650988 0 0.16290326665737531 -0.027962661405126901 0 0.15308483325949879 -0.0073161646002937591 0 0.148961764407671 -0.020014072964650988 0 0.16290326665737531 -0.027962661405126901 0 0.14796272979742839 -0.0076996317150342612 0 0.13219656472774069 -0.024713005748437641 0 0.148961764407671 -0.020014072964650988 0 0.13219656472774069 -0.024713005748437641 0 0.14355892159194861 -0.03096411634274206 0 0.148961764407671 -0.020014072964650988 0 0.14486527873694219 -0.04386655673909954 0 0.16297500676028759 -0.043481154748511892 0 0.16037743517583991 -0.037898999524315587 0 0.14355892159194861 -0.03096411634274206 0 0.14486527873694219 -0.04386655673909954 0 0.16290326665737531 -0.027962661405126901 0 0.14486527873694219 -0.04386655673909954 0 0.16037743517583991 -0.037898999524315587 0 0.16290326665737531 -0.027962661405126901 0 0.14486527873694219 -0.04386655673909954 0 0.16290326665737531 -0.027962661405126901 0 0.1164303996580516 -0.041726379781839643 0 0.13219656472774069 -0.024713005748437641 0 0.13065797003270471 -0.040499121826618079 0 0.14355892159194861 -0.03096411634274206 0 0.14486527873694219 -0.04386655673909954 0 0.13065797003270471 -0.040499121826618079 0 0.13219656472774069 -0.024713005748437641 0 0.14355892159194861 -0.03096411634274206 0 0.13065797003270471 -0.040499121826618079 0 0.14486527873694219 -0.04386655673909954 0 0.13065797003270471 -0.040499121826618079 0 0.1283775989289844 -0.049048737984897027 0 0.1180425444914714 -0.047556102882565399 0 0.13065797003270471 -0.040499121826618079 0 0.1283775989289844 -0.049048737984897027 0 0.14486527873694219 -0.04386655673909954 0 0.12682729081650959 -0.059770452073072702 0 0.14486527873694219 -0.04386655673909954 0 0.1283775989289844 -0.049048737984897027 0 0.12682729081650959 -0.059770452073072702 0 0.14486527873694219 -0.04386655673909954 0 0.12682729081650959 -0.059770452073072702 0 0.14242385694963319 -0.058717113525783099 0 0.12149491056729381 -0.053551456403129478 0 0.1283775989289844 -0.049048737984897027 0 0.12682729081650959 -0.059770452073072702 0 0.14486527873694219 -0.04386655673909954 0 0.15413153921501219 -0.05360720483137929 0 0.16297500676028759 -0.043481154748511892 0 0.14486527873694219 -0.04386655673909954 0 0.14242385694963319 -0.058717113525783099 0 0.15413153921501219 -0.05360720483137929 0 0.1495680050815138 -0.067224858844282642 0 0.15413153921501219 -0.05360720483137929 0 0.16445092348729501 -0.062224287675709013 0 0.1495680050815138 -0.067224858844282642 0 0.14242385694963319 -0.058717113525783099 0 0.15413153921501219 -0.05360720483137929 0 0.16445092348729501 -0.062224287675709013 0 0.17090382474078011 -0.044786475369340453 0 0.16311532355084371 -0.051024780656235148 0 0.16445092348729501 -0.062224287675709013 0 0.17090382474078011 -0.044786475369340453 0 0.16445092348729501 -0.062224287675709013 0 0.17835504189367851 -0.060455118716527 0 0.17090382474078011 -0.044786475369340453 0 0.15413153921501219 -0.05360720483137929 0 0.16311532355084371 -0.051024780656235148 0 0.16445092348729501 -0.062224287675709013 0 0.15413153921501219 -0.05360720483137929 0 0.16311532355084371 -0.051024780656235148 0 0.16297500676028759 -0.043481154748511892 0 0.17835504189367851 -0.060455118716527 0 0.17090382474078011 -0.044786475369340453 0 0.17835504189367851 -0.060455118716527 0 0.1794921245954203 -0.049357615672926201 0 0.17090382474078011 -0.044786475369340453 0 0.17835504189367851 -0.060455118716527 0 0.18588887396024639 -0.053205342496433217 0 0.1880299261560851 -0.061682021799831642 0 0.18588887396024639 -0.053205342496433217 0 0.18353147830973959 -0.046210764712802943 0 0.19161185600211991 -0.046689102814407059 0 0.17835504189367851 -0.060455118716527 0 0.18588887396024639 -0.053205342496433217 0 0.1794921245954203 -0.049357615672926201 0 0.18588887396024639 -0.053205342496433217 0 0.1794921245954203 -0.049357615672926201 0 0.18353147830973959 -0.046210764712802943 0 0.1794921245954203 -0.049357615672926201 0 0.1779999273203377 -0.043333903828285301 0 0.17090382474078011 -0.044786475369340453 0 0.1779999273203377 -0.043333903828285301 0 0.18496180411279009 -0.040039453390574249 0 0.17416976095197939 -0.035960866481442887 0 0.17416976095197939 -0.035960866481442887 0 0.17090382474078011 -0.044786475369340453 0 0.1779999273203377 -0.043333903828285301 0 0.17416976095197939 -0.035960866481442887 0 0.17090382474078011 -0.044786475369340453 0 0.1794921245954203 -0.049357615672926201 0 0.1779999273203377 -0.043333903828285301 0 0.18353147830973959 -0.046210764712802943 0 0.1779999273203377 -0.043333903828285301 0 0.18353147830973959 -0.046210764712802943 0 0.18496180411279009 -0.040039453390574249 0 0.18353147830973959 -0.046210764712802943 0 0.18496180411279009 -0.040039453390574249 0 0.19161185600211991 -0.046689102814407059 0 0.18496180411279009 -0.040039453390574249 0 0.17416976095197939 -0.035960866481442887 0 0.1833321320416236 -0.02980587007650724 0 0.17416976095197939 -0.035960866481442887 0 0.17762691581651399 -0.02661852335954416 0 0.17416976095197939 -0.035960866481442887 0 0.1833321320416236 -0.02980587007650724 0 0.17416976095197939 -0.035960866481442887 0 0.16851369400601329 -0.039760436633958202 0 0.17055219098385629 -0.0304814325651422 0 0.16851369400601329 -0.039760436633958202 0 0.16290326665737531 -0.027962661405126901 0 0.17055219098385629 -0.0304814325651422 0 0.16851369400601329 -0.039760436633958202 0 0.16290326665737531 -0.027962661405126901 0 0.17416976095197939 -0.035960866481442887 0 0.16851369400601329 -0.039760436633958202 0 0.16311532355084371 -0.051024780656235148 0 0.17090382474078011 -0.044786475369340453 0 0.16297500676028759 -0.043481154748511892 0 0.16851369400601329 -0.039760436633958202 0 0.17090382474078011 -0.044786475369340453 0 0.16851369400601329 -0.039760436633958202 0 0.17090382474078011 -0.044786475369340453 0 0.16297500676028759 -0.043481154748511892 0 0.17416976095197939 -0.035960866481442887 0 0.16851369400601329 -0.039760436633958202 0 0.17090382474078011 -0.044786475369340453 0 0.16851369400601329 -0.039760436633958202 0 0.16297500676028759 -0.043481154748511892 0 0.16851369400601329 -0.039760436633958202 0 0.16297500676028759 -0.043481154748511892 0 0.16037743517583991 -0.037898999524315587 0 0.16851369400601329 -0.039760436633958202 0 0.16037743517583991 -0.037898999524315587 0 0.16290326665737531 -0.027962661405126901 0 0.15308483325949879 -0.0073161646002937591 0 0.16290326665737531 -0.027962661405126901 0 0.15308483325949879 -0.0073161646002937591 0 0.16290326665737531 -0.027962661405126901 0 0.16146288675135759 -0.01758812679946594 0 0.16290326665737531 -0.027962661405126901 0 0.16146288675135759 -0.01758812679946594 0 0.1695473174873989 -0.022104674945638909 0 0.1695473174873989 -0.022104674945638909 0 0.17708047571895699 -0.01546277228013954 0 0.16872175024099989 -0.012849026789086299 0 0.16146288675135759 -0.01758812679946594 0 0.1695473174873989 -0.022104674945638909 0 0.16872175024099989 -0.012849026789086299 0 0.16146288675135759 -0.01758812679946594 0 0.1695473174873989 -0.022104674945638909 0 0.16290326665737531 -0.027962661405126901 0 0.1695473174873989 -0.022104674945638909 0 0.17055219098385629 -0.0304814325651422 0 0.16290326665737531 -0.027962661405126901 0 0.1695473174873989 -0.022104674945638909 0 0.1695473174873989 -0.022104674945638909 0 0.17762691581651399 -0.02661852335954416 0 0.17416976095197939 -0.035960866481442887 0 0.17762691581651399 -0.02661852335954416 0 0.1833321320416236 -0.02980587007650724 0 0.17416976095197939 -0.035960866481442887 0 0.17055219098385629 -0.0304814325651422 0 0.17762691581651399 -0.02661852335954416 0 0.1695473174873989 -0.022104674945638909 0 0.17055219098385629 -0.0304814325651422 0 0.17762691581651399 -0.02661852335954416 0 0.17762691581651399 -0.02661852335954416 0 0.1833321320416236 -0.02980587007650724 0 0.17762691581651399 -0.02661852335954416 0 0.1833321320416236 -0.02980587007650724 0 0.18858870466041791 -0.016657442001829639 0 0.1695473174873989 -0.022104674945638909 0 0.17762691581651399 -0.02661852335954416 0 0.17708047571895699 -0.01546277228013954 0 0.1695473174873989 -0.022104674945638909 0 0.17708047571895699 -0.01546277228013954 0 0.17762691581651399 -0.02661852335954416 0 0.1866740650559835 -0.0021702195426568541 0 0.18858870466041791 -0.016657442001829639 0 0.17762691581651399 -0.02661852335954416 0 0.1866740650559835 -0.0021702195426568541 0 0.17708047571895699 -0.01546277228013954 0 0.1866740650559835 -0.0021702195426568541 0 0.17469492470558631 -0.006088019827826233 0 0.17708047571895699 -0.01546277228013954 0 0.17469492470558631 -0.006088019827826233 0 0.16872175024099989 -0.012849026789086299 0 0.17762691581651399 -0.02661852335954416 0 0.17708047571895699 -0.01546277228013954 0 0.1866740650559835 -0.0021702195426568541 0 0.17375813793030459 0.0043946143844226342 0 0.17469492470558631 -0.006088019827826233 0 0.1672401945816864 -0.0043526949116711048 0 0.17375813793030459 0.0043946143844226342 0 0.1866740650559835 -0.0021702195426568541 0 0.17469492470558631 -0.006088019827826233 0 0.16564291486384611 0.0018645766637211451 0 0.1672401945816864 -0.0043526949116711048 0 0.15936098325540399 -0.0025009147929627188 0 0.17469492470558631 -0.006088019827826233 0 0.1672401945816864 -0.0043526949116711048 0 0.16872175024099989 -0.012849026789086299 0 0.163728894867116 0.0093137423183691226 0 0.14796272979742839 -0.0076996317150342612 0 0.15936098325540399 -0.0025009147929627188 0 0.1672401945816864 -0.0043526949116711048 0 0.16872175024099989 -0.012849026789086299 0 0.16294256139730889 -0.0088840778904281121 0 0.16146288675135759 -0.01758812679946594 0 0.16872175024099989 -0.012849026789086299 0 0.16294256139730889 -0.0088840778904281121 0 0.16146288675135759 -0.01758812679946594 0 0.16294256139730889 -0.0088840778904281121 0 0.15921281616589231 -0.0090723210207876298 0 0.15308483325949879 -0.0073161646002937591 0 0.16146288675135759 -0.01758812679946594 0 0.15921281616589231 -0.0090723210207876298 0 0.1672401945816864 -0.0043526949116711048 0 0.16294256139730889 -0.0088840778904281121 0 0.15936098325540399 -0.0025009147929627188 0 0.15308483325949879 -0.0073161646002937591 0 0.15921281616589231 -0.0090723210207876298 0 0.15936098325540399 -0.0025009147929627188 0 0.16294256139730889 -0.0088840778904281121 0 0.15921281616589231 -0.0090723210207876298 0 0.15936098325540399 -0.0025009147929627188 0 0.21687420696145621 -0.0072733456321549686 0 0.20206600855890791 -0.0054183217517912224 0 0.20010316950153981 -0.018539607854330922 0 0.21687420696145621 -0.0072733456321549686 0 0.20010316950153981 -0.018539607854330922 0 0.21687420696145621 -0.0072733456321549686 0 0.20010316950153981 -0.018539607854330922 0 0.22034205250037209 -0.020701080959910051 0 0.21080235957480761 0.0029961693591693392 0 0.21687420696145621 -0.0072733456321549686 0 0.20206600855890791 -0.0054183217517912224 0 0.1997982568441673 0.0073950566886211424 0 0.1866740650559835 -0.0021702195426568541 0 0.20206600855890791 -0.0054183217517912224 0 0.1866740650559835 -0.0021702195426568541 0 0.20206600855890791 -0.0054183217517912224 0 0.18858870466041791 -0.016657442001829639 0 0.20206600855890791 -0.0054183217517912224 0 0.20010316950153981 -0.018539607854330922 0 0.18858870466041791 -0.016657442001829639 0 0.1833321320416236 -0.02980587007650724 0 0.20010316950153981 -0.018539607854330922 0 0.1833321320416236 -0.02980587007650724 0 0.20010316950153981 -0.018539607854330922 0 0.19871144617188319 -0.038397868077651241 0 0.1833321320416236 -0.02980587007650724 0 0.20010316950153981 -0.018539607854330922 0 0.18858870466041791 -0.016657442001829639 0 0.20010316950153981 -0.018539607854330922 0 0.21282180689499131 -0.031556158901020322 0 0.22034205250037209 -0.020701080959910051 0 0.20010316950153981 -0.018539607854330922 0 0.21282180689499131 -0.031556158901020322 0 0.19871144617188319 -0.038397868077651241 0 0.19871144617188319 -0.038397868077651241 0 0.20148323990130601 -0.048647283705634183 0 0.2140907603021423 -0.046989866078796141 0 0.19871144617188319 -0.038397868077651241 0 0.2140907603021423 -0.046989866078796141 0 0.21282180689499131 -0.031556158901020322 0 0.19871144617188319 -0.038397868077651241 0 0.2140907603021423 -0.046989866078796141 0 0.18496180411279009 -0.040039453390574249 0 0.1833321320416236 -0.02980587007650724 0 0.19871144617188319 -0.038397868077651241 0 0.1833321320416236 -0.02980587007650724 0 0.19871144617188319 -0.038397868077651241 0 0.18496180411279009 -0.040039453390574249 0 0.19871144617188319 -0.038397868077651241 0 0.19161185600211991 -0.046689102814407059 0 0.19871144617188319 -0.038397868077651241 0 0.19161185600211991 -0.046689102814407059 0 0.20148323990130601 -0.048647283705634183 0 0.20148323990130601 -0.048647283705634183 0 0.19431281680443471 -0.054837431262104469 0 0.20262301395827301 -0.056691902130985711 0 0.19161185600211991 -0.046689102814407059 0 0.20148323990130601 -0.048647283705634183 0 0.19431281680443471 -0.054837431262104469 0 0.18588887396024639 -0.053205342496433217 0 0.19161185600211991 -0.046689102814407059 0 0.19431281680443471 -0.054837431262104469 0 0.18588887396024639 -0.053205342496433217 0 0.1880299261560851 -0.061682021799831642 0 0.19431281680443471 -0.054837431262104469 0 0.1880299261560851 -0.061682021799831642 0 0.19431281680443471 -0.054837431262104469 0 0.19612271461321931 -0.06534153843109658 0 0.19431281680443471 -0.054837431262104469 0 0.20262301395827301 -0.056691902130985711 0 0.19612271461321931 -0.06534153843109658 0 0.20262301395827301 -0.056691902130985711 0 0.2096958637069356 -0.058619945429651321 0 0.20946041680114269 -0.050428866240390467 0 0.20262301395827301 -0.056691902130985711 0 0.2096958637069356 -0.058619945429651321 0 0.20559077967434061 -0.06560480804275208 0 0.20148323990130601 -0.048647283705634183 0 0.20262301395827301 -0.056691902130985711 0 0.20946041680114269 -0.050428866240390467 0 0.20148323990130601 -0.048647283705634183 0 0.20946041680114269 -0.050428866240390467 0 0.2140907603021423 -0.046989866078796141 0 0.20946041680114269 -0.050428866240390467 0 0.2140907603021423 -0.046989866078796141 0 0.2171499081711952 -0.05609659088283632 0 0.20946041680114269 -0.050428866240390467 0 0.2140907603021423 -0.046989866078796141 0 0.2096958637069356 -0.058619945429651321 0 0.20946041680114269 -0.050428866240390467 0 0.2171499081711952 -0.05609659088283632 0 0.2096958637069356 -0.058619945429651321 0 0.2171499081711952 -0.05609659088283632 0 0.2142314720154031 -0.064132746938433766 0 0.2171499081711952 -0.05609659088283632 0 0.22250243048483209 -0.062004999756156913 0 0.2142314720154031 -0.064132746938433766 0 0.2140907603021423 -0.046989866078796141 0 0.23599001059357849 -0.059224372321199627 0 0.2140907603021423 -0.046989866078796141 0 0.2171499081711952 -0.05609659088283632 0 0.23599001059357849 -0.059224372321199627 0 0.2140907603021423 -0.046989866078796141 0 0.2266145192755786 -0.050289486023601927 0 0.23599001059357849 -0.059224372321199627 0 0.2171499081711952 -0.05609659088283632 0 0.22250243048483209 -0.062004999756156913 0 0.23599001059357849 -0.059224372321199627 0 0.2266145192755786 -0.050289486023601927 0 0.23439333654200151 -0.053206085073990987 0 0.2352598165130465 -0.049680711383500442 0 0.2266145192755786 -0.050289486023601927 0 0.23599001059357849 -0.059224372321199627 0 0.23439333654200151 -0.053206085073990987 0 0.2266145192755786 -0.050289486023601927 0 0.2352598165130465 -0.049680711383500442 0 0.2362428407030798 -0.043738048625319881 0 0.22250243048483209 -0.062004999756156913 0 0.23599001059357849 -0.059224372321199627 0 0.22906953529660021 -0.066036742676598537 0 0.23599001059357849 -0.059224372321199627 0 0.24128214817574201 -0.061151615533331927 0 0.23521235793477621 -0.065629845348925603 0 0.23599001059357849 -0.059224372321199627 0 0.23902634085914171 -0.05398796078797205 0 0.23439333654200151 -0.053206085073990987 0 0.23599001059357849 -0.059224372321199627 0 0.24128214817574201 -0.061151615533331927 0 0.23902634085914171 -0.05398796078797205 0 0.24128214817574201 -0.061151615533331927 0 0.2485276051359292 -0.05560593421255005 0 0.23902634085914171 -0.05398796078797205 0 0.24128214817574201 -0.061151615533331927 0 0.2485276051359292 -0.05560593421255005 0 0.248532707702871 -0.06304514366047409 0 0.25363781468162039 -0.04257939084088095 0 0.2485276051359292 -0.05560593421255005 0 0.23902634085914171 -0.05398796078797205 0 0.23902634085914171 -0.05398796078797205 0 0.2352598165130465 -0.049680711383500442 0 0.2362428407030798 -0.043738048625319881 0 0.23902634085914171 -0.05398796078797205 0 0.23439333654200151 -0.053206085073990987 0 0.2352598165130465 -0.049680711383500442 0 0.23902634085914171 -0.05398796078797205 0 0.24079311360855141 -0.034979027759207713 0 0.2480614548289399 -0.02608397303360312 0 0.25363781468162039 -0.04257939084088095 0 0.23902634085914171 -0.05398796078797205 0 0.2480614548289399 -0.02608397303360312 0 0.23902634085914171 -0.05398796078797205 0 0.2480614548289399 -0.02608397303360312 0 0.23902634085914171 -0.05398796078797205 0 0.2362428407030798 -0.043738048625319881 0 0.24079311360855141 -0.034979027759207713 0 0.2362428407030798 -0.043738048625319881 0 0.24079311360855141 -0.034979027759207713 0 0.23049184789696819 -0.034808622316483573 0 0.2140907603021423 -0.046989866078796141 0 0.2266145192755786 -0.050289486023601927 0 0.23049184789696819 -0.034808622316483573 0 0.2140907603021423 -0.046989866078796141 0 0.23049184789696819 -0.034808622316483573 0 0.21282180689499131 -0.031556158901020322 0 0.2140907603021423 -0.046989866078796141 0 0.23049184789696819 -0.034808622316483573 0 0.2266145192755786 -0.050289486023601927 0 0.2362428407030798 -0.043738048625319881 0 0.23049184789696819 -0.034808622316483573 0 0.21282180689499131 -0.031556158901020322 0 0.23049184789696819 -0.034808622316483573 0 0.22034205250037209 -0.020701080959910051 0 0.22034205250037209 -0.020701080959910051 0 0.2329416573990844 -0.02097508856588939 0 0.22881962634819339 -0.01105366248958113 0 0.23049184789696819 -0.034808622316483573 0 0.22034205250037209 -0.020701080959910051 0 0.2329416573990844 -0.02097508856588939 0 0.23049184789696819 -0.034808622316483573 0 0.24689293549179381 -0.022627378554170529 0 0.23049184789696819 -0.034808622316483573 0 0.2329416573990844 -0.02097508856588939 0 0.24689293549179381 -0.022627378554170529 0 0.24079311360855141 -0.034979027759207713 0 0.23049184789696819 -0.034808622316483573 0 0.24689293549179381 -0.022627378554170529 0 0.24079311360855141 -0.034979027759207713 0 0.2480614548289399 -0.02608397303360312 0 0.24689293549179381 -0.022627378554170529 0 0.2480614548289399 -0.02608397303360312 0 0.24689293549179381 -0.022627378554170529 0 0.2499050385453562 -0.02039026096544341 0 0.24689293549179381 -0.022627378554170529 0 0.2457154475097896 -0.007694591978883285 0 0.24689293549179381 -0.022627378554170529 0 0.23911340258799441 -0.016504136007379919 0 0.24056100062349309 -0.0091719605290449761 0 0.2480614548289399 -0.02608397303360312 0 0.2499050385453562 -0.02039026096544341 0 0.24689293549179381 -0.022627378554170529 0 0.2480614548289399 -0.02608397303360312 0 0.2499050385453562 -0.02039026096544341 0 0.2499050385453562 -0.02039026096544341 0 0.24689293549179381 -0.022627378554170529 0 0.2329416573990844 -0.02097508856588939 0 0.23911340258799441 -0.016504136007379919 0 0.2352987969580517 -0.01305140962770991 0 0.2329416573990844 -0.02097508856588939 0 0.24689293549179381 -0.022627378554170529 0 0.23911340258799441 -0.016504136007379919 0 0.23742980598779839 0.0053654840043204227 0 0.24689293549179381 -0.022627378554170529 0 0.2457154475097896 -0.007694591978883285 0 0.23742980598779839 0.0053654840043204227 0 0.24689293549179381 -0.022627378554170529 0 0.23742980598779839 0.0053654840043204227 0 0.24689293549179381 -0.022627378554170529 0 0.24056100062349309 -0.0091719605290449761 0 0.2499050385453562 -0.02039026096544341 0 0.2498818982516218 -0.002271085465629063 0 0.2457154475097896 -0.007694591978883285 0 0.2352987969580517 -0.01305140962770991 0 0.24056100062349309 -0.0091719605290449761 0 0.2350582978314931 -0.0075522005466541519 0 0.23911340258799441 -0.016504136007379919 0 0.2352987969580517 -0.01305140962770991 0 0.24056100062349309 -0.0091719605290449761 0 0.23742980598779839 0.0053654840043204227 0 0.24444698731800479 0.0019398011864187759 0 0.2457154475097896 -0.007694591978883285 0 0.24444698731800479 0.0019398011864187759 0 0.2498818982516218 -0.002271085465629063 0 0.2457154475097896 -0.007694591978883285 0 0.23742980598779839 0.0053654840043204227 0 0.24056100062349309 -0.0091719605290449761 0 0.23755874239717911 -0.0021774944839035399 0 0.24056100062349309 -0.0091719605290449761 0 0.2350582978314931 -0.0075522005466541519 0 0.23755874239717911 -0.0021774944839035399 0 0.2350582978314931 -0.0075522005466541519 0 0.23755874239717911 -0.0021774944839035399 0 0.231198015316505 -0.0037995837078741539 0 0.23523197393933601 0.001266284315027872 0 0.23755874239717911 -0.0021774944839035399 0 0.231198015316505 -0.0037995837078741539 0 0.23364524442137249 0.0039929165900209861 0 0.21687420696145621 -0.0072733456321549686 0 0.231198015316505 -0.0037995837078741539 0 0.23364524442137249 0.0039929165900209861 0 0.21687420696145621 -0.0072733456321549686 0 0.2350582978314931 -0.0075522005466541519 0 0.231198015316505 -0.0037995837078741539 0 0.22881962634819339 -0.01105366248958113 0 0.2352987969580517 -0.01305140962770991 0 0.2350582978314931 -0.0075522005466541519 0 0.22881962634819339 -0.01105366248958113 0 0.2329416573990844 -0.02097508856588939 0 0.2352987969580517 -0.01305140962770991 0 0.22881962634819339 -0.01105366248958113 0 0.21687420696145621 -0.0072733456321549686 0 0.22034205250037209 -0.020701080959910051 0 0.22881962634819339 -0.01105366248958113 0 0.21687420696145621 -0.0072733456321549686 0 0.231198015316505 -0.0037995837078741539 0 0.22881962634819339 -0.01105366248958113 0 0.21111626136421971 -0.11320775308575021 0 0.20819667473527889 -0.091168078585727827 0 0.22546924040817901 -0.10216809836787991 0 0.21111626136421971 -0.11320775308575021 0 0.19889372274873121 -0.10211087606175 0 0.20819667473527889 -0.091168078585727827 0 0.21111626136421971 -0.11320775308575021 0 0.23019808496775629 -0.1206322272860504 0 0.20718758653278699 -0.13236048404446829 0 0.1855951725596367 -0.116919402522132 0 0.21111626136421971 -0.11320775308575021 0 0.19889372274873121 -0.10211087606175 0 0.1855951725596367 -0.116919402522132 0 0.21111626136421971 -0.11320775308575021 0 0.20718758653278699 -0.13236048404446829 0 0.1855951725596367 -0.116919402522132 0 0.19889372274873121 -0.10211087606175 0 0.18478598031801871 -0.092926657564543422 0 0.1855951725596367 -0.116919402522132 0 0.19889372274873121 -0.10211087606175 0 0.18478598031801871 -0.092926657564543422 0 0.19889372274873121 -0.10211087606175 0 0.20819667473527889 -0.091168078585727827 0 0.18478598031801871 -0.092926657564543422 0 0.20093226818463061 -0.077284083893171332 0 0.20819667473527889 -0.091168078585727827 0 0.18580625904657691 -0.076123762063713588 0 0.18478598031801871 -0.092926657564543422 0 0.20093226818463061 -0.077284083893171332 0 0.18580625904657691 -0.076123762063713588 0 0.1880299261560851 -0.061682021799831642 0 0.19612271461321931 -0.06534153843109658 0 0.18580625904657691 -0.076123762063713588 0 0.20093226818463061 -0.077284083893171332 0 0.19612271461321931 -0.06534153843109658 0 0.20093226818463061 -0.077284083893171332 0 0.19612271461321931 -0.06534153843109658 0 0.20559077967434061 -0.06560480804275208 0 0.20262301395827301 -0.056691902130985711 0 0.19612271461321931 -0.06534153843109658 0 0.20559077967434061 -0.06560480804275208 0 0.2096958637069356 -0.058619945429651321 0 0.20559077967434061 -0.06560480804275208 0 0.2142314720154031 -0.064132746938433766 0 0.20559077967434061 -0.06560480804275208 0 0.2113117056023123 -0.071370527541232923 0 0.2142314720154031 -0.064132746938433766 0 0.20093226818463061 -0.077284083893171332 0 0.20559077967434061 -0.06560480804275208 0 0.2113117056023123 -0.071370527541232923 0 0.20093226818463061 -0.077284083893171332 0 0.2113117056023123 -0.071370527541232923 0 0.21492792386660109 -0.079365919100106777 0 0.2113117056023123 -0.071370527541232923 0 0.21492792386660109 -0.079365919100106777 0 0.22087608427058611 -0.070465079731700686 0 0.2113117056023123 -0.071370527541232923 0 0.2142314720154031 -0.064132746938433766 0 0.22087608427058611 -0.070465079731700686 0 0.20819667473527889 -0.091168078585727827 0 0.21492792386660109 -0.079365919100106777 0 0.2256842540070968 -0.086456879549701784 0 0.20093226818463061 -0.077284083893171332 0 0.20819667473527889 -0.091168078585727827 0 0.21492792386660109 -0.079365919100106777 0 0.20819667473527889 -0.091168078585727827 0 0.2256842540070968 -0.086456879549701784 0 0.22546924040817901 -0.10216809836787991 0 0.21492792386660109 -0.079365919100106777 0 0.2256842540070968 -0.086456879549701784 0 0.22292347569366819 -0.077764573801782061 0 0.2256842540070968 -0.086456879549701784 0 0.22292347569366819 -0.077764573801782061 0 0.23052075665662161 -0.07390214087616824 0 0.2256842540070968 -0.086456879549701784 0 0.23052075665662161 -0.07390214087616824 0 0.24022237252961259 -0.084152186311191965 0 0.2256842540070968 -0.086456879549701784 0 0.24022237252961259 -0.084152186311191965 0 0.2357101540522121 -0.095348106406373423 0 0.22250243048483209 -0.062004999756156913 0 0.22087608427058611 -0.070465079731700686 0 0.22906953529660021 -0.066036742676598537 0 0.22250243048483209 -0.062004999756156913 0 0.2142314720154031 -0.064132746938433766 0 0.22087608427058611 -0.070465079731700686 0 0.22087608427058611 -0.070465079731700686 0 0.22292347569366819 -0.077764573801782061 0 0.23052075665662161 -0.07390214087616824 0 0.21492792386660109 -0.079365919100106777 0 0.22087608427058611 -0.070465079731700686 0 0.22292347569366819 -0.077764573801782061 0 0.22087608427058611 -0.070465079731700686 0 0.23052075665662161 -0.07390214087616824 0 0.22906953529660021 -0.066036742676598537 0 0.23052075665662161 -0.07390214087616824 0 0.22906953529660021 -0.066036742676598537 0 0.23521235793477621 -0.065629845348925603 0 0.23599001059357849 -0.059224372321199627 0 0.22906953529660021 -0.066036742676598537 0 0.23521235793477621 -0.065629845348925603 0 0.24128214817574201 -0.061151615533331927 0 0.24072084784837011 -0.069832774114012341 0 0.23521235793477621 -0.065629845348925603 0 0.23052075665662161 -0.07390214087616824 0 0.24072084784837011 -0.069832774114012341 0 0.23521235793477621 -0.065629845348925603 0 0.23052075665662161 -0.07390214087616824 0 0.24072084784837011 -0.069832774114012341 0 0.24022237252961259 -0.084152186311191965 0 0.25094003035454532 -0.074772755413751724 0 0.24072084784837011 -0.069832774114012341 0 0.24022237252961259 -0.084152186311191965 0 0.25094003035454532 -0.074772755413751724 0 0.24072084784837011 -0.069832774114012341 0 0.248532707702871 -0.06304514366047409 0 0.24128214817574201 -0.061151615533331927 0 0.24072084784837011 -0.069832774114012341 0 0.248532707702871 -0.06304514366047409 0 0.24022237252961259 -0.084152186311191965 0 0.2480933401032667 -0.096517631092886094 0 0.2357101540522121 -0.095348106406373423 0 0.25214254427357802 -0.08680170685222352 0 0.25094003035454532 -0.074772755413751724 0 0.24022237252961259 -0.084152186311191965 0 0.25214254427357802 -0.08680170685222352 0 0.24022237252961259 -0.084152186311191965 0 0.2480933401032667 -0.096517631092886094 0 0.25442911735812762 -0.1067506793913659 0 0.2480933401032667 -0.096517631092886094 0 0.24092488263475731 -0.1068690967054141 0 0.2480933401032667 -0.096517631092886094 0 0.24092488263475731 -0.1068690967054141 0 0.2357101540522121 -0.095348106406373423 0 0.24092488263475731 -0.1068690967054141 0 0.2357101540522121 -0.095348106406373423 0 0.22546924040817901 -0.10216809836787991 0 0.2256842540070968 -0.086456879549701784 0 0.2357101540522121 -0.095348106406373423 0 0.22546924040817901 -0.10216809836787991 0 0.21111626136421971 -0.11320775308575021 0 0.22546924040817901 -0.10216809836787991 0 0.23019808496775629 -0.1206322272860504 0 0.24092488263475731 -0.1068690967054141 0 0.22546924040817901 -0.10216809836787991 0 0.23019808496775629 -0.1206322272860504 0 0.25156957390371798 -0.1189836267597288 0 0.24092488263475731 -0.1068690967054141 0 0.23019808496775629 -0.1206322272860504 0 0.25442911735812762 -0.1067506793913659 0 0.25156957390371798 -0.1189836267597288 0 0.24092488263475731 -0.1068690967054141 0 0.25156957390371798 -0.1189836267597288 0 0.23019808496775629 -0.1206322272860504 0 0.24625891810501091 -0.13582118180672781 0 0.23019808496775629 -0.1206322272860504 0 0.24625891810501091 -0.13582118180672781 0 0.22747019995360751 -0.13992796101504559 0 0.26225279893203779 -0.15319972508270699 0 0.24625891810501091 -0.13582118180672781 0 0.23794199051222639 -0.1560699901639446 0 0.24625891810501091 -0.13582118180672781 0 0.23794199051222639 -0.1560699901639446 0 0.22747019995360751 -0.13992796101504559 0 0.23794199051222639 -0.1560699901639446 0 0.22747019995360751 -0.13992796101504559 0 0.21576441965025669 -0.15475592177403691 0 0.23019808496775629 -0.1206322272860504 0 0.22747019995360751 -0.13992796101504559 0 0.20718758653278699 -0.13236048404446829 0 0.22747019995360751 -0.13992796101504559 0 0.20718758653278699 -0.13236048404446829 0 0.21576441965025669 -0.15475592177403691 0 0.20718758653278699 -0.13236048404446829 0 0.21576441965025669 -0.15475592177403691 0 0.19014459317376761 -0.1520418329856929 0 0.20718758653278699 -0.13236048404446829 0 0.19014459317376761 -0.1520418329856929 0 0.18966720210242849 -0.13395175455600461 0 0.1855951725596367 -0.116919402522132 0 0.20718758653278699 -0.13236048404446829 0 0.18966720210242849 -0.13395175455600461 0 0.19018790770785049 -0.17278719497348269 0 0.20799256397699301 -0.1723557369888718 0 0.19570920936875491 -0.18971962447500701 0 0.19014459317376761 -0.1520418329856929 0 0.19018790770785049 -0.17278719497348269 0 0.20799256397699301 -0.1723557369888718 0 0.19014459317376761 -0.1520418329856929 0 0.20799256397699301 -0.1723557369888718 0 0.21576441965025669 -0.15475592177403691 0 0.20799256397699301 -0.1723557369888718 0 0.22564364415857249 -0.17058832430793081 0 0.21576441965025669 -0.15475592177403691 0 0.19014459317376761 -0.1520418329856929 0 0.20799256397699301 -0.1723557369888718 0 0.20799256397699301 -0.1723557369888718 0 0.2258405347802184 -0.19266964099205081 0 0.20799256397699301 -0.1723557369888718 0 0.2258405347802184 -0.19266964099205081 0 0.2111268477108601 -0.18759957068041791 0 0.20799256397699301 -0.1723557369888718 0 0.2111268477108601 -0.18759957068041791 0 0.19570920936875491 -0.18971962447500701 0 0.22564364415857249 -0.17058832430793081 0 0.24067871187316811 -0.17709033162075011 0 0.2258405347802184 -0.19266964099205081 0 0.20799256397699301 -0.1723557369888718 0 0.22564364415857249 -0.17058832430793081 0 0.2258405347802184 -0.19266964099205081 0 0.23794199051222639 -0.1560699901639446 0 0.21576441965025669 -0.15475592177403691 0 0.22564364415857249 -0.17058832430793081 0 0.23794199051222639 -0.1560699901639446 0 0.22564364415857249 -0.17058832430793081 0 0.24067871187316811 -0.17709033162075011 0 0.25029832467556129 -0.16606009898348689 0 0.23794199051222639 -0.1560699901639446 0 0.24067871187316811 -0.17709033162075011 0 0.26031979738481281 -0.17788034906654579 0 0.24067871187316811 -0.17709033162075011 0 0.2477271522608325 -0.1936441211134905 0 0.2477271522608325 -0.1936441211134905 0 0.2366264550146735 -0.2043708566117321 0 0.2258405347802184 -0.19266964099205081 0 0.24067871187316811 -0.17709033162075011 0 0.2477271522608325 -0.1936441211134905 0 0.2258405347802184 -0.19266964099205081 0 0.2477271522608325 -0.1936441211134905 0 0.2493673996676247 -0.2083853397490959 0 0.2366264550146735 -0.2043708566117321 0 0.2493673996676247 -0.2083853397490959 0 0.2366264550146735 -0.2043708566117321 0 0.24233018509292731 -0.22186774802436959 0 0.219019697230841 -0.2057936862496883 0 0.24233018509292731 -0.22186774802436959 0 0.219019697230841 -0.2057936862496883 0 0.24233018509292731 -0.22186774802436959 0 0.2146026768556871 -0.22720108682498669 0 0.2366264550146735 -0.2043708566117321 0 0.219019697230841 -0.2057936862496883 0 0.24233018509292731 -0.22186774802436959 0 0.2366264550146735 -0.2043708566117321 0 0.219019697230841 -0.2057936862496883 0 0.2258405347802184 -0.19266964099205081 0 0.24459971964430779 -0.24469171935207509 0 0.24233018509292731 -0.22186774802436959 0 0.2244204392317353 -0.24338583917491921 0 0.24233018509292731 -0.22186774802436959 0 0.2244204392317353 -0.24338583917491921 0 0.2146026768556871 -0.22720108682498669 0 0.2244204392317353 -0.24338583917491921 0 0.20806627738608871 -0.2462272448888235 0 0.2146026768556871 -0.22720108682498669 0 0.20806627738608871 -0.2462272448888235 0 0.2146026768556871 -0.22720108682498669 0 0.19874771418602949 -0.23241400820593561 0 0.2146026768556871 -0.22720108682498669 0 0.19874771418602949 -0.23241400820593561 0 0.19883824643612921 -0.21514671621590981 0 0.19874771418602949 -0.23241400820593561 0 0.19883824643612921 -0.21514671621590981 0 0.18303937409325649 -0.22809289489943441 0 0.19883824643612921 -0.21514671621590981 0 0.18182889197159899 -0.21507748297835219 0 0.18303937409325649 -0.22809289489943441 0 0.1921931639271513 -0.25129532114029068 0 0.19874771418602949 -0.23241400820593561 0 0.1865971562986003 -0.2465762749801732 0 0.19874771418602949 -0.23241400820593561 0 0.18079086666007449 -0.244465379718693 0 0.1921931639271513 -0.25129532114029068 0 0.20806627738608871 -0.2462272448888235 0 0.19874771418602949 -0.23241400820593561 0 0.19874771418602949 -0.23241400820593561 0 0.1865971562986003 -0.2465762749801732 0 0.18079086666007449 -0.244465379718693 0 0.19874771418602949 -0.23241400820593561 0 0.18079086666007449 -0.244465379718693 0 0.18303937409325649 -0.22809289489943441 0 0.219019697230841 -0.2057936862496883 0 0.2258405347802184 -0.19266964099205081 0 0.2111268477108601 -0.18759957068041791 0 0.219019697230841 -0.2057936862496883 0 0.19570920936875491 -0.18971962447500701 0 0.219019697230841 -0.2057936862496883 0 0.2111268477108601 -0.18759957068041791 0 0.19570920936875491 -0.18971962447500701 0 0.219019697230841 -0.2057936862496883 0 0.19883824643612921 -0.21514671621590981 0 0.19570920936875491 -0.18971962447500701 0 0.219019697230841 -0.2057936862496883 0 0.2146026768556871 -0.22720108682498669 0 0.19883824643612921 -0.21514671621590981 0 0.19883824643612921 -0.21514671621590981 0 0.1877041142997467 -0.20627596859045269 0 0.18182889197159899 -0.21507748297835219 0 0.19883824643612921 -0.21514671621590981 0 0.1877041142997467 -0.20627596859045269 0 0.19570920936875491 -0.18971962447500701 0 0.19570920936875491 -0.18971962447500701 0 0.1728921650066991 -0.20239176292051961 0 0.1723987215066688 -0.1736455627003258 0 0.1877041142997467 -0.20627596859045269 0 0.19570920936875491 -0.18971962447500701 0 0.1728921650066991 -0.20239176292051961 0 0.1877041142997467 -0.20627596859045269 0 0.1728921650066991 -0.20239176292051961 0 0.18182889197159899 -0.21507748297835219 0 0.1728921650066991 -0.20239176292051961 0 0.18182889197159899 -0.21507748297835219 0 0.16945489825779059 -0.21909923129923869 0 0.15832762377030801 -0.21870344740697081 0 0.15829479345189471 -0.19399512407421299 0 0.16945489825779059 -0.21909923129923869 0 0.1728921650066991 -0.20239176292051961 0 0.15829479345189471 -0.19399512407421299 0 0.16945489825779059 -0.21909923129923869 0 0.15829479345189471 -0.19399512407421299 0 0.16945489825779059 -0.21909923129923869 0 0.1728921650066991 -0.20239176292051961 0 0.15829479345189471 -0.19399512407421299 0 0.1723987215066688 -0.1736455627003258 0 0.17453618050183359 -0.24387777019105419 0 0.1777066761820576 -0.24653527117447149 0 0.16972168558007919 -0.24595602287593349 0 0.17453618050183359 -0.24387777019105419 0 0.1767647626603952 -0.24376851075905689 0 0.17395159758480211 -0.23925127595475509 0 0.17453618050183359 -0.24387777019105419 0 0.17395159758480211 -0.23925127595475509 0 0.16972168558007919 -0.24595602287593349 0 0.1767647626603952 -0.24376851075905689 0 0.18079086666007449 -0.244465379718693 0 0.17395159758480211 -0.23925127595475509 0 0.1767647626603952 -0.24376851075905689 0 0.1777066761820576 -0.24653527117447149 0 0.18079086666007449 -0.244465379718693 0 0.17453618050183359 -0.24387777019105419 0 0.1767647626603952 -0.24376851075905689 0 0.1777066761820576 -0.24653527117447149 0 0.1777066761820576 -0.24653527117447149 0 0.18079086666007449 -0.244465379718693 0 0.18324522649797029 -0.25249941636546303 0 0.18091931253471741 -0.24989865598488301 0 0.1865971562986003 -0.2465762749801732 0 0.1777066761820576 -0.24653527117447149 0 0.1865971562986003 -0.2465762749801732 0 0.18079086666007449 -0.244465379718693 0 0.1777066761820576 -0.24653527117447149 0 0.18091931253471741 -0.24989865598488301 0 0.1865971562986003 -0.2465762749801732 0 0.18079086666007449 -0.244465379718693 0 0.18303937409325649 -0.22809289489943441 0 0.16945489825779059 -0.21909923129923869 0 0.18079086666007449 -0.244465379718693 0 0.16945489825779059 -0.21909923129923869 0 0.18079086666007449 -0.244465379718693 0 0.17395159758480211 -0.23925127595475509 0 0.16945489825779059 -0.21909923129923869 0 0.18182889197159899 -0.21507748297835219 0 0.18303937409325649 -0.22809289489943441 0 0.16945489825779059 -0.21909923129923869 0 0.17395159758480211 -0.23925127595475509 0 0.16945489825779059 -0.21909923129923869 0 0.16735930362016241 -0.23270310830507759 0 0.15832762377030801 -0.21870344740697081 0 0.16945489825779059 -0.21909923129923869 0 0.163130843716257 -0.22797961337528261 0 0.15832762377030801 -0.21870344740697081 0 0.15904640865175021 -0.2292974917929268 0 0.163130843716257 -0.22797961337528261 0 0.15832762377030801 -0.21870344740697081 0 0.15904640865175021 -0.2292974917929268 0 0.15305284068225641 -0.23322876822271221 0 0.15904640865175021 -0.2292974917929268 0 0.16167432643817931 -0.2372781381667417 0 0.15305284068225641 -0.23322876822271221 0 0.163130843716257 -0.22797961337528261 0 0.16735930362016241 -0.23270310830507759 0 0.16167432643817931 -0.2372781381667417 0 0.15904640865175021 -0.2292974917929268 0 0.163130843716257 -0.22797961337528261 0 0.16167432643817931 -0.2372781381667417 0 0.16945489825779059 -0.21909923129923869 0 0.163130843716257 -0.22797961337528261 0 0.16735930362016241 -0.23270310830507759 0 0.17395159758480211 -0.23925127595475509 0 0.16735930362016241 -0.23270310830507759 0 0.16744003324982429 -0.24014652530779801 0 0.17395159758480211 -0.23925127595475509 0 0.16744003324982429 -0.24014652530779801 0 0.16972168558007919 -0.24595602287593349 0 0.16735930362016241 -0.23270310830507759 0 0.16744003324982429 -0.24014652530779801 0 0.16167432643817931 -0.2372781381667417 0 0.16167432643817931 -0.2372781381667417 0 0.1579012244655901 -0.243994456244508 0 0.15352530915958831 -0.24098755599551061 0 0.16744003324982429 -0.24014652530779801 0 0.16167432643817931 -0.2372781381667417 0 0.1624002888965472 -0.24608417769258731 0 0.16167432643817931 -0.2372781381667417 0 0.1624002888965472 -0.24608417769258731 0 0.1579012244655901 -0.243994456244508 0 0.1624002888965472 -0.24608417769258731 0 0.1579012244655901 -0.243994456244508 0 0.15654015862906581 -0.2497742971247944 0 0.16744003324982429 -0.24014652530779801 0 0.1624002888965472 -0.24608417769258731 0 0.16972168558007919 -0.24595602287593349 0 0.14431894553082231 -0.25182667848574608 0 0.14558409340785991 -0.23987841801899831 0 0.13744229146350409 -0.23578030427268781 0 0.14431894553082231 -0.25182667848574608 0 0.1477780575942047 -0.24775408903845361 0 0.14558409340785991 -0.23987841801899831 0 0.14431894553082231 -0.25182667848574608 0 0.1477780575942047 -0.24775408903845361 0 0.15194569556453669 -0.25147539128871121 0 0.1477780575942047 -0.24775408903845361 0 0.15353808908259711 -0.24679715793839549 0 0.15194569556453669 -0.25147539128871121 0 0.15654015862906581 -0.2497742971247944 0 0.15353808908259711 -0.24679715793839549 0 0.1579012244655901 -0.243994456244508 0 0.15654015862906581 -0.2497742971247944 0 0.15353808908259711 -0.24679715793839549 0 0.1579012244655901 -0.243994456244508 0 0.15353808908259711 -0.24679715793839549 0 0.15352530915958831 -0.24098755599551061 0 0.1477780575942047 -0.24775408903845361 0 0.15353808908259711 -0.24679715793839549 0 0.15352530915958831 -0.24098755599551061 0 0.1477780575942047 -0.24775408903845361 0 0.15352530915958831 -0.24098755599551061 0 0.1477780575942047 -0.24775408903845361 0 0.15352530915958831 -0.24098755599551061 0 0.15305284068225641 -0.23322876822271221 0 0.1477780575942047 -0.24775408903845361 0 0.14558409340785991 -0.23987841801899831 0 0.15305284068225641 -0.23322876822271221 0 0.1477780575942047 -0.24775408903845361 0 0.15305284068225641 -0.23322876822271221 0 0.16167432643817931 -0.2372781381667417 0 0.15352530915958831 -0.24098755599551061 0 0.15305284068225641 -0.23322876822271221 0 0.14558409340785991 -0.23987841801899831 0 0.14532833176851209 -0.23080225007539171 0 0.13744229146350409 -0.23578030427268781 0 0.14558409340785991 -0.23987841801899831 0 0.14532833176851209 -0.23080225007539171 0 0.15305284068225641 -0.23322876822271221 0 0.14532833176851209 -0.23080225007539171 0 0.15305284068225641 -0.23322876822271221 0 0.14836624149908431 -0.22271736982508869 0 0.15832762377030801 -0.21870344740697081 0 0.15305284068225641 -0.23322876822271221 0 0.15832762377030801 -0.21870344740697081 0 0.15305284068225641 -0.23322876822271221 0 0.14836624149908431 -0.22271736982508869 0 0.14532833176851209 -0.23080225007539171 0 0.14836624149908431 -0.22271736982508869 0 0.1372365235920813 -0.22098497628510599 0 0.12162565113262939 -0.23559735135753929 0 0.1372365235920813 -0.22098497628510599 0 0.13744229146350409 -0.23578030427268781 0 0.1197620525411254 -0.21356208913140801 0 0.12162565113262939 -0.23559735135753929 0 0.1372365235920813 -0.22098497628510599 0 0.14532833176851209 -0.23080225007539171 0 0.1372365235920813 -0.22098497628510599 0 0.13744229146350409 -0.23578030427268781 0 0.14431894553082231 -0.25182667848574608 0 0.1247112926720263 -0.25243123502020148 0 0.12162565113262939 -0.23559735135753929 0 0.14431894553082231 -0.25182667848574608 0 0.12162565113262939 -0.23559735135753929 0 0.13744229146350409 -0.23578030427268781 0 0.14431894553082231 -0.25182667848574608 0 0.12162565113262939 -0.23559735135753929 0 0.15829479345189471 -0.19399512407421299 0 0.14788588768226341 -0.209867407135263 0 0.13698071479679749 -0.2016101276466106 0 0.15829479345189471 -0.19399512407421299 0 0.13698071479679749 -0.2016101276466106 0 0.13951436041491541 -0.1884986107872367 0 0.1372365235920813 -0.22098497628510599 0 0.14788588768226341 -0.209867407135263 0 0.13698071479679749 -0.2016101276466106 0 0.15832762377030801 -0.21870344740697081 0 0.15829479345189471 -0.19399512407421299 0 0.14788588768226341 -0.209867407135263 0 0.15832762377030801 -0.21870344740697081 0 0.14836624149908431 -0.22271736982508869 0 0.14788588768226341 -0.209867407135263 0 0.14836624149908431 -0.22271736982508869 0 0.1372365235920813 -0.22098497628510599 0 0.14788588768226341 -0.209867407135263 0 0.1197620525411254 -0.21356208913140801 0 0.1372365235920813 -0.22098497628510599 0 0.13698071479679749 -0.2016101276466106 0 0.1165223794856555 -0.19743642180091739 0 0.13698071479679749 -0.2016101276466106 0 0.12767687559112709 -0.18700981645158871 0 0.13698071479679749 -0.2016101276466106 0 0.13951436041491541 -0.1884986107872367 0 0.12767687559112709 -0.18700981645158871 0 0.1209797667976001 -0.17516793943393069 0 0.12767687559112709 -0.18700981645158871 0 0.13415036166963309 -0.17724804676166739 0 0.1209797667976001 -0.17516793943393069 0 0.13415036166963309 -0.17724804676166739 0 0.13037551585724591 -0.16521290458990351 0 0.13415036166963309 -0.17724804676166739 0 0.1434402876670971 -0.1797361988629721 0 0.1381072341530433 -0.17004819584255579 0 0.13951436041491541 -0.1884986107872367 0 0.13415036166963309 -0.17724804676166739 0 0.1434402876670971 -0.1797361988629721 0 0.13951436041491541 -0.1884986107872367 0 0.12767687559112709 -0.18700981645158871 0 0.13415036166963309 -0.17724804676166739 0 0.15829479345189471 -0.19399512407421299 0 0.1434402876670971 -0.1797361988629721 0 0.14713468864599891 -0.16889101684918739 0 0.15829479345189471 -0.19399512407421299 0 0.13951436041491541 -0.1884986107872367 0 0.1434402876670971 -0.1797361988629721 0 0.15829479345189471 -0.19399512407421299 0 0.14713468864599891 -0.16889101684918739 0 0.1434402876670971 -0.1797361988629721 0 0.14713468864599891 -0.16889101684918739 0 0.1381072341530433 -0.17004819584255579 0 0.1490882336445824 -0.15757150092564451 0 0.14713468864599891 -0.16889101684918739 0 0.1723987215066688 -0.1736455627003258 0 0.14713468864599891 -0.16889101684918739 0 0.14262656671308799 -0.16476685413126629 0 0.1381072341530433 -0.17004819584255579 0 0.1490882336445824 -0.15757150092564451 0 0.14713468864599891 -0.16889101684918739 0 0.14262656671308799 -0.16476685413126629 0 0.1490882336445824 -0.15757150092564451 0 0.14262656671308799 -0.16476685413126629 0 0.14262656671308799 -0.16476685413126629 0 0.13037551585724591 -0.16521290458990351 0 0.12554447269925231 -0.14133658254545051 0 0.14262656671308799 -0.16476685413126629 0 0.1381072341530433 -0.17004819584255579 0 0.13037551585724591 -0.16521290458990351 0 0.13415036166963309 -0.17724804676166739 0 0.1381072341530433 -0.17004819584255579 0 0.13037551585724591 -0.16521290458990351 0 0.1490882336445824 -0.15757150092564451 0 0.12554447269925231 -0.14133658254545051 0 0.14592203154577171 -0.1425557218801134 0 0.1490882336445824 -0.15757150092564451 0 0.12554447269925231 -0.14133658254545051 0 0.1490882336445824 -0.15757150092564451 0 0.14262656671308799 -0.16476685413126629 0 0.12554447269925231 -0.14133658254545051 0 0.12554447269925231 -0.14133658254545051 0 0.1382494986997902 -0.13417149921443439 0 0.14592203154577171 -0.1425557218801134 0 0.12763569286038981 -0.1239215236016821 0 0.14340996522301239 -0.12124420334520811 0 0.1382494986997902 -0.13417149921443439 0 0.12763569286038981 -0.1239215236016821 0 0.12554447269925231 -0.14133658254545051 0 0.1382494986997902 -0.13417149921443439 0 0.12554447269925231 -0.14133658254545051 0 0.1382494986997902 -0.13417149921443439 0 0.14340996522301239 -0.12124420334520811 0 0.1382494986997902 -0.13417149921443439 0 0.1534333555455312 -0.1317103682192525 0 0.1382494986997902 -0.13417149921443439 0 0.1534333555455312 -0.1317103682192525 0 0.14592203154577171 -0.1425557218801134 0 0.1534333555455312 -0.1317103682192525 0 0.14592203154577171 -0.1425557218801134 0 0.16069242800756259 -0.14464971495407949 0 0.1490882336445824 -0.15757150092564451 0 0.14592203154577171 -0.1425557218801134 0 0.16069242800756259 -0.14464971495407949 0 0.1490882336445824 -0.15757150092564451 0 0.16069242800756259 -0.14464971495407949 0 0.16069242800756259 -0.14464971495407949 0 0.17229662237054219 -0.13172792898251401 0 0.17246808440182901 -0.1554039559202898 0 0.1490882336445824 -0.15757150092564451 0 0.16069242800756259 -0.14464971495407949 0 0.17246808440182901 -0.1554039559202898 0 0.1534333555455312 -0.1317103682192525 0 0.16069242800756259 -0.14464971495407949 0 0.17229662237054219 -0.13172792898251401 0 0.1586817010605748 -0.11623192624076061 0 0.1534333555455312 -0.1317103682192525 0 0.17229662237054219 -0.13172792898251401 0 0.16069242800756259 -0.14464971495407949 0 0.17229662237054219 -0.13172792898251401 0 0.1855951725596367 -0.116919402522132 0 0.18966720210242849 -0.13395175455600461 0 0.17229662237054219 -0.13172792898251401 0 0.19014459317376761 -0.1520418329856929 0 0.18966720210242849 -0.13395175455600461 0 0.17229662237054219 -0.13172792898251401 0 0.19014459317376761 -0.1520418329856929 0 0.17229662237054219 -0.13172792898251401 0 0.19014459317376761 -0.1520418329856929 0 0.17229662237054219 -0.13172792898251401 0 0.17246808440182901 -0.1554039559202898 0 0.19014459317376761 -0.1520418329856929 0 0.19018790770785049 -0.17278719497348269 0 0.17246808440182901 -0.1554039559202898 0 0.19018790770785049 -0.17278719497348269 0 0.17246808440182901 -0.1554039559202898 0 0.1723987215066688 -0.1736455627003258 0 0.19018790770785049 -0.17278719497348269 0 0.19570920936875491 -0.18971962447500701 0 0.1723987215066688 -0.1736455627003258 0 0.19570920936875491 -0.18971962447500701 0 0.1723987215066688 -0.1736455627003258 0 0.15829479345189471 -0.19399512407421299 0 0.14713468864599891 -0.16889101684918739 0 0.1723987215066688 -0.1736455627003258 0 0.1490882336445824 -0.15757150092564451 0 0.1723987215066688 -0.1736455627003258 0 0.1490882336445824 -0.15757150092564451 0 0.17246808440182901 -0.1554039559202898 0 0.1723987215066688 -0.1736455627003258 0 
</DataArray>
</Points>
<Cells>
<DataArray type="UInt32" Name="connectivity" format="ascii">
0 1 2 3 4 5 6 7 8 9 10 11 12 13 14 15 16 17 18 19 20 21 22 23 24 25 26 27 28 29 30 31 32 33 34 35 36 37 38 39 40 41 42 43 44 45 46 47 48 49 50 51 52 53 54 55 56 57 58 59 60 61 62 63 64 65 66 67 68 69 70 71 72 73 74 75 76 77 78 79 80 81 82 83 84 85 86 87 88 89 90 91 92 93 94 95 96 97 98 99 100 101 102 103 104 105 106 107 108 109 110 111 112 113 114 115 116 117 118 119 120 121 122 123 124 125 126 127 128 129 130 131 132 133 134 135 136 137 138 139 140 141 142 143 144 145 146 147 148 149 150 151 152 153 154 155 156 157 158 159 160 161 162 163 164 165 166 167 168 169 170 171 172 173 174 175 176 177 178 179 180 181 182 183 184 185 186 187 188 189 190 191 192 193 194 195 196 197 198 199 200 201 202 203 204 205 206 207 208 209 210 211 212 213 214 215 216 217 218 219 220 221 222 223 224 225 226 227 228 229 230 231 232 233 234 235 236 237 238 239 240 241 242 243 244 245 246 247 248 249 250 251 252 253 254 255 256 257 258 259 260 261 262 263 264 265 266 267 268 269 270 271 272 273 274 275 276 277 278 279 280 281 282 283 284 285 286 287 288 289 290 291 292 293 294 295 296 297 298 299 300 301 302 303 304 305 306 307 308 309 310 311 312 313 314 315 316 317 318 319 320 321 322 323 324 325 326 327 328 329 330 331 332 333 334 335 336 337 338 339 340 341 342 343 344 345 346 347 348 349 350 351 352 353 354 355 356 357 358 359 360 361 362 363 364 365 366 367 368 369 370 371 372 373 374 375 376 377 378 379 380 381 382 383 384 385 386 387 388 389 390 391 392 393 394 395 396 397 398 399 400 401 402 403 404 405 406 407 408 409 410 411 412 413 414 415 416 417 418 419 420 421 422 423 424 425 426 427 428 429 430 431 432 433 434 435 436 437 438 439 440 441 442 443 444 445 446 447 448 449 450 451 452 453 454 455 456 457 458 459 460 461 462 463 464 465 466 467 468 469 470 471 472 473 474 475 476 477 478 479 480 481 482 483 484 485 486 487 488 489 490 491 492 493 494 495 496 497 498 499 500 501 502 503 504 505 506 507 508 509 510 511 512 513 514 515 516 517 518 519 520 521 522 523 524 525 526 527 528 529 530 531 532 533 534 535 536 537 538 539 540 541 542 543 544 545 546 547 548 549 550 551 552 553 554 555 556 557 558 559 560 561 562 563 564 565 566 567 568 569 570 571 572 573 574 575 576 577 578 579 580 581 582 583 584 585 586 587 588 589 590 591 592 593 594 595 596 597 598 599 600 601 602 603 604 605 606 607 608 609 610 611 612 613 614 615 616 617 618 619 620 621 622 623 624 625 626 627 628 629 630 631 632 633 634 635 636 637 638 639 640 641 642 643 644 645 646 647 648 649 650 651 652 653 654 655 656 657 658 659 660 661 662 663 664 665 666 667 668 669 670 671 672 673 674 675 676 677 678 679 680 681 682 683 684 685 686 687 688 689 690 691 692 693 694 695 696 697 698 699 700 701 702 703 704 705 706 707 708 709 710 711 712 713 714 715 716 717 718 719 720 721 722 723 724 725 726 727 728 729 730 731 732 733 734 735 736 737 738 739 740 741 742 743 744 745 746 747 748 749 750 751 752 753 754 755 756 757 758 759 760 761 762 763 764 765 766 767 768 769 770 771 772 773 774 775 776 777 778 779 780 781 782 783 784 785 786 787 788 789 790 791 792 793 794 795 796 797 798 799 800 801 802 803 804 805 806 807 808 809 810 811 812 813 814 815 816 817 818 819 820 821 822 823 824 825 826 827 828 829 830 831 832 833 834 835 836 837 838 839 840 841 842 843 844 845 846 847 848 849 850 851 852 853 854 855 856 857 858 859 860 861 862 863 864 865 866 867 868 869 870 871 872 873 874 875 876 877 878 879 880 881 882 883 884 885 886 887 888 889 890 891 892 893 894 895 896 897 898 899 900 901 902 903 904 905 906 907 908 909 910 911 912 913 914 915 916 917 918 919 920 921 922 923 924 925 926 927 928 929 930 931 932 933 934 935 936 937 938 939 940 941 942 943 944 945 946 947 948 949 950 951 952 953 954 955 956 957 958 959 960 961 962 963 964 965 966 967 968 969 970 971 972 973 974 975 976 977 978 979 980 981 982 983 984 985 986 987 988 989 990 991 992 993 994 995 996 997 998 999 1000 1001 1002 1003 1004 1005 1006 1007 1008 1009 1010 1011 1012 1013 1014 1015 1016 1017 1018 1019 1020 1021 1022 1023 1024 1025 1026 1027 1028 1029 1030 1031 1032 1033 1034 1035 1036 1037 1038 1039 1040 1041 1042 1043 1044 1045 1046 1047 1048 1049 1050 1051 1052 1053 1054 1055 1056 1057 1058 1059 1060 1061 1062 1063 1064 1065 1066 1067 1068 1069 1070 1071 1072 1073 1074 1075 1076 1077 1078 1079 1080 1081 1082 1083 1084 1085 1086 1087 1088 1089 1090 1091 1092 1093 1094 1095 1096 1097 1098 1099 1100 1101 1102 1103 1104 1105 1106 1107 1108 1109 1110 1111 1112 1113 1114 1115 1116 1117 1118 1119 1120 1121 1122 1123 1124 1125 1126 1127 1128 1129 1130 1131 1132 1133 1134 1135 1136 1137 1138 1139 1140 1141 1142 1143 1144 1145 1146 1147 1148 1149 1150 1151 1152 1153 1154 1155 1156 1157 1158 1159 1160 1161 1162 1163 1164 1165 1166 1167 1168 1169 1170 1171 1172 1173 1174 1175 1176 1177 1178 1179 1180 1181 1182 1183 1184 1185 1186 1187 1188 1189 1190 1191 1192 1193 1194 1195 1196 1197 1198 1199 1200 1201 1202 1203 1204 1205 1206 1207 1208 1209 1210 1211 1212 1213 1214 1215 1216 1217 1218 1219 1220 1221 1222 1223 1224 1225 1226 1227 1228 1229 1230 1231 1232 1233 1234 1235 1236 1237 1238 1239 1240 1241 1242 1243 1244 1245 1246 1247 1248 1249 1250 1251 1252 1253 1254 1255 1256 1257 1258 1259 1260 1261 1262 1263 1264 1265 1266 1267 1268 1269 1270 1271 1272 1273 1274 1275 1276 1277 1278 1279 1280 1281 1282 1283 1284 1285 1286 1287 1288 1289 1290 1291 1292 1293 1294 1295 1296 1297 1298 1299 1300 1301 1302 1303 1304 1305 1306 1307 1308 1309 1310 1311 1312 1313 1314 1315 1316 1317 1318 1319 1320 1321 1322 1323 1324 1325 1326 1327 1328 1329 1330 1331 1332 1333 1334 1335 1336 1337 1338 1339 1340 1341 1342 1343 1344 1345 1346 1347 1348 1349 1350 1351 1352 1353 1354 1355 1356 1357 1358 1359 1360 1361 1362 1363 1364 1365 1366 1367 1368 1369 1370 1371 1372 1373 1374 1375 1376 1377 1378 1379 1380 1381 1382 1383 1384 1385 1386 1387 1388 1389 1390 1391 1392 1393 1394 1395 1396 1397 1398 1399 1400 1401 1402 1403 1404 1405 1406 1407 1408 1409 1410 1411 1412 1413 1414 1415 1416 1417 1418 1419 1420 1421 1422 1423 1424 1425 1426 1427 1428 1429 1430 1431 1432 1433 1434 1435 1436 1437 1438 1439 1440 1441 1442 1443 1444 1445 1446 1447 1448 1449 1450 1451 1452 1453 1454 1455 1456 1457 1458 1459 1460 1461 1462 1463 1464 1465 1466 1467 1468 1469 1470 1471 1472 1473 1474 1475 1476 1477 1478 1479 1480 1481 1482 1483 1484 1485 1486 1487 1488 1489 1490 1491 1492 1493 1494 1495 1496 1497 1498 1499 1500 1501 1502 1503 1504 1505 1506 1507 1508 1509 1510 1511 1512 1513 1514 1515 1516 1517 1518 1519 1520 1521 1522 1523 1524 1525 1526 1527 1528 1529 1530 1531 1532 1533 1534 1535 1536 1537 1538 1539 1540 1541 1542 1543 1544 1545 1546 1547 1548 1549 1550 1551 1552 1553 1554 1555 1556 1557 1558 1559 1560 1561 1562 1563 1564 1565 1566 1567 1568 1569 1570 1571 1572 1573 1574 1575 1576 1577 1578 1579 1580 1581 1582 1583 1584 1585 1586 1587 1588 1589 1590 1591 1592 1593 1594 1595 1596 1597 1598 1599 1600 1601 1602 1603 1604 1605 1606 1607 1608 1609 1610 1611 1612 1613 1614 1615 1616 1617 1618 1619 1620 1621 1622 1623 1624 1625 1626 1627 1628 1629 1630 1631 1632 1633 1634 1635 1636 1637 1638 1639 1640 1641 1642 1643 1644 1645 1646 1647 1648 1649 1650 1651 1652 1653 1654 1655 1656 1657 1658 1659 1660 1661 1662 1663 1664 1665 1666 1667 1668 1669 1670 1671 1672 1673 1674 1675 1676 1677 1678 1679 1680 1681 1682 1683 1684 1685 1686 1687 1688 1689 1690 1691 1692 1693 1694 1695 1696 1697 1698 1699 1700 1701 1702 1703 1704 1705 1706 1707 1708 1709 1710 1711 1712 1713 1714 1715 1716 1717 1718 1719 1720 1721 1722 1723 1724 1725 1726 1727 1728 1729 1730 1731 1732 1733 1734 1735 1736 1737 1738 1739 1740 1741 1742 1743 1744 1745 1746 1747 1748 1749 1750 1751 1752 1753 1754 1755 1756 1757 1758 1759 1760 1761 1762 1763 1764 1765 1766 1767 1768 1769 1770 1771 1772 1773 1774 1775 1776 1777 1778 1779 1780 1781 1782 1783 1784 1785 1786 1787 1788 1789 1790 1791 1792 1793 1794 1795 1796 1797 1798 1799 1800 1801 1802 1803 1804 1805 1806 1807 1808 1809 1810 1811 1812 1813 1814 1815 1816 1817 1818 1819 1820 1821 1822 1823 1824 1825 1826 1827 1828 1829 1830 1831 1832 1833 1834 1835 1836 1837 1838 1839 1840 1841 1842 1843 1844 1845 1846 1847 1848 1849 1850 1851 1852 1853 1854 1855 1856 1857 1858 1859 1860 1861 1862 1863 1864 1865 1866 1867 1868 1869 1870 1871 1872 1873 1874 1875 1876 1877 1878 1879 1880 1881 1882 1883 1884 1885 1886 1887 1888 1889 1890 1891 1892 1893 1894 1895 1896 1897 1898 1899 1900 1901 1902 1903 1904 1905 1906 1907 1908 1909 1910 1911 1912 1913 1914 1915 1916 1917 1918 1919 1920 1921 1922 1923 1924 1925 1926 1927 1928 1929 1930 1931 1932 1933 1934 1935 1936 1937 1938 1939 1940 1941 1942 1943 1944 1945 1946 1947 1948 1949 1950 1951 1952 1953 1954 1955 1956 1957 1958 1959 1960 1961 1962 1963 1964 1965 1966 1967 1968 1969 1970 1971 1972 1973 1974 1975 1976 1977 1978 1979 1980 1981 1982 1983 1984 1985 1986 1987 1988 1989 1990 1991 1992 1993 1994 1995 1996 1997 1998 1999 2000 2001 2002 2003 2004 2005 2006 2007 2008 2009 2010 2011 2012 2013 2014 2015 2016 2017 2018 2019 2020 2021 2022 2023 2024 2025 2026 2027 2028 2029 2030 2031 2032 2033 2034 2035 2036 2037 2038 2039 2040 2041 2042 2043 2044 2045 2046 2047 2048 2049 2050 2051 2052 2053 2054 2055 2056 2057 2058 2059 2060 2061 2062 2063 2064 2065 2066 2067 2068 2069 2070 2071 2072 2073 2074 2075 2076 2077 2078 2079 2080 2081 2082 2083 2084 2085 2086 2087 2088 2089 2090 2091 2092 2093 2094 2095 2096 2097 2098 2099 2100 2101 2102 2103 2104 2105 2106 2107 2108 2109 2110 2111 2112 2113 2114 2115 2116 2117 2118 2119 2120 2121 2122 2123 2124 2125 2126 2127 2128 2129 2130 2131 2132 2133 2134 2135 2136 2137 2138 2139 2140 2141 2142 2143 2144 2145 2146 2147 2148 2149 2150 2151 2152 2153 2154 2155 2156 2157 2158 2159 2160 2161 2162 2163 2164 2165 2166 2167 2168 2169 2170 2171 2172 2173 2174 2175 2176 2177 2178 2179 2180 2181 2182 2183 2184 2185 2186 2187 2188 2189 2190 2191 2192 2193 2194 2195 2196 2197 2198 2199 2200 2201 2202 2203 2204 2205 2206 2207 2208 2209 2210 2211 2212 2213 2214 2215 2216 2217 2218 2219 2220 2221 2222 2223 2224 2225 2226 2227 2228 2229 2230 2231 2232 2233 2234 2235 2236 2237 2238 2239 2240 2241 2242 2243 2244 2245 2246 2247 2248 2249 2250 2251 2252 2253 2254 2255 2256 2257 2258 2259 2260 2261 2262 2263 2264 2265 2266 2267 2268 2269 2270 2271 2272 2273 2274 2275 2276 2277 2278 2279 2280 2281 2282 2283 2284 2285 2286 2287 2288 2289 2290 2291 2292 2293 2294 2295 2296 2297 2298 2299 2300 2301 2302 2303 2304 2305 2306 2307 2308 2309 2310 2311 2312 2313 2314 2315 2316 2317 2318 2319 2320 2321 2322 2323 2324 2325 2326 2327 2328 2329 2330 2331 2332 2333 2334 2335 2336 2337 2338 2339 2340 2341 2342 2343 2344 2345 2346 2347 2348 2349 2350 2351 2352 2353 2354 2355 2356 2357 2358 2359 2360 2361 2362 2363 2364 2365 2366 2367 2368 2369 2370 2371 2372 2373 2374 2375 2376 2377 2378 2379 2380 2381 2382 2383 2384 2385 2386 2387 2388 2389 2390 2391 2392 2393 2394 2395 2396 2397 2398 2399 2400 2401 2402 2403 2404 2405 2406 2407 2408 2409 2410 2411 2412 2413 2414 2415 2416 2417 2418 2419 2420 2421 2422 2423 2424 2425 2426 2427 2428 2429 2430 2431 2432 2433 2434 2435 2436 2437 2438 2439 2440 2441 2442 2443 2444 2445 2446 2447 2448 2449 2450 2451 2452 2453 2454 2455 2456 2457 2458 2459 2460 2461 2462 2463 2464 2465 2466 2467 2468 2469 2470 2471 2472 2473 2474 2475 2476 2477 2478 2479 2480 2481 2482 2483 2484 2485 2486 2487 2488 2489 2490 2491 2492 2493 2494 2495 2496 2497 2498 2499 2500 2501 2502 2503 2504 2505 2506 2507 2508 2509 2510 2511 2512 2513 2514 2515 2516 2517 2518 2519 2520 2521 2522 2523 2524 2525 2526 2527 2528 2529 2530 2531 2532 2533 2534 2535 2536 2537 2538 2539 2540 2541 2542 2543 2544 2545 2546 2547 2548 2549 2550 2551 2552 2553 2554 2555 2556 2557 2558 2559 2560 2561 2562 2563 2564 2565 2566 2567 2568 2569 2570 2571 2572 2573 2574 2575 2576 2577 2578 2579 2580 2581 2582 2583 2584 2585 2586 2587 2588 2589 2590 2591 2592 2593 2594 2595 2596 2597 2598 2599 2600 2601 2602 2603 2604 2605 2606 2607 2608 2609 2610 2611 2612 2613 2614 2615 2616 2617 2618 2619 2620 2621 2622 2623 2624 2625 2626 2627 2628 2629 2630 2631 2632 2633 2634 2635 2636 2637 2638 2639 2640 2641 2642 2643 2644 2645 2646 2647 2648 2649 2650 2651 2652 2653 2654 2655 2656 2657 2658 2659 2660 2661 2662 2663 2664 2665 2666 2667 2668 2669 2670 2671 2672 2673 2674 2675 2676 2677 2678 2679 2680 2681 2682 2683 2684 2685 2686 2687 2688 2689 2690 2691 2692 2693 2694 2695 2696 2697 2698 2699 2700 2701 2702 2703 2704 2705 2706 2707 2708 2709 2710 2711 2712 2713 2714 2715 2716 2717 2718 2719 2720 2721 2722 2723 2724 2725 2726 2727 2728 2729 2730 2731 2732 2733 2734 2735 2736 2737 2738 2739 2740 2741 2742 2743 2744 2745 2746 2747 2748 2749 2750 2751 2752 2753 2754 2755 2756 2757 2758 2759 2760 2761 2762 2763 2764 2765 2766 2767 2768 2769 2770 2771 2772 2773 2774 2775 2776 2777 2778 2779 2780 2781 2782 2783 2784 2785 2786 2787 2788 2789 2790 2791 2792 2793 2794 2795 2796 2797 2798 2799 2800 2801 2802 2803 2804 2805 2806 2807 2808 2809 2810 2811 2812 2813 2814 2815 2816 2817 2818 2819 2820 2821 2822 2823 2824 2825 2826 2827 2828 2829 2830 2831 2832 2833 2834 2835 2836 2837 2838 2839 2840 2841 2842 2843 2844 2845 2846 2847 2848 2849 2850 2851 2852 2853 2854 2855 2856 2857 2858 2859 2860 2861 2862 2863 2864 2865 2866 2867 2868 2869 2870 2871 2872 2873 2874 2875 2876 2877 2878 2879 2880 2881 2882 2883 2884 2885 2886 2887 2888 2889 2890 2891 2892 2893 2894 2895 2896 2897 2898 2899 2900 2901 2902 2903 2904 2905 2906 2907 2908 2909 2910 2911 2912 2913 2914 2915 2916 2917 2918 2919 2920 2921 2922 2923 2924 2925 2926 2927 2928 2929 2930 2931 2932 2933 2934 2935 2936 2937 2938 2939 2940 2941 2942 2943 2944 2945 2946 2947 2948 2949 2950 2951 2952 2953 2954 2955 2956 2957 2958 2959 2960 2961 2962 2963 2964 2965 2966 2967 2968 2969 2970 2971 2972 2973 2974 2975 2976 2977 2978 2979 2980 2981 2982 2983 2984 2985 2986 2987 2988 2989 2990 2991 2992 2993 2994 2995 2996 2997 2998 2999 3000 3001 3002 3003 3004 3005 3006 3007 3008 3009 3010 3011 3012 3013 3014 3015 3016 3017 3018 3019 3020 3021 3022 3023 3024 3025 3026 3027 3028 3029 3030 3031 3032 3033 3034 3035 3036 3037 3038 3039 3040 3041 3042 3043 3044 3045 3046 3047 3048 3049 3050 3051 3052 3053 3054 3055 3056 3057 3058 3059 3060 3061 3062 3063 3064 3065 3066 3067 3068 3069 3070 3071 3072 3073 3074 3075 3076 3077 3078 3079 3080 3081 3082 3083 3084 3085 3086 3087 3088 3089 3090 3091 3092 3093 3094 3095 3096 3097 3098 3099 3100 3101 3102 3103 3104 3105 3106 3107 3108 3109 3110 3111 3112 3113 3114 3115 3116 3117 3118 3119 3120 3121 3122 3123 3124 3125 3126 3127 3128 3129 3130 3131 3132 3133 3134 3135 3136 3137 3138 3139 3140 3141 3142 3143 3144 3145 3146 3147 3148 3149 3150 3151 3152 3153 3154 3155 3156 3157 3158 3159 3160 3161 3162 3163 3164 3165 3166 3167 3168 3169 3170 3171 3172 3173 3174 3175 3176 3177 3178 3179 3180 3181 3182 3183 3184 3185 3186 3187 3188 3189 3190 3191 3192 3193 3194 3195 3196 3197 3198 3199 3200 3201 3202 3203 3204 3205 3206 3207 3208 3209 3210 3211 3212 3213 3214 3215 3216 3217 3218 3219 3220 3221 3222 3223 3224 3225 3226 3227 3228 3229 3230 3231 3232 3233 3234 3235 3236 3237 3238 3239 3240 3241 3242 3243 3244 3245 3246 3247 3248 3249 3250 3251 3252 3253 3254 3255 3256 3257 3258 3259 3260 3261 3262 3263 3264 3265 3266 3267 3268 3269 3270 3271 3272 3273 3274 3275 3276 3277 3278 3279 3280 3281 3282 3283 3284 3285 3286 3287 3288 3289 3290 3291 3292 3293 3294 3295 3296 3297 3298 3299 3300 3301 3302 3303 3304 3305 3306 3307 3308 3309 3310 3311 3312 3313 3314 3315 3316 3317 3318 3319 3320 3321 3322 3323 3324 3325 3326 3327 3328 3329 3330 3331 3332 3333 3334 3335 3336 3337 3338 3339 3340 3341 3342 3343 3344 3345 3346 3347 3348 3349 3350 3351 3352 3353 3354 3355 3356 3357 3358 3359 3360 3361 3362 3363 3364 3365 3366 3367 3368 3369 3370 3371 3372 3373 3374 3375 3376 3377 3378 3379 3380 3381 3382 3383 3384 3385 3386 3387 3388 3389 3390 3391 3392 3393 3394 3395 3396 3397 3398 3399 3400 3401 3402 3403 3404 3405 3406 3407 3408 3409 3410 3411 3412 3413 3414 3415 3416 3417 3418 3419 3420 3421 3422 3423 3424 3425 3426 3427 3428 3429 3430 3431 3432 3433 3434 3435 3436 3437 3438 3439 3440 3441 3442 3443 3444 3445 3446 3447 3448 3449 3450 3451 3452 3453 3454 3455 3456 3457 3458 3459 3460 3461 3462 3463 3464 3465 3466 3467 3468 3469 3470 3471 3472 3473 3474 3475 3476 3477 3478 3479 3480 3481 3482 3483 3484 3485 3486 3487 3488 3489 3490 3491 3492 3493 3494 3495 3496 3497 3498 3499 3500 3501 3502 3503 3504 3505 3506 3507 3508 3509 3510 3511 3512 3513 3514 3515 3516 3517 3518 3519 3520 3521 3522 3523 3524 3525 3526 3527 3528 3529 3530 3531 3532 3533 3534 3535 3536 3537 3538 3539 3540 3541 3542 3543 3544 3545 3546 3547 3548 3549 3550 3551 3552 3553 3554 3555 3556 3557 3558 3559 3560 3561 3562 3563 3564 3565 3566 3567 3568 3569 3570 3571 3572 3573 3574 3575 3576 3577 3578 3579 3580 3581 3582 3583 3584 3585 3586 3587 3588 3589 3590 3591 3592 3593 3594 3595 3596 3597 3598 3599 3600 3601 3602 3603 3604 3605 3606 3607 3608 3609 3610 3611 3612 3613 3614 3615 3616 3617 3618 3619 3620 3621 3622 3623 3624 3625 3626 3627 3628 3629 3630 3631 3632 3633 3634 3635 3636 3637 3638 3639 3640 3641 3642 3643 3644 3645 3646 3647 3648 3649 3650 3651 3652 3653 3654 3655 3656 3657 3658 3659 3660 3661 3662 3663 3664 3665 3666 3667 3668 3669 3670 3671 3672 3673 3674 3675 3676 3677 3678 3679 3680 3681 3682 3683 3684 3685 3686 3687 3688 3689 3690 3691 3692 3693 3694 3695 3696 3697 3698 3699 3700 3701 3702 3703 3704 3705 3706 3707 3708 3709 3710 3711 3712 3713 3714 3715 3716 3717 3718 3719 3720 3721 3722 3723 3724 3725 3726 3727 3728 3729 3730 3731 3732 3733 3734 3735 3736 3737 3738 3739 3740 3741 3742 3743 3744 3745 3746 3747 3748 3749 3750 3751 3752 3753 3754 3755 3756 3757 3758 3759 3760 3761 3762 3763 3764 3765 3766 3767 3768 3769 3770 3771 3772 3773 3774 3775 3776 3777 3778 3779 3780 3781 3782 3783 3784 3785 3786 3787 3788 3789 3790 3791 3792 3793 3794 3795 3796 3797 3798 3799 3800 3801 3802 3803 3804 3805 3806 3807 3808 3809 3810 3811 3812 3813 3814 3815 3816 3817 3818 3819 3820 3821 3822 3823 3824 3825 3826 3827 3828 3829 3830 3831 3832 3833 3834 3835 3836 3837 3838 3839 3840 3841 3842 3843 3844 3845 3846 3847 3848 3849 3850 3851 3852 3853 3854 3855 3856 3857 3858 3859 3860 3861 3862 3863 3864 3865 3866 3867 3868 3869 3870 3871 3872 3873 3874 3875 3876 3877 3878 3879 3880 3881 3882 3883 3884 3885 3886 3887 3888 3889 3890 3891 3892 3893 3894 3895 3896 3897 3898 3899 3900 3901 3902 3903 3904 3905 3906 3907 3908 3909 3910 3911 3912 3913 3914 3915 3916 3917 3918 3919 3920 3921 3922 3923 3924 3925 3926 3927 3928 3929 3930 3931 3932 3933 3934 3935 3936 3937 3938 3939 3940 3941 3942 3943 3944 3945 3946 3947 3948 3949 3950 3951 3952 3953 3954 3955 3956 3957 3958 3959 3960 3961 3962 3963 3964 3965 3966 3967 3968 3969 3970 3971 3972 3973 3974 3975 3976 3977 3978 3979 3980 3981 3982 3983 3984 3985 3986 3987 3988 3989 3990 3991 3992 3993 3994 3995 3996 3997 3998 3999 4000 4001 4002 4003 4004 4005 4006 4007 4008 4009 4010 4011 4012 4013 4014 4015 4016 4017 4018 4019 4020 4021 4022 4023 4024 4025 4026 4027 4028 4029 4030 4031 4032 4033 4034 4035 4036 4037 4038 4039 4040 4041 4042 4043 4044 4045 4046 4047 4048 4049 4050 4051 4052 4053 4054 4055 4056 4057 4058 4059 4060 4061 4062 4063 4064 4065 4066 4067 4068 4069 4070 4071 4072 4073 4074 4075 4076 4077 4078 4079 4080 4081 4082 4083 4084 4085 4086 4087 4088 4089 4090 4091 4092 4093 4094 4095 4096 4097 4098 4099 4100 4101 4102 4103 4104 4105 4106 4107 4108 4109 4110 4111 4112 4113 4114 4115 4116 4117 4118 4119 4120 4121 4122 4123 4124 4125 4126 4127 4128 4129 4130 4131 4132 4133 4134 4135 4136 4137 4138 4139 4140 4141 4142 4143 4144 4145 4146 4147 4148 4149 4150 4151 4152 4153 4154 4155 4156 4157 4158 4159 4160 4161 4162 4163 4164 4165 4166 4167 4168 4169 4170 4171 4172 4173 4174 4175 4176 4177 4178 4179 4180 4181 4182 4183 4184 4185 4186 4187 4188 4189 4190 4191 4192 4193 4194 4195 4196 4197 4198 4199 4200 4201 4202 4203 4204 4205 4206 4207 4208 4209 4210 4211 4212 4213 4214 4215 4216 4217 4218 4219 4220 4221 4222 4223 4224 4225 4226 4227 4228 4229 4230 4231 4232 4233 4234 4235 4236 4237 4238 4239 4240 4241 4242 4243 4244 4245 4246 4247 4248 4249 4250 4251 4252 4253 4254 4255 4256 4257 4258 4259 4260 4261 4262 4263 4264 4265 4266 4267 4268 4269 4270 4271 4272 4273 4274 4275 4276 4277 4278 4279 4280 4281 4282 4283 4284 4285 4286 4287 4288 4289 4290 4291 4292 4293 4294 4295 4296 4297 4298 4299 4300 4301 4302 4303 4304 4305 4306 4307 4308 4309 4310 4311 4312 4313 4314 4315 4316 4317 4318 4319 4320 4321 4322 4323 4324 4325 4326 4327 4328 4329 4330 4331 4332 4333 4334 4335 4336 4337 4338 4339 4340 4341 4342 4343 4344 4345 4346 4347 4348 4349 4350 4351 4352 4353 4354 4355 4356 4357 4358 4359 4360 4361 4362 4363 4364 4365 4366 4367 4368 4369 4370 4371 4372 4373 4374 4375 4376 4377 4378 4379 4380 4381 4382 4383 4384 4385 4386 4387 4388 4389 4390 4391 4392 4393 4394 4395 4396 4397 4398 4399 4400 4401 4402 4403 4404 4405 4406 4407 4408 4409 4410 4411 4412 4413 4414 4415 4416 4417 4418 4419 4420 4421 4422 4423 4424 4425 4426 4427 4428 4429 4430 4431 4432 4433 4434 4435 4436 4437 4438 4439 4440 4441 4442 4443 4444 4445 4446 4447 4448 4449 4450 4451 4452 4453 4454 4455 4456 4457 4458 4459 4460 4461 4462 4463 4464 4465 4466 4467 4468 4469 4470 4471 4472 4473 4474 4475 4476 4477 4478 4479 4480 4481 4482 4483 4484 4485 4486 4487 4488 4489 4490 4491 4492 4493 4494 4495 4496 4497 4498 4499 4500 4501 4502 4503 4504 4505 4506 4507 4508 4509 4510 4511 4512 4513 4514 4515 4516 4517 4518 4519 4520 4521 4522 4523 4524 4525 4526 4527 4528 4529 4530 4531 4532 4533 4534 4535 4536 4537 4538 4539 4540 4541 4542 4543 4544 4545 4546 4547 4548 4549 4550 4551 4552 4553 4554 4555 4556 4557 4558 4559 4560 4561 4562 4563 4564 4565 4566 4567 4568 4569 4570 4571 4572 4573 4574 4575 4576 4577 4578 4579 4580 4581 4582 4583 4584 4585 4586 4587 4588 4589 4590 4591 4592 4593 4594 4595 4596 4597 4598 4599 4600 4601 4602 4603 4604 4605 4606 4607 4608 4609 4610 4611 4612 4613 4614 4615 4616 4617 4618 4619 4620 4621 4622 4623 4624 4625 4626 4627 4628 4629 4630 4631 4632 4633 4634 4635 4636 4637 4638 4639 4640 4641 4642 4643 4644 4645 4646 4647 4648 4649 4650 4651 4652 4653 4654 4655 4656 4657 4658 4659 4660 4661 4662 4663 4664 4665 4666 4667 4668 4669 4670 4671 4672 4673 4674 4675 4676 4677 4678 4679 4680 4681 4682 4683 4684 4685 4686 4687 4688 4689 4690 4691 4692 4693 4694 4695 4696 4697 4698 4699 4700 4701 4702 4703 4704 4705 4706 4707 4708 4709 4710 4711 4712 4713 4714 4715 4716 4717 4718 4719 4720 4721 4722 4723 4724 4725 4726 4727 4728 4729 4730 4731 4732 4733 4734 4735 4736 4737 4738 4739 4740 4741 4742 4743 4744 4745 4746 4747 4748 4749 4750 4751 4752 4753 4754 4755 4756 4757 4758 4759 4760 4761 4762 4763 4764 4765 4766 4767 4768 4769 4770 4771 4772 4773 4774 4775 4776 4777 4778 4779 4780 4781 4782 4783 4784 4785 4786 4787 4788 4789 4790 4791 4792 4793 4794 4795 4796 4797 4798 4799 4800 4801 4802 4803 4804 4805 4806 4807 4808 4809 4810 4811 4812 4813 4814 4815 4816 4817 4818 4819 4820 4821 4822 4823 4824 4825 4826 4827 4828 4829 4830 4831 4832 4833 4834 4835 4836 4837 4838 4839 4840 4841 4842 4843 4844 4845 4846 4847 4848 4849 4850 4851 4852 4853 4854 4855 4856 4857 4858 4859 4860 4861 4862 4863 4864 4865 4866 4867 4868 4869 4870 4871 4872 4873 4874 4875 4876 4877 4878 4879 4880 4881 4882 4883 4884 4885 4886 4887 4888 4889 4890 4891 4892 4893 4894 4895 4896 4897 4898 4899 4900 4901 4902 4903 4904 4905 4906 4907 4908 4909 4910 4911 4912 4913 4914 4915 4916 4917 4918 4919 4920 4921 4922 4923 4924 4925 4926 4927 4928 4929 4930 4931 4932 4933 4934 4935 4936 4937 4938 4939 4940 4941 4942 4943 4944 4945 4946 4947 4948 4949 4950 4951 4952 4953 4954 4955 4956 4957 4958 4959 4960 4961 4962 4963 4964 4965 4966 4967 4968 4969 4970 4971 4972 4973 4974 4975 4976 4977 4978 4979 4980 4981 4982 4983 4984 4985 4986 4987 4988 4989 4990 4991 4992 4993 4994 4995 4996 4997 4998 4999 5000 5001 5002 5003 5004 5005 5006 5007 5008 5009 5010 5011 5012 5013 5014 5015 5016 5017 5018 5019 5020 5021 5022 5023 5024 5025 5026 5027 5028 5029 5030 5031 5032 5033 5034 5035 5036 5037 5038 5039 5040 5041 5042 5043 5044 5045 5046 5047 5048 5049 5050 5051 5052 5053 5054 5055 5056 5057 5058 5059 5060 5061 5062 5063 5064 5065 5066 5067 5068 5069 5070 5071 5072 5073 5074 5075 5076 5077 5078 5079 5080 5081 5082 5083 5084 5085 5086 5087 5088 5089 5090 5091 5092 5093 5094 5095 5096 5097 5098 5099 5100 5101 5102 5103 5104 5105 5106 5107 5108 5109 5110 5111 5112 5113 5114 5115 5116 5117 5118 5119 5120 5121 5122 5123 5124 5125 5126 5127 5128 5129 5130 5131 5132 5133 5134 5135 5136 5137 5138 5139 5140 5141 5142 5143 5144 5145 5146 5147 5148 5149 5150 5151 5152 5153 5154 5155 5156 5157 5158 5159 5160 5161 5162 5163 5164 5165 5166 5167 5168 5169 5170 5171 5172 5173 5174 5175 5176 5177 5178 5179 5180 5181 5182 5183 5184 5185 5186 5187 5188 5189 5190 5191 5192 5193 5194 5195 5196 5197 5198 5199 5200 5201 5202 5203 5204 5205 5206 5207 5208 5209 5210 5211 5212 5213 5214 5215 5216 5217 5218 5219 5220 5221 5222 5223 5224 5225 5226 5227 5228 5229 5230 5231 5232 5233 5234 5235 5236 5237 5238 5239 5240 5241 5242 5243 5244 5245 5246 5247 5248 5249 5250 5251 5252 5253 5254 5255 5256 5257 5258 5259 5260 5261 5262 5263 5264 5265 5266 5267 5268 5269 5270 5271 5272 5273 5274 5275 5276 5277 5278 5279 5280 5281 5282 5283 5284 5285 5286 5287 5288 5289 5290 5291 5292 5293 5294 5295 5296 5297 5298 5299 5300 5301 5302 5303 5304 5305 5306 5307 5308 5309 5310 5311 5312 5313 5314 5315 5316 5317 5318 5319 5320 5321 5322 5323 5324 5325 5326 5327 5328 5329 5330 5331 5332 5333 5334 5335 5336 5337 5338 5339 5340 5341 5342 5343 5344 5345 5346 5347 5348 5349 5350 5351 5352 5353 5354 5355 5356 5357 5358 5359 5360 5361 5362 5363 5364 5365 5366 5367 5368 5369 5370 5371 5372 5373 5374 5375 5376 5377 5378 5379 5380 5381 5382 5383 5384 5385 5386 5387 5388 5389 5390 5391 5392 5393 5394 5395 5396 5397 5398 5399 5400 5401 5402 5403 5404 5405 5406 5407 5408 5409 5410 5411 5412 5413 5414 5415 5416 5417 5418 5419 5420 5421 5422 5423 5424 5425 5426 5427 5428 5429 5430 5431 5432 5433 5434 5435 5436 5437 5438 5439 5440 5441 5442 5443 5444 5445 5446 5447 5448 5449 5450 5451 5452 5453 5454 5455 5456 5457 5458 5459 5460 5461 5462 5463 5464 5465 5466 5467 5468 5469 5470 5471 5472 5473 5474 5475 5476 5477 5478 5479 5480 5481 5482 5483 5484 5485 5486 5487 5488 5489 5490 5491 5492 5493 5494 5495 5496 5497 5498 5499 5500 5501 5502 5503 5504 5505 5506 5507 5508 5509 5510 5511 5512 5513 5514 5515 5516 5517 5518 5519 5520 5521 5522 5523 5524 5525 5526 5527 5528 5529 5530 5531 5532 5533 5534 5535 5536 5537 5538 5539 5540 5541 5542 5543 5544 5545 5546 5547 5548 5549 5550 5551 5552 5553 5554 5555 5556 5557 5558 5559 5560 5561 5562 5563 5564 5565 5566 5567 5568 5569 5570 5571 5572 5573 5574 5575 5576 5577 5578 5579 5580 5581 5582 5583 5584 5585 5586 5587 5588 5589 5590 5591 5592 5593 5594 5595 5596 5597 5598 5599 5600 5601 5602 5603 5604 5605 5606 5607 5608 5609 5610 5611 5612 5613 5614 5615 5616 5617 5618 5619 5620 5621 5622 5623 5624 5625 5626 5627 5628 5629 5630 5631 5632 5633 5634 5635 5636 5637 5638 5639 5640 5641 5642 5643 5644 5645 5646 5647 5648 5649 5650 5651 5652 5653 5654 5655 5656 5657 5658 5659 5660 5661 5662 5663 5664 5665 5666 5667 5668 5669 5670 5671 5672 5673 5674 5675 5676 5677 5678 5679 5680 5681 5682 5683 5684 5685 5686 5687 5688 5689 5690 5691 5692 5693 5694 5695 5696 5697 5698 5699 5700 5701 5702 5703 5704 5705 5706 5707 5708 5709 5710 5711 5712 5713 5714 5715 5716 5717 5718 5719 5720 5721 5722 5723 5724 5725 5726 5727 5728 5729 5730 5731 5732 5733 5734 5735 5736 5737 5738 5739 5740 5741 5742 5743 5744 5745 5746 5747 5748 5749 5750 5751 5752 5753 5754 5755 5756 5757 5758 5759 5760 5761 5762 5763 5764 5765 5766 5767 5768 5769 5770 5771 5772 5773 5774 5775 5776 5777 5778 5779 5780 5781 5782 5783 5784 5785 5786 5787 5788 5789 5790 5791 5792 5793 5794 5795 5796 5797 5798 5799 5800 5801 5802 5803 5804 5805 5806 5807 5808 5809 5810 5811 5812 5813 5814 5815 5816 5817 5818 5819 5820 5821 5822 5823 5824 5825 5826 5827 5828 5829 5830 5831 5832 5833 5834 5835 5836 5837 5838 5839 5840 5841 5842 5843 5844 5845 5846 5847 5848 5849 5850 5851 5852 5853 5854 5855 5856 5857 5858 5859 5860 5861 5862 5863 5864 5865 5866 5867 5868 5869 5870 5871 5872 5873 5874 5875 5876 5877 5878 5879 5880 5881 5882 5883 5884 5885 5886 5887 5888 5889 5890 5891 5892 5893 5894 5895 5896 5897 5898 5899 5900 5901 5902 5903 5904 5905 5906 5907 5908 5909 5910 5911 5912 5913 5914 5915 5916 5917 5918 5919 5920 5921 5922 5923 5924 5925 5926 5927 5928 5929 5930 5931 5932 5933 5934 5935 5936 5937 5938 5939 5940 5941 5942 5943 5944 5945 5946 5947 5948 5949 5950 5951 5952 5953 5954 5955 5956 5957 5958 5959 5960 5961 5962 5963 5964 5965 5966 5967 5968 5969 5970 5971 5972 5973 5974 5975 5976 5977 5978 5979 5980 5981 5982 5983 5984 5985 5986 5987 5988 5989 5990 5991 5992 5993 5994 5995 5996 5997 5998 5999 6000 6001 6002 6003 6004 6005 6006 6007 6008 6009 6010 6011 6012 6013 6014 6015 6016 6017 6018 6019 6020 6021 6022 6023 6024 6025 6026 6027 6028 6029 6030 6031 6032 6033 6034 6035 6036 6037 6038 6039 6040 6041 6042 6043 6044 6045 6046 6047 6048 6049 6050 6051 6052 6053 6054 6055 6056 6057 6058 6059 6060 6061 6062 6063 6064 6065 6066 6067 6068 6069 6070 6071 6072 6073 6074 6075 6076 6077 6078 6079 6080 6081 6082 6083 6084 6085 6086 6087 6088 6089 6090 6091 6092 6093 6094 6095 6096 6097 6098 6099 6100 6101 6102 6103 6104 6105 6106 6107 6108 6109 6110 6111 6112 6113 6114 6115 6116 6117 6118 6119 6120 6121 6122 6123 6124 6125 6126 6127 6128 6129 6130 6131 6132 6133 6134 6135 6136 6137 6138 6139 6140 6141 6142 6143 6144 6145 6146 6147 6148 6149 6150 6151 6152 6153 6154 6155 6156 6157 6158 6159 6160 6161 6162 6163 6164 6165 6166 6167 6168 6169 6170 6171 6172 6173 6174 6175 6176 6177 6178 6179 6180 6181 6182 6183 6184 6185 6186 6187 6188 6189 6190 6191 6192 6193 6194 6195 6196 6197 6198 6199 6200 6201 6202 6203 6204 6205 6206 6207 6208 6209 6210 6211 6212 6213 6214 6215 6216 6217 6218 6219 6220 6221 6222 6223 6224 6225 6226 6227 6228 6229 6230 6231 6232 6233 6234 6235 6236 6237 6238 6239 6240 6241 6242 6243 6244 6245 6246 6247 6248 6249 6250 6251 6252 6253 6254 6255 6256 6257 6258 6259 6260 6261 6262 6263 6264 6265 6266 6267 6268 6269 6270 6271 6272 6273 6274 6275 6276 6277 6278 6279 6280 6281 6282 6283 6284 6285 6286 6287 6288 6289 6290 6291 6292 6293 6294 6295 6296 6297 6298 6299 6300 6301 6302 6303 6304 6305 6306 6307 6308 6309 6310 6311 6312 6313 6314 6315 6316 6317 6318 6319 6320 6321 6322 6323 6324 6325 6326 6327 6328 6329 6330 6331 6332 6333 6334 6335 6336 6337 6338 6339 6340 6341 6342 6343 6344 6345 6346 6347 6348 6349 6350 6351 6352 6353 6354 6355 6356 6357 6358 6359 6360 6361 6362 6363 6364 6365 6366 6367 6368 6369 6370 6371 6372 6373 6374 6375 6376 6377 6378 6379 6380 6381 6382 6383 6384 6385 6386 6387 6388 6389 6390 6391 6392 6393 6394 6395 6396 6397 6398 6399 6400 6401 6402 6403 6404 6405 6406 6407 6408 6409 6410 6411 6412 6413 6414 6415 6416 6417 6418 6419 6420 6421 6422 6423 6424 6425 6426 6427 6428 6429 6430 6431 6432 6433 6434 6435 6436 6437 6438 6439 6440 6441 6442 6443 6444 6445 6446 6447 6448 6449 6450 6451 6452 6453 6454 6455 6456 6457 6458 6459 6460 6461 6462 6463 6464 6465 6466 6467 6468 6469 6470 6471 6472 6473 6474 6475 6476 6477 6478 6479 6480 6481 6482 6483 6484 6485 6486 6487 6488 6489 6490 6491 6492 6493 6494 6495 6496 6497 6498 6499 6500 6501 6502 6503 6504 6505 6506 6507 6508 6509 6510 6511 6512 6513 6514 6515 6516 6517 6518 6519 6520 6521 6522 6523 6524 6525 6526 6527 6528 6529 6530 6531 6532 6533 6534 6535 6536 6537 6538 6539 6540 6541 6542 6543 6544 6545 6546 6547 6548 6549 6550 6551 6552 6553 6554 6555 6556 6557 6558 6559 6560 6561 6562 6563 6564 6565 6566 6567 6568 6569 6570 6571 6572 6573 6574 6575 6576 6577 6578 6579 6580 6581 6582 6583 6584 6585 6586 6587 6588 6589 6590 6591 6592 6593 6594 6595 6596 6597 6598 6599 6600 6601 6602 6603 6604 6605 6606 6607 6608 6609 6610 6611 6612 6613 6614 6615 6616 6617 6618 6619 6620 6621 6622 6623 6624 6625 6626 6627 6628 6629 6630 6631 6632 6633 6634 6635 6636 6637 6638 6639 6640 6641 6642 6643 6644 6645 6646 6647 6648 6649 6650 6651 6652 6653 6654 6655 6656 6657 6658 6659 6660 6661 6662 6663 6664 6665 6666 6667 6668 6669 6670 6671 6672 6673 6674 6675 6676 6677 6678 6679 6680 6681 6682 6683 6684 6685 6686 6687 6688 6689 6690 6691 6692 6693 6694 6695 6696 6697 6698 6699 6700 6701 6702 6703 6704 6705 6706 6707 6708 6709 6710 6711 6712 6713 6714 6715 6716 6717 6718 6719 6720 6721 6722 6723 6724 6725 6726 6727 6728 6729 6730 6731 6732 6733 6734 6735 6736 6737 6738 6739 6740 6741 6742 6743 6744 6745 6746 6747 6748 6749 6750 6751 6752 6753 6754 6755 6756 6757 6758 6759 6760 6761 6762 6763 6764 6765 6766 6767 6768 6769 6770 6771 6772 6773 6774 6775 6776 6777 6778 6779 6780 6781 6782 6783 6784 6785 6786 6787 6788 6789 6790 6791 6792 6793 6794 6795 6796 6797 6798 6799 6800 6801 6802 6803 6804 6805 6806 6807 6808 6809 6810 6811 6812 6813 6814 6815 6816 6817 6818 6819 6820 6821 6822 6823 6824 6825 6826 6827 6828 6829 6830 6831 6832 6833 6834 6835 6836 6837 6838 6839 6840 6841 6842 6843 6844 6845 6846 6847 6848 6849 6850 6851 6852 6853 6854 6855 6856 6857 6858 6859 6860 6861 6862 6863 6864 6865 6866 6867 6868 6869 6870 6871 6872 6873 6874 6875 6876 6877 6878 6879 6880 6881 6882 6883 6884 6885 6886 6887 6888 6889 6890 6891 6892 6893 6894 6895 6896 6897 6898 6899 6900 6901 6902 6903 6904 6905 6906 6907 6908 6909 6910 6911 6912 6913 6914 6915 6916 6917 6918 6919 6920 6921 6922 6923 6924 6925 6926 6927 6928 6929 6930 6931 6932 6933 6934 6935 6936 6937 6938 6939 6940 6941 6942 6943 6944 6945 6946 6947 6948 6949 6950 6951 6952 6953 6954 6955 6956 6957 6958 6959 6960 6961 6962 6963 6964 6965 6966 6967 6968 6969 6970 6971 6972 6973 6974 6975 6976 6977 6978 6979 6980 6981 6982 6983 6984 6985 6986 6987 6988 6989 6990 6991 6992 6993 6994 6995 6996 6997 6998 6999 7000 7001 7002 7003 7004 7005 7006 7007 7008 7009 7010 7011 7012 7013 7014 7015 7016 7017 7018 7019 7020 7021 7022 7023 7024 7025 7026 7027 7028 7029 7030 7031 7032 7033 7034 7035 7036 7037 7038 7039 7040 7041 7042 7043 7044 7045 7046 7047 7048 7049 7050 7051 7052 7053 7054 7055 7056 7057 7058 7059 7060 7061 7062 7063 7064 7065 7066 7067 7068 7069 7070 7071 7072 7073 7074 7075 7076 7077 7078 7079 7080 7081 7082 7083 7084 7085 7086 7087 7088 7089 7090 7091 7092 7093 7094 7095 7096 7097 7098 7099 7100 7101 7102 7103 7104 7105 7106 7107 7108 7109 7110 7111 7112 7113 7114 7115 7116 7117 7118 7119 7120 7121 7122 7123 7124 7125 7126 7127 7128 7129 7130 7131 7132 7133 7134 7135 7136 7137 7138 7139 7140 7141 7142 7143 7144 7145 7146 7147 7148 7149 7150 7151 7152 7153 7154 7155 7156 7157 7158 7159 7160 7161 7162 7163 7164 7165 7166 7167 7168 7169 7170 7171 7172 7173 7174 7175 7176 7177 7178 7179 7180 7181 7182 7183 7184 7185 7186 7187 7188 7189 7190 7191 7192 7193 7194 7195 7196 7197 7198 7199 7200 7201 7202 7203 7204 7205 7206 7207 7208 7209 7210 7211 7212 7213 7214 7215 7216 7217 7218 7219 7220 7221 7222 7223 7224 7225 7226 7227 7228 7229 7230 7231 7232 7233 7234 7235 7236 7237 7238 7239 7240 7241 7242 7243 7244 7245 7246 7247 7248 7249 7250 7251 7252 7253 7254 7255 7256 7257 7258 7259 7260 7261 7262 7263 7264 7265 7266 7267 7268 7269 7270 7271 7272 7273 7274 7275 7276 7277 7278 7279 7280 7281 7282 7283 7284 7285 7286 7287 7288 7289 7290 7291 7292 7293 7294 7295 7296 7297 7298 7299 7300 7301 7302 7303 7304 7305 7306 7307 7308 7309 7310 7311 7312 7313 7314 7315 7316 7317 7318 7319 7320 7321 7322 7323 7324 7325 7326 7327 7328 7329 7330 7331 7332 7333 7334 7335 7336 7337 7338 7339 7340 7341 7342 7343 7344 7345 7346 7347 7348 7349 7350 7351 7352 7353 7354 7355 7356 7357 7358 7359 7360 7361 7362 7363 7364 7365 7366 7367 7368 7369 7370 7371 7372 7373 7374 7375 7376 7377 7378 7379 7380 7381 7382 7383 7384 7385 7386 7387 7388 7389 7390 7391 7392 7393 7394 7395 7396 7397 7398 7399 7400 7401 7402 7403 7404 7405 7406 7407 7408 7409 7410 7411 7412 7413 7414 7415 7416 7417 7418 7419 7420 7421 7422 7423 7424 7425 7426 7427 7428 7429 7430 7431 7432 7433 7434 7435 7436 7437 7438 7439 7440 7441 7442 7443 7444 7445 7446 7447 7448 7449 7450 7451 7452 7453 7454 7455 7456 7457 7458 7459 7460 7461 7462 7463 7464 7465 7466 7467 7468 7469 7470 7471 7472 7473 7474 7475 7476 7477 7478 7479 7480 7481 7482 7483 7484 7485 7486 7487 7488 7489 7490 7491 7492 7493 7494 7495 7496 7497 7498 7499 7500 7501 7502 7503 7504 7505 7506 7507 7508 7509 7510 7511 7512 7513 7514 7515 7516 7517 7518 7519 7520 7521 7522 7523 7524 7525 7526 7527 7528 7529 7530 7531 7532 7533 7534 7535 7536 7537 7538 7539 7540 7541 7542 7543 7544 7545 7546 7547 7548 7549 7550 7551 7552 7553 7554 7555 7556 7557 7558 7559 7560 7561 7562 7563 7564 7565 7566 7567 7568 7569 7570 7571 7572 7573 7574 7575 7576 7577 7578 7579 7580 7581 7582 7583 7584 7585 7586 7587 7588 7589 7590 7591 7592 7593 7594 7595 7596 7597 7598 7599 7600 7601 7602 7603 7604 7605 7606 7607 7608 7609 7610 7611 7612 7613 7614 7615 7616 7617 7618 7619 7620 7621 7622 7623 7624 7625 7626 7627 7628 7629 7630 7631 7632 7633 7634 7635 7636 7637 7638 7639 7640 7641 7642 7643 7644 7645 7646 7647 7648 7649 7650 7651 7652 7653 7654 7655 7656 7657 7658 7659 7660 7661 7662 7663 7664 7665 7666 7667 7668 7669 7670 7671 7672 7673 7674 7675 7676 7677 7678 7679 7680 7681 7682 7683 7684 7685 7686 7687 7688 7689 7690 7691 7692 7693 7694 7695 7696 7697 7698 7699 7700 7701 7702 7703 7704 7705 7706 7707 7708 7709 7710 7711 7712 7713 7714 7715 7716 7717 7718 7719 7720 7721 7722 7723 7724 7725 7726 7727 7728 7729 7730 7731 7732 7733 7734 7735 7736 7737 7738 7739 7740 7741 7742 7743 7744 7745 7746 7747 7748 7749 7750 7751 7752 7753 7754 7755 7756 7757 7758 7759 7760 7761 7762 7763 7764 7765 7766 7767 7768 7769 7770 7771 7772 7773 7774 7775 7776 7777 7778 7779 7780 7781 7782 7783 7784 7785 7786 7787 7788 7789 7790 7791 7792 7793 7794 7795 7796 7797 7798 7799 7800 7801 7802 7803 7804 7805 7806 7807 7808 7809 7810 7811 7812 7813 7814 7815 7816 7817 7818 7819 7820 7821 7822 7823 7824 7825 7826 7827 7828 7829 7830 7831 7832 7833 7834 7835 7836 7837 7838 7839 7840 7841 7842 7843 7844 7845 7846 7847 7848 7849 7850 7851 7852 7853 7854 7855 7856 7857 7858 7859 7860 7861 7862 7863 7864 7865 7866 7867 7868 7869 7870 7871 7872 7873 7874 7875 7876 7877 7878 7879 7880 7881 7882 7883 7884 7885 7886 7887 7888 7889 7890 7891 7892 7893 7894 7895 7896 7897 7898 7899 7900 7901 7902 7903 7904 7905 7906 7907 7908 7909 7910 7911 7912 7913 7914 7915 7916 7917 7918 7919 7920 7921 7922 7923 7924 7925 7926 7927 7928 7929 7930 7931 7932 7933 7934 7935 7936 7937 7938 7939 7940 7941 7942 7943 7944 7945 7946 7947 7948 7949 7950 7951 7952 7953 7954 7955 7956 7957 7958 7959 7960 7961 7962 7963 7964 7965 7966 7967 7968 7969 7970 7971 7972 7973 7974 7975 7976 7977 7978 7979 7980 7981 7982 7983 7984 7985 7986 7987 7988 7989 7990 7991 7992 7993 7994 7995 7996 7997 7998 7999 8000 8001 8002 8003 8004 8005 8006 8007 8008 8009 8010 8011 8012 8013 8014 8015 8016 8017 8018 8019 8020 8021 8022 8023 8024 8025 8026 8027 8028 8029 8030 8031 8032 8033 8034 8035 8036 8037 8038 8039 8040 8041 8042 8043 8044 8045 8046 8047 8048 8049 8050 8051 8052 8053 8054 8055 8056 8057 8058 8059 8060 8061 8062 8063 8064 8065 8066 8067 8068 8069 8070 8071 8072 8073 8074 8075 8076 8077 8078 8079 8080 8081 8082 8083 8084 8085 8086 8087 8088 8089 8090 8091 8092 8093 8094 8095 8096 8097 8098 8099 8100 8101 8102 8103 8104 8105 8106 8107 8108 8109 8110 8111 8112 8113 8114 8115 8116 8117 8118 8119 8120 8121 8122 8123 8124 8125 8126 8127 8128 8129 8130 8131 8132 8133 8134 8135 8136 8137 8138 8139 8140 8141 8142 8143 8144 8145 8146 8147 8148 8149 8150 8151 8152 8153 8154 8155 8156 8157 8158 8159 8160 8161 8162 8163 8164 8165 8166 8167 8168 8169 8170 8171 8172 8173 8174 8175 8176 8177 8178 8179 8180 8181 8182 8183 8184 8185 8186 8187 8188 8189 8190 8191 8192 8193 8194 8195 8196 8197 8198 8199 8200 8201 8202 8203 8204 8205 8206 8207 8208 8209 8210 8211 8212 8213 8214 8215 8216 8217 8218 8219 8220 8221 8222 8223 8224 8225 8226 8227 8228 8229 8230 8231 8232 8233 8234 8235 8236 8237 8238 8239 8240 8241 8242 8243 8244 8245 8246 8247 8248 8249 8250 8251 8252 8253 8254 8255 8256 8257 8258 8259 8260 8261 8262 8263 8264 8265 8266 8267 8268 8269 8270 8271 8272 8273 8274 8275 8276 8277 8278 8279 8280 8281 8282 8283 8284 8285 8286 8287 8288 8289 8290 8291 8292 8293 8294 8295 8296 8297 8298 8299 8300 8301 8302 8303 8304 8305 8306 8307 8308 8309 8310 8311 8312 8313 8314 8315 8316 8317 8318 8319 8320 8321 8322 8323 8324 8325 8326 8327 8328 8329 8330 8331 8332 8333 8334 8335 8336 8337 8338 8339 8340 8341 8342 8343 8344 8345 8346 8347 8348 8349 8350 8351 8352 8353 8354 8355 8356 8357 8358 8359 8360 8361 8362 8363 8364 8365 8366 8367 8368 8369 8370 8371 8372 8373 8374 8375 8376 8377 8378 8379 8380 8381 8382 8383 8384 8385 8386 8387 8388 8389 8390 8391 8392 8393 8394 8395 8396 8397 8398 8399 8400 8401 8402 8403 8404 8405 8406 8407 8408 8409 8410 8411 8412 8413 8414 8415 8416 8417 8418 8419 8420 8421 8422 8423 8424 8425 8426 8427 8428 8429 8430 8431 8432 8433 8434 8435 8436 8437 8438 8439 8440 8441 8442 8443 8444 8445 8446 8447 8448 8449 8450 8451 8452 8453 8454 8455 8456 8457 8458 8459 8460 8461 8462 8463 8464 8465 8466 8467 8468 8469 8470 8471 8472 8473 8474 8475 8476 8477 8478 8479 8480 8481 8482 8483 8484 8485 8486 8487 8488 8489 8490 8491 8492 8493 8494 8495 8496 8497 8498 8499 8500 8501 8502 8503 8504 8505 8506 8507 8508 8509 8510 8511 8512 8513 8514 8515 8516 8517 8518 8519 8520 8521 8522 8523 8524 8525 8526 8527 8528 8529 8530 8531 8532 8533 8534 8535 8536 8537 8538 8539 8540 8541 8542 8543 8544 8545 8546 8547 8548 8549 8550 8551 8552 8553 8554 8555 8556 8557 8558 8559 8560 8561 8562 8563 8564 8565 8566 8567 8568 8569 8570 8571 8572 8573 8574 8575 8576 8577 8578 8579 8580 8581 8582 8583 8584 8585 8586 8587 8588 8589 8590 8591 8592 8593 8594 8595 8596 8597 8598 8599 8600 8601 8602 8603 8604 8605 8606 8607 8608 8609 8610 8611 8612 8613 8614 8615 8616 8617 8618 8619 8620 8621 8622 8623 8624 8625 8626 8627 8628 8629 8630 8631 8632 8633 8634 8635 8636 8637 8638 8639 8640 8641 8642 8643 8644 8645 8646 8647 8648 8649 8650 8651 8652 8653 8654 8655 8656 8657 8658 8659 8660 8661 8662 8663 8664 8665 8666 8667 8668 8669 8670 8671 8672 8673 8674 8675 8676 8677 8678 8679 8680 8681 8682 8683 8684 8685 8686 8687 8688 8689 8690 8691 8692 8693 8694 8695 8696 8697 8698 8699 8700 8701 8702 8703 8704 8705 8706 8707 8708 8709 8710 8711 8712 8713 8714 8715 8716 8717 8718 8719 8720 8721 8722 8723 8724 8725 8726 8727 8728 8729 8730 8731 8732 8733 8734 8735 8736 8737 8738 8739 8740 8741 8742 8743 8744 8745 8746 8747 8748 8749 8750 8751 8752 8753 8754 8755 8756 8757 8758 8759 8760 8761 8762 8763 8764 8765 8766 8767 8768 8769 8770 8771 8772 8773 8774 8775 8776 8777 8778 8779 8780 8781 8782 8783 8784 8785 8786 8787 8788 8789 8790 8791 8792 8793 8794 8795 8796 8797 8798 8799 8800 8801 8802 8803 8804 8805 8806 8807 8808 8809 8810 8811 8812 8813 8814 8815 8816 8817 8818 8819 8820 8821 8822 8823 8824 8825 8826 8827 8828 8829 8830 8831 8832 8833 8834 8835 8836 8837 8838 8839 8840 8841 8842 8843 8844 8845 8846 8847 8848 8849 8850 8851 8852 8853 8854 8855 8856 8857 8858 8859 8860 8861 8862 8863 8864 8865 8866 8867 8868 8869 8870 8871 8872 8873 8874 8875 8876 8877 8878 8879 8880 8881 8882 8883 8884 8885 8886 8887 8888 8889 8890 8891 8892 8893 8894 8895 8896 8897 8898 8899 8900 8901 8902 8903 8904 8905 8906 8907 8908 8909 8910 8911 8912 8913 8914 8915 8916 8917 8918 8919 8920 8921 8922 8923 8924 8925 8926 8927 8928 8929 8930 8931 8932 8933 8934 8935 8936 8937 8938 8939 8940 8941 8942 8943 8944 8945 8946 8947 8948 8949 8950 8951 8952 8953 8954 8955 8956 8957 8958 8959 8960 8961 8962 8963 8964 8965 8966 8967 8968 8969 8970 8971 8972 8973 8974 8975 8976 8977 8978 8979 8980 8981 8982 8983 8984 8985 8986 8987 8988 8989 8990 8991 8992 8993 8994 8995 8996 8997 8998 8999 9000 9001 9002 9003 9004 9005 9006 9007 9008 9009 9010 9011 9012 9013 9014 9015 9016 9017 9018 9019 9020 9021 9022 9023 9024 9025 9026 9027 9028 9029 9030 9031 9032 9033 9034 9035 9036 9037 9038 9039 9040 9041 9042 9043 9044 9045 9046 9047 9048 9049 9050 9051 9052 9053 9054 9055 9056 9057 9058 9059 9060 9061 9062 9063 9064 9065 9066 9067 9068 9069 9070 9071 9072 9073 9074 9075 9076 9077 9078 9079 9080 9081 9082 9083 9084 9085 9086 9087 9088 9089 9090 9091 9092 9093 9094 9095 9096 9097 9098 9099 9100 9101 9102 9103 9104 9105 9106 9107 9108 9109 9110 9111 9112 9113 9114 9115 9116 9117 9118 9119 9120 9121 9122 9123 9124 9125 9126 9127 9128 9129 9130 9131 9132 9133 9134 9135 9136 9137 9138 9139 9140 9141 9142 9143 9144 9145 9146 9147 9148 9149 9150 9151 9152 9153 9154 9155 9156 9157 9158 9159 9160 9161 9162 9163 9164 9165 9166 9167 9168 9169 9170 9171 9172 9173 9174 9175 9176 9177 9178 9179 9180 9181 9182 9183 9184 9185 9186 9187 9188 9189 9190 9191 9192 9193 9194 9195 9196 9197 9198 9199 9200 9201 9202 9203 9204 9205 9206 9207 9208 9209 9210 9211 9212 9213 9214 9215 9216 9217 9218 9219 9220 9221 9222 9223 9224 9225 9226 9227 9228 9229 9230 9231 9232 9233 9234 9235 9236 9237 9238 9239 9240 9241 9242 9243 9244 9245 9246 9247 9248 9249 9250 9251 9252 9253 9254 9255 9256 9257 9258 9259 9260 9261 9262 9263 9264 9265 9266 9267 9268 9269 9270 9271 9272 9273 9274 9275 9276 9277 9278 9279 9280 9281 9282 9283 9284 9285 9286 9287 9288 9289 9290 9291 9292 9293 9294 9295 9296 9297 9298 9299 9300 9301 9302 9303 9304 9305 9306 9307 9308 9309 9310 9311 9312 9313 9314 9315 9316 9317 9318 9319 9320 9321 9322 9323 9324 9325 9326 9327 9328 9329 9330 9331 9332 9333 9334 9335 9336 9337 9338 9339 9340 9341 9342 9343 9344 9345 9346 9347 9348 9349 9350 9351 9352 9353 9354 9355 9356 9357 9358 9359 9360 9361 9362 9363 9364 9365 9366 9367 9368 9369 9370 9371 9372 9373 9374 9375 9376 9377 9378 9379 9380 9381 9382 9383 9384 9385 9386 9387 9388 9389 9390 9391 9392 9393 9394 9395 9396 9397 9398 9399 9400 9401 9402 9403 9404 9405 9406 9407 9408 9409 9410 9411 9412 9413 9414 9415 9416 9417 9418 9419 9420 9421 9422 9423 9424 9425 9426 9427 9428 9429 9430 9431 9432 9433 9434 9435 9436 9437 9438 9439 9440 9441 9442 9443 9444 9445 9446 9447 9448 9449 9450 9451 9452 9453 9454 9455 9456 9457 9458 9459 9460 9461 9462 9463 9464 9465 9466 9467 9468 9469 9470 9471 9472 9473 9474 9475 9476 9477 9478 9479 9480 9481 9482 9483 9484 9485 9486 9487 9488 9489 9490 9491 9492 9493 9494 9495 9496 9497 9498 9499 9500 9501 9502 9503 9504 9505 9506 9507 9508 9509 9510 9511 9512 9513 9514 9515 9516 9517 9518 9519 9520 9521 9522 9523 9524 9525 9526 9527 9528 9529 9530 9531 9532 9533 9534 9535 9536 9537 9538 9539 9540 9541 9542 9543 9544 9545 9546 9547 9548 9549 9550 9551 9552 9553 9554 9555 9556 9557 9558 9559 9560 9561 9562 9563 9564 9565 9566 9567 9568 9569 9570 9571 9572 9573 9574 9575 9576 9577 9578 9579 9580 9581 9582 9583 9584 9585 9586 9587 9588 9589 9590 9591 9592 9593 9594 9595 9596 9597 9598 9599 9600 9601 9602 9603 9604 9605 9606 9607 9608 9609 9610 9611 9612 9613 9614 9615 9616 9617 9618 9619 9620 9621 9622 9623 9624 9625 9626 9627 9628 9629 9630 9631 9632 9633 9634 9635 9636 9637 9638 9639 9640 9641 9642 9643 9644 9645 9646 9647 9648 9649 9650 9651 9652 9653 9654 9655 9656 9657 9658 9659 9660 9661 9662 9663 9664 9665 9666 9667 9668 9669 9670 9671 9672 9673 9674 9675 9676 9677 9678 9679 9680 9681 9682 9683 9684 9685 9686 9687 9688 9689 9690 9691 9692 9693 9694 9695 9696 9697 9698 9699 9700 9701 9702 9703 9704 9705 9706 9707 9708 9709 9710 9711 9712 9713 9714 9715 9716 9717 9718 9719 9720 9721 9722 9723 9724 9725 9726 9727 9728 9729 9730 9731 9732 9733 9734 9735 9736 9737 9738 9739 9740 9741 9742 9743 9744 9745 9746 9747 9748 9749 9750 9751 9752 9753 9754 9755 9756 9757 9758 9759 9760 9761 9762 9763 9764 9765 9766 9767 9768 9769 9770 9771 9772 9773 9774 9775 9776 9777 9778 9779 9780 9781 9782 9783 9784 9785 9786 9787 9788 9789 9790 9791 9792 9793 9794 9795 9796 9797 9798 9799 9800 9801 9802 9803 9804 9805 9806 9807 9808 9809 9810 9811 9812 9813 9814 9815 9816 9817 9818 9819 9820 9821 9822 9823 9824 9825 9826 9827 9828 9829 9830 9831 9832 9833 9834 9835 9836 9837 9838 9839 9840 9841 9842 9843 9844 9845 9846 9847 9848 9849 9850 9851 9852 9853 9854 9855 9856 9857 9858 9859 9860 9861 9862 9863 9864 9865 9866 9867 9868 9869 9870 9871 9872 9873 9874 9875 9876 9877 9878 9879 9880 9881 9882 9883 9884 9885 9886 9887 9888 9889 9890 9891 9892 9893 9894 9895 9896 9897 9898 9899 9900 9901 9902 9903 9904 9905 9906 9907 9908 9909 9910 9911 9912 9913 9914 9915 9916 9917 9918 9919 9920 9921 9922 9923 9924 9925 9926 9927 9928 9929 9930 9931 9932 9933 9934 9935 9936 9937 9938 9939 9940 9941 9942 9943 9944 9945 9946 9947 9948 9949 9950 9951 9952 9953 9954 9955 9956 9957 9958 9959 9960 9961 9962 9963 9964 9965 9966 9967 9968 9969 9970 9971 9972 9973 9974 9975 9976 9977 9978 9979 9980 9981 9982 9983 9984 9985 9986 9987 9988 9989 9990 9991 9992 9993 9994 9995 9996 9997 9998 9999 10000 10001 10002 10003 10004 10005 10006 10007 10008 10009 10010 10011 10012 10013 10014 10015 10016 10017 10018 10019 10020 10021 10022 10023 10024 10025 10026 10027 10028 10029 10030 10031 10032 10033 10034 10035 10036 10037 10038 10039 10040 10041 10042 10043 10044 10045 10046 10047 10048 10049 10050 10051 10052 10053 10054 10055 10056 10057 10058 10059 10060 10061 10062 10063 10064 10065 10066 10067 10068 10069 10070 10071 10072 10073 10074 10075 10076 10077 10078 10079 10080 10081 10082 10083 10084 10085 10086 10087 10088 10089 10090 10091 10092 10093 10094 10095 10096 10097 10098 10099 10100 10101 10102 10103 10104 10105 10106 10107 10108 10109 10110 10111 10112 10113 10114 10115 10116 10117 10118 10119 10120 10121 10122 10123 10124 10125 10126 10127 10128 10129 10130 10131 10132 10133 10134 10135 10136 10137 10138 10139 10140 10141 10142 10143 10144 10145 10146 10147 10148 10149 10150 10151 10152 10153 10154 10155 10156 10157 10158 10159 10160 10161 10162 10163 10164 10165 10166 10167 10168 10169 10170 10171 10172 10173 10174 10175 10176 10177 10178 10179 10180 10181 10182 10183 10184 10185 10186 10187 10188 10189 10190 10191 10192 10193 10194 10195 10196 10197 10198 10199 10200 10201 10202 10203 10204 10205 10206 10207 10208 10209 10210 10211 10212 10213 10214 10215 10216 10217 10218 10219 10220 10221 10222 10223 10224 10225 10226 10227 10228 10229 10230 10231 10232 10233 10234 10235 10236 10237 10238 10239 10240 10241 10242 10243 10244 10245 10246 10247 10248 10249 10250 10251 10252 10253 10254 10255 10256 10257 10258 10259 10260 10261 10262 10263 10264 10265 10266 10267 10268 10269 10270 10271 10272 10273 10274 10275 10276 10277 10278 10279 10280 10281 10282 10283 10284 10285 10286 10287 10288 10289 10290 10291 10292 10293 10294 10295 10296 10297 10298 10299 10300 10301 10302 10303 10304 10305 10306 10307 10308 10309 10310 10311 10312 10313 10314 10315 10316 10317 10318 10319 10320 10321 10322 10323 10324 10325 10326 10327 10328 10329 10330 10331 10332 10333 10334 10335 10336 10337 10338 10339 10340 10341 10342 10343 10344 10345 10346 10347 10348 10349 10350 10351 10352 10353 10354 10355 10356 10357 10358 10359 10360 10361 10362 10363 10364 10365 10366 10367 10368 10369 10370 10371 10372 10373 10374 10375 10376 10377 10378 10379 10380 10381 10382 10383 10384 10385 10386 10387 10388 10389 10390 10391 10392 10393 10394 10395 10396 10397 10398 10399 10400 10401 10402 10403 10404 10405 10406 10407 10408 10409 10410 10411 10412 10413 10414 10415 10416 10417 10418 10419 10420 10421 10422 10423 10424 10425 10426 10427 10428 10429 10430 10431 10432 10433 10434 10435 10436 10437 10438 10439 10440 10441 10442 10443 10444 10445 10446 10447 10448 10449 10450 10451 10452 10453 10454 10455 10456 10457 10458 10459 10460 10461 10462 10463 10464 10465 10466 10467 10468 10469 10470 10471 10472 10473 10474 10475 10476 10477 10478 10479 10480 10481 10482 10483 10484 10485 10486 10487 10488 10489 10490 10491 10492 10493 10494 10495 10496 10497 10498 10499 10500 10501 10502 10503 10504 10505 10506 10507 10508 10509 10510 10511 10512 10513 10514 10515 10516 10517 10518 10519 10520 10521 10522 10523 10524 10525 10526 10527 10528 10529 10530 10531 10532 10533 10534 10535 10536 10537 10538 10539 10540 10541 10542 10543 10544 10545 10546 10547 10548 10549 10550 10551 10552 10553 10554 10555 10556 10557 10558 10559 10560 10561 10562 10563 10564 10565 10566 10567 10568 10569 10570 10571 10572 10573 10574 10575 10576 10577 10578 10579 10580 10581 10582 10583 10584 10585 10586 10587 10588 10589 10590 10591 10592 10593 10594 10595 10596 10597 10598 10599 10600 10601 10602 10603 10604 10605 10606 10607 10608 10609 10610 10611 10612 10613 10614 10615 10616 10617 10618 10619 10620 10621 10622 10623 10624 10625 10626 10627 10628 10629 10630 10631 10632 10633 10634 10635 10636 10637 10638 10639 10640 10641 10642 10643 10644 10645 10646 10647 10648 10649 10650 10651 10652 10653 10654 10655 10656 10657 10658 10659 10660 10661 10662 10663 10664 10665 10666 10667 10668 10669 10670 10671 10672 10673 10674 10675 10676 10677 10678 10679 10680 10681 10682 10683 10684 10685 10686 10687 10688 10689 10690 10691 10692 10693 10694 10695 10696 10697 10698 10699 10700 10701 10702 10703 10704 10705 10706 10707 10708 10709 10710 10711 10712 10713 10714 10715 10716 10717 10718 10719 10720 10721 10722 10723 10724 10725 10726 10727 10728 10729 10730 10731 10732 10733 10734 10735 10736 10737 10738 10739 10740 10741 10742 10743 10744 10745 10746 10747 10748 10749 10750 10751 10752 10753 10754 10755 10756 10757 10758 10759 10760 10761 10762 10763 10764 10765 10766 10767 10768 10769 10770 10771 10772 10773 10774 10775 10776 10777 10778 10779 10780 10781 10782 10783 10784 10785 10786 10787 10788 10789 10790 10791 10792 10793 10794 10795 10796 10797 10798 10799 10800 10801 10802 10803 10804 10805 10806 10807 10808 10809 10810 10811 10812 10813 10814 10815 10816 10817 10818 10819 10820 10821 10822 10823 10824 10825 10826 10827 10828 10829 10830 10831 10832 10833 10834 10835 10836 10837 10838 10839 10840 10841 10842 10843 10844 10845 10846 10847 10848 10849 10850 10851 10852 10853 10854 10855 10856 10857 10858 10859 10860 10861 10862 10863 10864 10865 10866 10867 10868 10869 10870 10871 10872 10873 10874 10875 10876 10877 10878 10879 10880 10881 10882 10883 10884 10885 10886 10887 10888 10889 10890 10891 10892 10893 10894 10895 10896 10897 10898 10899 10900 10901 10902 10903 10904 10905 10906 10907 10908 10909 10910 10911 10912 10913 10914 10915 10916 10917 10918 10919 10920 10921 10922 10923 10924 10925 10926 10927 10928 10929 10930 10931 10932 10933 10934 10935 10936 10937 10938 10939 10940 10941 10942 10943 10944 10945 10946 10947 10948 10949 10950 10951 10952 10953 10954 10955 10956 10957 10958 10959 10960 10961 10962 10963 10964 10965 10966 10967 10968 10969 10970 10971 10972 10973 10974 10975 10976 10977 10978 10979 10980 10981 10982 10983 10984 10985 10986 10987 10988 10989 10990 10991 10992 10993 10994 10995 10996 10997 10998 10999 11000 11001 11002 11003 11004 11005 11006 11007 11008 11009 11010 11011 11012 11013 11014 11015 11016 11017 11018 11019 11020 11021 11022 11023 11024 11025 11026 11027 11028 11029 11030 11031 11032 11033 11034 11035 11036 11037 11038 11039 11040 11041 11042 11043 11044 11045 11046 11047 11048 11049 11050 11051 11052 11053 11054 11055 11056 11057 11058 11059 11060 11061 11062 11063 11064 11065 11066 11067 11068 11069 11070 11071 11072 11073 11074 11075 11076 11077 11078 11079 11080 11081 11082 11083 11084 11085 11086 11087 11088 11089 11090 11091 11092 11093 11094 11095 11096 11097 11098 11099 11100 11101 11102 11103 11104 11105 11106 11107 11108 11109 11110 11111 11112 11113 11114 11115 11116 11117 11118 11119 11120 11121 11122 11123 11124 11125 11126 11127 11128 11129 11130 11131 11132 11133 11134 11135 11136 11137 11138 11139 11140 11141 11142 11143 11144 11145 11146 11147 11148 11149 11150 11151 11152 11153 11154 11155 11156 11157 11158 11159 11160 11161 11162 11163 11164 11165 11166 11167 11168 11169 11170 11171 11172 11173 11174 11175 11176 11177 11178 11179 11180 11181 11182 11183 11184 11185 11186 11187 11188 11189 11190 11191 11192 11193 11194 11195 11196 11197 11198 11199 11200 11201 11202 11203 11204 11205 11206 11207 11208 11209 11210 11211 11212 11213 11214 11215 11216 11217 11218 11219 11220 11221 11222 11223 11224 11225 11226 11227 11228 11229 11230 11231 11232 11233 11234 11235 11236 11237 11238 11239 11240 11241 11242 11243 11244 11245 11246 11247 11248 11249 11250 11251 11252 11253 11254 11255 11256 11257 11258 11259 11260 11261 11262 11263 11264 11265 11266 11267 11268 11269 11270 11271 11272 11273 11274 11275 11276 11277 11278 11279 11280 11281 11282 11283 11284 11285 11286 11287 11288 11289 11290 11291 11292 11293 11294 11295 11296 11297 11298 11299 11300 11301 11302 11303 11304 11305 11306 11307 11308 11309 11310 11311 11312 11313 11314 11315 11316 11317 11318 11319 11320 11321 11322 11323 11324 11325 11326 11327 11328 11329 11330 11331 11332 11333 11334 11335 11336 11337 11338 11339 11340 11341 11342 11343 11344 11345 11346 11347 11348 11349 11350 11351 11352 11353 11354 11355 11356 11357 11358 11359 11360 11361 11362 11363 11364 11365 11366 11367 11368 11369 11370 11371 11372 11373 11374 11375 11376 11377 11378 11379 11380 11381 11382 11383 11384 11385 11386 11387 11388 11389 11390 11391 11392 11393 11394 11395 11396 11397 11398 11399 11400 11401 11402 11403 11404 11405 11406 11407 11408 11409 11410 11411 11412 11413 11414 11415 11416 11417 11418 11419 11420 11421 11422 11423 11424 11425 11426 11427 11428 11429 11430 11431 11432 11433 11434 11435 11436 11437 11438 11439 11440 11441 11442 11443 11444 11445 11446 11447 11448 11449 11450 11451 11452 11453 11454 11455 11456 11457 11458 11459 11460 11461 11462 11463 11464 11465 11466 11467 11468 11469 11470 11471 11472 11473 11474 11475 11476 11477 11478 11479 11480 11481 11482 11483 11484 11485 11486 11487 11488 11489 11490 11491 11492 11493 11494 11495 11496 11497 11498 11499 11500 11501 11502 11503 11504 11505 11506 11507 11508 11509 11510 11511 11512 11513 11514 11515 11516 11517 11518 11519 11520 11521 11522 11523 11524 11525 11526 11527 11528 11529 11530 11531 11532 11533 11534 11535 11536 11537 11538 11539 11540 11541 11542 11543 11544 11545 11546 11547 11548 11549 11550 11551 11552 11553 11554 11555 11556 11557 11558 11559 11560 11561 11562 11563 11564 11565 11566 11567 11568 11569 11570 11571 11572 11573 11574 11575 11576 11577 11578 11579 11580 11581 11582 11583 11584 11585 11586 11587 11588 11589 11590 11591 11592 11593 11594 11595 11596 11597 11598 11599 11600 11601 11602 11603 11604 11605 11606 11607 11608 11609 11610 11611 11612 11613 11614 11615 11616 11617 11618 11619 11620 11621 11622 11623 11624 11625 11626 11627 11628 11629 11630 11631 11632 11633 11634 11635 11636 11637 11638 11639 11640 11641 11642 11643 11644 11645 11646 11647 11648 11649 11650 11651 11652 11653 11654 11655 11656 11657 11658 11659 11660 11661 11662 11663 11664 11665 11666 11667 11668 11669 11670 11671 11672 11673 11674 11675 11676 11677 11678 11679 11680 11681 11682 11683 11684 11685 11686 11687 11688 11689 11690 11691 11692 11693 11694 11695 11696 11697 11698 11699 11700 11701 11702 11703 11704 11705 11706 11707 11708 11709 11710 11711 11712 11713 11714 11715 11716 11717 11718 11719 11720 11721 11722 11723 11724 11725 11726 11727 11728 11729 11730 11731 11732 11733 11734 11735 11736 11737 11738 11739 11740 11741 11742 11743 11744 11745 11746 11747 11748 11749 11750 11751 11752 11753 11754 11755 11756 11757 11758 11759 11760 11761 11762 11763 11764 11765 11766 11767 11768 11769 11770 11771 11772 11773 11774 11775 11776 11777 11778 11779 11780 11781 11782 11783 11784 11785 11786 11787 11788 11789 11790 11791 11792 11793 11794 11795 11796 11797 11798 11799 11800 11801 11802 11803 11804 11805 11806 11807 11808 11809 11810 11811 11812 11813 11814 11815 11816 11817 11818 11819 11820 11821 11822 11823 11824 11825 11826 11827 11828 11829 11830 11831 11832 11833 11834 11835 11836 11837 11838 11839 11840 11841 11842 11843 11844 11845 11846 11847 11848 11849 11850 11851 11852 11853 11854 11855 11856 11857 11858 11859 11860 11861 11862 11863 11864 11865 11866 11867 11868 11869 11870 11871 11872 11873 11874 11875 11876 11877 11878 11879 11880 11881 11882 11883 11884 11885 11886 11887 11888 11889 11890 11891 11892 11893 11894 11895 11896 11897 11898 11899 11900 11901 11902 11903 11904 11905 11906 11907 11908 11909 11910 11911 11912 11913 11914 11915 11916 11917 11918 11919 11920 11921 11922 11923 11924 11925 11926 11927 11928 11929 11930 11931 11932 11933 11934 11935 11936 11937 11938 11939 11940 11941 11942 11943 11944 11945 11946 11947 11948 11949 11950 11951 11952 11953 11954 11955 11956 11957 11958 11959 11960 11961 11962 11963 11964 11965 11966 11967 11968 11969 11970 11971 11972 11973 11974 11975 11976 11977 11978 11979 11980 11981 11982 11983 11984 11985 11986 11987 11988 11989 11990 11991 11992 11993 11994 11995 11996 11997 11998 11999 12000 12001 12002 12003 12004 12005 12006 12007 12008 12009 12010 12011 12012 12013 12014 12015 12016 12017 12018 12019 12020 12021 12022 12023 12024 12025 12026 12027 12028 12029 12030 12031 12032 12033 12034 12035 12036 12037 12038 12039 12040 12041 12042 12043 12044 12045 12046 12047 12048 12049 12050 12051 12052 12053 12054 12055 12056 12057 12058 12059 12060 12061 12062 12063 12064 12065 12066 12067 12068 12069 12070 12071 12072 12073 12074 12075 12076 12077 12078 12079 12080 12081 12082 12083 12084 12085 12086 12087 12088 12089 12090 12091 12092 12093 12094 12095 12096 12097 12098 12099 12100 12101 12102 12103 12104 12105 12106 12107 12108 12109 12110 12111 12112 12113 12114 12115 12116 12117 12118 12119 12120 12121 12122 12123 12124 12125 12126 12127 12128 12129 12130 12131 12132 12133 12134 12135 12136 12137 12138 12139 12140 12141 12142 12143 12144 12145 12146 12147 12148 12149 12150 12151 12152 12153 12154 12155 12156 12157 12158 12159 12160 12161 12162 12163 12164 12165 12166 12167 12168 12169 12170 12171 12172 12173 12174 12175 12176 12177 12178 12179 12180 12181 12182 12183 12184 12185 12186 12187 12188 12189 12190 12191 12192 12193 12194 12195 12196 12197 12198 12199 12200 12201 12202 12203 12204 12205 12206 12207 12208 12209 12210 12211 12212 12213 12214 12215 12216 12217 12218 12219 12220 12221 12222 12223 12224 12225 12226 12227 12228 12229 12230 12231 12232 12233 12234 12235 12236 12237 12238 12239 12240 12241 12242 12243 12244 12245 12246 12247 12248 12249 12250 12251 12252 12253 12254 12255 12256 12257 12258 12259 12260 12261 12262 12263 12264 12265 12266 12267 12268 12269 12270 12271 12272 12273 12274 12275 12276 12277 12278 12279 12280 12281 12282 12283 12284 12285 12286 12287 12288 12289 12290 12291 12292 12293 12294 12295 12296 12297 12298 12299 12300 12301 12302 12303 12304 12305 12306 12307 12308 12309 12310 12311 12312 12313 12314 12315 12316 12317 12318 12319 12320 12321 12322 12323 12324 12325 12326 12327 12328 12329 12330 12331 12332 12333 12334 12335 12336 12337 12338 12339 12340 12341 12342 12343 12344 12345 12346 12347 12348 12349 12350 12351 12352 12353 12354 12355 12356 12357 12358 12359 12360 12361 12362 12363 12364 12365 12366 12367 12368 12369 12370 12371 12372 12373 12374 12375 12376 12377 12378 12379 12380 12381 12382 12383 12384 12385 12386 12387 12388 12389 12390 12391 12392 12393 12394 12395 12396 12397 12398 12399 12400 12401 12402 12403 12404 12405 12406 12407 12408 12409 12410 12411 12412 12413 12414 12415 12416 12417 12418 12419 12420 12421 12422 12423 12424 12425 12426 12427 12428 12429 12430 12431 12432 12433 12434 12435 12436 12437 12438 12439 12440 12441 12442 12443 12444 12445 12446 12447 12448 12449 12450 12451 12452 12453 12454 12455 12456 12457 12458 12459 12460 12461 12462 12463 12464 12465 12466 12467 12468 12469 12470 12471 12472 12473 12474 12475 12476 12477 12478 12479 12480 12481 12482 12483 12484 12485 12486 12487 12488 12489 12490 12491 12492 12493 12494 12495 12496 12497 12498 12499 12500 12501 12502 12503 12504 12505 12506 12507 12508 12509 12510 12511 12512 12513 12514 12515 12516 12517 12518 12519 12520 12521 12522 12523 12524 12525 12526 12527 12528 12529 12530 12531 12532 12533 12534 12535 12536 12537 12538 12539 12540 12541 12542 12543 12544 12545 12546 12547 12548 12549 12550 12551 12552 12553 12554 12555 12556 12557 12558 12559 12560 12561 12562 12563 12564 12565 12566 12567 12568 12569 12570 12571 12572 12573 12574 12575 12576 12577 12578 12579 12580 12581 12582 12583 12584 12585 12586 12587 12588 12589 12590 12591 12592 12593 12594 12595 12596 12597 12598 12599 12600 12601 12602 12603 12604 12605 12606 12607 12608 12609 12610 12611 12612 12613 12614 12615 12616 12617 12618 12619 12620 12621 12622 12623 12624 12625 12626 12627 12628 12629 12630 12631 12632 12633 12634 12635 12636 12637 12638 12639 12640 12641 12642 12643 12644 12645 12646 12647 12648 12649 12650 12651 12652 12653 12654 12655 12656 12657 12658 12659 12660 12661 12662 12663 12664 12665 12666 12667 12668 12669 12670 12671 12672 12673 12674 12675 12676 12677 12678 12679 12680 12681 12682 12683 12684 12685 12686 12687 12688 12689 12690 12691 12692 12693 12694 12695 12696 12697 12698 12699 12700 12701 12702 12703 12704 12705 12706 12707 12708 12709 12710 12711 12712 12713 12714 12715 12716 12717 12718 12719 12720 12721 12722 12723 12724 12725 12726 12727 12728 12729 12730 12731 12732 12733 12734 12735 12736 12737 12738 12739 12740 12741 12742 12743 12744 12745 12746 12747 12748 12749 12750 12751 12752 12753 12754 12755 12756 12757 12758 12759 12760 12761 12762 12763 12764 12765 12766 12767 12768 12769 12770 12771 12772 12773 12774 12775 12776 12777 12778 12779 12780 12781 12782 12783 12784 12785 12786 12787 12788 12789 12790 12791 12792 12793 12794 12795 12796 12797 12798 12799 12800 12801 12802 12803 12804 12805 12806 12807 12808 12809 12810 12811 12812 12813 12814 12815 12816 12817 12818 12819 12820 12821 12822 12823 12824 12825 12826 12827 12828 12829 12830 12831 12832 12833 12834 12835 12836 12837 12838 12839 12840 12841 12842 12843 12844 12845 12846 12847 12848 12849 12850 12851 12852 12853 12854 12855 12856 12857 12858 12859 12860 12861 12862 12863 12864 12865 12866 12867 12868 12869 12870 12871 12872 12873 12874 12875 12876 12877 12878 12879 12880 12881 12882 12883 12884 12885 12886 12887 12888 12889 12890 12891 12892 12893 12894 12895 12896 12897 12898 12899 12900 12901 12902 12903 12904 12905 12906 12907 12908 12909 12910 12911 12912 12913 12914 12915 12916 12917 12918 12919 12920 12921 12922 12923 12924 12925 12926 12927 12928 12929 12930 12931 12932 12933 12934 12935 12936 12937 12938 12939 12940 12941 12942 12943 12944 12945 12946 12947 12948 12949 12950 12951 12952 12953 12954 12955 12956 12957 12958 12959 12960 12961 12962 12963 12964 12965 12966 12967 12968 12969 12970 12971 12972 12973 12974 12975 12976 12977 12978 12979 12980 12981 12982 12983 12984 12985 12986 12987 12988 12989 12990 12991 12992 12993 12994 12995 12996 12997 12998 12999 13000 13001 13002 13003 13004 13005 13006 13007 13008 13009 13010 13011 13012 13013 13014 13015 13016 13017 13018 13019 13020 13021 13022 13023 13024 13025 13026 13027 13028 13029 13030 13031 13032 13033 13034 13035 13036 13037 13038 13039 13040 13041 13042 13043 13044 13045 13046 13047 13048 13049 13050 13051 13052 13053 13054 13055 13056 13057 13058 13059 13060 13061 13062 13063 13064 13065 13066 13067 13068 13069 13070 13071 13072 13073 13074 13075 13076 13077 13078 13079 13080 13081 13082 13083 13084 13085 13086 13087 13088 13089 13090 13091 13092 13093 13094 13095 13096 13097 13098 13099 13100 13101 13102 13103 13104 13105 13106 13107 13108 13109 13110 13111 13112 13113 13114 13115 13116 13117 13118 13119 13120 13121 13122 13123 13124 13125 13126 13127 13128 13129 13130 13131 13132 13133 13134 13135 13136 13137 13138 13139 13140 13141 13142 13143 13144 13145 13146 13147 13148 13149 13150 13151 13152 13153 13154 13155 13156 13157 13158 13159 13160 13161 13162 13163 13164 13165 13166 13167 13168 13169 13170 13171 13172 13173 13174 13175 13176 13177 13178 13179 13180 13181 13182 13183 13184 13185 13186 13187 13188 13189 13190 13191 13192 13193 13194 13195 13196 13197 13198 13199 13200 13201 13202 13203 13204 13205 13206 13207 13208 13209 13210 13211 13212 13213 13214 13215 13216 13217 13218 13219 13220 13221 13222 13223 13224 13225 13226 13227 13228 13229 13230 13231 13232 13233 13234 13235 13236 13237 13238 13239 13240 13241 13242 13243 13244 13245 13246 13247 13248 13249 13250 13251 13252 13253 13254 13255 13256 13257 13258 13259 13260 13261 13262 13263 13264 13265 13266 13267 13268 13269 13270 13271 13272 13273 13274 13275 13276 13277 13278 13279 13280 13281 13282 13283 13284 13285 13286 13287 13288 13289 13290 13291 13292 13293 13294 13295 13296 13297 13298 13299 13300 13301 13302 13303 13304 13305 13306 13307 13308 13309 13310 13311 13312 13313 13314 13315 13316 13317 13318 13319 13320 13321 13322 13323 13324 13325 13326 13327 13328 13329 13330 13331 13332 13333 13334 13335 13336 13337 13338 13339 13340 13341 13342 13343 13344 13345 13346 13347 13348 13349 13350 13351 13352 13353 13354 13355 13356 13357 13358 13359 13360 13361 13362 13363 13364 13365 13366 13367 13368 13369 13370 13371 13372 13373 13374 13375 13376 13377 13378 13379 13380 13381 13382 13383 13384 13385 13386 13387 13388 13389 13390 13391 13392 13393 13394 13395 13396 13397 13398 13399 13400 13401 13402 13403 13404 13405 13406 13407 13408 13409 13410 13411 13412 13413 13414 13415 13416 13417 13418 13419 13420 13421 13422 13423 13424 13425 13426 13427 13428 13429 13430 13431 13432 13433 13434 13435 13436 13437 13438 13439 13440 13441 13442 13443 13444 13445 13446 13447 13448 13449 13450 13451 13452 13453 13454 13455 13456 13457 13458 13459 13460 13461 13462 13463 13464 13465 13466 13467 13468 13469 13470 13471 13472 13473 13474 13475 13476 13477 13478 13479 13480 13481 13482 13483 13484 13485 13486 13487 13488 13489 13490 13491 13492 13493 13494 13495 13496 13497 13498 13499 13500 13501 13502 13503 13504 13505 13506 13507 13508 13509 13510 13511 13512 13513 13514 13515 13516 13517 13518 13519 13520 13521 13522 13523 13524 13525 13526 13527 13528 13529 13530 13531 13532 13533 13534 13535 13536 13537 13538 13539 13540 13541 13542 13543 13544 13545 13546 13547 13548 13549 13550 13551 13552 13553 13554 13555 13556 13557 13558 13559 13560 13561 13562 13563 13564 13565 13566 13567 13568 13569 13570 13571 13572 13573 13574 13575 13576 13577 13578 13579 13580 13581 13582 13583 13584 13585 13586 13587 13588 13589 13590 13591 13592 13593 13594 13595 13596 13597 13598 13599 13600 13601 13602 13603 13604 13605 13606 13607 13608 13609 13610 13611 13612 13613 13614 13615 13616 13617 13618 13619 13620 13621 13622 13623 13624 13625 13626 13627 13628 13629 13630 13631 13632 13633 13634 13635 13636 13637 13638 13639 13640 13641 13642 13643 13644 13645 13646 13647 13648 13649 13650 13651 13652 13653 13654 13655 13656 13657 13658 13659 13660 13661 13662 13663 13664 13665 13666 13667 13668 13669 13670 13671 13672 13673 13674 13675 13676 13677 13678 13679 13680 13681 13682 13683 13684 13685 13686 13687 13688 13689 13690 13691 13692 13693 13694 13695 13696 13697 13698 13699 13700 13701 13702 13703 13704 13705 13706 13707 13708 13709 13710 13711 13712 13713 13714 13715 13716 13717 13718 13719 13720 13721 13722 13723 13724 13725 13726 13727 13728 13729 13730 13731 13732 13733 13734 13735 13736 13737 13738 13739 13740 13741 13742 13743 13744 13745 13746 13747 13748 13749 13750 13751 13752 13753 13754 13755 13756 13757 13758 13759 13760 13761 13762 13763 13764 13765 13766 13767 13768 13769 13770 13771 13772 13773 13774 13775 13776 13777 13778 13779 13780 13781 13782 13783 13784 13785 13786 13787 13788 13789 13790 13791 13792 13793 13794 13795 13796 13797 13798 13799 13800 13801 13802 13803 13804 13805 13806 13807 13808 13809 13810 13811 13812 13813 13814 13815 13816 13817 13818 13819 13820 13821 13822 13823 13824 13825 13826 13827 13828 13829 13830 13831 13832 13833 13834 13835 13836 13837 13838 13839 13840 13841 13842 13843 13844 13845 13846 13847 13848 13849 13850 13851 13852 13853 13854 13855 13856 13857 13858 13859 13860 13861 13862 13863 13864 13865 13866 13867 13868 13869 13870 13871 13872 13873 13874 13875 13876 13877 13878 13879 13880 13881 13882 13883 13884 13885 13886 13887 13888 13889 13890 13891 13892 13893 13894 13895 13896 13897 13898 13899 13900 13901 13902 13903 13904 13905 13906 13907 13908 13909 13910 13911 13912 13913 13914 13915 13916 13917 13918 13919 13920 13921 13922 13923 13924 13925 13926 13927 13928 13929 13930 13931 13932 13933 13934 13935 13936 13937 13938 13939 13940 13941 13942 13943 13944 13945 13946 13947 13948 13949 13950 13951 13952 13953 13954 13955 13956 13957 13958 13959 13960 13961 13962 13963 13964 13965 13966 13967 13968 13969 13970 13971 13972 13973 13974 13975 13976 13977 13978 13979 13980 13981 13982 13983 13984 13985 13986 13987 13988 13989 13990 13991 13992 13993 13994 13995 13996 13997 13998 13999 14000 14001 14002 14003 14004 14005 14006 14007 14008 14009 14010 14011 14012 14013 14014 14015 14016 14017 14018 14019 14020 14021 14022 14023 14024 14025 14026 14027 14028 14029 14030 14031 14032 14033 14034 14035 14036 14037 14038 14039 14040 14041 14042 14043 14044 14045 14046 14047 14048 14049 14050 14051 14052 14053 14054 14055 14056 14057 14058 14059 14060 14061 14062 14063 14064 14065 14066 14067 14068 14069 14070 14071 14072 14073 14074 14075 14076 14077 14078 14079 14080 14081 14082 14083 14084 14085 14086 14087 14088 14089 14090 14091 14092 14093 14094 14095 14096 14097 14098 14099 14100 14101 14102 14103 14104 14105 14106 14107 14108 14109 14110 14111 14112 14113 14114 14115 14116 14117 14118 14119 14120 14121 14122 14123 14124 14125 14126 14127 14128 14129 14130 14131 14132 14133 14134 14135 14136 14137 14138 14139 14140 14141 14142 14143 14144 14145 14146 14147 14148 14149 14150 14151 14152 14153 14154 14155 14156 14157 14158 14159 14160 14161 14162 14163 14164 14165 14166 14167 14168 14169 14170 14171 14172 14173 14174 14175 14176 14177 14178 14179 14180 14181 14182 14183 14184 14185 14186 14187 14188 14189 14190 14191 14192 14193 14194 14195 14196 14197 14198 14199 14200 14201 14202 14203 14204 14205 14206 14207 14208 14209 14210 14211 14212 14213 14214 14215 14216 14217 14218 14219 14220 14221 14222 14223 14224 14225 14226 14227 14228 14229 14230 14231 14232 14233 14234 14235 14236 14237 14238 14239 14240 14241 14242 14243 14244 14245 14246 14247 14248 14249 14250 14251 14252 14253 14254 14255 14256 14257 14258 14259 14260 14261 14262 14263 14264 14265 14266 14267 14268 14269 14270 14271 14272 14273 14274 14275 14276 14277 14278 14279 14280 14281 14282 14283 14284 14285 14286 14287 14288 14289 14290 14291 14292 14293 14294 14295 14296 14297 14298 14299 14300 14301 14302 14303 14304 14305 14306 14307 14308 14309 14310 14311 14312 14313 14314 14315 14316 14317 14318 14319 14320 14321 14322 14323 14324 14325 14326 14327 14328 14329 14330 14331 14332 14333 14334 14335 14336 14337 14338 14339 14340 14341 14342 14343 14344 14345 14346 14347 14348 14349 14350 14351 14352 14353 14354 14355 14356 14357 14358 14359 14360 14361 14362 14363 14364 14365 14366 14367 14368 14369 14370 14371 14372 14373 14374 14375 14376 14377 14378 14379 14380 14381 14382 14383 14384 14385 14386 14387 14388 14389 14390 14391 14392 14393 14394 14395 14396 14397 14398 14399 14400 14401 14402 14403 14404 14405 14406 14407 14408 14409 14410 14411 14412 14413 14414 14415 14416 14417 14418 14419 14420 14421 14422 14423 14424 14425 14426 14427 14428 14429 14430 14431 14432 14433 14434 14435 14436 14437 14438 14439 14440 14441 14442 14443 14444 14445 14446 14447 14448 14449 14450 14451 14452 14453 14454 14455 14456 14457 14458 14459 14460 14461 14462 14463 14464 14465 14466 14467 14468 14469 14470 14471 14472 14473 14474 14475 14476 14477 14478 14479 14480 14481 14482 14483 14484 14485 14486 14487 14488 14489 14490 14491 14492 14493 14494 14495 14496 14497 14498 14499 14500 14501 14502 14503 14504 14505 14506 14507 14508 14509 14510 14511 14512 14513 14514 14515 14516 14517 14518 14519 14520 14521 14522 14523 14524 14525 14526 14527 14528 14529 14530 14531 14532 14533 14534 14535 14536 14537 14538 14539 14540 14541 14542 14543 14544 14545 14546 14547 14548 14549 14550 14551 14552 14553 14554 14555 14556 14557 14558 14559 14560 14561 14562 14563 14564 14565 14566 14567 14568 14569 14570 14571 14572 14573 14574 14575 14576 14577 14578 14579 14580 14581 14582 14583 14584 14585 14586 14587 14588 14589 14590 14591 14592 14593 14594 14595 14596 14597 14598 14599 14600 14601 14602 14603 14604 14605 14606 14607 14608 14609 14610 14611 14612 14613 14614 14615 14616 14617 14618 14619 14620 14621 14622 14623 14624 14625 14626 14627 14628 14629 14630 14631 14632 14633 14634 14635 14636 14637 14638 14639 14640 14641 14642 14643 14644 14645 14646 14647 14648 14649 14650 14651 14652 14653 14654 14655 14656 14657 14658 14659 14660 14661 14662 14663 14664 14665 14666 14667 14668 14669 14670 14671 14672 14673 14674 14675 14676 14677 14678 14679 14680 14681 14682 14683 14684 14685 14686 14687 14688 14689 14690 14691 14692 14693 14694 14695 14696 14697 14698 14699 14700 14701 14702 14703 14704 14705 14706 14707 14708 14709 14710 14711 14712 14713 14714 14715 14716 14717 14718 14719 14720 14721 14722 14723 14724 14725 14726 14727 14728 14729 14730 14731 14732 14733 14734 14735 14736 14737 14738 14739 14740 14741 14742 14743 14744 14745 14746 14747 14748 14749 14750 14751 14752 14753 14754 14755 14756 14757 14758 14759 14760 14761 14762 14763 14764 14765 14766 14767 14768 14769 14770 14771 14772 14773 14774 14775 14776 14777 14778 14779 14780 14781 14782 14783 14784 14785 14786 14787 14788 14789 14790 14791 14792 14793 14794 14795 14796 14797 14798 14799 14800 14801 14802 14803 14804 14805 14806 14807 14808 14809 14810 14811 14812 14813 14814 14815 14816 14817 14818 14819 14820 14821 14822 14823 14824 14825 14826 14827 14828 14829 14830 14831 14832 14833 14834 14835 14836 14837 14838 14839 14840 14841 14842 14843 14844 14845 14846 14847 14848 14849 14850 14851 14852 14853 14854 14855 14856 14857 14858 14859 14860 14861 14862 14863 14864 14865 14866 14867 14868 14869 14870 14871 14872 14873 14874 14875 14876 14877 14878 14879 14880 14881 14882 14883 14884 14885 14886 14887 14888 14889 14890 14891 14892 14893 14894 14895 14896 14897 14898 14899 14900 14901 14902 14903 14904 14905 14906 14907 14908 14909 14910 14911 14912 14913 14914 14915 14916 14917 14918 14919 14920 14921 14922 14923 14924 14925 14926 14927 14928 14929 14930 14931 14932 14933 14934 14935 14936 14937 14938 14939 14940 14941 14942 14943 14944 14945 14946 14947 14948 14949 14950 14951 14952 14953 14954 14955 14956 14957 14958 14959 14960 14961 14962 14963 14964 14965 14966 14967 14968 14969 14970 14971 14972 14973 14974 14975 14976 14977 14978 14979 14980 14981 14982 14983 14984 14985 14986 14987 14988 14989 14990 14991 14992 14993 14994 14995 14996 14997 14998 14999 15000 15001 15002 15003 15004 15005 15006 15007 15008 15009 15010 15011 15012 15013 15014 15015 15016 15017 15018 15019 15020 15021 15022 15023 15024 15025 15026 15027 15028 15029 15030 15031 15032 15033 15034 15035 15036 15037 15038 15039 15040 15041 15042 15043 15044 15045 15046 15047 15048 15049 15050 15051 15052 15053 15054 15055 15056 15057 15058 15059 15060 15061 15062 15063 15064 15065 15066 15067 15068 15069 15070 15071 15072 15073 15074 15075 15076 15077 15078 15079 15080 15081 15082 15083 15084 15085 15086 15087 15088 15089 15090 15091 15092 15093 15094 15095 15096 15097 15098 15099 15100 15101 15102 15103 15104 15105 15106 15107 15108 15109 15110 15111 15112 15113 15114 15115 15116 15117 15118 15119 15120 15121 15122 15123 15124 15125 15126 15127 15128 15129 15130 15131 15132 15133 15134 15135 15136 15137 15138 15139 15140 15141 15142 15143 15144 15145 15146 15147 15148 15149 15150 15151 15152 15153 15154 15155 15156 15157 15158 15159 15160 15161 15162 15163 15164 15165 15166 15167 15168 15169 15170 15171 15172 15173 15174 15175 15176 15177 15178 15179 15180 15181 15182 15183 15184 15185 15186 15187 15188 15189 15190 15191 15192 15193 15194 15195 15196 15197 15198 15199 15200 15201 15202 15203 15204 15205 15206 15207 15208 15209 15210 15211 15212 15213 15214 15215 15216 15217 15218 15219 15220 15221 15222 15223 15224 15225 15226 15227 15228 15229 15230 15231 15232 15233 15234 15235 15236 15237 15238 15239 15240 15241 15242 15243 15244 15245 15246 15247 15248 15249 15250 15251 15252 15253 15254 15255 15256 15257 15258 15259 15260 15261 15262 15263 15264 15265 15266 15267 15268 15269 15270 15271 15272 15273 15274 15275 15276 15277 15278 15279 15280 15281 15282 15283 15284 15285 15286 15287 15288 15289 15290 15291 15292 15293 15294 15295 15296 15297 15298 15299 15300 15301 15302 15303 15304 15305 15306 15307 15308 15309 15310 15311 15312 15313 15314 15315 15316 15317 15318 15319 15320 15321 15322 15323 15324 15325 15326 15327 15328 15329 15330 15331 15332 15333 15334 15335 15336 15337 15338 15339 15340 15341 15342 15343 15344 15345 15346 15347 15348 15349 15350 15351 15352 15353 15354 15355 15356 15357 15358 15359 15360 15361 15362 15363 15364 15365 15366 15367 15368 15369 15370 15371 15372 15373 15374 15375 15376 15377 15378 15379 15380 15381 15382 15383 15384 15385 15386 15387 15388 15389 15390 15391 15392 15393 15394 15395 15396 15397 15398 15399 15400 15401 15402 15403 15404 15405 15406 15407 15408 15409 15410 15411 15412 15413 15414 15415 15416 15417 15418 15419 15420 15421 15422 15423 15424 15425 15426 15427 15428 15429 15430 15431 15432 15433 15434 15435 15436 15437 15438 15439 15440 15441 15442 15443 15444 15445 15446 15447 15448 15449 15450 15451 15452 15453 15454 15455 15456 15457 15458 15459 15460 15461 15462 15463 15464 15465 15466 15467 15468 15469 15470 15471 15472 15473 15474 15475 15476 15477 15478 15479 15480 15481 15482 15483 15484 15485 15486 15487 15488 15489 15490 15491 15492 15493 15494 15495 15496 15497 15498 15499 15500 15501 15502 15503 15504 15505 15506 15507 15508 15509 15510 15511 15512 15513 15514 15515 15516 15517 15518 15519 15520 15521 15522 15523 15524 15525 15526 15527 15528 15529 15530 15531 15532 15533 15534 15535 15536 15537 15538 15539 15540 15541 15542 15543 15544 15545 15546 15547 15548 15549 15550 15551 15552 15553 15554 15555 15556 15557 15558 15559 15560 15561 15562 15563 15564 15565 15566 15567 15568 15569 15570 15571 15572 15573 15574 15575 15576 15577 15578 15579 15580 15581 15582 15583 15584 15585 15586 15587 15588 15589 15590 15591 15592 15593 15594 15595 15596 15597 15598 15599 15600 15601 15602 15603 15604 15605 15606 15607 15608 15609 15610 15611 15612 15613 15614 15615 15616 15617 15618 15619 15620 15621 15622 15623 15624 15625 15626 15627 15628 15629 15630 15631 15632 15633 15634 15635 15636 15637 15638 15639 15640 15641 15642 15643 15644 15645 15646 15647 15648 15649 15650 15651 15652 15653 15654 15655 15656 15657 15658 15659 15660 15661 15662 15663 15664 15665 15666 15667 15668 15669 15670 15671 15672 15673 15674 15675 15676 15677 15678 15679 15680 15681 15682 15683 15684 15685 15686 15687 15688 15689 15690 15691 15692 15693 15694 15695 15696 15697 15698 15699 15700 15701 15702 15703 15704 15705 15706 15707 15708 15709 15710 15711 15712 15713 15714 15715 15716 15717 15718 15719 15720 15721 15722 15723 15724 15725 15726 15727 15728 15729 15730 15731 15732 15733 15734 15735 15736 15737 15738 15739 15740 15741 15742 15743 15744 15745 15746 15747 15748 15749 15750 15751 15752 15753 15754 15755 15756 15757 15758 15759 15760 15761 15762 15763 15764 15765 15766 15767 15768 15769 15770 15771 15772 15773 15774 15775 15776 15777 15778 15779 15780 15781 15782 15783 15784 15785 15786 15787 15788 15789 15790 15791 15792 15793 15794 15795 15796 15797 15798 15799 15800 15801 15802 15803 15804 15805 15806 15807 15808 15809 15810 15811 15812 15813 15814 15815 15816 15817 15818 15819 15820 15821 15822 15823 15824 15825 15826 15827 15828 15829 15830 15831 15832 15833 15834 15835 15836 15837 15838 15839 15840 15841 15842 15843 15844 15845 15846 15847 15848 15849 15850 15851 15852 15853 15854 15855 15856 15857 15858 15859 15860 15861 15862 15863 15864 15865 15866 15867 15868 15869 15870 15871 15872 15873 15874 15875 15876 15877 15878 15879 15880 15881 15882 15883 15884 15885 15886 15887 15888 15889 15890 15891 15892 15893 15894 15895 15896 15897 15898 15899 15900 15901 15902 15903 15904 15905 15906 15907 15908 15909 15910 15911 15912 15913 15914 15915 15916 15917 15918 15919 15920 15921 15922 15923 15924 15925 15926 15927 15928 15929 15930 15931 15932 15933 15934 15935 15936 15937 15938 15939 15940 15941 15942 15943 15944 15945 15946 15947 15948 15949 15950 15951 15952 15953 15954 15955 15956 15957 15958 15959 15960 15961 15962 15963 15964 15965 15966 15967 15968 15969 15970 15971 15972 15973 15974 15975 15976 15977 15978 15979 15980 15981 15982 15983 15984 15985 15986 15987 15988 15989 15990 15991 15992 15993 15994 15995 15996 15997 15998 15999 16000 16001 16002 16003 16004 16005 16006 16007 16008 16009 16010 16011 16012 16013 16014 16015 16016 16017 16018 16019 16020 16021 16022 16023 16024 16025 16026 16027 16028 16029 16030 16031 16032 16033 16034 16035 16036 16037 16038 16039 16040 16041 16042 16043 16044 16045 16046 16047 16048 16049 16050 16051 16052 16053 16054 16055 16056 16057 16058 16059 16060 16061 16062 16063 16064 16065 16066 16067 16068 16069 16070 16071 16072 16073 16074 16075 16076 16077 16078 16079 16080 16081 16082 16083 16084 16085 16086 16087 16088 16089 16090 16091 16092 16093 16094 16095 16096 16097 16098 16099 16100 16101 16102 16103 16104 16105 16106 16107 16108 16109 16110 16111 16112 16113 16114 16115 16116 16117 16118 16119 16120 16121 16122 16123 16124 16125 16126 16127 16128 16129 16130 16131 16132 16133 16134 16135 16136 16137 16138 16139 16140 16141 16142 16143 16144 16145 16146 16147 16148 16149 16150 16151 16152 16153 16154 16155 16156 16157 16158 16159 16160 16161 16162 16163 16164 16165 16166 16167 16168 16169 16170 16171 16172 16173 16174 16175 16176 16177 16178 16179 16180 16181 16182 16183 16184 16185 16186 16187 16188 16189 16190 16191 16192 16193 16194 16195 16196 16197 16198 16199 16200 16201 16202 16203 16204 16205 16206 16207 16208 16209 16210 16211 16212 16213 16214 16215 16216 16217 16218 16219 16220 16221 16222 16223 16224 16225 16226 16227 16228 16229 16230 16231 16232 16233 16234 16235 16236 16237 16238 16239 16240 16241 16242 16243 16244 16245 16246 16247 16248 16249 16250 16251 16252 16253 16254 16255 16256 16257 16258 16259 16260 16261 16262 16263 16264 16265 16266 16267 16268 16269 16270 16271 16272 16273 16274 16275 16276 16277 16278 16279 16280 16281 16282 16283 16284 16285 16286 16287 16288 16289 16290 16291 16292 16293 16294 16295 16296 16297 16298 16299 16300 16301 16302 16303 16304 16305 16306 16307 16308 16309 16310 16311 16312 16313 16314 16315 16316 16317 16318 16319 16320 16321 16322 16323 16324 16325 16326 16327 16328 16329 16330 16331 16332 16333 16334 16335 16336 16337 16338 16339 16340 16341 16342 16343 16344 16345 16346 16347 16348 16349 16350 16351 16352 16353 16354 16355 16356 16357 16358 16359 16360 16361 16362 16363 16364 16365 16366 16367 16368 16369 16370 16371 16372 16373 16374 16375 16376 16377 16378 16379 16380 16381 16382 16383 16384 16385 16386 16387 16388 16389 16390 16391 16392 16393 16394 16395 16396 16397 16398 16399 16400 16401 16402 16403 16404 16405 16406 16407 16408 16409 16410 16411 16412 16413 16414 16415 16416 16417 16418 16419 16420 16421 16422 16423 16424 16425 16426 16427 16428 16429 16430 16431 16432 16433 16434 16435 16436 16437 16438 16439 16440 16441 16442 16443 16444 16445 16446 16447 16448 16449 16450 16451 16452 16453 16454 16455 16456 16457 16458 16459 16460 16461 16462 16463 16464 16465 16466 16467 16468 16469 16470 16471 16472 16473 16474 16475 16476 16477 16478 16479 16480 16481 16482 16483 16484 16485 16486 16487 16488 16489 16490 16491 16492 16493 16494 16495 16496 16497 16498 16499 16500 16501 16502 16503 16504 16505 16506 16507 16508 16509 16510 16511 16512 16513 16514 16515 16516 16517 16518 16519 16520 16521 16522 16523 16524 16525 16526 16527 16528 16529 16530 16531 16532 16533 16534 16535 16536 16537 16538 16539 16540 16541 16542 16543 16544 16545 16546 16547 16548 16549 16550 16551 16552 16553 16554 16555 16556 16557 16558 16559 16560 16561 16562 16563 16564 16565 16566 16567 16568 16569 16570 16571 16572 16573 16574 16575 16576 16577 16578 16579 16580 16581 16582 16583 16584 16585 16586 16587 16588 16589 16590 16591 16592 16593 16594 16595 16596 16597 16598 16599 16600 16601 16602 16603 16604 16605 16606 16607 16608 16609 16610 16611 16612 16613 16614 16615 16616 16617 16618 16619 16620 16621 16622 16623 16624 16625 16626 16627 16628 16629 16630 16631 16632 16633 16634 16635 16636 16637 16638 16639 16640 16641 16642 16643 16644 16645 16646 16647 16648 16649 16650 16651 16652 16653 16654 16655 16656 16657 16658 16659 16660 16661 16662 16663 16664 16665 16666 16667 16668 16669 16670 16671 16672 16673 16674 16675 16676 16677 16678 16679 16680 16681 16682 16683 16684 16685 16686 16687 16688 16689 16690 16691 16692 16693 16694 16695 16696 16697 16698 16699 16700 16701 16702 16703 16704 16705 16706 16707 16708 16709 16710 16711 16712 16713 16714 16715 16716 16717 16718 16719 16720 16721 16722 16723 16724 16725 16726 16727 16728 16729 16730 16731 16732 16733 16734 16735 16736 16737 16738 16739 16740 16741 16742 16743 16744 16745 16746 16747 16748 16749 16750 16751 16752 16753 16754 16755 16756 16757 16758 16759 16760 16761 16762 16763 16764 16765 16766 16767 16768 16769 16770 16771 16772 16773 16774 16775 16776 16777 16778 16779 16780 16781 16782 16783 16784 16785 16786 16787 16788 16789 16790 16791 16792 16793 16794 16795 16796 16797 16798 16799 16800 16801 16802 16803 16804 16805 16806 16807 16808 16809 16810 16811 16812 16813 16814 16815 16816 16817 16818 16819 16820 16821 16822 16823 16824 16825 16826 16827 16828 16829 16830 16831 16832 16833 16834 16835 16836 16837 16838 16839 16840 16841 16842 16843 16844 16845 16846 16847 16848 16849 16850 16851 16852 16853 16854 16855 16856 16857 16858 16859 16860 16861 16862 16863 16864 16865 16866 16867 16868 16869 16870 16871 16872 16873 16874 16875 16876 16877 16878 16879 16880 16881 16882 16883 16884 16885 16886 16887 16888 16889 16890 16891 16892 16893 16894 16895 16896 16897 16898 16899 16900 16901 16902 16903 16904 16905 16906 16907 16908 16909 16910 16911 16912 16913 16914 16915 16916 16917 16918 16919 16920 16921 16922 16923 16924 16925 16926 16927 16928 16929 16930 16931 16932 16933 16934 16935 16936 16937 16938 16939 16940 16941 16942 16943 16944 16945 16946 16947 16948 16949 16950 16951 16952 16953 16954 16955 16956 16957 16958 16959 16960 16961 16962 16963 16964 16965 16966 16967 16968 16969 16970 16971 16972 16973 16974 16975 16976 16977 16978 16979 16980 16981 16982 16983 16984 16985 16986 16987 16988 16989 16990 16991 16992 16993 16994 16995 16996 16997 16998 16999 17000 17001 17002 17003 17004 17005 17006 17007 17008 17009 17010 17011 17012 17013 17014 17015 17016 17017 17018 17019 17020 17021 17022 17023 17024 17025 17026 17027 17028 17029 17030 17031 17032 17033 17034 17035 17036 17037 17038 17039 17040 17041 17042 17043 17044 17045 17046 17047 17048 17049 17050 17051 17052 17053 17054 17055 17056 17057 17058 17059 17060 17061 17062 17063 17064 17065 17066 17067 17068 17069 17070 17071 17072 17073 17074 17075 17076 17077 17078 17079 17080 17081 17082 17083 17084 17085 17086 17087 17088 17089 17090 17091 17092 17093 17094 17095 17096 17097 17098 17099 17100 17101 17102 17103 17104 17105 17106 17107 17108 17109 17110 17111 17112 17113 17114 17115 17116 17117 17118 17119 17120 17121 17122 17123 17124 17125 17126 17127 17128 17129 17130 17131 17132 17133 17134 17135 17136 17137 17138 17139 17140 17141 17142 17143 17144 17145 17146 17147 17148 17149 17150 17151 17152 17153 17154 17155 17156 17157 17158 17159 17160 17161 17162 17163 17164 17165 17166 17167 17168 17169 17170 17171 17172 17173 17174 17175 17176 17177 17178 17179 17180 17181 17182 17183 17184 17185 17186 17187 17188 17189 17190 17191 17192 17193 17194 17195 17196 17197 17198 17199 17200 17201 17202 17203 17204 17205 17206 17207 17208 17209 17210 17211 17212 17213 17214 17215 17216 17217 17218 17219 17220 17221 17222 17223 17224 17225 17226 17227 17228 17229 17230 17231 17232 17233 17234 17235 17236 17237 17238 17239 17240 17241 17242 17243 17244 17245 17246 17247 17248 17249 17250 17251 17252 17253 17254 17255 17256 17257 17258 17259 17260 17261 17262 17263 17264 17265 17266 17267 17268 17269 17270 17271 17272 17273 17274 17275 17276 17277 17278 17279 17280 17281 17282 17283 17284 17285 17286 17287 17288 17289 17290 17291 17292 17293 17294 17295 17296 17297 17298 17299 17300 17301 17302 17303 17304 17305 17306 17307 17308 17309 17310 17311 17312 17313 17314 17315 17316 17317 17318 17319 17320 17321 17322 17323 17324 17325 17326 17327 17328 17329 17330 17331 17332 17333 17334 17335 17336 17337 17338 17339 17340 17341 17342 17343 17344 17345 17346 17347 17348 17349 17350 17351 17352 17353 17354 17355 17356 17357 17358 17359 17360 17361 17362 17363 17364 17365 17366 17367 17368 17369 17370 17371 17372 17373 17374 17375 17376 17377 17378 17379 17380 17381 17382 17383 17384 17385 17386 17387 17388 17389 17390 17391 17392 17393 17394 17395 17396 17397 17398 17399 17400 17401 17402 17403 17404 17405 17406 17407 17408 17409 17410 17411 17412 17413 17414 17415 17416 17417 17418 17419 17420 17421 17422 17423 17424 17425 17426 17427 17428 17429 17430 17431 17432 17433 17434 17435 17436 17437 17438 17439 17440 17441 17442 17443 17444 17445 17446 17447 17448 17449 17450 17451 17452 17453 17454 17455 17456 17457 17458 17459 17460 17461 17462 17463 17464 17465 17466 17467 17468 17469 17470 17471 17472 17473 17474 17475 17476 17477 17478 17479 17480 17481 17482 17483 17484 17485 17486 17487 17488 17489 17490 17491 17492 17493 17494 17495 17496 17497 17498 17499 17500 17501 17502 17503 17504 17505 17506 17507 17508 17509 17510 17511 17512 17513 17514 17515 17516 17517 17518 17519 17520 17521 17522 17523 17524 17525 17526 17527 17528 17529 17530 17531 17532 17533 17534 17535 17536 17537 17538 17539 17540 17541 17542 17543 17544 17545 17546 17547 17548 17549 17550 17551 17552 17553 17554 17555 17556 17557 17558 17559 17560 17561 17562 17563 17564 17565 17566 17567 17568 17569 17570 17571 17572 17573 17574 17575 17576 17577 17578 17579 17580 17581 17582 17583 17584 17585 17586 17587 17588 17589 17590 17591 17592 17593 17594 17595 17596 17597 17598 17599 17600 17601 17602 17603 17604 17605 17606 17607 17608 17609 17610 17611 17612 17613 17614 17615 17616 17617 17618 17619 17620 17621 17622 17623 17624 17625 17626 17627 17628 17629 17630 17631 17632 17633 17634 17635 17636 17637 17638 17639 17640 17641 17642 17643 17644 17645 17646 17647 17648 17649 17650 17651 17652 17653 17654 17655 17656 17657 17658 17659 17660 17661 17662 17663 17664 17665 17666 17667 17668 17669 17670 17671 17672 17673 17674 17675 17676 17677 17678 17679 17680 17681 17682 17683 17684 17685 17686 17687 17688 17689 17690 17691 17692 17693 17694 17695 17696 17697 17698 17699 17700 17701 17702 17703 17704 17705 17706 17707 17708 17709 17710 17711 17712 17713 17714 17715 17716 17717 17718 17719 17720 17721 17722 17723 17724 17725 17726 17727 17728 17729 17730 17731 17732 17733 17734 17735 17736 17737 17738 17739 17740 17741 17742 17743 17744 17745 17746 17747 17748 17749 17750 17751 17752 17753 17754 17755 17756 17757 17758 17759 17760 17761 17762 17763 17764 17765 17766 17767 17768 17769 17770 17771 17772 17773 17774 17775 17776 17777 17778 17779 17780 17781 17782 17783 17784 17785 17786 17787 17788 17789 17790 17791 17792 17793 17794 17795 17796 17797 17798 17799 17800 17801 17802 17803 17804 17805 17806 17807 17808 17809 17810 17811 17812 17813 17814 17815 17816 17817 17818 17819 17820 17821 17822 17823 17824 17825 17826 17827 17828 17829 17830 17831 17832 17833 17834 17835 17836 17837 17838 17839 17840 17841 17842 17843 17844 17845 17846 17847 17848 17849 17850 17851 17852 17853 17854 17855 17856 17857 17858 17859 17860 17861 17862 17863 17864 17865 17866 17867 17868 17869 17870 17871 17872 17873 17874 17875 17876 17877 17878 17879 17880 17881 17882 17883 17884 17885 17886 17887 17888 17889 17890 17891 17892 17893 17894 17895 17896 17897 17898 17899 17900 17901 17902 17903 17904 17905 17906 17907 17908 17909 17910 17911 17912 17913 17914 17915 17916 17917 17918 17919 17920 17921 17922 17923 17924 17925 17926 17927 17928 17929 17930 17931 17932 17933 17934 17935 17936 17937 17938 17939 17940 17941 17942 17943 17944 17945 17946 17947 17948 17949 17950 17951 17952 17953 17954 17955 17956 17957 17958 17959 17960 17961 17962 17963 17964 17965 17966 17967 17968 17969 17970 17971 17972 17973 17974 17975 17976 17977 17978 17979 17980 17981 17982 17983 17984 17985 17986 17987 17988 17989 17990 17991 17992 17993 17994 17995 17996 17997 17998 17999 18000 18001 18002 18003 18004 18005 18006 18007 18008 18009 18010 18011 18012 18013 18014 18015 18016 18017 18018 18019 18020 18021 18022 18023 18024 18025 18026 18027 18028 18029 18030 18031 18032 18033 18034 18035 18036 18037 18038 18039 18040 18041 18042 18043 18044 18045 18046 18047 18048 18049 18050 18051 18052 18053 18054 18055 18056 18057 18058 18059 18060 18061 18062 18063 18064 18065 18066 18067 18068 18069 18070 18071 18072 18073 18074 18075 18076 18077 18078 18079 18080 18081 18082 18083 18084 18085 18086 18087 18088 18089 18090 18091 18092 18093 18094 18095 18096 18097 18098 18099 18100 18101 18102 18103 18104 18105 18106 18107 18108 18109 18110 18111 18112 18113 18114 18115 18116 18117 18118 18119 18120 18121 18122 18123 18124 18125 18126 18127 18128 18129 18130 18131 18132 18133 18134 18135 18136 18137 18138 18139 18140 18141 18142 18143 18144 18145 18146 18147 18148 18149 18150 18151 18152 18153 18154 18155 18156 18157 18158 18159 18160 18161 18162 18163 18164 18165 18166 18167 18168 18169 18170 18171 18172 18173 18174 18175 18176 18177 18178 18179 18180 18181 18182 18183 18184 18185 18186 18187 18188 18189 18190 18191 18192 18193 18194 18195 18196 18197 18198 18199 18200 18201 18202 18203 18204 18205 18206 18207 18208 18209 18210 18211 18212 18213 18214 18215 18216 18217 18218 18219 18220 18221 18222 18223 18224 18225 18226 18227 18228 18229 18230 18231 18232 18233 18234 18235 18236 18237 18238 18239 18240 18241 18242 18243 18244 18245 18246 18247 18248 18249 18250 18251 18252 18253 18254 18255 18256 18257 18258 18259 18260 18261 18262 18263 18264 18265 18266 18267 18268 18269 18270 18271 18272 18273 18274 18275 18276 18277 18278 18279 18280 18281 18282 18283 18284 18285 18286 18287 18288 18289 18290 18291 18292 18293 18294 18295 18296 18297 18298 18299 18300 18301 18302 18303 18304 18305 18306 18307 18308 18309 18310 18311 18312 18313 18314 18315 18316 18317 18318 18319 18320 18321 18322 18323 18324 18325 18326 18327 18328 18329 18330 18331 18332 18333 18334 18335 18336 18337 18338 18339 18340 18341 18342 18343 18344 18345 18346 18347 18348 18349 18350 18351 18352 18353 18354 18355 18356 18357 18358 18359 18360 18361 18362 18363 18364 18365 18366 18367 18368 18369 18370 18371 18372 18373 18374 18375 18376 18377 18378 18379 18380 18381 18382 18383 18384 18385 18386 18387 18388 18389 18390 18391 18392 18393 18394 18395 18396 18397 18398 18399 18400 18401 18402 18403 18404 18405 18406 18407 18408 18409 18410 18411 18412 18413 18414 18415 18416 18417 18418 18419 18420 18421 18422 18423 18424 18425 18426 18427 18428 18429 18430 18431 18432 18433 18434 18435 18436 18437 18438 18439 18440 18441 18442 18443 18444 18445 18446 18447 18448 18449 18450 18451 18452 18453 18454 18455 18456 18457 18458 18459 18460 18461 18462 18463 18464 18465 18466 18467 18468 18469 18470 18471 18472 18473 18474 18475 18476 18477 18478 18479 18480 18481 18482 18483 18484 18485 18486 18487 18488 18489 18490 18491 18492 18493 18494 18495 18496 18497 18498 18499 18500 18501 18502 18503 18504 18505 18506 18507 18508 18509 18510 18511 18512 18513 18514 18515 18516 18517 18518 18519 18520 18521 18522 18523 18524 18525 18526 18527 18528 18529 18530 18531 18532 18533 18534 18535 18536 18537 18538 18539 18540 18541 18542 18543 18544 18545 18546 18547 18548 18549 18550 18551 18552 18553 18554 18555 18556 18557 18558 18559 18560 18561 18562 18563 18564 18565 18566 18567 18568 18569 18570 18571 18572 18573 18574 18575 18576 18577 18578 18579 18580 18581 18582 18583 18584 18585 18586 18587 18588 18589 18590 18591 18592 18593 18594 18595 18596 18597 18598 18599 18600 18601 18602 18603 18604 18605 18606 18607 18608 18609 18610 18611 18612 18613 18614 18615 18616 18617 18618 18619 18620 18621 18622 18623 18624 18625 18626 18627 18628 18629 18630 18631 18632 18633 18634 18635 18636 18637 18638 18639 18640 18641 18642 18643 18644 18645 18646 18647 18648 18649 18650 18651 18652 18653 18654 18655 18656 18657 18658 18659 18660 18661 18662 18663 18664 18665 18666 18667 18668 18669 18670 18671 18672 18673 18674 18675 18676 18677 18678 18679 18680 18681 18682 18683 18684 18685 18686 18687 18688 18689 18690 18691 18692 18693 18694 18695 18696 18697 18698 18699 18700 18701 18702 18703 18704 18705 18706 18707 18708 18709 18710 18711 18712 18713 18714 18715 18716 18717 18718 18719 18720 18721 18722 18723 18724 18725 18726 18727 18728 18729 18730 18731 18732 18733 18734 18735 18736 18737 18738 18739 18740 18741 18742 18743 18744 18745 18746 18747 18748 18749 18750 18751 18752 18753 18754 18755 18756 18757 18758 18759 18760 18761 18762 18763 18764 18765 18766 18767 18768 18769 18770 18771 18772 18773 18774 18775 18776 18777 18778 18779 18780 18781 18782 18783 18784 18785 18786 18787 18788 18789 18790 18791 18792 18793 18794 18795 18796 18797 18798 18799 18800 18801 18802 18803 18804 18805 18806 18807 18808 18809 18810 18811 18812 18813 18814 18815 18816 18817 18818 18819 18820 18821 18822 18823 18824 18825 18826 18827 18828 18829 18830 18831 18832 18833 18834 18835 18836 18837 18838 18839 18840 18841 18842 18843 18844 18845 18846 18847 18848 18849 18850 18851 18852 18853 18854 18855 18856 18857 18858 18859 18860 18861 18862 18863 18864 18865 18866 18867 18868 18869 18870 18871 18872 18873 18874 18875 18876 18877 18878 18879 18880 18881 18882 18883 18884 18885 18886 18887 18888 18889 18890 18891 18892 18893 18894 18895 18896 18897 18898 18899 18900 18901 18902 18903 18904 18905 18906 18907 18908 18909 18910 18911 18912 18913 18914 18915 18916 18917 18918 18919 18920 18921 18922 18923 18924 18925 18926 18927 18928 18929 18930 18931 18932 18933 18934 18935 18936 18937 18938 18939 18940 18941 18942 18943 18944 18945 18946 18947 18948 18949 18950 18951 18952 18953 18954 18955 18956 18957 18958 18959 18960 18961 18962 18963 18964 18965 18966 18967 18968 18969 18970 18971 18972 18973 18974 18975 18976 18977 18978 18979 18980 18981 18982 18983 18984 18985 18986 18987 18988 18989 18990 18991 18992 18993 18994 18995 18996 18997 18998 18999 19000 19001 19002 19003 19004 19005 19006 19007 19008 19009 19010 19011 19012 19013 19014 19015 19016 19017 19018 19019 19020 19021 19022 19023 19024 19025 19026 19027 19028 19029 19030 19031 19032 19033 19034 19035 19036 19037 19038 19039 19040 19041 19042 19043 19044 19045 19046 19047 19048 19049 19050 19051 19052 19053 19054 19055 19056 19057 19058 19059 19060 19061 19062 19063 19064 19065 19066 19067 19068 19069 19070 19071 19072 19073 19074 19075 19076 19077 19078 19079 19080 19081 19082 19083 19084 19085 19086 19087 19088 19089 19090 19091 19092 19093 19094 19095 19096 19097 19098 19099 19100 19101 19102 19103 19104 19105 19106 19107 19108 19109 19110 19111 19112 19113 19114 19115 19116 19117 19118 19119 19120 19121 19122 19123 19124 19125 19126 19127 19128 19129 19130 19131 19132 19133 19134 19135 19136 19137 19138 19139 19140 19141 19142 19143 19144 19145 19146 19147 19148 19149 19150 19151 19152 19153 19154 19155 19156 19157 19158 19159 19160 19161 19162 19163 19164 19165 19166 19167 19168 19169 19170 19171 19172 19173 19174 19175 19176 19177 19178 19179 19180 19181 19182 19183 19184 19185 19186 19187 19188 19189 19190 19191 19192 19193 19194 19195 19196 19197 19198 19199 19200 19201 19202 19203 19204 19205 19206 19207 19208 19209 19210 19211 19212 19213 19214 19215 19216 19217 19218 19219 19220 19221 19222 19223 19224 19225 19226 19227 19228 19229 19230 19231 19232 19233 19234 19235 19236 19237 19238 19239 19240 19241 19242 19243 19244 19245 19246 19247 19248 19249 19250 19251 19252 19253 19254 19255 19256 19257 19258 19259 19260 19261 19262 19263 19264 19265 19266 19267 19268 19269 19270 19271 19272 19273 19274 19275 19276 19277 19278 19279 19280 19281 19282 19283 19284 19285 19286 19287 19288 19289 19290 19291 19292 19293 19294 19295 19296 19297 19298 19299 19300 19301 19302 19303 19304 19305 19306 19307 19308 19309 19310 19311 19312 19313 19314 19315 19316 19317 19318 19319 19320 19321 19322 19323 19324 19325 19326 19327 19328 19329 19330 19331 19332 19333 19334 19335 19336 19337 19338 19339 19340 19341 19342 19343 19344 19345 19346 19347 19348 19349 19350 19351 19352 19353 19354 19355 19356 19357 19358 19359 19360 19361 19362 19363 19364 19365 19366 19367 19368 19369 19370 19371 19372 19373 19374 19375 19376 19377 19378 19379 19380 19381 19382 19383 19384 19385 19386 19387 19388 19389 19390 19391 19392 19393 19394 19395 19396 19397 19398 19399 19400 19401 19402 19403 19404 19405 19406 19407 19408 19409 19410 19411 19412 19413 19414 19415 19416 19417 19418 19419 19420 19421 19422 19423 19424 19425 19426 19427 19428 19429 19430 19431 19432 19433 19434 19435 19436 19437 19438 19439 19440 19441 19442 19443 19444 19445 19446 19447 19448 19449 19450 19451 19452 19453 19454 19455 19456 19457 19458 19459 19460 19461 19462 19463 19464 19465 19466 19467 19468 19469 19470 19471 19472 19473 19474 19475 19476 19477 19478 19479 19480 19481 19482 19483 19484 19485 19486 19487 19488 19489 19490 19491 19492 19493 19494 19495 19496 19497 19498 19499 19500 19501 19502 19503 19504 19505 19506 19507 19508 19509 19510 19511 19512 19513 19514 19515 19516 19517 19518 19519 19520 19521 19522 19523 19524 19525 19526 19527 19528 19529 19530 19531 19532 19533 19534 19535 19536 19537 19538 19539 19540 19541 19542 19543 19544 19545 19546 19547 19548 19549 19550 19551 19552 19553 19554 19555 19556 19557 19558 19559 19560 19561 19562 19563 19564 19565 19566 19567 19568 19569 19570 19571 19572 19573 19574 19575 19576 19577 19578 19579 19580 19581 19582 19583 19584 19585 19586 19587 19588 19589 19590 19591 19592 19593 19594 19595 19596 19597 19598 19599 19600 19601 19602 19603 19604 19605 19606 19607 19608 19609 19610 19611 19612 19613 19614 19615 19616 19617 19618 19619 19620 19621 19622 19623 19624 19625 19626 19627 19628 19629 19630 19631 19632 19633 19634 19635 19636 19637 19638 19639 19640 19641 19642 19643 19644 19645 19646 19647 19648 19649 19650 19651 19652 19653 19654 19655 19656 19657 19658 19659 19660 19661 19662 19663 19664 19665 19666 19667 19668 19669 19670 19671 19672 19673 19674 19675 19676 19677 19678 19679 19680 19681 19682 19683 19684 19685 19686 19687 19688 19689 19690 19691 19692 19693 19694 19695 19696 19697 19698 19699 19700 19701 19702 19703 19704 19705 19706 19707 19708 19709 19710 19711 19712 19713 19714 19715 19716 19717 19718 19719 19720 19721 19722 19723 19724 19725 19726 19727 19728 19729 19730 19731 19732 19733 19734 19735 19736 19737 19738 19739 19740 19741 19742 19743 19744 19745 19746 19747 19748 19749 19750 19751 19752 19753 19754 19755 19756 19757 19758 19759 19760 19761 19762 19763 19764 19765 19766 19767 19768 19769 19770 19771 19772 19773 19774 19775 19776 19777 19778 19779 19780 19781 19782 19783 19784 19785 19786 19787 19788 19789 19790 19791 19792 19793 19794 19795 19796 19797 19798 19799 19800 19801 19802 19803 19804 19805 19806 19807 19808 19809 19810 19811 19812 19813 19814 19815 19816 19817 19818 19819 19820 19821 19822 19823 19824 19825 19826 19827 19828 19829 19830 19831 19832 19833 19834 19835 19836 19837 19838 19839 19840 19841 19842 19843 19844 19845 19846 19847 19848 19849 19850 19851 19852 19853 19854 19855 19856 19857 19858 19859 19860 19861 19862 19863 19864 19865 19866 19867 19868 19869 19870 19871 19872 19873 19874 19875 19876 19877 19878 19879 19880 19881 19882 19883 19884 19885 19886 19887 19888 19889 19890 19891 19892 19893 19894 19895 19896 19897 19898 19899 19900 19901 19902 19903 19904 19905 19906 19907 19908 19909 19910 19911 19912 19913 19914 19915 19916 19917 19918 19919 19920 19921 19922 19923 19924 19925 19926 19927 19928 19929 19930 19931 19932 19933 19934 19935 19936 19937 19938 19939 19940 19941 19942 19943 19944 19945 19946 19947 19948 19949 19950 19951 19952 19953 19954 19955 19956 19957 19958 19959 19960 19961 19962 19963 19964 19965 19966 19967 19968 19969 19970 19971 19972 19973 19974 19975 19976 19977 19978 19979 19980 19981 19982 19983 19984 19985 19986 19987 19988 19989 19990 19991 19992 19993 19994 19995 19996 19997 19998 19999 20000 20001 20002 20003 20004 20005 20006 20007 20008 20009 20010 20011 20012 20013 20014 20015 20016 20017 20018 20019 20020 20021 20022 20023 20024 20025 20026 20027 20028 20029 20030 20031 20032 20033 20034 20035 20036 20037 20038 20039 20040 20041 20042 20043 20044 20045 20046 20047 20048 20049 20050 20051 20052 20053 20054 20055 20056 20057 20058 20059 20060 20061 20062 20063 20064 20065 20066 20067 20068 20069 20070 20071 20072 20073 20074 20075 20076 20077 20078 20079 20080 20081 20082 20083 20084 20085 20086 20087 20088 20089 20090 20091 20092 20093 20094 20095 20096 20097 20098 20099 20100 20101 20102 20103 20104 20105 20106 20107 20108 20109 20110 20111 20112 20113 20114 20115 20116 20117 20118 20119 20120 20121 20122 20123 20124 20125 20126 20127 20128 20129 20130 20131 20132 20133 20134 20135 20136 20137 20138 20139 20140 20141 20142 20143 20144 20145 20146 20147 20148 20149 20150 20151 20152 20153 20154 20155 20156 20157 20158 20159 20160 20161 20162 20163 20164 20165 20166 20167 20168 20169 20170 20171 20172 20173 20174 20175 20176 20177 20178 20179 20180 20181 20182 20183 20184 20185 20186 20187 20188 20189 20190 20191 20192 20193 20194 20195 20196 20197 20198 20199 20200 20201 20202 20203 20204 20205 20206 20207 20208 20209 20210 20211 20212 20213 20214 20215 20216 20217 20218 20219 20220 20221 20222 20223 20224 20225 20226 20227 20228 20229 20230 20231 20232 20233 20234 20235 20236 20237 20238 20239 20240 20241 20242 20243 20244 20245 20246 20247 20248 20249 20250 20251 20252 20253 20254 20255 20256 20257 20258 20259 20260 20261 20262 20263 20264 20265 20266 20267 20268 20269 20270 20271 20272 20273 20274 20275 20276 20277 20278 20279 20280 20281 20282 20283 20284 20285 20286 20287 20288 20289 20290 20291 20292 20293 20294 20295 20296 20297 20298 20299 20300 20301 20302 20303 20304 20305 20306 20307 20308 20309 20310 20311 20312 20313 20314 20315 20316 20317 20318 20319 20320 20321 20322 20323 20324 20325 20326 20327 20328 20329 20330 20331 20332 20333 20334 20335 20336 20337 20338 20339 20340 20341 20342 20343 20344 20345 20346 20347 20348 20349 20350 20351 20352 20353 20354 20355 20356 20357 20358 20359 20360 20361 20362 20363 20364 20365 20366 20367 20368 20369 20370 20371 20372 20373 20374 20375 20376 20377 20378 20379 20380 20381 20382 20383 20384 20385 20386 20387 20388 20389 20390 20391 20392 20393 20394 20395 20396 20397 20398 20399 20400 20401 20402 20403 20404 20405 20406 20407 20408 20409 20410 20411 20412 20413 20414 20415 20416 20417 20418 20419 20420 20421 20422 20423 20424 20425 20426 20427 20428 20429 20430 20431 20432 20433 20434 20435 20436 20437 20438 20439 20440 20441 20442 20443 20444 20445 20446 20447 20448 20449 20450 20451 20452 20453 20454 20455 20456 20457 20458 20459 20460 20461 20462 20463 20464 20465 20466 20467 20468 20469 20470 20471 20472 20473 20474 20475 20476 20477 20478 20479 20480 20481 20482 20483 20484 20485 20486 20487 20488 20489 20490 20491 20492 20493 20494 20495 20496 20497 20498 20499 20500 20501 20502 20503 20504 20505 20506 20507 20508 20509 20510 20511 20512 20513 20514 20515 20516 20517 20518 20519 20520 20521 20522 20523 20524 20525 20526 20527 20528 20529 20530 20531 20532 20533 20534 20535 20536 20537 20538 20539 20540 20541 20542 20543 20544 20545 20546 20547 20548 20549 20550 20551 20552 20553 20554 20555 20556 20557 20558 20559 20560 20561 20562 20563 20564 20565 20566 20567 20568 20569 20570 20571 20572 20573 20574 20575 20576 20577 20578 20579 20580 20581 20582 20583 20584 20585 20586 20587 20588 20589 20590 20591 20592 20593 20594 20595 20596 20597 20598 20599 20600 20601 20602 20603 20604 20605 20606 20607 20608 20609 20610 20611 20612 20613 20614 20615 20616 20617 20618 20619 20620 20621 20622 20623 20624 20625 20626 20627 20628 20629 20630 20631 20632 20633 20634 20635 20636 20637 20638 20639 20640 20641 20642 20643 20644 20645 20646 20647 20648 20649 20650 20651 20652 20653 20654 20655 20656 20657 20658 20659 20660 20661 20662 20663 20664 20665 20666 20667 20668 20669 20670 20671 20672 20673 20674 20675 20676 20677 20678 20679 20680 20681 20682 20683 20684 20685 20686 20687 20688 20689 20690 20691 20692 20693 20694 20695 20696 20697 20698 20699 20700 20701 20702 20703 20704 20705 20706 20707 20708 20709 20710 20711 20712 20713 20714 20715 20716 20717 20718 20719 20720 20721 20722 20723 20724 20725 20726 20727 20728 20729 20730 20731 20732 20733 20734 20735 20736 20737 20738 20739 20740 20741 20742 20743 20744 20745 20746 20747 20748 20749 20750 20751 20752 20753 20754 20755 20756 20757 20758 20759 20760 20761 20762 20763 20764 20765 20766 20767 20768 20769 20770 20771 20772 20773 20774 20775 20776 20777 20778 20779 20780 20781 20782 20783 20784 20785 20786 20787 20788 20789 20790 20791 20792 20793 20794 20795 20796 20797 20798 20799 20800 20801 20802 20803 20804 20805 20806 20807 20808 20809 20810 20811 20812 20813 20814 20815 20816 20817 20818 20819 20820 20821 20822 20823 20824 20825 20826 20827 20828 20829 20830 20831 20832 20833 20834 20835 20836 20837 20838 20839 20840 20841 20842 20843 20844 20845 20846 20847 20848 20849 20850 20851 20852 20853 20854 20855 20856 20857 20858 20859 20860 20861 20862 20863 20864 20865 20866 20867 20868 20869 20870 20871 20872 20873 20874 20875 20876 20877 20878 20879 20880 20881 20882 20883 20884 20885 20886 20887 20888 20889 20890 20891 20892 20893 20894 20895 20896 20897 20898 20899 20900 20901 20902 20903 20904 20905 20906 20907 20908 20909 20910 20911 20912 20913 20914 20915 20916 20917 20918 20919 20920 20921 20922 20923 20924 20925 20926 20927 20928 20929 20930 20931 20932 20933 20934 20935 20936 20937 20938 20939 20940 20941 20942 20943 20944 20945 20946 20947 20948 20949 20950 20951 20952 20953 20954 20955 20956 20957 20958 20959 20960 20961 20962 20963 20964 20965 20966 20967 20968 20969 20970 20971 20972 20973 20974 20975 20976 20977 20978 20979 20980 20981 20982 20983 20984 20985 20986 20987 20988 20989 20990 20991 20992 20993 20994 20995 20996 20997 20998 20999 21000 21001 21002 21003 21004 21005 21006 21007 21008 21009 21010 21011 21012 21013 21014 21015 21016 21017 21018 21019 21020 21021 21022 21023 21024 21025 21026 21027 21028 21029 21030 21031 21032 21033 21034 21035 21036 21037 21038 21039 21040 21041 21042 21043 21044 21045 21046 21047 21048 21049 21050 21051 21052 21053 21054 21055 21056 21057 21058 21059 21060 21061 21062 21063 21064 21065 21066 21067 21068 21069 21070 21071 21072 21073 21074 21075 21076 21077 21078 21079 21080 21081 21082 21083 21084 21085 21086 21087 21088 21089 21090 21091 21092 21093 21094 21095 21096 21097 21098 21099 21100 21101 21102 21103 21104 21105 21106 21107 21108 21109 21110 21111 21112 21113 21114 21115 21116 21117 21118 21119 21120 21121 21122 21123 21124 21125 21126 21127 21128 21129 21130 21131 21132 21133 21134 21135 21136 21137 21138 21139 21140 21141 21142 21143 21144 21145 21146 21147 21148 21149 21150 21151 21152 21153 21154 21155 21156 21157 21158 21159 21160 21161 21162 21163 21164 21165 21166 21167 21168 21169 21170 21171 21172 21173 21174 21175 21176 21177 21178 21179 21180 21181 21182 21183 21184 21185 21186 21187 21188 21189 21190 21191 21192 21193 21194 21195 21196 21197 21198 21199 21200 21201 21202 21203 21204 21205 21206 21207 21208 21209 21210 21211 21212 21213 21214 21215 21216 21217 21218 21219 21220 21221 21222 21223 21224 21225 21226 21227 21228 21229 21230 21231 21232 21233 21234 21235 21236 21237 21238 21239 21240 21241 21242 21243 21244 21245 21246 21247 21248 21249 21250 21251 21252 21253 21254 21255 21256 21257 21258 21259 21260 21261 21262 21263 21264 21265 21266 21267 21268 21269 21270 21271 21272 21273 21274 21275 21276 21277 21278 21279 21280 21281 21282 21283 21284 21285 21286 21287 21288 21289 21290 21291 21292 21293 21294 21295 21296 21297 21298 21299 21300 21301 21302 21303 21304 21305 21306 21307 21308 21309 21310 21311 21312 21313 21314 21315 21316 21317 21318 21319 21320 21321 21322 21323 21324 21325 21326 21327 21328 21329 21330 21331 21332 21333 21334 21335 21336 21337 21338 21339 21340 21341 21342 21343 21344 21345 21346 21347 21348 21349 21350 21351 21352 21353 21354 21355 21356 21357 21358 21359 21360 21361 21362 21363 21364 21365 21366 21367 21368 21369 21370 21371 21372 21373 21374 21375 21376 21377 21378 21379 21380 21381 21382 21383 21384 21385 21386 21387 21388 21389 21390 21391 21392 21393 21394 21395 21396 21397 21398 21399 21400 21401 21402 21403 21404 21405 21406 21407 21408 21409 21410 21411 21412 21413 21414 21415 21416 21417 21418 21419 21420 21421 21422 21423 21424 21425 21426 21427 21428 21429 21430 21431 21432 21433 21434 21435 21436 21437 21438 21439 21440 21441 21442 21443 21444 21445 21446 21447 21448 21449 21450 21451 21452 21453 21454 21455 21456 21457 21458 21459 21460 21461 21462 21463 21464 21465 21466 21467 21468 21469 21470 21471 21472 21473 21474 21475 21476 21477 21478 21479 21480 21481 21482 21483 21484 21485 21486 21487 21488 21489 21490 21491 21492 21493 21494 21495 21496 21497 21498 21499 21500 21501 21502 21503 21504 21505 21506 21507 21508 21509 21510 21511 21512 21513 21514 21515 21516 21517 21518 21519 21520 21521 21522 21523 21524 21525 21526 21527 21528 21529 21530 21531 21532 21533 21534 21535 21536 21537 21538 21539 21540 21541 21542 21543 21544 21545 21546 21547 21548 21549 21550 21551 21552 21553 21554 21555 21556 21557 21558 21559 21560 21561 21562 21563 21564 21565 21566 21567 21568 21569 21570 21571 21572 21573 21574 21575 21576 21577 21578 21579 21580 21581 21582 21583 21584 21585 21586 21587 21588 21589 21590 21591 21592 21593 21594 21595 21596 21597 21598 21599 21600 21601 21602 21603 21604 21605 21606 21607 21608 21609 21610 21611 21612 21613 21614 21615 21616 21617 21618 21619 21620 21621 21622 21623 21624 21625 21626 21627 21628 21629 21630 21631 21632 21633 21634 21635 21636 21637 21638 21639 21640 21641 21642 21643 21644 21645 21646 21647 21648 21649 21650 21651 21652 21653 21654 21655 21656 21657 21658 21659 21660 21661 21662 21663 21664 21665 21666 21667 21668 21669 21670 21671 21672 21673 21674 21675 21676 21677 21678 21679 21680 21681 21682 21683 21684 21685 21686 21687 21688 21689 21690 21691 21692 21693 21694 21695 21696 21697 21698 21699 21700 21701 21702 21703 21704 21705 21706 21707 21708 21709 21710 21711 21712 21713 21714 21715 21716 21717 21718 21719 21720 21721 21722 21723 21724 21725 21726 21727 21728 21729 21730 21731 21732 21733 21734 21735 21736 21737 21738 21739 21740 21741 21742 21743 21744 21745 21746 21747 21748 21749 21750 21751 21752 21753 21754 21755 21756 21757 21758 21759 21760 21761 21762 21763 21764 21765 21766 21767 21768 21769 21770 21771 21772 21773 21774 21775 21776 21777 21778 21779 21780 21781 21782 21783 21784 21785 21786 21787 21788 21789 21790 21791 21792 21793 21794 21795 21796 21797 21798 21799 21800 21801 21802 21803 21804 21805 21806 21807 21808 21809 21810 21811 21812 21813 21814 21815 21816 21817 21818 21819 21820 21821 21822 21823 21824 21825 21826 21827 21828 21829 21830 21831 21832 21833 21834 21835 21836 21837 21838 21839 21840 21841 21842 21843 21844 21845 21846 21847 21848 21849 21850 21851 21852 21853 21854 21855 21856 21857 21858 21859 21860 21861 21862 21863 21864 21865 21866 21867 21868 21869 21870 21871 21872 21873 21874 21875 21876 21877 21878 21879 21880 21881 21882 21883 21884 21885 21886 21887 21888 21889 21890 21891 21892 21893 21894 21895 21896 21897 21898 21899 21900 21901 21902 21903 21904 21905 21906 21907 21908 21909 21910 21911 21912 21913 21914 21915 21916 21917 21918 21919 21920 21921 21922 21923 21924 21925 21926 21927 21928 21929 21930 21931 21932 21933 21934 21935 21936 21937 21938 21939 21940 21941 21942 21943 21944 21945 21946 21947 21948 21949 21950 21951 21952 21953 21954 21955 21956 21957 21958 21959 21960 21961 21962 21963 21964 21965 21966 21967 21968 21969 21970 21971 21972 21973 21974 21975 21976 21977 21978 21979 21980 21981 21982 21983 21984 21985 21986 21987 21988 21989 21990 21991 21992 21993 21994 21995 21996 21997 21998 21999 22000 22001 22002 22003 22004 22005 22006 22007 22008 22009 22010 22011 22012 22013 22014 22015 22016 22017 22018 22019 22020 22021 22022 22023 22024 22025 22026 22027 22028 22029 22030 22031 22032 22033 22034 22035 22036 22037 22038 22039 22040 22041 22042 22043 22044 22045 22046 22047 22048 22049 22050 22051 22052 22053 22054 22055 22056 22057 22058 22059 22060 22061 22062 22063 22064 22065 22066 22067 22068 22069 22070 22071 22072 22073 22074 22075 22076 22077 22078 22079 22080 22081 22082 22083 22084 22085 22086 22087 22088 22089 22090 22091 22092 22093 22094 22095 22096 22097 22098 22099 22100 22101 22102 22103 22104 22105 22106 22107 22108 22109 22110 22111 22112 22113 22114 22115 22116 22117 22118 22119 22120 22121 22122 22123 22124 22125 22126 22127 22128 22129 22130 22131 22132 22133 22134 22135 22136 22137 22138 22139 22140 22141 22142 22143 22144 22145 22146 22147 22148 22149 22150 22151 22152 22153 22154 22155 22156 22157 22158 22159 22160 22161 22162 22163 22164 22165 22166 22167 22168 22169 22170 22171 22172 22173 22174 22175 22176 22177 22178 22179 22180 22181 22182 22183 22184 22185 22186 22187 22188 22189 22190 22191 22192 22193 22194 22195 22196 22197 22198 22199 22200 22201 22202 22203 22204 22205 22206 22207 22208 22209 22210 22211 22212 22213 22214 22215 22216 22217 22218 22219 22220 22221 22222 22223 22224 22225 22226 22227 22228 22229 22230 22231 22232 22233 22234 22235 22236 22237 22238 22239 22240 22241 22242 22243 22244 22245 22246 22247 22248 22249 22250 22251 22252 22253 22254 22255 22256 22257 22258 22259 22260 22261 22262 22263 22264 22265 22266 22267 22268 22269 22270 22271 22272 22273 22274 22275 22276 22277 22278 22279 22280 22281 22282 22283 22284 22285 22286 22287 22288 22289 22290 22291 22292 22293 22294 22295 22296 22297 22298 22299 22300 22301 22302 22303 22304 22305 22306 22307 22308 22309 22310 22311 22312 22313 22314 22315 22316 22317 22318 22319 22320 22321 22322 22323 22324 22325 22326 22327 22328 22329 22330 22331 22332 22333 22334 22335 22336 22337 22338 22339 22340 22341 22342 22343 22344 22345 22346 22347 22348 22349 22350 22351 22352 22353 22354 22355 22356 22357 22358 22359 22360 22361 22362 22363 22364 22365 22366 22367 22368 22369 22370 22371 22372 22373 22374 22375 22376 22377 22378 22379 22380 22381 22382 22383 22384 22385 22386 22387 22388 22389 22390 22391 22392 22393 22394 22395 22396 22397 22398 22399 22400 22401 22402 22403 22404 22405 22406 22407 22408 22409 22410 22411 22412 22413 22414 22415 22416 22417 22418 22419 22420 22421 22422 22423 22424 22425 22426 22427 22428 22429 22430 22431 22432 22433 22434 22435 22436 22437 22438 22439 22440 22441 22442 22443 22444 22445 22446 22447 22448 22449 22450 22451 22452 22453 22454 22455 22456 22457 22458 22459 22460 22461 22462 22463 22464 22465 22466 22467 22468 22469 22470 22471 22472 22473 22474 22475 22476 22477 22478 22479 22480 22481 22482 22483 22484 22485 22486 22487 22488 22489 22490 22491 22492 22493 22494 22495 22496 22497 22498 22499 22500 22501 22502 22503 22504 22505 22506 22507 22508 22509 22510 22511 22512 22513 22514 22515 22516 22517 22518 22519 22520 22521 22522 22523 22524 22525 22526 22527 22528 22529 22530 22531 22532 22533 22534 22535 22536 22537 22538 22539 22540 22541 22542 22543 22544 22545 22546 22547 22548 22549 22550 22551 22552 22553 22554 22555 22556 22557 22558 22559 22560 22561 22562 22563 22564 22565 22566 22567 22568 22569 22570 22571 22572 22573 22574 22575 22576 22577 22578 22579 22580 22581 22582 22583 22584 22585 22586 22587 22588 22589 22590 22591 22592 22593 22594 22595 22596 22597 22598 22599 22600 22601 22602 22603 22604 22605 22606 22607 22608 22609 22610 22611 22612 22613 22614 22615 22616 22617 22618 22619 22620 22621 22622 22623 22624 22625 22626 22627 22628 22629 22630 22631 22632 22633 22634 22635 22636 22637 22638 22639 22640 22641 22642 22643 22644 22645 22646 22647 22648 22649 22650 22651 22652 22653 22654 22655 22656 22657 22658 22659 22660 22661 22662 22663 22664 22665 22666 22667 22668 22669 22670 22671 22672 22673 22674 22675 22676 22677 22678 22679 22680 22681 22682 22683 22684 22685 22686 22687 22688 22689 22690 22691 22692 22693 22694 22695 22696 22697 22698 22699 22700 22701 22702 22703 22704 22705 22706 22707 22708 22709 22710 22711 22712 22713 22714 22715 22716 22717 22718 22719 22720 22721 22722 22723 22724 22725 22726 22727 22728 22729 22730 22731 22732 22733 22734 22735 22736 22737 22738 22739 22740 22741 22742 22743 22744 22745 22746 22747 22748 22749 22750 22751 22752 22753 22754 22755 22756 22757 22758 22759 22760 22761 22762 22763 22764 22765 22766 22767 22768 22769 22770 22771 22772 22773 22774 22775 22776 22777 22778 22779 22780 22781 22782 22783 22784 22785 22786 22787 22788 22789 22790 22791 22792 22793 22794 22795 22796 22797 22798 22799 22800 22801 22802 22803 22804 22805 22806 22807 22808 22809 22810 22811 22812 22813 22814 22815 22816 22817 22818 22819 22820 22821 22822 22823 22824 22825 22826 22827 22828 22829 22830 22831 22832 22833 22834 22835 22836 22837 22838 22839 22840 22841 22842 22843 22844 22845 22846 22847 22848 22849 22850 22851 22852 22853 22854 22855 22856 22857 22858 22859 22860 22861 22862 22863 22864 22865 22866 22867 22868 22869 22870 22871 22872 22873 22874 22875 22876 22877 22878 22879 22880 22881 22882 22883 22884 22885 22886 22887 22888 22889 22890 22891 22892 22893 22894 22895 22896 22897 22898 22899 22900 22901 22902 22903 22904 22905 22906 22907 22908 22909 22910 22911 22912 22913 22914 22915 22916 22917 22918 22919 22920 22921 22922 22923 22924 22925 22926 22927 22928 22929 22930 22931 22932 22933 22934 22935 22936 22937 22938 22939 22940 22941 22942 22943 22944 22945 22946 22947 22948 22949 22950 22951 22952 22953 22954 22955 22956 22957 22958 22959 22960 22961 22962 22963 22964 22965 22966 22967 22968 22969 22970 22971 22972 22973 22974 22975 22976 22977 22978 22979 22980 22981 22982 22983 22984 22985 22986 22987 22988 22989 22990 22991 22992 22993 22994 22995 22996 22997 22998 22999 23000 23001 23002 23003 23004 23005 23006 23007 23008 23009 23010 23011 23012 23013 23014 23015 23016 23017 23018 23019 23020 23021 23022 23023 23024 23025 23026 23027 23028 23029 23030 23031 23032 23033 23034 23035 23036 23037 23038 23039 23040 23041 23042 23043 23044 23045 23046 23047 23048 23049 23050 23051 23052 23053 23054 23055 23056 23057 23058 23059 23060 23061 23062 23063 23064 23065 23066 23067 23068 23069 23070 23071 23072 23073 23074 23075 23076 23077 23078 23079 23080 23081 23082 23083 23084 23085 23086 23087 23088 23089 23090 23091 23092 23093 23094 23095 23096 23097 23098 23099 23100 23101 23102 23103 23104 23105 23106 23107 23108 23109 23110 23111 23112 23113 23114 23115 23116 23117 23118 23119 23120 23121 23122 23123 23124 23125 23126 23127 23128 23129 23130 23131 23132 23133 23134 23135 23136 23137 23138 23139 23140 23141 23142 23143 23144 23145 23146 23147 23148 23149 23150 23151 23152 23153 23154 23155 23156 23157 23158 23159 23160 23161 23162 23163 23164 23165 23166 23167 23168 23169 23170 23171 23172 23173 23174 23175 23176 23177 23178 23179 23180 23181 23182 23183 23184 23185 23186 23187 23188 23189 23190 23191 23192 23193 23194 23195 23196 23197 23198 23199 23200 23201 23202 23203 23204 23205 23206 23207 23208 23209 23210 23211 23212 23213 23214 23215 23216 23217 23218 23219 23220 23221 23222 23223 23224 23225 23226 23227 23228 23229 23230 23231 23232 23233 23234 23235 23236 23237 23238 23239 23240 23241 23242 23243 23244 23245 23246 23247 23248 23249 23250 23251 23252 23253 23254 23255 23256 23257 23258 23259 23260 23261 23262 23263 23264 23265 23266 23267 23268 23269 23270 23271 23272 23273 23274 23275 23276 23277 23278 23279 23280 23281 23282 23283 23284 23285 23286 23287 23288 23289 23290 23291 23292 23293 23294 23295 23296 23297 23298 23299 23300 23301 23302 23303 23304 23305 23306 23307 23308 23309 23310 23311 23312 23313 23314 23315 23316 23317 23318 23319 23320 23321 23322 23323 23324 23325 23326 23327 23328 23329 23330 23331 23332 23333 23334 23335 23336 23337 23338 23339 23340 23341 23342 23343 23344 23345 23346 23347 23348 23349 23350 23351 23352 23353 23354 23355 23356 23357 23358 23359 23360 23361 23362 23363 23364 23365 23366 23367 23368 23369 23370 23371 23372 23373 23374 23375 23376 23377 23378 23379 23380 23381 23382 23383 23384 23385 23386 23387 23388 23389 23390 23391 23392 23393 23394 23395 23396 23397 23398 23399 23400 23401 23402 23403 23404 23405 23406 23407 23408 23409 23410 23411 23412 23413 23414 23415 23416 23417 23418 23419 23420 23421 23422 23423 23424 23425 23426 23427 23428 23429 23430 23431 23432 23433 23434 23435 23436 23437 23438 23439 23440 23441 23442 23443 23444 23445 23446 23447 23448 23449 23450 23451 23452 23453 23454 23455 23456 23457 23458 23459 23460 23461 23462 23463 23464 23465 23466 23467 23468 23469 23470 23471 23472 23473 23474 23475 23476 23477 23478 23479 23480 23481 23482 23483 23484 23485 23486 23487 23488 23489 23490 23491 23492 23493 23494 23495 23496 23497 23498 23499 23500 23501 23502 23503 23504 23505 23506 23507 23508 23509 23510 23511 23512 23513 23514 23515 23516 23517 23518 23519 23520 23521 23522 23523 23524 23525 23526 23527 23528 23529 23530 23531 23532 23533 23534 23535 23536 23537 23538 23539 23540 23541 23542 23543 23544 23545 23546 23547 23548 23549 23550 23551 23552 23553 23554 23555 23556 23557 23558 23559 23560 23561 23562 23563 23564 23565 23566 23567 23568 23569 23570 23571 23572 23573 23574 23575 23576 23577 23578 23579 23580 23581 23582 23583 23584 23585 23586 23587 23588 23589 23590 23591 23592 23593 23594 23595 23596 23597 23598 23599 23600 23601 23602 23603 23604 23605 23606 23607 23608 23609 23610 23611 23612 23613 23614 23615 23616 23617 23618 23619 23620 23621 23622 23623 23624 23625 23626 23627 23628 23629 23630 23631 23632 23633 23634 23635 23636 23637 23638 23639 23640 23641 23642 23643 23644 23645 23646 23647 23648 23649 23650 23651 23652 23653 23654 23655 23656 23657 23658 23659 23660 23661 23662 23663 23664 23665 23666 23667 23668 23669 23670 23671 23672 23673 23674 23675 23676 23677 23678 23679 23680 23681 23682 23683 23684 23685 23686 23687 23688 23689 23690 23691 23692 23693 23694 23695 23696 23697 23698 23699 23700 23701 23702 23703 23704 23705 23706 23707 23708 23709 23710 23711 23712 23713 23714 23715 23716 23717 23718 23719 23720 23721 23722 23723 23724 23725 23726 23727 23728 23729 23730 23731 23732 23733 23734 23735 23736 23737 23738 23739 23740 23741 23742 23743 23744 23745 23746 23747 23748 23749 23750 23751 23752 23753 23754 23755 23756 23757 23758 23759 23760 23761 23762 23763 23764 23765 23766 23767 23768 23769 23770 23771 23772 23773 23774 23775 23776 23777 23778 23779 23780 23781 23782 23783 23784 23785 23786 23787 23788 23789 23790 23791 23792 23793 23794 23795 23796 23797 23798 23799 23800 23801 23802 23803 23804 23805 23806 23807 23808 23809 23810 23811 23812 23813 23814 23815 23816 23817 23818 23819 23820 23821 23822 23823 23824 23825 23826 23827 23828 23829 23830 23831 23832 23833 23834 23835 23836 23837 23838 23839 23840 23841 23842 23843 23844 23845 23846 23847 23848 23849 23850 23851 23852 23853 23854 23855 23856 23857 23858 23859 23860 23861 23862 23863 23864 23865 23866 23867 23868 23869 23870 23871 23872 23873 23874 23875 23876 23877 23878 23879 23880 23881 23882 23883 23884 23885 23886 23887 23888 23889 23890 23891 23892 23893 23894 23895 23896 23897 23898 23899 23900 23901 23902 23903 23904 23905 23906 23907 23908 23909 23910 23911 23912 23913 23914 23915 23916 23917 23918 23919 23920 23921 23922 23923 23924 23925 23926 23927 23928 23929 23930 23931 23932 23933 23934 23935 23936 23937 23938 23939 23940 23941 23942 23943 23944 23945 23946 23947 23948 23949 23950 23951 23952 23953 23954 23955 23956 23957 23958 23959 23960 23961 23962 23963 23964 23965 23966 23967 23968 23969 23970 23971 23972 23973 23974 23975 23976 23977 23978 23979 23980 23981 23982 23983 23984 23985 23986 23987 23988 23989 23990 23991 23992 23993 23994 23995 23996 23997 23998 23999 24000 24001 24002 24003 24004 24005 24006 24007 24008 24009 24010 24011 24012 24013 24014 24015 24016 24017 24018 24019 24020 24021 24022 24023 24024 24025 24026 24027 24028 24029 24030 24031 24032 24033 24034 24035 24036 24037 24038 24039 24040 24041 24042 24043 24044 24045 24046 24047 24048 24049 24050 24051 24052 24053 24054 24055 24056 24057 24058 24059 24060 24061 24062 24063 24064 24065 24066 24067 24068 24069 24070 24071 24072 24073 24074 24075 24076 24077 24078 24079 24080 24081 24082 24083 24084 24085 24086 24087 24088 24089 24090 24091 24092 24093 24094 24095 24096 24097 24098 24099 24100 24101 24102 24103 24104 24105 24106 24107 24108 24109 24110 24111 24112 24113 24114 24115 24116 24117 24118 24119 24120 24121 24122 24123 24124 24125 24126 24127 24128 24129 24130 24131 24132 24133 24134 24135 24136 24137 24138 24139 24140 24141 24142 24143 24144 24145 24146 24147 24148 24149 24150 24151 24152 24153 24154 24155 24156 24157 24158 24159 24160 24161 24162 24163 24164 24165 24166 24167 24168 24169 24170 24171 24172 24173 24174 24175 24176 24177 24178 24179 24180 24181 24182 24183 24184 24185 24186 24187 24188 24189 24190 24191 24192 24193 24194 24195 24196 24197 24198 24199 24200 24201 24202 24203 24204 24205 24206 24207 24208 24209 24210 24211 24212 24213 24214 24215 24216 24217 24218 24219 24220 24221 24222 24223 24224 24225 24226 24227 24228 24229 24230 24231 24232 24233 24234 24235 24236 24237 24238 24239 24240 24241 24242 24243 24244 24245 24246 24247 24248 24249 24250 24251 24252 24253 24254 24255 24256 24257 24258 24259 24260 24261 24262 24263 24264 24265 24266 24267 24268 24269 24270 24271 24272 24273 24274 24275 24276 24277 24278 24279 24280 24281 24282 24283 24284 24285 24286 24287 24288 24289 24290 24291 24292 24293 24294 24295 24296 24297 24298 24299 24300 24301 24302 24303 24304 24305 24306 24307 24308 24309 24310 24311 24312 24313 24314 24315 24316 24317 24318 24319 24320 24321 24322 24323 24324 24325 24326 24327 24328 24329 24330 24331 24332 24333 24334 24335 24336 24337 24338 24339 24340 24341 24342 24343 24344 24345 24346 24347 24348 24349 24350 24351 24352 24353 24354 24355 24356 24357 24358 24359 24360 24361 24362 24363 24364 24365 24366 24367 24368 24369 24370 24371 24372 24373 24374 24375 24376 24377 24378 24379 24380 24381 24382 24383 24384 24385 24386 24387 24388 24389 24390 24391 24392 24393 24394 24395 24396 24397 24398 24399 24400 24401 24402 24403 24404 24405 24406 24407 24408 24409 24410 24411 24412 24413 24414 24415 24416 24417 24418 24419 24420 24421 24422 24423 24424 24425 24426 24427 24428 24429 24430 24431 24432 24433 24434 24435 24436 24437 24438 24439 24440 24441 24442 24443 24444 24445 24446 24447 24448 24449 24450 24451 24452 24453 24454 24455 24456 24457 24458 24459 24460 24461 24462 24463 24464 24465 24466 24467 24468 24469 24470 24471 24472 24473 24474 24475 24476 24477 24478 24479 24480 24481 24482 24483 24484 24485 24486 24487 24488 24489 24490 24491 24492 24493 24494 24495 24496 24497 24498 24499 24500 24501 24502 24503 24504 24505 24506 24507 24508 24509 24510 24511 24512 24513 24514 24515 24516 24517 24518 24519 24520 24521 24522 24523 24524 24525 24526 24527 24528 24529 24530 24531 24532 24533 24534 24535 24536 24537 24538 24539 24540 24541 24542 24543 24544 24545 24546 24547 24548 24549 24550 24551 24552 24553 24554 24555 24556 24557 24558 24559 24560 24561 24562 24563 24564 24565 24566 24567 24568 24569 24570 24571 24572 24573 24574 24575 24576 24577 24578 24579 24580 24581 24582 24583 24584 24585 24586 24587 24588 24589 24590 24591 24592 24593 24594 24595 24596 24597 24598 24599 24600 24601 24602 24603 24604 24605 24606 24607 24608 24609 24610 24611 24612 24613 24614 24615 24616 24617 24618 24619 24620 24621 24622 24623 24624 24625 24626 24627 24628 24629 24630 24631 24632 24633 24634 24635 24636 24637 24638 24639 24640 24641 24642 24643 24644 24645 24646 24647 24648 24649 24650 24651 24652 24653 24654 24655 24656 24657 24658 24659 24660 24661 24662 24663 24664 24665 24666 24667 24668 24669 24670 24671 24672 24673 24674 24675 24676 24677 24678 24679 24680 24681 24682 24683 24684 24685 24686 24687 24688 24689 24690 24691 24692 24693 24694 24695 24696 24697 24698 24699 24700 24701 24702 24703 24704 24705 24706 24707 24708 24709 24710 24711 24712 24713 24714 24715 24716 24717 24718 24719 24720 24721 24722 24723 24724 24725 24726 24727 24728 24729 24730 24731 24732 24733 24734 24735 24736 24737 24738 24739 24740 24741 24742 24743 24744 24745 24746 24747 24748 24749 24750 24751 24752 24753 24754 24755 24756 24757 24758 24759 24760 24761 24762 24763 24764 24765 24766 24767 24768 24769 24770 24771 24772 24773 24774 24775 24776 24777 24778 24779 24780 24781 24782 24783 24784 24785 24786 24787 24788 24789 24790 24791 24792 24793 24794 24795 24796 24797 24798 24799 24800 24801 24802 24803 24804 24805 24806 24807 24808 24809 24810 24811 24812 24813 24814 24815 24816 24817 24818 24819 24820 24821 24822 24823 24824 24825 24826 24827 24828 24829 24830 24831 24832 24833 24834 24835 24836 24837 24838 24839 24840 24841 24842 24843 24844 24845 24846 24847 24848 24849 24850 24851 24852 24853 24854 24855 24856 24857 24858 24859 24860 24861 24862 24863 24864 24865 24866 24867 24868 24869 24870 24871 24872 24873 24874 24875 24876 24877 24878 24879 24880 24881 24882 24883 24884 24885 24886 24887 24888 24889 24890 24891 24892 24893 24894 24895 24896 24897 24898 24899 24900 24901 24902 24903 24904 24905 24906 24907 24908 24909 24910 24911 24912 24913 24914 24915 24916 24917 24918 24919 24920 24921 24922 24923 24924 24925 24926 24927 24928 24929 24930 24931 24932 24933 24934 24935 24936 24937 24938 24939 24940 24941 24942 24943 24944 24945 24946 24947 24948 24949 24950 24951 24952 24953 24954 24955 24956 24957 24958 24959 24960 24961 24962 24963 24964 24965 24966 24967 24968 24969 24970 24971 24972 24973 24974 24975 24976 24977 24978 24979 24980 24981 24982 24983 24984 24985 24986 24987 24988 24989 24990 24991 24992 24993 24994 24995 24996 24997 24998 24999 25000 25001 25002 25003 25004 25005 25006 25007 25008 25009 25010 25011 25012 25013 25014 25015 25016 25017 25018 25019 25020 25021 25022 25023 25024 25025 25026 25027 25028 25029 25030 25031 25032 25033 25034 25035 25036 25037 25038 25039 25040 25041 25042 25043 25044 25045 25046 25047 25048 25049 25050 25051 25052 25053 25054 25055 25056 25057 25058 25059 25060 25061 25062 25063 25064 25065 25066 25067 25068 25069 25070 25071 25072 25073 25074 25075 25076 25077 25078 25079 25080 25081 25082 25083 25084 25085 25086 25087 25088 25089 25090 25091 25092 25093 25094 25095 25096 25097 25098 25099 25100 25101 25102 25103 25104 25105 25106 25107 25108 25109 25110 25111 25112 25113 25114 25115 25116 25117 25118 25119 25120 25121 25122 25123 25124 25125 25126 25127 25128 25129 25130 25131 25132 25133 25134 25135 25136 25137 25138 25139 25140 25141 25142 25143 25144 25145 25146 25147 25148 25149 25150 25151 25152 25153 25154 25155 25156 25157 25158 25159 25160 25161 25162 25163 25164 25165 25166 25167 25168 25169 25170 25171 25172 25173 25174 25175 25176 25177 25178 25179 25180 25181 25182 25183 25184 25185 25186 25187 25188 25189 25190 25191 25192 25193 25194 25195 25196 25197 25198 25199 25200 25201 25202 25203 25204 25205 25206 25207 25208 25209 25210 25211 25212 25213 25214 25215 25216 25217 25218 25219 25220 25221 25222 25223 25224 25225 25226 25227 25228 25229 25230 25231 25232 25233 25234 25235 25236 25237 25238 25239 25240 25241 25242 25243 25244 25245 25246 25247 25248 25249 25250 25251 25252 25253 25254 25255 25256 25257 25258 25259 25260 25261 25262 25263 25264 25265 25266 25267 25268 25269 25270 25271 25272 25273 25274 25275 25276 25277 25278 25279 25280 25281 25282 25283 25284 25285 25286 25287 25288 25289 25290 25291 25292 25293 25294 25295 25296 25297 25298 25299 25300 25301 25302 25303 25304 25305 25306 25307 25308 25309 25310 25311 25312 25313 25314 25315 25316 25317 25318 25319 25320 25321 25322 25323 25324 25325 25326 25327 25328 25329 25330 25331 25332 25333 25334 25335 25336 25337 25338 25339 25340 25341 25342 25343 25344 25345 25346 25347 25348 25349 25350 25351 25352 25353 25354 25355 25356 25357 25358 25359 25360 25361 25362 25363 25364 25365 25366 25367 25368 25369 25370 25371 25372 25373 25374 25375 25376 25377 25378 25379 25380 25381 25382 25383 25384 25385 25386 25387 25388 25389 25390 25391 25392 25393 25394 25395 25396 25397 25398 25399 25400 25401 25402 25403 25404 25405 25406 25407 25408 25409 25410 25411 25412 25413 25414 25415 25416 25417 25418 25419 25420 25421 25422 25423 25424 25425 25426 25427 25428 25429 25430 25431 25432 25433 25434 25435 25436 25437 25438 25439 25440 25441 25442 25443 25444 25445 25446 25447 25448 25449 25450 25451 25452 25453 25454 25455 25456 25457 25458 25459 25460 25461 25462 25463 25464 25465 25466 25467 25468 25469 25470 25471 25472 25473 25474 25475 25476 25477 25478 25479 25480 25481 25482 25483 25484 25485 25486 25487 25488 25489 25490 25491 25492 25493 25494 25495 25496 25497 25498 25499 25500 25501 25502 25503 25504 25505 25506 25507 25508 25509 25510 25511 25512 25513 25514 25515 25516 25517 25518 25519 25520 25521 25522 25523 25524 25525 25526 25527 25528 25529 25530 25531 25532 25533 25534 25535 25536 25537 25538 25539 25540 25541 25542 25543 25544 25545 25546 25547 25548 25549 25550 25551 25552 25553 25554 25555 25556 25557 25558 25559 25560 25561 25562 25563 25564 25565 25566 25567 25568 25569 25570 25571 25572 25573 25574 25575 25576 25577 25578 25579 25580 25581 25582 25583 25584 25585 25586 25587 25588 25589 25590 25591 25592 25593 25594 25595 25596 25597 25598 25599 25600 25601 25602 25603 25604 25605 25606 25607 25608 25609 25610 25611 25612 25613 25614 25615 25616 25617 25618 25619 25620 25621 25622 25623 25624 25625 25626 25627 25628 25629 25630 25631 25632 25633 25634 25635 25636 25637 25638 25639 25640 25641 25642 25643 25644 25645 25646 25647 25648 25649 25650 25651 25652 25653 25654 25655 25656 25657 25658 25659 25660 25661 25662 25663 25664 25665 25666 25667 25668 25669 25670 25671 25672 25673 25674 25675 25676 25677 25678 25679 25680 25681 25682 25683 25684 25685 25686 25687 25688 25689 25690 25691 25692 25693 25694 25695 25696 25697 25698 25699 25700 25701 25702 25703 25704 25705 25706 25707 25708 25709 25710 25711 25712 25713 25714 25715 25716 25717 25718 25719 25720 25721 25722 25723 25724 25725 25726 25727 25728 25729 25730 25731 25732 25733 25734 25735 25736 25737 25738 25739 25740 25741 25742 25743 25744 25745 25746 25747 25748 25749 25750 25751 25752 25753 25754 25755 25756 25757 25758 25759 25760 25761 25762 25763 25764 25765 25766 25767 25768 25769 25770 25771 25772 25773 25774 25775 25776 25777 25778 25779 25780 25781 25782 25783 25784 25785 25786 25787 25788 25789 25790 25791 25792 25793 25794 25795 25796 25797 25798 25799 25800 25801 25802 25803 25804 25805 25806 25807 25808 25809 25810 25811 25812 25813 25814 25815 25816 25817 25818 25819 25820 25821 25822 25823 25824 25825 25826 25827 25828 25829 25830 25831 25832 25833 25834 25835 25836 25837 25838 25839 25840 25841 25842 25843 25844 25845 25846 25847 25848 25849 25850 25851 25852 25853 25854 25855 25856 25857 25858 25859 25860 25861 25862 25863 25864 25865 25866 25867 25868 25869 25870 25871 25872 25873 25874 25875 25876 25877 25878 25879 25880 25881 25882 25883 25884 25885 25886 25887 25888 25889 25890 25891 25892 25893 25894 25895 25896 25897 25898 25899 25900 25901 25902 25903 25904 25905 25906 25907 25908 25909 25910 25911 25912 25913 25914 25915 25916 25917 25918 25919 25920 25921 25922 25923 25924 25925 25926 25927 25928 25929 25930 25931 25932 25933 25934 25935 25936 25937 25938 25939 25940 25941 25942 25943 25944 25945 25946 25947 25948 25949 25950 25951 25952 25953 25954 25955 25956 25957 25958 25959 25960 25961 25962 25963 25964 25965 25966 25967 25968 25969 25970 25971 25972 25973 25974 25975 25976 25977 25978 25979 25980 25981 25982 25983 25984 25985 25986 25987 25988 25989 25990 25991 25992 25993 25994 25995 25996 25997 25998 25999 26000 26001 26002 26003 26004 26005 26006 26007 26008 26009 26010 26011 26012 26013 26014 26015 26016 26017 26018 26019 26020 26021 26022 26023 26024 26025 26026 26027 26028 26029 26030 26031 26032 26033 26034 26035 26036 26037 26038 26039 26040 26041 26042 26043 26044 26045 26046 26047 26048 26049 26050 26051 26052 26053 26054 26055 26056 26057 26058 26059 26060 26061 26062 26063 26064 26065 26066 26067 26068 26069 26070 26071 26072 26073 26074 26075 26076 26077 26078 26079 26080 26081 26082 26083 26084 26085 26086 26087 26088 26089 26090 26091 26092 26093 26094 26095 26096 26097 26098 26099 26100 26101 26102 26103 26104 26105 26106 26107 26108 26109 26110 26111 26112 26113 26114 26115 26116 26117 26118 26119 26120 26121 26122 26123 26124 26125 26126 26127 26128 26129 26130 26131 26132 26133 26134 26135 26136 26137 26138 26139 26140 26141 26142 26143 26144 26145 26146 26147 26148 26149 26150 26151 26152 26153 26154 26155 26156 26157 26158 26159 26160 26161 26162 26163 26164 26165 26166 26167 26168 26169 26170 26171 26172 26173 26174 26175 26176 26177 26178 26179 26180 26181 26182 26183 26184 26185 26186 26187 26188 26189 26190 26191 26192 26193 26194 26195 26196 26197 26198 26199 26200 26201 26202 26203 26204 26205 26206 26207 26208 26209 26210 26211 26212 26213 26214 26215 26216 26217 26218 26219 26220 26221 26222 26223 26224 26225 26226 26227 26228 26229 26230 26231 26232 26233 26234 26235 26236 26237 26238 26239 26240 26241 26242 26243 26244 26245 26246 26247 26248 26249 26250 26251 26252 26253 26254 26255 26256 26257 26258 26259 26260 26261 26262 26263 26264 26265 26266 26267 26268 26269 26270 26271 26272 26273 26274 26275 26276 26277 26278 26279 26280 26281 26282 26283 26284 26285 26286 26287 26288 26289 26290 26291 26292 26293 26294 26295 26296 26297 26298 26299 26300 26301 26302 26303 26304 26305 26306 26307 26308 26309 26310 26311 26312 26313 26314 26315 26316 26317 26318 26319 26320 26321 26322 26323 26324 26325 26326 26327 26328 26329 26330 26331 26332 26333 26334 26335 26336 26337 26338 26339 26340 26341 26342 26343 26344 26345 26346 26347 26348 26349 26350 26351 26352 26353 26354 26355 26356 26357 26358 26359 26360 26361 26362 26363 26364 26365 26366 26367 26368 26369 26370 26371 26372 26373 26374 26375 26376 26377 26378 26379 26380 26381 26382 26383 26384 26385 26386 26387 26388 26389 26390 26391 26392 26393 26394 26395 26396 26397 26398 26399 26400 26401 26402 26403 26404 26405 26406 26407 26408 26409 26410 26411 26412 26413 26414 26415 26416 26417 26418 26419 26420 26421 26422 26423 26424 26425 26426 26427 26428 26429 26430 26431 26432 26433 26434 26435 26436 26437 26438 26439 26440 26441 26442 26443 26444 26445 26446 26447 26448 26449 26450 26451 26452 26453 26454 26455 26456 26457 26458 26459 26460 26461 26462 26463 26464 26465 26466 26467 26468 26469 26470 26471 26472 26473 26474 26475 26476 26477 26478 26479 26480 26481 26482 26483 26484 26485 26486 26487 26488 26489 26490 26491 26492 26493 26494 26495 26496 26497 26498 26499 26500 26501 26502 26503 26504 26505 26506 26507 26508 26509 26510 26511 26512 26513 26514 26515 26516 26517 26518 26519 26520 26521 26522 26523 26524 26525 26526 26527 26528 26529 26530 26531 26532 26533 26534 26535 26536 26537 26538 26539 26540 26541 26542 26543 26544 26545 26546 26547 26548 26549 26550 26551 26552 26553 26554 26555 26556 26557 26558 26559 26560 26561 26562 26563 26564 26565 26566 26567 26568 26569 26570 26571 26572 26573 26574 26575 26576 26577 26578 26579 26580 26581 26582 26583 26584 26585 26586 26587 26588 26589 26590 26591 26592 26593 26594 26595 26596 26597 26598 26599 26600 26601 26602 26603 26604 26605 26606 26607 26608 26609 26610 26611 26612 26613 26614 26615 26616 26617 26618 26619 26620 26621 26622 26623 26624 26625 26626 26627 26628 26629 26630 26631 26632 26633 26634 26635 26636 26637 26638 26639 26640 26641 26642 26643 26644 26645 26646 26647 26648 26649 26650 26651 26652 26653 26654 26655 26656 26657 26658 26659 26660 26661 26662 26663 26664 26665 26666 26667 26668 26669 26670 26671 26672 26673 26674 26675 26676 26677 26678 26679 26680 26681 26682 26683 26684 26685 26686 26687 26688 26689 26690 26691 26692 26693 26694 26695 26696 26697 26698 26699 26700 26701 26702 26703 26704 26705 26706 26707 26708 26709 26710 26711 26712 26713 26714 26715 26716 26717 26718 26719 26720 26721 26722 26723 26724 26725 26726 26727 26728 26729 26730 26731 26732 26733 26734 26735 26736 26737 26738 26739 26740 26741 26742 26743 26744 26745 26746 26747 26748 26749 26750 26751 26752 26753 26754 26755 26756 26757 26758 26759 26760 26761 26762 26763 26764 26765 26766 26767 26768 26769 26770 26771 26772 26773 26774 26775 26776 26777 26778 26779 26780 26781 26782 26783 26784 26785 26786 26787 26788 26789 26790 26791 26792 26793 26794 26795 26796 26797 26798 26799 26800 26801 26802 26803 26804 26805 26806 26807 26808 26809 26810 26811 26812 26813 26814 26815 26816 26817 26818 26819 26820 26821 26822 26823 26824 26825 26826 26827 26828 26829 26830 26831 26832 26833 26834 26835 26836 26837 26838 26839 26840 26841 26842 26843 26844 26845 26846 26847 26848 26849 26850 26851 26852 26853 26854 26855 26856 26857 26858 26859 26860 26861 26862 26863 26864 26865 26866 26867 26868 26869 26870 26871 26872 26873 26874 26875 26876 26877 26878 26879 26880 26881 26882 26883 26884 26885 26886 26887 26888 26889 26890 26891 26892 26893 26894 26895 26896 26897 26898 26899 26900 26901 26902 26903 26904 26905 26906 26907 26908 26909 26910 26911 26912 26913 26914 26915 26916 26917 26918 26919 26920 26921 26922 26923 26924 26925 26926 26927 26928 26929 26930 26931 26932 26933 26934 26935 26936 26937 26938 26939 26940 26941 26942 26943 26944 26945 26946 26947 26948 26949 26950 26951 26952 26953 26954 26955 26956 26957 26958 26959 26960 26961 26962 26963 26964 26965 26966 26967 26968 26969 26970 26971 26972 26973 26974 26975 26976 26977 26978 26979 26980 26981 26982 26983 26984 26985 26986 26987 26988 26989 26990 26991 26992 26993 26994 26995 26996 26997 26998 26999 27000 27001 27002 27003 27004 27005 27006 27007 27008 27009 27010 27011 27012 27013 27014 27015 27016 27017 27018 27019 27020 27021 27022 27023 27024 27025 27026 27027 27028 27029 27030 27031 27032 27033 27034 27035 27036 27037 27038 27039 27040 27041 27042 27043 27044 27045 27046 27047 27048 27049 27050 27051 27052 27053 27054 27055 27056 27057 27058 27059 27060 27061 27062 27063 27064 27065 27066 27067 27068 27069 27070 27071 27072 27073 27074 27075 27076 27077 27078 27079 27080 27081 27082 27083 27084 27085 27086 27087 27088 27089 27090 27091 27092 27093 27094 27095 27096 27097 27098 27099 27100 27101 27102 27103 27104 27105 27106 27107 27108 27109 27110 27111 27112 27113 27114 27115 27116 27117 27118 27119 27120 27121 27122 27123 27124 27125 27126 27127 27128 27129 27130 27131 27132 27133 27134 27135 27136 27137 27138 27139 27140 27141 27142 27143 27144 27145 27146 27147 27148 27149 27150 27151 27152 27153 27154 27155 27156 27157 27158 27159 27160 27161 27162 27163 27164 27165 27166 27167 27168 27169 27170 27171 27172 27173 27174 27175 27176 27177 27178 27179 27180 27181 27182 27183 27184 27185 27186 27187 27188 27189 27190 27191 27192 27193 27194 27195 27196 27197 27198 27199 27200 27201 27202 27203 27204 27205 27206 27207 27208 27209 27210 27211 27212 27213 27214 27215 27216 27217 27218 27219 27220 27221 27222 27223 27224 27225 27226 27227 27228 27229 27230 27231 27232 27233 27234 27235 27236 27237 27238 27239 27240 27241 27242 27243 27244 27245 27246 27247 27248 27249 27250 27251 27252 27253 27254 27255 27256 27257 27258 27259 27260 27261 27262 27263 27264 27265 27266 27267 27268 27269 27270 27271 27272 27273 27274 27275 27276 27277 27278 27279 27280 27281 27282 27283 27284 27285 27286 27287 27288 27289 27290 27291 27292 27293 27294 27295 27296 27297 27298 27299 27300 27301 27302 27303 27304 27305 27306 27307 27308 27309 27310 27311 27312 27313 27314 27315 27316 27317 27318 27319 27320 27321 27322 27323 27324 27325 27326 27327 27328 27329 27330 27331 27332 27333 27334 27335 27336 27337 27338 27339 27340 27341 27342 27343 27344 27345 27346 27347 27348 27349 27350 27351 27352 27353 27354 27355 27356 27357 27358 27359 27360 27361 27362 27363 27364 27365 27366 27367 27368 27369 27370 27371 27372 27373 27374 27375 27376 27377 27378 27379 27380 27381 27382 27383 27384 27385 27386 27387 27388 27389 27390 27391 27392 27393 27394 27395 27396 27397 27398 27399 27400 27401 27402 27403 27404 27405 27406 27407 27408 27409 27410 27411 27412 27413 27414 27415 27416 27417 27418 27419 27420 27421 27422 27423 27424 27425 27426 27427 27428 27429 27430 27431 27432 27433 27434 27435 27436 27437 27438 27439 27440 27441 27442 27443 27444 27445 27446 27447 27448 27449 27450 27451 27452 27453 27454 27455 27456 27457 27458 27459 27460 27461 27462 27463 27464 27465 27466 27467 27468 27469 27470 27471 27472 27473 27474 27475 27476 27477 27478 27479 27480 27481 27482 27483 27484 27485 27486 27487 27488 27489 27490 27491 27492 27493 27494 27495 27496 27497 27498 27499 27500 27501 27502 27503 27504 27505 27506 27507 27508 27509 27510 27511 27512 27513 27514 27515 27516 27517 27518 27519 27520 27521 27522 27523 27524 27525 27526 27527 27528 27529 27530 27531 27532 27533 27534 27535 27536 27537 27538 27539 27540 27541 27542 27543 27544 27545 27546 27547 27548 27549 27550 27551 27552 27553 27554 27555 27556 27557 27558 27559 27560 27561 27562 27563 27564 27565 27566 27567 27568 27569 27570 27571 27572 27573 27574 27575 27576 27577 27578 27579 27580 27581 27582 27583 27584 27585 27586 27587 27588 27589 27590 27591 27592 27593 27594 27595 27596 27597 27598 27599 27600 27601 27602 27603 27604 27605 27606 27607 27608 27609 27610 27611 27612 27613 27614 27615 27616 27617 27618 27619 27620 27621 27622 27623 27624 27625 27626 27627 27628 27629 27630 27631 27632 27633 27634 27635 27636 27637 27638 27639 27640 27641 27642 27643 27644 27645 27646 27647 27648 27649 27650 27651 27652 27653 27654 27655 27656 27657 27658 27659 27660 27661 27662 27663 27664 27665 27666 27667 27668 27669 27670 27671 27672 27673 27674 27675 27676 27677 27678 27679 27680 27681 27682 27683 27684 27685 27686 27687 27688 27689 27690 27691 27692 27693 27694 27695 27696 27697 27698 27699 27700 27701 27702 27703 27704 27705 27706 27707 27708 27709 27710 27711 27712 27713 27714 27715 27716 27717 27718 27719 27720 27721 27722 27723 27724 27725 27726 27727 27728 27729 27730 27731 27732 27733 27734 27735 27736 27737 27738 27739 27740 27741 27742 27743 27744 27745 27746 27747 27748 27749 27750 27751 27752 27753 27754 27755 27756 27757 27758 27759 27760 27761 27762 27763 27764 27765 27766 27767 27768 27769 27770 27771 27772 27773 27774 27775 27776 27777 27778 27779 27780 27781 27782 27783 27784 27785 27786 27787 27788 27789 27790 27791 27792 27793 27794 27795 27796 27797 27798 27799 27800 27801 27802 27803 27804 27805 27806 27807 27808 27809 27810 27811 27812 27813 27814 27815 27816 27817 27818 27819 27820 27821 27822 27823 27824 27825 27826 27827 27828 27829 27830 27831 27832 27833 27834 27835 27836 27837 27838 27839 27840 27841 27842 27843 27844 27845 27846 27847 27848 27849 27850 27851 27852 27853 27854 27855 27856 27857 27858 27859 27860 27861 27862 27863 27864 27865 27866 27867 27868 27869 27870 27871 27872 27873 27874 27875 27876 27877 27878 27879 27880 27881 27882 27883 27884 27885 27886 27887 27888 27889 27890 27891 27892 27893 27894 27895 27896 27897 27898 27899 27900 27901 27902 27903 27904 27905 27906 27907 27908 27909 27910 27911 27912 27913 27914 27915 27916 27917 27918 27919 27920 27921 27922 27923 27924 27925 27926 27927 27928 27929 27930 27931 27932 27933 27934 27935 27936 27937 27938 27939 27940 27941 27942 27943 27944 27945 27946 27947 27948 27949 27950 27951 27952 27953 27954 27955 27956 27957 27958 27959 27960 27961 27962 27963 27964 27965 27966 27967 27968 27969 27970 27971 27972 27973 27974 27975 27976 27977 27978 27979 27980 27981 27982 27983 27984 27985 27986 27987 27988 27989 27990 27991 27992 27993 27994 27995 27996 27997 27998 27999 28000 28001 28002 28003 28004 28005 28006 28007 28008 28009 28010 28011 28012 28013 28014 28015 28016 28017 28018 28019 28020 28021 28022 28023 28024 28025 28026 28027 28028 28029 28030 28031 28032 28033 28034 28035 28036 28037 28038 28039 28040 28041 28042 28043 28044 28045 28046 28047 28048 28049 28050 28051 28052 28053 28054 28055 28056 28057 28058 28059 28060 28061 28062 28063 28064 28065 28066 28067 28068 28069 28070 28071 28072 28073 28074 28075 28076 28077 28078 28079 28080 28081 28082 28083 28084 28085 28086 28087 28088 28089 28090 28091 28092 28093 28094 28095 28096 28097 28098 28099 28100 28101 28102 28103 28104 28105 28106 28107 28108 28109 28110 28111 28112 28113 28114 28115 28116 28117 28118 28119 28120 28121 28122 28123 28124 28125 28126 28127 28128 28129 28130 28131 28132 28133 28134 28135 28136 28137 28138 28139 28140 28141 28142 28143 28144 28145 28146 28147 28148 28149 28150 28151 28152 28153 28154 28155 28156 28157 28158 28159 28160 28161 28162 28163 28164 28165 28166 28167 28168 28169 28170 28171 28172 28173 28174 28175 28176 28177 28178 28179 28180 28181 28182 28183 28184 28185 28186 28187 28188 28189 28190 28191 28192 28193 28194 28195 28196 28197 28198 28199 28200 28201 28202 28203 28204 28205 28206 28207 28208 28209 28210 28211 28212 28213 28214 28215 28216 28217 28218 28219 28220 28221 28222 28223 28224 28225 28226 28227 28228 28229 28230 28231 28232 28233 28234 28235 28236 28237 28238 28239 28240 28241 28242 28243 28244 28245 28246 28247 28248 28249 28250 28251 28252 28253 28254 28255 28256 28257 28258 28259 28260 28261 28262 28263 28264 28265 28266 28267 28268 28269 28270 28271 28272 28273 28274 28275 28276 28277 28278 28279 28280 28281 28282 28283 28284 28285 28286 28287 28288 28289 28290 28291 28292 28293 28294 28295 28296 28297 28298 28299 28300 28301 28302 28303 28304 28305 28306 28307 28308 28309 28310 28311 28312 28313 28314 28315 28316 28317 28318 28319 28320 28321 28322 28323 28324 28325 28326 28327 28328 28329 28330 28331 28332 28333 28334 28335 28336 28337 28338 28339 28340 28341 28342 28343 28344 28345 28346 28347 28348 28349 28350 28351 28352 28353 28354 28355 28356 28357 28358 28359 28360 28361 28362 28363 28364 28365 28366 28367 28368 28369 28370 28371 28372 28373 28374 28375 28376 28377 28378 28379 28380 28381 28382 28383 28384 28385 28386 28387 28388 28389 28390 28391 28392 28393 28394 28395 28396 28397 28398 28399 28400 28401 28402 28403 28404 28405 28406 28407 28408 28409 28410 28411 28412 28413 28414 28415 28416 28417 28418 28419 28420 28421 28422 28423 28424 28425 28426 28427 28428 28429 28430 28431 28432 28433 28434 28435 28436 28437 28438 28439 28440 28441 28442 28443 28444 28445 28446 28447 28448 28449 28450 28451 28452 28453 28454 28455 28456 28457 28458 28459 28460 28461 28462 28463 28464 28465 28466 28467 28468 28469 28470 28471 28472 28473 28474 28475 28476 28477 28478 28479 28480 28481 28482 28483 28484 28485 28486 28487 28488 28489 28490 28491 28492 28493 28494 28495 28496 28497 28498 28499 28500 28501 28502 28503 28504 28505 28506 28507 28508 28509 28510 28511 28512 28513 28514 28515 28516 28517 28518 28519 28520 28521 28522 28523 28524 28525 28526 28527 28528 28529 28530 28531 28532 28533 28534 28535 28536 28537 28538 28539 28540 28541 28542 28543 28544 28545 28546 28547 28548 28549 28550 28551 28552 28553 28554 28555 28556 28557 28558 28559 28560 28561 28562 28563 28564 28565 28566 28567 28568 28569 28570 28571 28572 28573 28574 28575 28576 28577 28578 28579 28580 28581 28582 28583 28584 28585 28586 28587 28588 28589 28590 28591 28592 28593 28594 28595 28596 28597 28598 28599 28600 28601 28602 28603 28604 28605 28606 28607 28608 28609 28610 28611 28612 28613 28614 28615 28616 28617 28618 28619 28620 28621 28622 28623 28624 28625 28626 28627 28628 28629 28630 28631 28632 28633 28634 28635 28636 28637 28638 28639 28640 28641 28642 28643 28644 28645 28646 28647 28648 28649 28650 28651 28652 28653 28654 28655 28656 28657 28658 28659 28660 28661 28662 28663 28664 28665 28666 28667 28668 28669 28670 28671 28672 28673 28674 28675 28676 28677 28678 28679 28680 28681 28682 28683 28684 28685 28686 28687 28688 28689 28690 28691 28692 28693 28694 28695 28696 28697 28698 28699 28700 28701 28702 28703 28704 28705 28706 28707 28708 28709 28710 28711 28712 28713 28714 28715 28716 28717 28718 28719 28720 28721 28722 28723 28724 28725 28726 28727 28728 28729 28730 28731 28732 28733 28734 28735 28736 28737 28738 28739 28740 28741 28742 28743 28744 28745 28746 28747 28748 28749 28750 28751 28752 28753 28754 28755 28756 28757 28758 28759 28760 28761 28762 28763 28764 28765 28766 28767 28768 28769 28770 28771 28772 28773 28774 28775 28776 28777 28778 28779 28780 28781 28782 28783 28784 28785 28786 28787 28788 28789 28790 28791 28792 28793 28794 28795 28796 28797 28798 28799 28800 28801 28802 28803 28804 28805 28806 28807 28808 28809 28810 28811 28812 28813 28814 28815 28816 28817 28818 28819 28820 28821 28822 28823 28824 28825 28826 28827 28828 28829 28830 28831 28832 28833 28834 28835 28836 28837 28838 28839 28840 28841 28842 28843 28844 28845 28846 28847 28848 28849 28850 28851 28852 28853 28854 28855 28856 28857 28858 28859 28860 28861 28862 28863 28864 28865 28866 28867 28868 28869 28870 28871 28872 28873 28874 28875 28876 28877 28878 28879 28880 28881 28882 28883 28884 28885 28886 28887 28888 28889 28890 28891 28892 28893 28894 28895 28896 28897 28898 28899 28900 28901 28902 28903 28904 28905 28906 28907 28908 28909 28910 28911 28912 28913 28914 28915 28916 28917 28918 28919 28920 28921 28922 28923 28924 28925 28926 28927 28928 28929 28930 28931 28932 28933 28934 28935 28936 28937 28938 28939 28940 28941 28942 28943 28944 28945 28946 28947 28948 28949 28950 28951 28952 28953 28954 28955 28956 28957 28958 28959 28960 28961 28962 28963 28964 28965 28966 28967 28968 28969 28970 28971 28972 28973 28974 28975 28976 28977 28978 28979 28980 28981 28982 28983 28984 28985 28986 28987 28988 28989 28990 28991 28992 28993 28994 28995 28996 28997 28998 28999 29000 29001 29002 29003 29004 29005 29006 29007 29008 29009 29010 29011 29012 29013 29014 29015 29016 29017 29018 29019 29020 29021 29022 29023 29024 29025 29026 29027 29028 29029 29030 29031 29032 29033 29034 29035 29036 29037 29038 29039 29040 29041 29042 29043 29044 29045 29046 29047 29048 29049 29050 29051 29052 29053 29054 29055 29056 29057 29058 29059 29060 29061 29062 29063 29064 29065 29066 29067 29068 29069 29070 29071 29072 29073 29074 29075 29076 29077 29078 29079 29080 29081 29082 29083 29084 29085 29086 29087 29088 29089 29090 29091 29092 29093 29094 29095 29096 29097 29098 29099 29100 29101 29102 29103 29104 29105 29106 29107 29108 29109 29110 29111 29112 29113 29114 29115 29116 29117 29118 29119 29120 29121 29122 29123 29124 29125 29126 29127 29128 29129 29130 29131 29132 29133 29134 29135 29136 29137 29138 29139 29140 29141 29142 29143 29144 29145 29146 29147 29148 29149 29150 29151 29152 29153 29154 29155 29156 29157 29158 29159 29160 29161 29162 29163 29164 29165 29166 29167 29168 29169 29170 29171 29172 29173 29174 29175 29176 29177 29178 29179 29180 29181 29182 29183 29184 29185 29186 29187 29188 29189 29190 29191 29192 29193 29194 29195 29196 29197 29198 29199 29200 29201 29202 29203 29204 29205 29206 29207 29208 29209 29210 29211 29212 29213 29214 29215 29216 29217 29218 29219 29220 29221 29222 29223 29224 29225 29226 29227 29228 29229 29230 29231 29232 29233 29234 29235 29236 29237 29238 29239 29240 29241 29242 29243 29244 29245 29246 29247 29248 29249 29250 29251 29252 29253 29254 29255 29256 29257 29258 29259 29260 29261 29262 29263 29264 29265 29266 29267 29268 29269 29270 29271 29272 29273 29274 29275 29276 29277 29278 29279 29280 29281 29282 29283 29284 29285 29286 29287 29288 29289 29290 29291 29292 29293 29294 29295 29296 29297 29298 29299 29300 29301 29302 29303 29304 29305 29306 29307 29308 29309 29310 29311 29312 29313 29314 29315 29316 29317 29318 29319 29320 29321 29322 29323 29324 29325 29326 29327 29328 29329 29330 29331 29332 29333 29334 29335 29336 29337 29338 29339 29340 29341 29342 29343 29344 29345 29346 29347 29348 29349 29350 29351 29352 29353 29354 29355 29356 29357 29358 29359 29360 29361 29362 29363 29364 29365 29366 29367 29368 29369 29370 29371 29372 29373 29374 29375 29376 29377 29378 29379 29380 29381 29382 29383 29384 29385 29386 29387 29388 29389 29390 29391 29392 29393 29394 29395 29396 29397 29398 29399 29400 29401 29402 29403 29404 29405 29406 29407 29408 29409 29410 29411 29412 29413 29414 29415 29416 29417 29418 29419 29420 29421 29422 29423 29424 29425 29426 29427 29428 29429 29430 29431 29432 29433 29434 29435 29436 29437 29438 29439 29440 29441 29442 29443 29444 29445 29446 29447 29448 29449 29450 29451 29452 29453 29454 29455 29456 29457 29458 29459 29460 29461 29462 29463 29464 29465 29466 29467 29468 29469 29470 29471 29472 29473 29474 29475 29476 29477 29478 29479 29480 29481 29482 29483 29484 29485 29486 29487 29488 29489 29490 29491 29492 29493 29494 29495 29496 29497 29498 29499 29500 29501 29502 29503 29504 29505 29506 29507 29508 29509 29510 29511 29512 29513 29514 29515 29516 29517 29518 29519 29520 29521 29522 29523 29524 29525 29526 29527 29528 29529 29530 29531 29532 29533 29534 29535 29536 29537 29538 29539 29540 29541 29542 29543 29544 29545 29546 29547 29548 29549 29550 29551 29552 29553 29554 29555 29556 29557 29558 29559 29560 29561 29562 29563 29564 29565 29566 29567 29568 29569 29570 29571 29572 29573 29574 29575 29576 29577 29578 29579 29580 29581 29582 29583 29584 29585 29586 29587 29588 29589 29590 29591 29592 29593 29594 29595 29596 29597 29598 29599 29600 29601 29602 29603 29604 29605 29606 29607 29608 29609 29610 29611 29612 29613 29614 29615 29616 29617 29618 29619 29620 29621 29622 29623 29624 29625 29626 29627 29628 29629 29630 29631 29632 29633 29634 29635 29636 29637 29638 29639 29640 29641 29642 29643 29644 29645 29646 29647 29648 29649 29650 29651 29652 29653 29654 29655 29656 29657 29658 29659 29660 29661 29662 29663 29664 29665 29666 29667 29668 29669 29670 29671 29672 29673 29674 29675 29676 29677 29678 29679 29680 29681 29682 29683 29684 29685 29686 29687 29688 29689 29690 29691 29692 29693 29694 29695 29696 29697 29698 29699 29700 29701 29702 29703 29704 29705 29706 29707 29708 29709 29710 29711 29712 29713 29714 29715 29716 29717 29718 29719 29720 29721 29722 29723 29724 29725 29726 29727 29728 29729 29730 29731 29732 29733 29734 29735 29736 29737 29738 29739 29740 29741 29742 29743 29744 29745 29746 29747 29748 29749 29750 29751 29752 29753 29754 29755 29756 29757 29758 29759 29760 29761 29762 29763 29764 29765 29766 29767 29768 29769 29770 29771 29772 29773 29774 29775 29776 29777 29778 29779 29780 29781 29782 29783 29784 29785 29786 29787 29788 29789 29790 29791 29792 29793 29794 29795 29796 29797 29798 29799 29800 29801 29802 29803 29804 29805 29806 29807 29808 29809 29810 29811 29812 29813 29814 29815 29816 29817 29818 29819 29820 29821 29822 29823 29824 29825 29826 29827 29828 29829 29830 29831 29832 29833 29834 29835 29836 29837 29838 29839 29840 29841 29842 29843 29844 29845 29846 29847 29848 29849 29850 29851 29852 29853 29854 29855 29856 29857 29858 29859 29860 29861 29862 29863 29864 29865 29866 29867 29868 29869 29870 29871 29872 29873 29874 29875 29876 29877 29878 29879 29880 29881 29882 29883 29884 29885 29886 29887 29888 29889 29890 29891 29892 29893 29894 29895 29896 29897 29898 29899 29900 29901 29902 29903 29904 29905 29906 29907 29908 29909 29910 29911 29912 29913 29914 29915 29916 29917 29918 29919 29920 29921 29922 29923 29924 29925 29926 29927 29928 29929 29930 29931 29932 29933 29934 29935 29936 29937 29938 29939 29940 29941 29942 29943 29944 29945 29946 29947 29948 29949 29950 29951 29952 29953 29954 29955 29956 29957 29958 29959 29960 29961 29962 29963 29964 29965 29966 29967 29968 29969 29970 29971 29972 29973 29974 29975 29976 29977 29978 29979 29980 29981 29982 29983 29984 29985 29986 29987 29988 29989 29990 29991 29992 29993 29994 29995 29996 29997 29998 29999 30000 30001 30002 30003 30004 30005 30006 30007 30008 30009 30010 30011 30012 30013 30014 30015 30016 30017 30018 30019 30020 30021 30022 30023 30024 30025 30026 30027 30028 30029 30030 30031 30032 30033 30034 30035 30036 30037 30038 30039 30040 30041 30042 30043 30044 30045 30046 30047 30048 30049 30050 30051 30052 30053 30054 30055 30056 30057 30058 30059 30060 30061 30062 30063 30064 30065 30066 30067 30068 30069 30070 30071 30072 30073 30074 30075 30076 30077 30078 30079 30080 30081 30082 30083 30084 30085 30086 30087 30088 30089 30090 30091 30092 30093 30094 30095 30096 30097 30098 30099 30100 30101 30102 30103 30104 30105 30106 30107 30108 30109 30110 30111 30112 30113 30114 30115 30116 30117 30118 30119 30120 30121 30122 30123 30124 30125 30126 30127 30128 30129 30130 30131 30132 30133 30134 30135 30136 30137 30138 30139 30140 30141 30142 30143 30144 30145 30146 30147 30148 30149 30150 30151 30152 30153 30154 30155 30156 30157 30158 30159 30160 30161 30162 30163 30164 30165 30166 30167 30168 30169 30170 30171 30172 30173 30174 30175 30176 30177 30178 30179 30180 30181 30182 30183 30184 30185 30186 30187 30188 30189 30190 30191 30192 30193 30194 30195 30196 30197 30198 30199 30200 30201 30202 30203 30204 30205 30206 30207 30208 30209 30210 30211 30212 30213 30214 30215 30216 30217 30218 30219 30220 30221 30222 30223 30224 30225 30226 30227 30228 30229 30230 30231 30232 30233 30234 30235 30236 30237 30238 30239 30240 30241 30242 30243 30244 30245 30246 30247 30248 30249 30250 30251 30252 30253 30254 30255 30256 30257 30258 30259 30260 30261 30262 30263 30264 30265 30266 30267 30268 30269 30270 30271 30272 30273 30274 30275 30276 30277 30278 30279 30280 30281 30282 30283 30284 30285 30286 30287 30288 30289 30290 30291 30292 30293 30294 30295 30296 30297 30298 30299 30300 30301 30302 30303 30304 30305 30306 30307 30308 30309 30310 30311 30312 30313 30314 30315 30316 30317 30318 30319 30320 30321 30322 30323 30324 30325 30326 30327 30328 30329 30330 30331 30332 30333 30334 30335 30336 30337 30338 30339 30340 30341 30342 30343 30344 30345 30346 30347 30348 30349 30350 30351 30352 30353 30354 30355 30356 30357 30358 30359 30360 30361 30362 30363 30364 30365 30366 30367 30368 30369 30370 30371 30372 30373 30374 30375 30376 30377 30378 30379 30380 30381 30382 30383 30384 30385 30386 30387 30388 30389 30390 30391 30392 30393 30394 30395 30396 30397 30398 30399 30400 30401 30402 30403 30404 30405 30406 30407 30408 30409 30410 30411 30412 30413 30414 30415 30416 30417 30418 30419 30420 30421 30422 30423 30424 30425 30426 30427 30428 30429 30430 30431 30432 30433 30434 30435 30436 30437 30438 30439 30440 30441 30442 30443 30444 30445 30446 30447 30448 30449 30450 30451 30452 30453 30454 30455 30456 30457 30458 30459 30460 30461 30462 30463 30464 30465 30466 30467 30468 30469 30470 30471 30472 30473 30474 30475 30476 30477 30478 30479 30480 30481 30482 30483 30484 30485 30486 30487 30488 30489 30490 30491 30492 30493 30494 30495 30496 30497 30498 30499 30500 30501 30502 30503 30504 30505 30506 30507 30508 30509 30510 30511 30512 30513 30514 30515 30516 30517 30518 30519 30520 30521 30522 30523 30524 30525 30526 30527 30528 30529 30530 30531 30532 30533 30534 30535 30536 30537 30538 30539 30540 30541 30542 30543 30544 30545 30546 30547 30548 30549 30550 30551 30552 30553 30554 30555 30556 30557 30558 30559 30560 30561 30562 30563 30564 30565 30566 30567 30568 30569 30570 30571 30572 30573 30574 30575 30576 30577 30578 30579 30580 30581 30582 30583 30584 30585 30586 30587 30588 30589 30590 30591 30592 30593 30594 30595 30596 30597 30598 30599 30600 30601 30602 30603 30604 30605 30606 30607 30608 30609 30610 30611 30612 30613 30614 30615 30616 30617 30618 30619 30620 30621 30622 30623 30624 30625 30626 30627 30628 30629 30630 30631 30632 30633 30634 30635 30636 30637 30638 30639 30640 30641 30642 30643 30644 30645 30646 30647 30648 30649 30650 30651 30652 30653 30654 30655 30656 30657 30658 30659 30660 30661 30662 30663 30664 30665 30666 30667 30668 30669 30670 30671 30672 30673 30674 30675 30676 30677 30678 30679 30680 30681 30682 30683 30684 30685 30686 30687 30688 30689 30690 30691 30692 30693 30694 30695 30696 30697 30698 30699 30700 30701 30702 30703 30704 30705 30706 30707 30708 30709 30710 30711 30712 30713 30714 30715 30716 30717 30718 30719 30720 30721 30722 30723 30724 30725 30726 30727 30728 30729 30730 30731 30732 30733 30734 30735 30736 30737 30738 30739 30740 30741 30742 30743 30744 30745 30746 30747 30748 30749 30750 30751 30752 30753 30754 30755 30756 30757 30758 30759 30760 30761 30762 30763 30764 30765 30766 30767 30768 30769 30770 30771 30772 30773 30774 30775 30776 30777 30778 30779 30780 30781 30782 30783 30784 30785 30786 30787 30788 30789 30790 30791 30792 30793 30794 30795 30796 30797 30798 30799 30800 30801 30802 30803 30804 30805 30806 30807 30808 30809 30810 30811 30812 30813 30814 30815 30816 30817 30818 30819 30820 30821 30822 30823 30824 30825 30826 30827 30828 30829 30830 30831 30832 30833 30834 30835 30836 30837 30838 30839 30840 30841 30842 30843 30844 30845 30846 30847 30848 30849 30850 30851 30852 30853 30854 30855 30856 30857 30858 30859 30860 30861 30862 30863 30864 30865 30866 30867 30868 30869 30870 30871 30872 30873 30874 30875 30876 30877 30878 30879 30880 30881 30882 30883 30884 30885 30886 30887 30888 30889 30890 30891 30892 30893 30894 30895 30896 30897 30898 30899 30900 30901 30902 30903 30904 30905 30906 30907 30908 30909 30910 30911 30912 30913 30914 30915 30916 30917 30918 30919 30920 30921 30922 30923 30924 30925 30926 30927 30928 30929 30930 30931 30932 30933 30934 30935 30936 30937 30938 30939 30940 30941 30942 30943 30944 30945 30946 30947 30948 30949 30950 30951 30952 30953 30954 30955 30956 30957 30958 30959 30960 30961 30962 30963 30964 30965 30966 30967 30968 30969 30970 30971 30972 30973 30974 30975 30976 30977 30978 30979 30980 30981 30982 30983 30984 30985 30986 30987 30988 30989 30990 30991 30992 30993 30994 30995 30996 30997 30998 30999 31000 31001 31002 31003 31004 31005 31006 31007 31008 31009 31010 31011 31012 31013 31014 31015 31016 31017 31018 31019 31020 31021 31022 31023 31024 31025 31026 31027 31028 31029 31030 31031 31032 31033 31034 31035 31036 31037 31038 31039 31040 31041 31042 31043 31044 31045 31046 31047 31048 31049 31050 31051 31052 31053 31054 31055 31056 31057 31058 31059 31060 31061 31062 31063 31064 31065 31066 31067 31068 31069 31070 31071 31072 31073 31074 31075 31076 31077 31078 31079 31080 31081 31082 31083 31084 31085 31086 31087 31088 31089 31090 31091 31092 31093 31094 31095 31096 31097 31098 31099 31100 31101 31102 31103 31104 31105 31106 31107 31108 31109 31110 31111 31112 31113 31114 31115 31116 31117 31118 31119 31120 31121 31122 31123 31124 31125 31126 31127 31128 31129 31130 31131 31132 31133 31134 31135 31136 31137 31138 31139 31140 31141 31142 31143 31144 31145 31146 31147 31148 31149 31150 31151 31152 31153 31154 31155 31156 31157 31158 31159 31160 31161 31162 31163 31164 31165 31166 31167 31168 31169 31170 31171 31172 31173 31174 31175 31176 31177 31178 31179 31180 31181 31182 31183 31184 31185 31186 31187 31188 31189 31190 31191 31192 31193 31194 31195 31196 31197 31198 31199 31200 
</DataArray>
<DataArray type="UInt32" Name="offsets" format="ascii">
3 6 8 11 14 17 20 22 25 28 31 33 35 37 40 43 46 48 51 54 57 60 63 65 68 71 74 77 80 83 86 89 92 95 97 100 102 105 108 111 114 116 119 122 125 128 131 134 136 139 142 145 148 151 154 157 160 163 166 168 171 174 177 180 183 186 189 192 195 198 201 204 207 210 213 216 219 222 225 228 231 233 236 239 242 245 247 250 252 255 258 260 263 265 268 271 273 276 279 282 285 288 291 294 297 300 303 306 309 311 314 317 320 323 326 329 332 334 337 340 343 346 349 352 355 358 361 364 367 370 373 375 378 381 384 387 390 393 395 398 401 403 405 408 411 414 417 420 422 425 428 431 434 436 439 442 445 448 451 454 457 460 463 466 469 472 475 478 481 484 487 490 492 495 498 501 504 507 510 513 516 518 521 524 527 530 533 536 539 542 545 548 551 554 557 560 563 566 569 572 575 578 581 584 587 590 593 596 599 602 605 608 611 614 617 620 623 626 629 632 635 638 641 644 647 650 653 656 659 662 665 667 670 673 676 679 682 685 688 691 694 697 700 703 706 709 712 715 718 721 724 727 730 733 735 738 741 744 746 749 752 755 757 760 762 765 767 770 772 775 778 781 783 786 789 791 793 796 799 801 804 806 809 812 814 816 818 821 823 826 828 831 834 836 839 842 845 848 851 854 857 860 862 865 868 871 873 876 878 881 884 886 888 891 893 895 898 901 904 906 909 912 914 917 920 922 925 927 929 932 935 938 940 943 946 949 951 954 957 960 963 965 968 970 972 975 978 981 984 987 990 993 995 998 1001 1004 1007 1010 1012 1015 1018 1021 1024 1027 1030 1032 1035 1038 1041 1044 1047 1049 1052 1055 1058 1061 1064 1067 1070 1073 1076 1079 1082 1085 1088 1091 1094 1097 1100 1103 1106 1109 1112 1115 1118 1121 1124 1127 1130 1133 1136 1138 1141 1144 1147 1150 1152 1155 1158 1160 1163 1166 1169 1172 1175 1178 1181 1184 1187 1190 1193 1196 1199 1202 1205 1207 1210 1212 1215 1218 1220 1223 1225 1228 1230 1233 1236 1238 1241 1244 1247 1250 1253 1256 1259 1262 1265 1267 1270 1273 1276 1279 1282 1285 1288 1291 1293 1296 1299 1302 1304 1306 1309 1312 1315 1318 1321 1323 1326 1329 1332 1334 1337 1340 1343 1345 1347 1350 1352 1355 1358 1361 1364 1366 1368 1371 1374 1376 1378 1381 1384 1387 1389 1392 1395 1398 1401 1403 1406 1408 1411 1414 1417 1420 1422 1425 1427 1430 1433 1435 1438 1441 1444 1447 1450 1453 1455 1458 1460 1462 1465 1467 1470 1473 1476 1478 1481 1484 1486 1489 1492 1495 1498 1501 1504 1507 1509 1512 1515 1518 1521 1524 1527 1530 1533 1535 1538 1540 1542 1545 1547 1550 1553 1556 1558 1561 1564 1566 1569 1572 1575 1578 1581 1584 1587 1590 1593 1596 1599 1602 1605 1608 1611 1614 1617 1620 1622 1625 1628 1631 1634 1636 1639 1642 1645 1648 1651 1654 1657 1660 1663 1666 1669 1671 1674 1677 1680 1683 1686 1689 1692 1695 1697 1700 1703 1706 1709 1712 1715 1718 1720 1723 1726 1729 1731 1734 1737 1740 1743 1746 1749 1752 1755 1758 1761 1764 1767 1770 1773 1776 1779 1782 1785 1788 1791 1794 1797 1800 1803 1806 1809 1812 1815 1817 1820 1823 1826 1829 1832 1835 1838 1841 1844 1847 1850 1853 1856 1859 1862 1865 1868 1870 1873 1876 1879 1882 1885 1888 1891 1893 1896 1899 1901 1904 1907 1910 1913 1916 1919 1921 1924 1927 1930 1933 1936 1939 1942 1945 1948 1951 1954 1957 1960 1962 1965 1968 1971 1974 1977 1980 1983 1986 1988 1991 1994 1996 1999 2002 2005 2008 2011 2014 2017 2020 2023 2026 2029 2032 2035 2038 2041 2044 2047 2050 2053 2056 2059 2062 2065 2068 2071 2074 2076 2079 2082 2085 2087 2090 2093 2096 2098 2101 2103 2106 2108 2111 2114 2117 2120 2123 2126 2129 2132 2135 2138 2141 2144 2147 2150 2153 2156 2159 2162 2164 2167 2170 2173 2176 2178 2181 2184 2187 2189 2191 2194 2197 2200 2203 2206 2209 2212 2215 2217 2219 2222 2225 2228 2231 2234 2237 2240 2243 2245 2248 2250 2253 2255 2257 2259 2261 2264 2267 2270 2272 2275 2277 2280 2283 2286 2289 2292 2295 2298 2301 2304 2307 2310 2313 2315 2318 2321 2324 2327 2330 2333 2336 2339 2342 2345 2348 2351 2354 2357 2360 2362 2365 2368 2371 2374 2377 2380 2383 2386 2389 2391 2394 2397 2400 2402 2405 2408 2411 2414 2417 2420 2423 2426 2428 2431 2434 2437 2440 2443 2446 2449 2452 2455 2457 2460 2463 2466 2469 2472 2475 2477 2480 2482 2485 2488 2491 2494 2497 2500 2503 2506 2508 2511 2513 2516 2519 2522 2525 2528 2531 2534 2537 2540 2543 2546 2549 2552 2555 2558 2561 2563 2566 2569 2572 2575 2578 2581 2584 2587 2590 2593 2596 2599 2602 2604 2607 2610 2613 2616 2618 2621 2624 2627 2630 2633 2636 2639 2642 2645 2647 2650 2653 2656 2659 2662 2665 2667 2670 2673 2676 2679 2682 2685 2688 2690 2693 2696 2698 2701 2704 2706 2709 2712 2715 2718 2721 2724 2727 2730 2733 2736 2739 2742 2745 2748 2751 2754 2757 2760 2763 2766 2769 2772 2775 2778 2781 2784 2787 2789 2792 2795 2797 2800 2803 2806 2809 2812 2814 2817 2820 2823 2826 2829 2832 2835 2838 2841 2844 2846 2849 2852 2855 2858 2860 2863 2866 2869 2872 2875 2878 2881 2884 2887 2890 2893 2896 2899 2902 2904 2907 2910 2913 2916 2918 2921 2924 2927 2930 2933 2936 2939 2942 2945 2948 2950 2953 2956 2958 2961 2964 2967 2970 2973 2976 2979 2981 2984 2987 2990 2993 2996 2999 3001 3004 3007 3010 3013 3016 3019 3022 3025 3028 3031 3034 3037 3040 3043 3046 3049 3052 3055 3058 3061 3064 3067 3070 3073 3076 3079 3082 3085 3088 3091 3094 3097 3100 3103 3106 3108 3111 3114 3117 3120 3122 3125 3128 3131 3134 3137 3140 3143 3146 3149 3152 3155 3158 3161 3164 3167 3169 3172 3175 3178 3181 3183 3186 3189 3192 3195 3198 3201 3203 3206 3209 3212 3215 3218 3220 3223 3226 3229 3232 3235 3238 3241 3244 3247 3250 3253 3256 3259 3262 3265 3268 3271 3274 3277 3280 3283 3286 3289 3292 3295 3298 3301 3304 3307 3310 3313 3316 3318 3321 3324 3327 3329 3332 3335 3337 3340 3343 3346 3349 3352 3355 3357 3360 3363 3366 3369 3372 3375 3378 3381 3384 3386 3389 3392 3395 3398 3401 3404 3407 3409 3412 3415 3418 3421 3424 3427 3429 3431 3434 3437 3440 3443 3445 3448 3451 3454 3457 3459 3461 3464 3466 3469 3472 3475 3478 3481 3484 3487 3489 3492 3495 3497 3500 3503 3506 3509 3512 3515 3517 3520 3523 3526 3529 3532 3534 3536 3539 3542 3545 3547 3550 3553 3556 3559 3562 3565 3568 3571 3574 3577 3580 3582 3585 3588 3591 3594 3597 3600 3603 3606 3609 3612 3615 3618 3621 3624 3627 3630 3633 3636 3639 3641 3644 3647 3650 3653 3656 3659 3662 3665 3668 3671 3674 3677 3680 3683 3686 3689 3692 3695 3698 3701 3704 3707 3710 3713 3716 3719 3722 3725 3728 3731 3734 3737 3740 3743 3746 3749 3752 3755 3758 3761 3764 3766 3769 3772 3775 3778 3781 3784 3786 3789 3792 3795 3798 3801 3804 3807 3810 3813 3816 3819 3822 3825 3828 3831 3834 3837 3840 3843 3846 3849 3852 3855 3858 3861 3864 3867 3869 3872 3875 3878 3881 3883 3886 3889 3892 3895 3898 3901 3904 3907 3910 3913 3916 3919 3922 3925 3928 3931 3934 3936 3939 3942 3945 3948 3951 3954 3957 3960 3963 3966 3968 3971 3973 3976 3979 3981 3984 3986 3989 3992 3994 3997 4000 4003 4006 4008 4011 4014 4017 4020 4023 4025 4028 4030 4032 4035 4038 4041 4043 4045 4048 4051 4054 4057 4060 4063 4066 4069 4072 4075 4078 4081 4084 4086 4089 4092 4095 4098 4101 4104 4107 4110 4113 4116 4119 4122 4125 4128 4131 4134 4137 4140 4143 4146 4149 4152 4155 4158 4161 4164 4167 4170 4173 4176 4179 4182 4185 4188 4191 4194 4197 4200 4203 4206 4208 4211 4214 4217 4219 4222 4225 4228 4231 4233 4236 4239 4242 4245 4248 4251 4254 4257 4260 4263 4266 4269 4271 4274 4276 4279 4282 4285 4288 4291 4294 4296 4299 4302 4304 4307 4310 4313 4316 4318 4321 4324 4327 4330 4333 4336 4339 4342 4345 4348 4351 4354 4357 4360 4363 4366 4369 4372 4375 4378 4381 4384 4387 4390 4392 4395 4398 4400 4403 4406 4409 4412 4415 4418 4420 4423 4426 4429 4432 4435 4438 4441 4444 4447 4450 4453 4456 4459 4462 4465 4468 4471 4474 4477 4480 4483 4485 4488 4491 4494 4497 4500 4503 4506 4509 4512 4514 4517 4520 4523 4525 4528 4531 4534 4536 4539 4542 4545 4547 4550 4553 4556 4559 4561 4564 4566 4569 4572 4575 4578 4580 4582 4585 4588 4591 4594 4597 4600 4603 4606 4609 4612 4615 4618 4621 4624 4627 4629 4631 4634 4637 4640 4642 4645 4648 4651 4654 4657 4660 4663 4666 4669 4672 4675 4678 4680 4683 4686 4689 4691 4693 4696 4699 4702 4705 4708 4710 4713 4716 4719 4722 4725 4728 4731 4734 4737 4740 4743 4746 4749 4752 4755 4758 4761 4764 4767 4770 4772 4775 4778 4780 4782 4785 4788 4791 4794 4797 4800 4803 4805 4807 4809 4812 4815 4818 4820 4822 4825 4828 4831 4834 4836 4839 4841 4844 4847 4850 4853 4856 4859 4862 4865 4868 4871 4874 4877 4879 4882 4885 4888 4890 4893 4896 4899 4902 4905 4907 4910 4913 4915 4918 4920 4923 4926 4929 4932 4935 4938 4941 4944 4947 4950 4953 4956 4959 4962 4965 4968 4971 4974 4977 4980 4983 4986 4989 4991 4994 4996 4999 5002 5004 5007 5010 5012 5015 5018 5021 5024 5027 5030 5033 5036 5039 5042 5045 5048 5051 5054 5057 5060 5063 5066 5069 5072 5075 5078 5081 5084 5087 5090 5093 5096 5098 5101 5104 5107 5110 5113 5116 5119 5122 5125 5128 5131 5134 5137 5140 5143 5146 5148 5151 5154 5157 5160 5163 5165 5168 5171 5174 5177 5179 5182 5185 5187 5190 5193 5196 5198 5201 5204 5207 5210 5213 5216 5219 5221 5224 5227 5230 5233 5236 5239 5241 5244 5247 5249 5252 5254 5256 5259 5262 5265 5268 5271 5274 5277 5280 5282 5285 5288 5290 5293 5295 5298 5301 5304 5306 5309 5312 5315 5317 5320 5323 5326 5328 5330 5333 5335 5338 5340 5343 5346 5348 5351 5353 5356 5358 5360 5363 5366 5369 5372 5375 5377 5380 5383 5386 5389 5392 5395 5398 5400 5403 5406 5409 5412 5415 5418 5421 5424 5427 5430 5433 5436 5439 5442 5445 5448 5451 5454 5457 5460 5463 5466 5469 5472 5475 5478 5481 5484 5487 5490 5493 5496 5499 5502 5505 5508 5510 5513 5516 5519 5522 5525 5528 5530 5533 5536 5539 5542 5545 5548 5551 5554 5557 5560 5563 5566 5569 5572 5575 5578 5581 5584 5587 5590 5592 5595 5598 5601 5604 5607 5610 5613 5616 5619 5622 5625 5628 5631 5633 5636 5639 5642 5645 5648 5651 5654 5657 5660 5663 5666 5669 5672 5675 5678 5681 5684 5686 5689 5692 5694 5697 5700 5703 5706 5709 5712 5715 5718 5720 5723 5726 5729 5732 5735 5738 5741 5744 5747 5750 5753 5756 5759 5762 5765 5768 5770 5773 5776 5779 5782 5785 5787 5790 5792 5795 5797 5800 5803 5805 5808 5810 5812 5815 5818 5821 5823 5826 5829 5832 5835 5838 5841 5844 5847 5849 5852 5855 5858 5861 5864 5867 5870 5872 5875 5877 5880 5883 5886 5889 5892 5895 5898 5901 5904 5907 5909 5911 5914 5917 5920 5922 5925 5928 5931 5933 5936 5938 5941 5944 5946 5949 5952 5955 5958 5960 5963 5966 5968 5971 5974 5977 5980 5983 5986 5988 5990 5993 5996 5999 6002 6005 6008 6011 6014 6016 6019 6022 6025 6028 6031 6033 6036 6038 6041 6044 6047 6050 6053 6056 6058 6061 6064 6067 6070 6073 6076 6078 6081 6084 6087 6090 6093 6096 6098 6101 6104 6107 6110 6113 6116 6118 6121 6123 6126 6129 6132 6135 6138 6140 6143 6145 6148 6151 6154 6157 6160 6163 6166 6169 6172 6174 6177 6180 6183 6186 6189 6192 6195 6198 6200 6203 6205 6208 6210 6213 6216 6218 6220 6223 6225 6228 6231 6234 6237 6240 6242 6245 6247 6250 6253 6256 6259 6262 6265 6268 6271 6274 6277 6280 6283 6286 6289 6292 6295 6298 6301 6304 6307 6309 6312 6315 6317 6320 6323 6326 6329 6332 6335 6338 6341 6344 6347 6350 6353 6356 6359 6362 6365 6368 6371 6374 6376 6379 6382 6384 6387 6390 6393 6396 6399 6402 6405 6407 6409 6412 6415 6417 6420 6422 6425 6428 6431 6434 6436 6438 6441 6443 6446 6449 6452 6455 6458 6461 6464 6466 6469 6472 6475 6478 6481 6483 6485 6488 6490 6492 6495 6497 6499 6502 6505 6508 6511 6514 6517 6520 6523 6526 6529 6532 6534 6537 6540 6543 6546 6549 6551 6553 6556 6559 6562 6565 6568 6571 6574 6577 6580 6583 6586 6588 6591 6594 6597 6600 6602 6605 6608 6611 6614 6616 6619 6622 6625 6628 6631 6634 6637 6640 6642 6645 6647 6650 6653 6656 6659 6661 6664 6667 6670 6673 6676 6679 6682 6685 6688 6691 6694 6697 6699 6702 6705 6707 6710 6713 6716 6719 6722 6725 6728 6731 6734 6737 6740 6743 6746 6748 6751 6754 6757 6759 6762 6765 6768 6771 6773 6775 6778 6781 6784 6787 6790 6793 6796 6799 6802 6805 6808 6811 6814 6816 6819 6822 6825 6828 6831 6834 6837 6840 6843 6846 6849 6852 6855 6858 6861 6863 6865 6868 6871 6874 6877 6880 6883 6886 6889 6892 6895 6898 6901 6904 6907 6910 6913 6916 6919 6922 6925 6928 6931 6934 6937 6939 6942 6944 6947 6950 6953 6956 6959 6962 6965 6968 6971 6974 6977 6980 6983 6986 6989 6992 6995 6998 7001 7004 7007 7010 7013 7015 7017 7020 7022 7024 7027 7030 7033 7036 7039 7041 7044 7046 7049 7052 7055 7058 7061 7064 7067 7070 7073 7076 7079 7082 7085 7088 7091 7094 7096 7099 7102 7104 7107 7109 7112 7114 7117 7120 7123 7126 7129 7132 7135 7137 7140 7143 7146 7149 7152 7155 7158 7161 7164 7167 7170 7173 7176 7179 7182 7184 7187 7190 7193 7195 7198 7201 7204 7207 7209 7211 7214 7217 7219 7222 7225 7228 7231 7234 7237 7240 7243 7245 7248 7251 7253 7256 7258 7261 7264 7267 7269 7272 7275 7277 7280 7282 7285 7288 7290 7293 7296 7299 7301 7304 7307 7310 7313 7315 7317 7320 7323 7326 7329 7332 7335 7338 7341 7344 7347 7350 7353 7355 7358 7361 7364 7367 7370 7372 7375 7378 7381 7384 7387 7390 7392 7395 7397 7400 7403 7406 7409 7412 7415 7418 7421 7424 7427 7429 7432 7435 7437 7440 7443 7446 7449 7452 7455 7458 7461 7464 7466 7468 7471 7474 7477 7480 7483 7485 7488 7491 7494 7496 7499 7501 7504 7507 7510 7513 7516 7519 7521 7524 7527 7530 7532 7535 7538 7541 7544 7547 7550 7553 7556 7559 7562 7565 7568 7571 7574 7577 7580 7583 7586 7589 7592 7595 7598 7601 7604 7607 7610 7613 7616 7619 7621 7624 7627 7630 7633 7636 7639 7641 7644 7647 7650 7653 7656 7659 7661 7664 7666 7669 7672 7674 7676 7679 7682 7684 7687 7690 7693 7696 7699 7702 7705 7708 7711 7714 7717 7720 7723 7726 7729 7732 7735 7738 7741 7744 7747 7750 7753 7756 7759 7762 7765 7768 7770 7773 7776 7779 7782 7785 7788 7791 7794 7797 7800 7803 7806 7809 7812 7815 7818 7821 7824 7827 7830 7833 7836 7839 7842 7845 7848 7851 7854 7857 7860 7863 7866 7868 7871 7874 7877 7879 7882 7885 7888 7891 7894 7897 7899 7902 7905 7908 7911 7914 7917 7920 7923 7926 7929 7932 7935 7938 7941 7944 7947 7950 7953 7955 7958 7960 7963 7966 7969 7972 7975 7978 7981 7984 7987 7990 7993 7996 7999 8002 8005 8008 8011 8014 8017 8020 8023 8026 8029 8032 8035 8037 8039 8041 8043 8045 8047 8050 8053 8056 8059 8061 8064 8067 8069 8072 8075 8078 8081 8084 8087 8090 8093 8096 8098 8101 8104 8107 8109 8112 8115 8117 8120 8122 8125 8127 8130 8132 8135 8137 8140 8143 8146 8149 8152 8155 8157 8160 8163 8165 8168 8171 8174 8177 8180 8182 8185 8188 8191 8194 8197 8199 8202 8205 8208 8211 8214 8217 8219 8222 8225 8228 8231 8234 8237 8240 8242 8245 8248 8251 8253 8256 8259 8262 8265 8268 8271 8274 8277 8280 8283 8286 8289 8291 8294 8297 8299 8302 8305 8308 8311 8313 8316 8318 8321 8324 8327 8329 8332 8335 8338 8341 8344 8346 8349 8351 8354 8357 8360 8363 8366 8369 8372 8375 8378 8380 8383 8386 8388 8391 8394 8396 8399 8402 8404 8406 8409 8412 8415 8418 8421 8423 8425 8427 8430 8433 8436 8439 8442 8445 8447 8450 8453 8456 8459 8462 8465 8468 8471 8474 8477 8480 8483 8486 8489 8492 8495 8498 8501 8504 8507 8510 8513 8516 8519 8522 8525 8528 8531 8534 8537 8540 8543 8546 8549 8552 8555 8558 8561 8563 8566 8569 8572 8575 8578 8580 8582 8585 8588 8591 8593 8596 8599 8602 8604 8607 8609 8612 8614 8617 8619 8621 8624 8626 8629 8632 8635 8638 8640 8643 8646 8649 8652 8655 8658 8661 8664 8667 8670 8673 8676 8679 8682 8685 8688 8691 8694 8697 8700 8703 8706 8709 8712 8715 8718 8721 8724 8727 8730 8732 8735 8738 8741 8744 8747 8750 8753 8756 8759 8762 8765 8768 8771 8774 8777 8780 8783 8785 8788 8791 8794 8797 8800 8802 8805 8808 8811 8814 8816 8819 8822 8825 8828 8831 8834 8837 8839 8842 8845 8848 8851 8854 8857 8860 8863 8866 8869 8872 8875 8877 8880 8883 8886 8889 8892 8895 8898 8901 8904 8907 8910 8913 8915 8918 8921 8924 8927 8929 8931 8934 8936 8939 8942 8945 8948 8950 8953 8956 8958 8961 8964 8967 8970 8973 8976 8979 8981 8984 8987 8990 8993 8996 8999 9002 9005 9008 9011 9014 9017 9019 9022 9025 9028 9030 9032 9035 9038 9041 9043 9046 9049 9052 9055 9058 9061 9064 9066 9069 9072 9075 9077 9080 9083 9085 9088 9091 9094 9097 9100 9103 9105 9108 9111 9114 9117 9120 9123 9126 9129 9132 9135 9138 9141 9144 9146 9149 9152 9155 9158 9160 9163 9166 9169 9172 9175 9178 9181 9184 9187 9190 9192 9195 9198 9201 9203 9206 9208 9211 9214 9217 9220 9223 9226 9229 9232 9235 9238 9241 9244 9247 9250 9253 9256 9259 9262 9265 9268 9271 9274 9277 9280 9283 9285 9288 9291 9294 9297 9300 9303 9306 9309 9312 9315 9318 9321 9324 9327 9329 9332 9334 9337 9340 9342 9345 9348 9351 9354 9357 9360 9362 9364 9367 9370 9373 9376 9379 9381 9384 9387 9390 9392 9394 9397 9399 9402 9405 9408 9411 9413 9416 9418 9421 9424 9426 9429 9432 9435 9437 9439 9442 9444 9447 9449 9452 9454 9457 9460 9463 9466 9468 9471 9474 9477 9480 9482 9485 9488 9491 9494 9497 9500 9503 9506 9509 9512 9515 9518 9521 9524 9527 9530 9533 9536 9539 9541 9544 9547 9550 9553 9556 9558 9561 9563 9566 9569 9571 9574 9577 9580 9583 9586 9589 9591 9594 9597 9600 9602 9604 9607 9610 9613 9615 9618 9621 9624 9627 9629 9632 9635 9638 9641 9644 9647 9650 9653 9656 9659 9662 9665 9668 9671 9674 9677 9680 9683 9686 9689 9692 9695 9698 9701 9704 9707 9710 9713 9715 9718 9721 9724 9727 9730 9733 9736 9738 9741 9744 9747 9749 9752 9755 9757 9760 9763 9765 9768 9770 9773 9776 9778 9781 9783 9785 9788 9790 9793 9795 9798 9801 9804 9807 9810 9812 9815 9817 9820 9823 9826 9828 9831 9834 9837 9840 9842 9845 9848 9851 9854 9857 9859 9862 9865 9868 9871 9874 9877 9880 9883 9886 9889 9892 9895 9898 9901 9904 9907 9910 9913 9916 9919 9922 9925 9928 9931 9934 9937 9940 9943 9946 9949 9952 9955 9958 9961 9964 9967 9970 9973 9976 9979 9982 9985 9988 9991 9994 9997 10000 10002 10005 10008 10011 10014 10017 10020 10023 10026 10029 10032 10035 10038 10041 10044 10047 10050 10053 10056 10059 10062 10065 10068 10071 10074 10076 10079 10082 10085 10088 10091 10094 10097 10100 10103 10106 10109 10112 10115 10118 10121 10123 10126 10129 10132 10134 10137 10140 10143 10146 10149 10152 10155 10158 10161 10164 10167 10170 10173 10175 10178 10181 10184 10187 10190 10193 10196 10199 10202 10205 10208 10211 10214 10217 10220 10223 10226 10229 10232 10235 10238 10241 10244 10247 10250 10253 10256 10259 10262 10264 10267 10270 10273 10276 10278 10281 10283 10286 10289 10292 10295 10297 10300 10303 10306 10308 10311 10314 10317 10319 10322 10325 10328 10331 10333 10336 10338 10341 10344 10347 10350 10353 10356 10359 10361 10364 10367 10370 10373 10375 10378 10381 10384 10387 10390 10393 10396 10399 10402 10405 10408 10411 10414 10417 10420 10423 10426 10429 10432 10435 10438 10441 10444 10447 10450 10453 10456 10459 10462 10465 10467 10470 10473 10476 10479 10482 10485 10487 10490 10493 10495 10498 10501 10504 10507 10509 10511 10513 10516 10519 10521 10524 10527 10530 10532 10534 10537 10539 10542 10545 10548 10550 10553 10556 10559 10562 10565 10568 10571 10574 10577 10579 10582 10584 10587 10590 10593 10596 10599 10602 10605 10608 10611 10614 10616 10619 10622 10625 10628 10631 10634 10637 10640 10643 10646 10649 10651 10654 10657 10660 10663 10666 10669 10672 10675 10678 10681 10684 10687 10690 10693 10696 10699 10702 10705 10708 10711 10714 10717 10720 10723 10725 10728 10731 10734 10737 10740 10743 10746 10749 10752 10754 10757 10760 10763 10766 10769 10772 10775 10778 10781 10784 10787 10790 10793 10796 10799 10802 10804 10806 10809 10811 10814 10816 10819 10822 10824 10827 10830 10833 10835 10837 10839 10842 10845 10847 10850 10852 10854 10857 10860 10863 10866 10868 10871 10873 10875 10877 10880 10883 10886 10889 10892 10894 10897 10900 10902 10904 10907 10910 10913 10916 10918 10921 10923 10926 10929 10931 10934 10937 10940 10943 10946 10949 10952 10955 10958 10961 10964 10967 10970 10973 10976 10979 10982 10985 10988 10991 10994 10997 10999 11002 11005 11008 11010 11013 11015 11017 11020 11023 11025 11028 11031 11033 11036 11039 11042 11045 11047 11050 11052 11055 11058 11061 11064 11067 11070 11073 11076 11079 11081 11084 11087 11090 11093 11096 11099 11102 11105 11107 11110 11112 11115 11118 11121 11124 11127 11130 11133 11136 11139 11142 11145 11148 11151 11154 11156 11159 11162 11165 11167 11170 11172 11175 11178 11181 11183 11186 11189 11192 11195 11198 11201 11204 11207 11210 11213 11216 11218 11221 11224 11227 11230 11233 11236 11239 11242 11245 11248 11251 11254 11257 11260 11263 11266 11269 11272 11274 11277 11279 11282 11285 11288 11290 11292 11295 11298 11301 11304 11307 11310 11313 11316 11319 11321 11324 11327 11330 11333 11336 11338 11341 11344 11347 11349 11352 11354 11357 11359 11362 11364 11367 11370 11373 11376 11379 11382 11385 11388 11390 11393 11396 11399 11401 11403 11406 11409 11412 11415 11418 11420 11422 11425 11428 11431 11433 11436 11438 11441 11444 11447 11450 11453 11456 11459 11462 11464 11466 11469 11472 11475 11478 11480 11483 11486 11489 11492 11494 11497 11500 11503 11506 11509 11512 11515 11518 11521 11524 11527 11529 11532 11535 11538 11541 11544 11547 11550 11553 11556 11558 11561 11564 11567 11570 11573 11576 11579 11581 11584 11587 11589 11592 11595 11597 11599 11601 11604 11607 11610 11612 11615 11618 11621 11623 11626 11629 11632 11635 11638 11641 11644 11647 11650 11653 11656 11658 11661 11663 11666 11668 11671 11674 11676 11679 11682 11685 11688 11691 11694 11697 11700 11703 11706 11708 11711 11714 11716 11719 11722 11724 11727 11730 11732 11735 11737 11740 11743 11746 11749 11752 11755 11758 11761 11764 11767 11770 11773 11776 11779 11781 11784 11787 11790 11793 11796 11799 11802 11805 11808 11811 11814 11817 11820 11823 11826 11829 11832 11835 11837 11840 11843 11846 11849 11852 11854 11857 11859 11862 11865 11868 11871 11874 11877 11880 11883 11886 11888 11891 11894 11897 11900 11902 11905 11908 11911 11914 11917 11920 11923 11926 11928 11931 11933 11936 11939 11942 11944 11947 11950 11952 11955 11958 11960 11963 11966 11969 11971 11974 11977 11980 11983 11986 11989 11992 11994 11997 12000 12003 12006 12009 12012 12015 12018 12021 12024 12027 12030 12033 12036 12039 12042 12045 12048 12051 12054 12057 12060 12063 12066 12069 12072 12075 12078 12081 12084 12087 12090 12092 12095 12098 12100 12103 12106 12109 12111 12114 12116 12119 12122 12125 12128 12131 12134 12137 12140 12142 12145 12148 12151 12154 12157 12160 12163 12166 12169 12172 12175 12178 12181 12184 12187 12190 12193 12196 12199 12202 12205 12208 12211 12214 12217 12220 12222 12225 12228 12230 12233 12236 12239 12242 12245 12248 12251 12254 12257 12260 12263 12266 12269 12272 12275 12278 12281 12284 12287 12290 12293 12296 12298 12301 12304 12307 12310 12313 12316 12319 12322 12325 12328 12331 12334 12337 12339 12342 12345 12348 12351 12354 12357 12360 12363 12366 12369 12372 12375 12377 12380 12382 12385 12388 12390 12392 12395 12398 12401 12404 12407 12409 12412 12414 12417 12420 12422 12425 12427 12430 12433 12435 12437 12439 12442 12445 12447 12450 12453 12456 12458 12460 12463 12466 12469 12472 12475 12478 12481 12484 12487 12490 12493 12496 12499 12502 12504 12507 12510 12513 12516 12518 12521 12523 12525 12528 12531 12534 12536 12539 12541 12544 12547 12550 12552 12554 12557 12560 12563 12565 12568 12570 12573 12575 12578 12580 12583 12586 12588 12591 12593 12596 12599 12601 12604 12607 12610 12613 12616 12619 12621 12624 12627 12630 12633 12636 12639 12642 12645 12648 12651 12654 12657 12660 12663 12666 12669 12672 12675 12678 12680 12683 12686 12689 12692 12695 12697 12700 12703 12706 12708 12710 12713 12716 12718 12721 12724 12727 12730 12732 12735 12738 12741 12744 12747 12750 12753 12756 12759 12761 12764 12767 12770 12772 12774 12777 12779 12782 12785 12788 12791 12794 12797 12800 12802 12805 12807 12810 12813 12816 12819 12822 12825 12828 12831 12833 12836 12839 12842 12845 12848 12851 12854 12857 12860 12863 12866 12868 12871 12874 12877 12880 12883 12886 12889 12892 12895 12897 12900 12903 12905 12908 12911 12914 12917 12920 12923 12926 12929 12932 12935 12938 12941 12944 12947 12950 12953 12956 12959 12962 12965 12968 12971 12974 12977 12980 12983 12986 12989 12992 12995 12998 13001 13004 13007 13010 13013 13016 13019 13022 13025 13028 13031 13034 13037 13040 13043 13046 13049 13052 13055 13057 13060 13063 13066 13069 13072 13075 13078 13081 13084 13087 13090 13093 13096 13099 13102 13105 13108 13111 13113 13116 13119 13122 13125 13128 13131 13134 13137 13140 13143 13146 13148 13151 13154 13157 13160 13163 13165 13168 13171 13174 13177 13180 13183 13186 13189 13192 13195 13198 13201 13204 13207 13210 13213 13216 13218 13221 13224 13226 13229 13232 13235 13238 13241 13244 13247 13250 13253 13256 13258 13261 13264 13266 13269 13271 13274 13277 13280 13283 13286 13289 13292 13294 13297 13299 13302 13305 13307 13310 13313 13316 13319 13322 13324 13326 13329 13332 13335 13338 13341 13344 13347 13350 13353 13356 13359 13362 13365 13368 13370 13373 13375 13378 13381 13383 13386 13389 13392 13395 13398 13401 13404 13407 13409 13412 13415 13417 13420 13423 13426 13429 13432 13434 13437 13440 13443 13445 13447 13450 13453 13456 13458 13461 13463 13465 13468 13471 13474 13476 13479 13482 13485 13487 13490 13493 13495 13497 13499 13502 13504 13506 13509 13512 13515 13518 13521 13523 13526 13528 13531 13533 13536 13538 13541 13544 13546 13549 13551 13554 13557 13559 13561 13564 13567 13570 13572 13575 13578 13580 13583 13586 13589 13592 13595 13598 13601 13604 13607 13610 13613 13616 13618 13621 13624 13627 13630 13633 13636 13639 13642 13645 13648 13651 13654 13656 13659 13662 13665 13668 13671 13674 13677 13680 13683 13685 13688 13691 13694 13696 13699 13702 13705 13708 13711 13714 13716 13719 13721 13724 13727 13730 13733 13736 13739 13742 13745 13748 13751 13754 13757 13760 13763 13766 13768 13771 13774 13777 13780 13783 13785 13788 13790 13793 13796 13798 13801 13804 13807 13810 13813 13816 13819 13822 13825 13828 13831 13834 13837 13840 13843 13846 13849 13852 13855 13858 13861 13864 13867 13870 13873 13876 13879 13882 13885 13888 13891 13894 13897 13900 13903 13906 13909 13912 13915 13918 13921 13924 13927 13930 13933 13936 13939 13942 13945 13948 13951 13954 13957 13960 13963 13966 13969 13972 13975 13978 13981 13984 13987 13990 13993 13996 13999 14002 14005 14008 14011 14014 14017 14020 14023 14026 14028 14031 14034 14037 14040 14043 14046 14049 14052 14055 14058 14061 14064 14067 14070 14073 14076 14079 14082 14085 14087 14090 14093 14096 14099 14102 14104 14107 14110 14113 14116 14119 14122 14125 14128 14131 14134 14137 14140 14143 14146 14149 14151 14154 14157 14160 14163 14166 14168 14171 14174 14176 14179 14182 14185 14188 14191 14194 14197 14200 14203 14206 14209 14212 14215 14218 14221 14224 14227 14230 14233 14236 14239 14242 14245 14248 14251 14254 14257 14260 14263 14265 14268 14271 14274 14277 14280 14283 14286 14289 14292 14295 14298 14301 14304 14306 14309 14311 14314 14316 14318 14321 14324 14327 14329 14332 14335 14338 14341 14344 14347 14350 14353 14356 14358 14361 14364 14367 14370 14373 14376 14379 14382 14385 14388 14391 14394 14397 14400 14403 14406 14409 14412 14415 14417 14419 14422 14425 14427 14430 14433 14436 14439 14442 14445 14448 14451 14454 14457 14460 14463 14466 14469 14472 14474 14477 14480 14482 14485 14488 14491 14494 14496 14499 14501 14504 14507 14510 14513 14516 14519 14522 14525 14528 14531 14534 14537 14540 14542 14545 14548 14551 14554 14556 14559 14561 14564 14567 14570 14573 14576 14578 14581 14584 14587 14590 14593 14596 14599 14602 14605 14608 14611 14614 14617 14620 14622 14625 14628 14631 14633 14636 14639 14642 14645 14648 14651 14654 14657 14659 14662 14665 14668 14671 14673 14675 14678 14681 14684 14687 14690 14692 14695 14698 14701 14704 14707 14710 14713 14716 14719 14722 14725 14727 14730 14733 14736 14739 14742 14745 14747 14750 14752 14755 14758 14761 14764 14767 14770 14773 14776 14779 14782 14785 14787 14790 14793 14796 14798 14801 14804 14807 14809 14812 14814 14816 14818 14821 14823 14826 14828 14831 14834 14837 14839 14841 14844 14847 14849 14852 14855 14858 14860 14863 14865 14868 14870 14873 14876 14878 14880 14882 14885 14887 14890 14892 14894 14897 14900 14902 14905 14907 14910 14913 14916 14919 14922 14924 14927 14929 14932 14934 14937 14939 14941 14944 14946 14949 14952 14954 14957 14960 14963 14965 14968 14971 14973 14976 14979 14981 14984 14987 14990 14993 14995 14998 15001 15003 15006 15008 15011 15014 15017 15020 15023 15026 15029 15032 15035 15038 15041 15043 15046 15048 15051 15054 15057 15060 15063 15065 15068 15071 15074 15077 15080 15083 15086 15089 15092 15095 15098 15101 15104 15107 15110 15113 15116 15119 15122 15124 15127 15130 15133 15136 15138 15141 15144 15147 15150 15153 15156 15159 15162 15165 15168 15171 15174 15177 15179 15182 15185 15188 15191 15194 15197 15200 15203 15206 15209 15211 15214 15217 15219 15222 15225 15228 15230 15232 15235 15238 15241 15244 15247 15249 15252 15255 15258 15261 15264 15267 15270 15273 15276 15279 15282 15285 15288 15291 15294 15297 15300 15303 15306 15309 15312 15315 15318 15321 15324 15326 15329 15332 15334 15337 15339 15342 15345 15347 15350 15353 15356 15359 15362 15365 15368 15371 15374 15377 15380 15383 15386 15389 15392 15395 15398 15401 15404 15407 15410 15413 15416 15418 15420 15423 15426 15429 15432 15434 15437 15440 15443 15446 15449 15451 15454 15457 15460 15463 15466 15469 15472 15475 15478 15481 15484 15487 15490 15493 15496 15499 15501 15504 15507 15510 15513 15516 15519 15522 15525 15528 15531 15534 15537 15540 15543 15546 15549 15552 15555 15558 15561 15564 15567 15570 15572 15575 15577 15580 15583 15586 15589 15592 15595 15598 15601 15604 15607 15610 15613 15616 15619 15621 15624 15626 15629 15632 15635 15638 15641 15644 15647 15650 15653 15655 15658 15661 15663 15666 15669 15672 15675 15678 15681 15684 15687 15690 15693 15696 15699 15702 15705 15708 15711 15714 15717 15720 15723 15726 15729 15731 15733 15736 15739 15742 15745 15748 15751 15754 15757 15760 15763 15766 15769 15772 15775 15778 15781 15784 15787 15790 15792 15795 15798 15801 15804 15807 15810 15812 15815 15818 15821 15824 15827 15830 15833 15836 15839 15841 15844 15847 15850 15853 15856 15859 15862 15865 15868 15871 15874 15877 15880 15883 15886 15889 15892 15895 15898 15901 15904 15907 15910 15913 15916 15919 15922 15925 15928 15931 15934 15937 15940 15943 15946 15949 15952 15955 15958 15961 15964 15967 15970 15973 15976 15979 15982 15985 15988 15991 15994 15997 16000 16003 16006 16009 16011 16013 16016 16018 16021 16023 16025 16028 16031 16034 16037 16040 16043 16046 16048 16051 16054 16057 16060 16063 16066 16069 16072 16075 16077 16080 16083 16085 16088 16091 16094 16097 16100 16103 16106 16109 16112 16115 16118 16121 16124 16127 16130 16133 16136 16139 16142 16145 16148 16151 16154 16157 16160 16163 16166 16169 16171 16174 16177 16180 16183 16186 16189 16192 16194 16197 16200 16203 16206 16209 16212 16215 16218 16221 16224 16227 16230 16233 16236 16239 16241 16244 16246 16249 16252 16254 16256 16258 16261 16263 16266 16269 16272 16274 16277 16280 16283 16286 16289 16292 16295 16297 16300 16303 16306 16309 16312 16314 16317 16320 16323 16326 16329 16332 16335 16338 16341 16344 16347 16350 16353 16356 16359 16362 16365 16368 16371 16374 16377 16379 16382 16385 16388 16391 16394 16397 16400 16403 16406 16409 16411 16414 16417 16420 16423 16426 16429 16432 16435 16438 16441 16444 16447 16450 16452 16455 16458 16461 16463 16465 16468 16471 16474 16476 16479 16482 16484 16487 16490 16493 16495 16498 16501 16504 16507 16509 16512 16515 16518 16521 16524 16527 16530 16533 16536 16539 16542 16545 16548 16551 16553 16556 16559 16562 16565 16568 16570 16573 16576 16578 16581 16584 16587 16590 16593 16596 16599 16602 16604 16607 16610 16613 16616 16618 16621 16624 16627 16630 16633 16636 16638 16641 16644 16647 16650 16652 16655 16658 16661 16664 16667 16670 16672 16675 16678 16681 16684 16687 16690 16693 16696 16699 16702 16705 16708 16711 16714 16717 16720 16723 16726 16729 16732 16735 16738 16741 16744 16747 16750 16753 16756 16759 16762 16764 16767 16770 16773 16776 16779 16782 16785 16788 16791 16794 16797 16800 16803 16806 16809 16812 16815 16818 16821 16823 16826 16828 16830 16832 16835 16838 16841 16844 16847 16850 16852 16854 16857 16860 16863 16866 16869 16872 16875 16878 16881 16884 16886 16889 16892 16895 16898 16901 16904 16907 16910 16913 16916 16918 16921 16924 16927 16930 16933 16936 16938 16941 16944 16947 16950 16952 16955 16958 16960 16963 16966 16969 16971 16973 16976 16979 16982 16984 16987 16990 16993 16996 16999 17002 17005 17008 17010 17013 17016 17019 17022 17025 17028 17030 17033 17036 17038 17041 17043 17045 17048 17050 17053 17056 17059 17062 17064 17067 17070 17073 17076 17079 17082 17085 17088 17091 17094 17097 17100 17103 17106 17109 17112 17115 17117 17120 17123 17126 17129 17132 17135 17138 17141 17144 17147 17150 17153 17156 17159 17162 17165 17168 17171 17174 17177 17179 17182 17184 17187 17189 17192 17194 17196 17199 17202 17205 17208 17211 17214 17217 17220 17222 17225 17228 17231 17234 17237 17240 17243 17246 17249 17252 17255 17258 17261 17264 17267 17270 17273 17276 17278 17281 17284 17287 17290 17293 17296 17299 17302 17305 17307 17310 17313 17316 17319 17322 17325 17328 17331 17333 17336 17339 17342 17345 17348 17351 17353 17356 17359 17362 17364 17367 17370 17372 17375 17378 17381 17384 17387 17389 17392 17395 17398 17400 17403 17406 17409 17412 17415 17418 17421 17424 17426 17429 17432 17435 17438 17441 17444 17446 17449 17452 17455 17458 17461 17463 17466 17468 17471 17473 17476 17479 17481 17484 17487 17490 17493 17496 17499 17502 17505 17508 17510 17513 17516 17519 17522 17525 17527 17530 17533 17536 17539 17542 17544 17547 17550 17553 17556 17559 17562 17565 17568 17571 17574 17577 17580 17583 17586 17589 17592 17595 17598 17601 17604 17607 17610 17613 17616 17619 17622 17625 17628 17631 17634 17637 17640 17643 17646 17648 17651 17654 17656 17659 17662 17665 17668 17671 17674 17677 17680 17683 17686 17689 17692 17695 17698 17701 17704 17707 17710 17713 17716 17719 17722 17725 17728 17731 17734 17737 17740 17742 17745 17748 17751 17754 17756 17759 17762 17765 17768 17770 17773 17776 17779 17782 17785 17788 17791 17794 17797 17800 17803 17806 17809 17812 17815 17818 17821 17824 17827 17830 17833 17836 17839 17842 17845 17848 17851 17854 17857 17859 17862 17865 17868 17871 17874 17877 17879 17882 17885 17888 17891 17894 17897 17900 17903 17905 17908 17910 17913 17916 17919 17922 17925 17928 17931 17934 17937 17940 17943 17945 17948 17951 17954 17957 17960 17962 17965 17968 17971 17973 17976 17979 17982 17985 17988 17991 17994 17997 18000 18003 18006 18009 18012 18015 18018 18021 18024 18027 18030 18033 18036 18039 18041 18044 18047 18050 18053 18055 18058 18061 18064 18067 18070 18073 18076 18079 18082 18085 18088 18091 18094 18097 18100 18103 18106 18109 18112 18115 18118 18121 18124 18127 18130 18133 18136 18139 18142 18145 18148 18151 18154 18156 18159 18162 18165 18168 18170 18173 18176 18179 18182 18185 18187 18190 18193 18196 18198 18201 18204 18207 18210 18213 18216 18219 18222 18225 18228 18231 18234 18236 18239 18242 18245 18248 18251 18254 18257 18260 18263 18265 18267 18270 18273 18276 18279 18282 18285 18288 18291 18294 18297 18300 18303 18305 18308 18310 18312 18315 18318 18321 18324 18327 18329 18332 18335 18338 18341 18344 18347 18349 18352 18355 18357 18360 18362 18365 18368 18371 18374 18377 18380 18383 18386 18389 18392 18395 18398 18401 18404 18407 18410 18413 18416 18419 18422 18425 18428 18431 18434 18437 18440 18443 18446 18449 18452 18455 18458 18461 18464 18466 18469 18472 18474 18476 18479 18482 18485 18487 18490 18493 18496 18499 18502 18505 18508 18510 18512 18514 18516 18519 18522 18524 18527 18530 18532 18535 18537 18540 18543 18546 18549 18552 18555 18558 18561 18564 18567 18570 18573 18576 18579 18582 18585 18588 18591 18594 18597 18600 18603 18606 18609 18612 18615 18618 18621 18624 18627 18630 18633 18636 18639 18642 18644 18647 18650 18653 18656 18658 18661 18664 18667 18670 18673 18676 18679 18682 18685 18687 18690 18693 18696 18699 18702 18704 18707 18710 18713 18716 18718 18721 18724 18727 18730 18732 18735 18738 18741 18744 18746 18749 18752 18755 18758 18761 18764 18767 18770 18773 18776 18779 18782 18785 18788 18791 18794 18797 18800 18803 18806 18808 18811 18814 18816 18819 18821 18824 18827 18830 18833 18836 18839 18842 18845 18848 18851 18853 18856 18859 18862 18865 18867 18870 18873 18875 18877 18880 18883 18886 18889 18892 18895 18898 18901 18904 18907 18910 18913 18916 18919 18922 18924 18927 18930 18933 18936 18939 18942 18945 18948 18951 18954 18957 18960 18963 18966 18968 18970 18973 18976 18978 18981 18984 18987 18990 18993 18996 18999 19002 19005 19008 19011 19014 19017 19020 19023 19026 19029 19031 19034 19037 19040 19043 19045 19048 19051 19054 19057 19060 19063 19066 19069 19072 19074 19077 19080 19083 19086 19089 19091 19093 19096 19099 19102 19104 19107 19110 19113 19116 19118 19121 19124 19127 19130 19133 19136 19138 19141 19144 19147 19150 19153 19156 19159 19162 19165 19168 19171 19174 19176 19179 19181 19184 19187 19190 19192 19195 19197 19200 19203 19206 19209 19211 19213 19216 19218 19221 19224 19227 19230 19233 19236 19239 19242 19245 19247 19250 19252 19255 19258 19261 19263 19266 19269 19272 19275 19278 19281 19283 19286 19289 19292 19295 19298 19301 19303 19306 19309 19312 19314 19317 19319 19322 19324 19327 19329 19331 19334 19337 19339 19342 19345 19347 19350 19352 19355 19358 19361 19364 19367 19370 19373 19376 19379 19382 19385 19388 19391 19393 19396 19399 19402 19405 19407 19410 19413 19416 19419 19422 19425 19428 19431 19434 19437 19440 19442 19445 19447 19450 19453 19455 19457 19459 19462 19465 19468 19470 19473 19476 19478 19481 19484 19487 19490 19493 19496 19499 19502 19505 19508 19511 19513 19516 19519 19522 19525 19528 19531 19533 19535 19538 19541 19544 19547 19550 19552 19555 19557 19560 19563 19566 19569 19572 19575 19578 19581 19584 19587 19590 19593 19596 19599 19602 19605 19608 19611 19614 19617 19620 19623 19626 19629 19632 19635 19638 19640 19643 19646 19649 19652 19655 19657 19660 19663 19666 19669 19672 19675 19678 19681 19684 19686 19688 19691 19694 19696 19699 19702 19705 19707 19710 19713 19716 19719 19721 19723 19726 19728 19731 19734 19736 19739 19742 19745 19748 19751 19754 19757 19760 19763 19766 19769 19772 19775 19778 19781 19784 19787 19790 19793 19796 19799 19802 19805 19808 19811 19814 19817 19819 19821 19824 19827 19829 19832 19835 19838 19841 19844 19846 19848 19851 19853 19856 19858 19861 19864 19867 19870 19873 19876 19878 19881 19883 19886 19889 19892 19895 19898 19901 19904 19907 19910 19913 19916 19919 19922 19925 19928 19930 19933 19936 19939 19942 19945 19948 19951 19954 19956 19959 19962 19965 19968 19970 19973 19976 19979 19982 19985 19988 19991 19994 19997 20000 20003 20006 20008 20011 20014 20017 20020 20023 20026 20029 20032 20035 20038 20041 20044 20047 20050 20053 20056 20059 20062 20065 20068 20071 20074 20077 20080 20083 20086 20089 20092 20095 20098 20101 20104 20107 20110 20113 20116 20119 20122 20124 20127 20130 20133 20136 20139 20142 20145 20148 20151 20154 20157 20160 20163 20166 20169 20172 20174 20177 20180 20183 20186 20188 20191 20194 20197 20200 20203 20206 20209 20212 20215 20218 20221 20223 20226 20229 20232 20235 20238 20241 20244 20247 20249 20252 20255 20258 20261 20263 20266 20269 20272 20274 20277 20280 20283 20286 20289 20292 20295 20298 20301 20304 20307 20310 20313 20316 20319 20322 20324 20327 20330 20333 20336 20339 20342 20344 20347 20350 20353 20356 20359 20361 20364 20367 20370 20373 20375 20377 20380 20382 20384 20387 20390 20393 20396 20399 20402 20405 20408 20411 20414 20417 20420 20423 20426 20429 20432 20435 20438 20441 20444 20447 20449 20452 20455 20458 20461 20464 20466 20469 20472 20475 20478 20481 20484 20487 20490 20493 20496 20499 20502 20505 20508 20511 20514 20517 20520 20523 20525 20528 20531 20534 20536 20539 20542 20544 20546 20549 20552 20555 20557 20560 20562 20565 20568 20570 20573 20576 20579 20582 20585 20588 20590 20593 20595 20598 20601 20604 20606 20609 20612 20614 20616 20619 20621 20624 20627 20630 20633 20636 20639 20641 20644 20647 20650 20653 20656 20659 20662 20664 20666 20668 20671 20674 20677 20679 20682 20685 20688 20691 20693 20696 20699 20702 20705 20707 20710 20712 20715 20718 20721 20724 20727 20730 20733 20736 20739 20742 20745 20748 20751 20754 20756 20759 20762 20764 20767 20770 20773 20776 20778 20781 20784 20787 20790 20793 20796 20798 20801 20804 20807 20810 20813 20816 20819 20822 20824 20827 20830 20832 20835 20838 20841 20843 20845 20848 20851 20854 20857 20860 20863 20866 20868 20870 20873 20876 20878 20881 20884 20887 20890 20893 20895 20898 20901 20904 20907 20910 20913 20915 20918 20921 20923 20926 20929 20932 20934 20937 20940 20943 20946 20949 20951 20954 20957 20960 20963 20966 20969 20972 20975 20978 20981 20984 20987 20990 20993 20996 20999 21002 21005 21008 21011 21014 21017 21019 21022 21025 21028 21031 21034 21036 21038 21041 21043 21046 21048 21050 21053 21055 21058 21061 21064 21067 21070 21072 21075 21078 21081 21084 21087 21089 21092 21094 21097 21100 21102 21105 21108 21110 21112 21115 21118 21121 21124 21126 21128 21131 21134 21137 21139 21142 21144 21147 21149 21152 21155 21157 21160 21163 21166 21168 21171 21174 21177 21180 21183 21186 21188 21191 21194 21196 21198 21201 21203 21206 21209 21211 21214 21217 21220 21223 21226 21229 21232 21235 21237 21240 21243 21246 21249 21252 21255 21258 21261 21264 21267 21270 21273 21276 21278 21281 21284 21287 21289 21292 21295 21298 21301 21303 21306 21309 21312 21315 21318 21321 21324 21327 21330 21333 21336 21339 21342 21345 21348 21351 21354 21357 21360 21363 21366 21368 21371 21374 21377 21380 21382 21385 21388 21391 21394 21397 21400 21403 21406 21409 21412 21415 21418 21421 21424 21427 21430 21433 21436 21439 21442 21445 21448 21451 21454 21457 21459 21462 21465 21468 21471 21473 21476 21479 21482 21485 21488 21491 21494 21496 21499 21501 21504 21507 21510 21513 21516 21519 21522 21524 21527 21530 21532 21535 21538 21541 21544 21546 21549 21552 21555 21558 21561 21564 21567 21570 21572 21575 21578 21581 21583 21586 21588 21591 21594 21597 21600 21603 21605 21608 21610 21613 21616 21619 21622 21624 21627 21630 21632 21635 21638 21641 21644 21647 21649 21652 21655 21658 21661 21664 21667 21670 21672 21675 21678 21680 21683 21686 21689 21692 21695 21698 21701 21704 21707 21709 21711 21714 21717 21719 21722 21725 21728 21731 21734 21737 21740 21742 21744 21746 21749 21752 21754 21757 21760 21763 21765 21768 21771 21774 21776 21779 21782 21785 21788 21791 21794 21797 21800 21802 21805 21807 21810 21813 21816 21818 21821 21824 21827 21830 21833 21836 21839 21841 21844 21847 21850 21853 21856 21859 21862 21865 21868 21870 21873 21876 21879 21882 21885 21888 21891 21894 21897 21900 21903 21906 21909 21912 21915 21917 21920 21923 21926 21929 21932 21935 21937 21940 21943 21946 21948 21950 21953 21956 21959 21962 21965 21968 21971 21974 21977 21979 21982 21985 21988 21991 21994 21997 21999 22002 22005 22007 22010 22012 22015 22018 22021 22024 22027 22030 22033 22036 22039 22042 22045 22048 22051 22054 22057 22060 22063 22066 22068 22071 22074 22077 22080 22083 22085 22088 22090 22093 22096 22099 22102 22105 22108 22110 22113 22115 22118 22121 22124 22126 22129 22132 22135 22138 22140 22143 22146 22149 22152 22155 22157 22160 22163 22166 22169 22172 22175 22178 22181 22184 22186 22189 22191 22193 22196 22199 22202 22205 22208 22210 22213 22216 22219 22222 22225 22228 22231 22233 22236 22238 22240 22242 22245 22248 22251 22254 22257 22259 22262 22265 22267 22270 22273 22276 22279 22282 22284 22287 22290 22292 22295 22298 22301 22304 22307 22310 22313 22316 22319 22322 22325 22327 22329 22332 22335 22338 22341 22343 22346 22349 22352 22355 22358 22361 22364 22367 22370 22373 22376 22379 22382 22385 22388 22391 22394 22397 22400 22403 22406 22408 22411 22414 22417 22420 22423 22426 22429 22431 22434 22437 22440 22443 22446 22448 22450 22452 22455 22458 22461 22464 22467 22470 22472 22475 22477 22480 22483 22486 22488 22491 22494 22497 22500 22503 22506 22509 22512 22515 22518 22521 22523 22525 22528 22531 22534 22537 22540 22542 22545 22548 22551 22554 22557 22560 22563 22565 22568 22571 22574 22577 22580 22583 22586 22589 22592 22595 22598 22601 22603 22606 22609 22612 22615 22618 22621 22624 22627 22630 22633 22636 22639 22642 22645 22647 22650 22653 22656 22659 22662 22665 22668 22671 22673 22676 22679 22682 22685 22688 22691 22694 22697 22700 22703 22706 22709 22712 22715 22717 22720 22723 22726 22729 22732 22735 22737 22740 22743 22746 22748 22751 22754 22756 22759 22762 22765 22767 22770 22772 22774 22776 22778 22781 22784 22786 22788 22791 22794 22797 22799 22802 22805 22807 22810 22812 22815 22818 22821 22824 22827 22830 22833 22836 22838 22840 22843 22846 22848 22851 22854 22856 22859 22862 22865 22868 22870 22873 22876 22879 22882 22885 22888 22890 22893 22896 22899 22902 22905 22908 22911 22913 22916 22919 22922 22925 22928 22930 22933 22936 22938 22940 22943 22946 22949 22952 22955 22958 22961 22964 22967 22970 22973 22976 22979 22982 22985 22988 22991 22994 22996 22999 23002 23005 23008 23011 23014 23017 23020 23023 23026 23029 23032 23035 23038 23041 23044 23047 23050 23053 23056 23058 23061 23064 23067 23070 23073 23076 23079 23082 23085 23088 23091 23094 23097 23099 23102 23105 23108 23111 23113 23116 23119 23122 23125 23128 23130 23133 23136 23139 23142 23145 23148 23151 23154 23157 23160 23163 23166 23169 23172 23175 23178 23181 23184 23187 23190 23193 23196 23199 23202 23205 23208 23211 23214 23217 23220 23223 23226 23229 23232 23235 23238 23241 23244 23247 23250 23253 23256 23259 23262 23265 23268 23271 23274 23277 23279 23282 23285 23288 23291 23294 23297 23300 23303 23306 23309 23312 23315 23318 23321 23324 23327 23330 23333 23336 23339 23342 23345 23348 23351 23354 23357 23360 23363 23366 23369 23372 23374 23377 23380 23383 23386 23389 23392 23395 23398 23400 23403 23406 23409 23412 23415 23418 23420 23423 23426 23429 23432 23435 23438 23440 23443 23446 23448 23451 23454 23457 23460 23462 23465 23468 23470 23473 23476 23479 23482 23485 23488 23491 23494 23497 23500 23503 23506 23509 23512 23515 23518 23521 23524 23527 23530 23532 23535 23538 23541 23544 23547 23550 23553 23556 23559 23562 23565 23568 23570 23573 23575 23578 23581 23584 23587 23590 23593 23596 23599 23602 23605 23608 23611 23614 23617 23620 23622 23625 23628 23630 23633 23636 23639 23642 23645 23648 23651 23654 23657 23660 23663 23666 23669 23672 23675 23677 23679 23682 23685 23688 23691 23693 23696 23698 23701 23704 23707 23709 23712 23715 23717 23720 23723 23726 23728 23730 23733 23735 23738 23741 23743 23746 23749 23751 23754 23757 23760 23763 23766 23769 23772 23775 23778 23781 23784 23787 23790 23793 23796 23799 23802 23805 23808 23811 23814 23817 23820 23822 23824 23827 23830 23833 23835 23838 23841 23843 23846 23848 23850 23853 23855 23858 23860 23863 23865 23868 23870 23873 23875 23878 23881 23884 23886 23889 23892 23895 23898 23901 23904 23907 23910 23913 23916 23918 23921 23924 23927 23930 23933 23936 23939 23942 23944 23947 23950 23953 23956 23959 23962 23965 23968 23971 23974 23977 23980 23983 23986 23989 23992 23995 23998 24001 24004 24007 24010 24013 24016 24019 24022 24024 24027 24030 24032 24035 24038 24041 24044 24047 24050 24053 24055 24058 24060 24063 24066 24069 24072 24075 24078 24081 24084 24087 24089 24092 24094 24096 24099 24102 24105 24108 24111 24114 24117 24120 24123 24126 24129 24132 24135 24138 24141 24144 24147 24149 24151 24154 24157 24160 24163 24166 24169 24172 24175 24178 24181 24184 24187 24190 24192 24194 24196 24199 24202 24205 24208 24211 24214 24217 24220 24223 24226 24229 24232 24234 24237 24240 24242 24245 24248 24251 24254 24257 24260 24262 24265 24268 24271 24273 24276 24278 24281 24284 24287 24290 24292 24295 24298 24301 24303 24306 24309 24312 24315 24318 24321 24324 24327 24330 24333 24336 24339 24342 24345 24348 24351 24354 24357 24360 24363 24366 24369 24372 24374 24377 24379 24382 24385 24388 24391 24394 24397 24400 24403 24406 24409 24412 24414 24417 24420 24423 24425 24428 24431 24434 24437 24440 24443 24445 24448 24450 24453 24456 24458 24461 24464 24467 24470 24472 24474 24477 24480 24483 24486 24489 24491 24494 24497 24500 24503 24506 24509 24512 24515 24518 24520 24523 24526 24529 24532 24535 24538 24541 24544 24547 24549 24552 24555 24558 24561 24564 24567 24570 24573 24576 24579 24582 24584 24586 24589 24592 24595 24598 24601 24604 24607 24610 24613 24615 24618 24621 24624 24627 24630 24633 24636 24639 24642 24645 24648 24651 24654 24657 24660 24663 24666 24669 24671 24674 24676 24679 24682 24685 24688 24691 24694 24697 24700 24702 24705 24708 24711 24714 24717 24720 24723 24726 24729 24732 24734 24737 24740 24743 24745 24748 24751 24754 24757 24760 24762 24765 24768 24771 24774 24776 24779 24782 24785 24787 24790 24792 24795 24797 24800 24803 24805 24808 24811 24814 24817 24820 24823 24825 24828 24831 24834 24837 24840 24843 24846 24848 24851 24854 24857 24860 24863 24866 24869 24871 24874 24877 24880 24883 24886 24889 24892 24895 24898 24901 24904 24907 24910 24913 24916 24919 24921 24924 24927 24929 24932 24934 24937 24940 24943 24946 24949 24952 24955 24958 24960 24963 24966 24969 24971 24974 24977 24980 24983 24986 24989 24992 24995 24998 25000 25002 25005 25008 25010 25013 25016 25019 25022 25024 25027 25030 25032 25035 25038 25041 25044 25047 25050 25053 25056 25059 25061 25064 25067 25069 25072 25075 25078 25081 25083 25086 25088 25091 25094 25097 25100 25103 25106 25109 25112 25115 25118 25121 25123 25126 25128 25131 25134 25136 25139 25142 25145 25148 25151 25153 25156 25158 25161 25164 25167 25169 25171 25174 25177 25180 25183 25186 25189 25192 25194 25197 25200 25203 25206 25208 25211 25214 25217 25220 25223 25226 25229 25231 25234 25237 25239 25242 25245 25248 25251 25253 25256 25258 25260 25263 25266 25268 25271 25274 25277 25280 25282 25285 25288 25291 25294 25297 25300 25302 25305 25308 25311 25314 25316 25319 25322 25325 25328 25331 25334 25336 25339 25342 25344 25347 25350 25352 25355 25358 25361 25364 25367 25369 25372 25375 25378 25381 25384 25386 25389 25392 25395 25398 25400 25403 25406 25409 25412 25414 25417 25420 25423 25425 25428 25431 25434 25437 25440 25443 25446 25449 25452 25455 25458 25461 25464 25467 25469 25472 25475 25477 25480 25482 25484 25487 25490 25493 25496 25498 25501 25503 25506 25508 25511 25514 25516 25518 25521 25524 25527 25530 25532 25535 25538 25541 25543 25546 25549 25551 25554 25557 25560 25562 25565 25568 25570 25573 25576 25579 25581 25584 25587 25589 25592 25595 25598 25601 25604 25607 25610 25613 25616 25619 25622 25625 25628 25631 25634 25637 25640 25642 25645 25648 25651 25654 25657 25660 25663 25666 25669 25672 25675 25678 25681 25684 25687 25690 25693 25696 25699 25702 25705 25708 25711 25714 25717 25720 25723 25726 25729 25732 25734 25737 25740 25743 25746 25749 25752 25755 25758 25761 25764 25766 25768 25771 25774 25777 25779 25782 25785 25787 25790 25793 25796 25799 25802 25805 25808 25811 25814 25816 25819 25822 25825 25828 25831 25834 25837 25840 25843 25846 25849 25852 25855 25858 25861 25864 25867 25870 25873 25875 25878 25881 25884 25887 25889 25892 25895 25897 25900 25903 25906 25909 25912 25915 25918 25921 25924 25927 25930 25933 25936 25939 25942 25945 25948 25951 25953 25956 25959 25962 25964 25967 25970 25973 25976 25979 25981 25984 25987 25990 25993 25996 25999 26002 26005 26008 26011 26014 26017 26020 26023 26026 26029 26032 26035 26038 26041 26044 26047 26050 26053 26056 26059 26062 26065 26068 26071 26074 26077 26080 26083 26086 26089 26092 26095 26098 26101 26104 26107 26110 26113 26116 26119 26122 26125 26128 26130 26133 26136 26138 26141 26143 26146 26149 26151 26154 26157 26160 26162 26165 26168 26171 26174 26177 26180 26183 26186 26189 26192 26194 26196 26199 26202 26204 26207 26210 26213 26216 26219 26222 26225 26228 26231 26234 26237 26240 26243 26246 26249 26251 26253 26256 26259 26262 26265 26268 26271 26274 26277 26280 26283 26286 26288 26291 26294 26297 26300 26303 26306 26309 26312 26315 26317 26320 26323 26326 26329 26332 26335 26338 26341 26343 26346 26349 26351 26354 26357 26360 26363 26365 26368 26371 26374 26377 26380 26382 26385 26387 26390 26393 26396 26399 26401 26404 26407 26410 26413 26415 26418 26421 26423 26426 26429 26432 26435 26438 26441 26444 26447 26450 26453 26456 26459 26462 26465 26468 26471 26474 26476 26479 26481 26484 26486 26489 26492 26495 26498 26501 26504 26507 26510 26513 26516 26519 26522 26525 26528 26531 26534 26537 26540 26543 26546 26549 26551 26554 26557 26560 26563 26566 26569 26572 26575 26578 26580 26583 26586 26589 26592 26595 26598 26601 26604 26607 26610 26613 26616 26619 26622 26625 26628 26630 26632 26635 26638 26641 26644 26647 26650 26653 26656 26659 26662 26665 26668 26671 26674 26677 26679 26682 26685 26688 26691 26694 26697 26700 26703 26706 26709 26712 26714 26717 26720 26722 26725 26728 26731 26734 26737 26740 26743 26746 26749 26752 26755 26757 26760 26762 26765 26768 26771 26773 26776 26779 26781 26784 26787 26790 26793 26796 26799 26802 26805 26808 26811 26814 26817 26819 26821 26824 26827 26830 26833 26836 26839 26841 26844 26847 26850 26853 26856 26858 26861 26864 26867 26870 26873 26876 26879 26882 26885 26888 26891 26894 26897 26900 26903 26906 26909 26912 26915 26918 26921 26923 26925 26928 26931 26934 26937 26940 26943 26946 26949 26952 26955 26957 26959 26962 26965 26968 26971 26973 26976 26978 26981 26983 26986 26988 26991 26994 26996 26998 27001 27004 27007 27009 27011 27014 27016 27019 27022 27025 27027 27030 27032 27035 27038 27040 27043 27046 27049 27052 27055 27057 27060 27063 27066 27069 27072 27074 27077 27079 27082 27085 27088 27091 27094 27097 27100 27103 27106 27109 27112 27114 27117 27119 27121 27124 27126 27129 27132 27134 27137 27140 27142 27145 27147 27150 27153 27155 27158 27161 27164 27167 27170 27172 27175 27178 27181 27184 27187 27190 27193 27196 27198 27201 27204 27207 27209 27212 27215 27218 27221 27223 27226 27228 27231 27233 27236 27239 27241 27244 27247 27249 27251 27254 27256 27259 27262 27264 27266 27269 27272 27274 27277 27279 27282 27285 27287 27289 27292 27294 27297 27300 27302 27305 27308 27311 27313 27316 27319 27321 27324 27327 27330 27333 27336 27339 27342 27345 27348 27351 27354 27357 27360 27363 27366 27369 27371 27374 27377 27380 27383 27386 27389 27392 27395 27397 27400 27403 27406 27408 27410 27413 27416 27419 27422 27424 27427 27430 27432 27434 27437 27440 27443 27446 27449 27451 27453 27456 27459 27461 27463 27466 27468 27471 27474 27476 27479 27482 27485 27488 27491 27494 27497 27500 27503 27506 27509 27512 27515 27518 27521 27524 27527 27530 27533 27535 27538 27541 27544 27547 27550 27553 27555 27558 27561 27563 27566 27568 27571 27574 27577 27580 27583 27586 27588 27591 27594 27597 27599 27602 27605 27608 27611 27614 27617 27619 27622 27624 27627 27630 27633 27636 27639 27642 27645 27648 27650 27653 27656 27659 27662 27665 27668 27671 27674 27677 27680 27682 27685 27688 27690 27693 27696 27699 27702 27705 27708 27711 27713 27716 27719 27722 27725 27728 27731 27734 27737 27740 27743 27746 27749 27752 27755 27757 27760 27763 27766 27769 27772 27775 27777 27780 27783 27786 27789 27792 27795 27798 27801 27804 27807 27810 27813 27816 27818 27821 27824 27827 27830 27833 27835 27838 27841 27844 27847 27850 27853 27856 27858 27861 27864 27867 27870 27873 27876 27879 27881 27884 27887 27890 27893 27895 27897 27899 27902 27904 27907 27910 27913 27916 27919 27922 27924 27927 27930 27933 27936 27938 27941 27943 27945 27947 27949 27952 27954 27957 27959 27961 27964 27967 27970 27973 27976 27979 27982 27984 27987 27989 27992 27995 27998 28001 28004 28007 28010 28012 28015 28018 28021 28024 28026 28029 28032 28035 28038 28041 28044 28046 28049 28052 28055 28058 28061 28064 28066 28068 28071 28074 28077 28080 28082 28085 28087 28090 28093 28096 28099 28102 28105 28108 28111 28114 28117 28119 28122 28125 28127 28130 28132 28135 28138 28140 28143 28145 28148 28150 28153 28156 28159 28162 28165 28168 28171 28174 28177 28180 28182 28185 28188 28191 28194 28197 28200 28203 28206 28208 28210 28213 28216 28219 28221 28224 28227 28230 28233 28236 28239 28241 28244 28246 28249 28252 28255 28258 28261 28263 28266 28269 28272 28275 28278 28281 28284 28287 28290 28292 28295 28298 28300 28303 28306 28309 28311 28314 28317 28320 28323 28326 28329 28331 28334 28337 28340 28343 28346 28349 28352 28354 28357 28360 28363 28366 28369 28372 28375 28378 28381 28384 28387 28390 28392 28395 28398 28401 28404 28407 28409 28412 28415 28417 28420 28423 28426 28429 28432 28435 28438 28441 28444 28447 28450 28453 28456 28459 28462 28465 28468 28471 28474 28476 28479 28482 28484 28487 28490 28493 28496 28499 28501 28504 28507 28509 28512 28515 28518 28521 28524 28527 28530 28533 28535 28538 28541 28544 28546 28549 28552 28555 28558 28561 28564 28567 28570 28573 28576 28579 28582 28585 28587 28590 28593 28596 28599 28602 28605 28608 28611 28614 28617 28620 28623 28626 28629 28632 28635 28638 28641 28644 28647 28650 28653 28656 28659 28662 28664 28667 28670 28673 28676 28679 28682 28685 28687 28690 28692 28695 28698 28701 28703 28706 28708 28711 28714 28717 28719 28721 28724 28727 28729 28732 28734 28737 28740 28743 28746 28749 28751 28754 28757 28760 28763 28766 28768 28771 28774 28777 28780 28783 28786 28789 28792 28795 28798 28800 28803 28806 28809 28811 28814 28817 28820 28823 28826 28829 28832 28835 28838 28841 28844 28847 28850 28853 28856 28859 28862 28864 28867 28870 28872 28875 28878 28880 28883 28886 28889 28892 28895 28898 28901 28904 28907 28910 28913 28916 28919 28922 28925 28928 28931 28934 28937 28940 28943 28946 28949 28952 28954 28956 28959 28962 28965 28968 28971 28974 28976 28979 28982 28985 28988 28991 28994 28996 28999 29002 29005 29007 29010 29012 29015 29017 29020 29023 29026 29029 29032 29035 29037 29040 29043 29046 29048 29051 29053 29056 29059 29062 29064 29067 29070 29073 29076 29079 29082 29085 29088 29091 29094 29097 29099 29102 29105 29107 29110 29113 29116 29118 29121 29124 29127 29130 29133 29136 29139 29142 29145 29147 29150 29153 29155 29158 29161 29164 29167 29169 29172 29174 29177 29180 29183 29186 29189 29192 29195 29198 29201 29204 29207 29209 29212 29215 29218 29220 29223 29226 29229 29232 29235 29238 29241 29244 29247 29250 29252 29255 29258 29261 29264 29267 29269 29272 29275 29278 29281 29283 29286 29289 29292 29295 29298 29301 29304 29307 29310 29313 29316 29319 29322 29325 29328 29331 29334 29337 29340 29343 29346 29349 29351 29354 29356 29359 29362 29365 29368 29371 29374 29377 29380 29382 29385 29388 29391 29394 29397 29400 29403 29406 29409 29412 29415 29418 29421 29424 29427 29430 29433 29436 29439 29442 29445 29448 29451 29454 29457 29460 29463 29465 29467 29470 29473 29476 29479 29482 29485 29488 29491 29494 29497 29500 29503 29506 29509 29512 29515 29518 29521 29524 29527 29530 29533 29536 29539 29542 29545 29548 29551 29554 29557 29560 29563 29566 29569 29572 29575 29578 29581 29584 29587 29590 29593 29596 29599 29602 29605 29608 29611 29614 29617 29620 29623 29626 29629 29632 29635 29638 29641 29644 29647 29650 29653 29656 29659 29662 29665 29668 29671 29674 29677 29680 29683 29686 29689 29692 29695 29698 29701 29704 29706 29709 29711 29714 29717 29720 29723 29726 29729 29732 29735 29738 29740 29742 29745 29747 29750 29753 29755 29758 29761 29764 29767 29770 29773 29776 29779 29782 29784 29787 29790 29793 29796 29799 29802 29805 29807 29809 29812 29815 29817 29820 29822 29825 29828 29830 29832 29835 29838 29841 29844 29847 29849 29852 29855 29858 29860 29863 29866 29868 29871 29874 29877 29880 29883 29885 29888 29890 29893 29896 29898 29901 29904 29907 29910 29912 29915 29918 29921 29924 29927 29930 29933 29935 29938 29940 29943 29946 29949 29952 29955 29958 29961 29964 29967 29970 29973 29976 29979 29982 29985 29988 29991 29994 29997 30000 30003 30006 30009 30011 30014 30017 30020 30023 30026 30029 30032 30035 30037 30040 30042 30045 30048 30051 30054 30057 30060 30063 30065 30068 30071 30074 30077 30080 30083 30086 30088 30091 30094 30097 30100 30103 30105 30108 30111 30114 30117 30120 30123 30126 30128 30131 30134 30137 30140 30142 30145 30148 30151 30154 30157 30160 30163 30165 30168 30171 30174 30177 30180 30182 30184 30187 30190 30192 30194 30197 30199 30202 30205 30207 30210 30213 30215 30218 30221 30224 30227 30229 30232 30234 30236 30239 30242 30245 30247 30250 30253 30255 30258 30260 30263 30266 30269 30272 30275 30278 30281 30284 30287 30290 30293 30296 30299 30302 30305 30308 30310 30313 30316 30319 30322 30325 30327 30330 30333 30336 30339 30342 30344 30347 30350 30352 30355 30358 30361 30364 30367 30370 30373 30376 30379 30382 30385 30388 30391 30393 30396 30399 30402 30404 30407 30410 30413 30416 30419 30422 30425 30428 30431 30434 30437 30440 30443 30446 30449 30452 30455 30457 30460 30463 30466 30468 30471 30474 30477 30480 30483 30485 30488 30491 30494 30496 30499 30502 30505 30507 30509 30512 30515 30518 30520 30523 30526 30529 30532 30535 30538 30541 30544 30547 30550 30553 30555 30558 30561 30564 30567 30570 30573 30576 30579 30582 30585 30587 30590 30593 30596 30599 30602 30605 30608 30611 30614 30617 30620 30623 30626 30629 30632 30635 30638 30641 30644 30647 30650 30653 30656 30659 30662 30665 30668 30671 30674 30677 30680 30683 30686 30689 30692 30695 30698 30701 30704 30707 30710 30713 30716 30719 30722 30725 30728 30731 30734 30737 30740 30743 30746 30749 30752 30755 30758 30760 30763 30766 30768 30771 30774 30777 30780 30783 30786 30789 30792 30795 30798 30801 30804 30806 30809 30812 30815 30818 30821 30824 30827 30830 30833 30836 30839 30841 30844 30847 30850 30853 30855 30858 30861 30864 30867 30870 30873 30876 30879 30882 30885 30888 30890 30893 30896 30899 30902 30905 30908 30911 30913 30916 30919 30922 30925 30927 30930 30933 30936 30939 30942 30945 30948 30951 30954 30957 30960 30963 30966 30969 30972 30975 30978 30981 30984 30987 30989 30992 30995 30998 31001 31004 31006 31009 31012 31014 31017 31020 31023 31026 31028 31031 31034 31037 31040 31043 31046 31049 31051 31054 31057 31060 31063 31066 31069 31072 31075 31078 31081 31084 31087 31090 31093 31096 31099 31101 31104 31107 31110 31113 31115 31118 31121 31124 31127 31129 31132 31135 31138 31141 31143 31146 31149 31152 31155 31157 31160 31163 31166 31169 31171 31174 31177 31179 31182 31185 31188 31191 31193 31196 31198 31201 
</DataArray>
<DataArray type="UInt32" Name="types" format="ascii">
5 5 3 5 5 5 5 3 5 5 5 3 3 3 5 5 5 3 5 5 5 5 5 3 5 5 5 5 5 5 5 5 5 5 3 5 3 5 5 5 5 3 5 5 5 5 5 5 3 5 5 5 5 5 5 5 5 5 5 3 5 5 5 5 5 5 5 5 5 5 5 5 5 5 5 5 5 5 5 5 5 3 5 5 5 5 3 5 3 5 5 3 5 3 5 5 3 5 5 5 5 5 5 5 5 5 5 5 5 3 5 5 5 5 5 5 5 3 5 5 5 5 5 5 5 5 5 5 5 5 5 3 5 5 5 5 5 5 3 5 5 3 3 5 5 5 5 5 3 5 5 5 5 3 5 5 5 5 5 5 5 5 5 5 5 5 5 5 5 5 5 5 3 5 5 5 5 5 5 5 5 3 5 5 5 5 5 5 5 5 5 5 5 5 5 5 5 5 5 5 5 5 5 5 5 5 5 5 5 5 5 5 5 5 5 5 5 5 5 5 5 5 5 5 5 5 5 5 5 5 5 3 5 5 5 5 5 5 5 5 5 5 5 5 5 5 5 5 5 5 5 5 5 5 3 5 5 5 3 5 5 5 3 5 3 5 3 5 3 5 5 5 3 5 5 3 3 5 5 3 5 3 5 5 3 3 3 5 3 5 3 5 5 3 5 5 5 5 5 5 5 5 3 5 5 5 3 5 3 5 5 3 3 5 3 3 5 5 5 3 5 5 3 5 5 3 5 3 3 5 5 5 3 5 5 5 3 5 5 5 5 3 5 3 3 5 5 5 5 5 5 5 3 5 5 5 5 5 3 5 5 5 5 5 5 3 5 5 5 5 5 3 5 5 5 5 5 5 5 5 5 5 5 5 5 5 5 5 5 5 5 5 5 5 5 5 5 5 5 5 5 3 5 5 5 5 3 5 5 3 5 5 5 5 5 5 5 5 5 5 5 5 5 5 5 3 5 3 5 5 3 5 3 5 3 5 5 3 5 5 5 5 5 5 5 5 5 3 5 5 5 5 5 5 5 5 3 5 5 5 3 3 5 5 5 5 5 3 5 5 5 3 5 5 5 3 3 5 3 5 5 5 5 3 3 5 5 3 3 5 5 5 3 5 5 5 5 3 5 3 5 5 5 5 3 5 3 5 5 3 5 5 5 5 5 5 3 5 3 3 5 3 5 5 5 3 5 5 3 5 5 5 5 5 5 5 3 5 5 5 5 5 5 5 5 3 5 3 3 5 3 5 5 5 3 5 5 3 5 5 5 5 5 5 5 5 5 5 5 5 5 5 5 5 5 5 3 5 5 5 5 3 5 5 5 5 5 5 5 5 5 5 5 3 5 5 5 5 5 5 5 5 3 5 5 5 5 5 5 5 3 5 5 5 3 5 5 5 5 5 5 5 5 5 5 5 5 5 5 5 5 5 5 5 5 5 5 5 5 5 5 5 5 3 5 5 5 5 5 5 5 5 5 5 5 5 5 5 5 5 5 3 5 5 5 5 5 5 5 3 5 5 3 5 5 5 5 5 5 3 5 5 5 5 5 5 5 5 5 5 5 5 5 3 5 5 5 5 5 5 5 5 3 5 5 3 5 5 5 5 5 5 5 5 5 5 5 5 5 5 5 5 5 5 5 5 5 5 5 5 5 5 3 5 5 5 3 5 5 5 3 5 3 5 3 5 5 5 5 5 5 5 5 5 5 5 5 5 5 5 5 5 5 3 5 5 5 5 3 5 5 5 3 3 5 5 5 5 5 5 5 5 3 3 5 5 5 5 5 5 5 5 3 5 3 5 3 3 3 3 5 5 5 3 5 3 5 5 5 5 5 5 5 5 5 5 5 5 3 5 5 5 5 5 5 5 5 5 5 5 5 5 5 5 3 5 5 5 5 5 5 5 5 5 3 5 5 5 3 5 5 5 5 5 5 5 5 3 5 5 5 5 5 5 5 5 5 3 5 5 5 5 5 5 3 5 3 5 5 5 5 5 5 5 5 3 5 3 5 5 5 5 5 5 5 5 5 5 5 5 5 5 5 5 3 5 5 5 5 5 5 5 5 5 5 5 5 5 3 5 5 5 5 3 5 5 5 5 5 5 5 5 5 3 5 5 5 5 5 5 3 5 5 5 5 5 5 5 3 5 5 3 5 5 3 5 5 5 5 5 5 5 5 5 5 5 5 5 5 5 5 5 5 5 5 5 5 5 5 5 5 5 3 5 5 3 5 5 5 5 5 3 5 5 5 5 5 5 5 5 5 5 3 5 5 5 5 3 5 5 5 5 5 5 5 5 5 5 5 5 5 5 3 5 5 5 5 3 5 5 5 5 5 5 5 5 5 5 3 5 5 3 5 5 5 5 5 5 5 3 5 5 5 5 5 5 3 5 5 5 5 5 5 5 5 5 5 5 5 5 5 5 5 5 5 5 5 5 5 5 5 5 5 5 5 5 5 5 5 5 5 5 3 5 5 5 5 3 5 5 5 5 5 5 5 5 5 5 5 5 5 5 5 3 5 5 5 5 3 5 5 5 5 5 5 3 5 5 5 5 5 3 5 5 5 5 5 5 5 5 5 5 5 5 5 5 5 5 5 5 5 5 5 5 5 5 5 5 5 5 5 5 5 5 3 5 5 5 3 5 5 3 5 5 5 5 5 5 3 5 5 5 5 5 5 5 5 5 3 5 5 5 5 5 5 5 3 5 5 5 5 5 5 3 3 5 5 5 5 3 5 5 5 5 3 3 5 3 5 5 5 5 5 5 5 3 5 5 3 5 5 5 5 5 5 3 5 5 5 5 5 3 3 5 5 5 3 5 5 5 5 5 5 5 5 5 5 5 3 5 5 5 5 5 5 5 5 5 5 5 5 5 5 5 5 5 5 5 3 5 5 5 5 5 5 5 5 5 5 5 5 5 5 5 5 5 5 5 5 5 5 5 5 5 5 5 5 5 5 5 5 5 5 5 5 5 5 5 5 5 3 5 5 5 5 5 5 3 5 5 5 5 5 5 5 5 5 5 5 5 5 5 5 5 5 5 5 5 5 5 5 5 5 5 5 3 5 5 5 5 3 5 5 5 5 5 5 5 5 5 5 5 5 5 5 5 5 5 3 5 5 5 5 5 5 5 5 5 5 3 5 3 5 5 3 5 3 5 5 3 5 5 5 5 3 5 5 5 5 5 3 5 3 3 5 5 5 3 3 5 5 5 5 5 5 5 5 5 5 5 5 5 3 5 5 5 5 5 5 5 5 5 5 5 5 5 5 5 5 5 5 5 5 5 5 5 5 5 5 5 5 5 5 5 5 5 5 5 5 5 5 5 5 3 5 5 5 3 5 5 5 5 3 5 5 5 5 5 5 5 5 5 5 5 5 3 5 3 5 5 5 5 5 5 3 5 5 3 5 5 5 5 3 5 5 5 5 5 5 5 5 5 5 5 5 5 5 5 5 5 5 5 5 5 5 5 5 3 5 5 3 5 5 5 5 5 5 3 5 5 5 5 5 5 5 5 5 5 5 5 5 5 5 5 5 5 5 5 5 3 5 5 5 5 5 5 5 5 5 3 5 5 5 3 5 5 5 3 5 5 5 3 5 5 5 5 3 5 3 5 5 5 5 3 3 5 5 5 5 5 5 5 5 5 5 5 5 5 5 5 3 3 5 5 5 3 5 5 5 5 5 5 5 5 5 5 5 5 3 5 5 5 3 3 5 5 5 5 5 3 5 5 5 5 5 5 5 5 5 5 5 5 5 5 5 5 5 5 5 5 3 5 5 3 3 5 5 5 5 5 5 5 3 3 3 5 5 5 3 3 5 5 5 5 3 5 3 5 5 5 5 5 5 5 5 5 5 5 5 3 5 5 5 3 5 5 5 5 5 3 5 5 3 5 3 5 5 5 5 5 5 5 5 5 5 5 5 5 5 5 5 5 5 5 5 5 5 5 3 5 3 5 5 3 5 5 3 5 5 5 5 5 5 5 5 5 5 5 5 5 5 5 5 5 5 5 5 5 5 5 5 5 5 5 5 3 5 5 5 5 5 5 5 5 5 5 5 5 5 5 5 5 3 5 5 5 5 5 3 5 5 5 5 3 5 5 3 5 5 5 3 5 5 5 5 5 5 5 3 5 5 5 5 5 5 3 5 5 3 5 3 3 5 5 5 5 5 5 5 5 3 5 5 3 5 3 5 5 5 3 5 5 5 3 5 5 5 3 3 5 3 5 3 5 5 3 5 3 5 3 3 5 5 5 5 5 3 5 5 5 5 5 5 5 3 5 5 5 5 5 5 5 5 5 5 5 5 5 5 5 5 5 5 5 5 5 5 5 5 5 5 5 5 5 5 5 5 5 5 5 5 3 5 5 5 5 5 5 3 5 5 5 5 5 5 5 5 5 5 5 5 5 5 5 5 5 5 5 5 3 5 5 5 5 5 5 5 5 5 5 5 5 5 3 5 5 5 5 5 5 5 5 5 5 5 5 5 5 5 5 5 3 5 5 3 5 5 5 5 5 5 5 5 3 5 5 5 5 5 5 5 5 5 5 5 5 5 5 5 5 3 5 5 5 5 5 3 5 3 5 3 5 5 3 5 3 3 5 5 5 3 5 5 5 5 5 5 5 5 3 5 5 5 5 5 5 5 3 5 3 5 5 5 5 5 5 5 5 5 5 3 3 5 5 5 3 5 5 5 3 5 3 5 5 3 5 5 5 5 3 5 5 3 5 5 5 5 5 5 3 3 5 5 5 5 5 5 5 5 3 5 5 5 5 5 3 5 3 5 5 5 5 5 5 3 5 5 5 5 5 5 3 5 5 5 5 5 5 3 5 5 5 5 5 5 3 5 3 5 5 5 5 5 3 5 3 5 5 5 5 5 5 5 5 5 3 5 5 5 5 5 5 5 5 3 5 3 5 3 5 5 3 3 5 3 5 5 5 5 5 3 5 3 5 5 5 5 5 5 5 5 5 5 5 5 5 5 5 5 5 5 5 5 3 5 5 3 5 5 5 5 5 5 5 5 5 5 5 5 5 5 5 5 5 5 5 3 5 5 3 5 5 5 5 5 5 5 3 3 5 5 3 5 3 5 5 5 5 3 3 5 3 5 5 5 5 5 5 5 3 5 5 5 5 5 3 3 5 3 3 5 3 3 5 5 5 5 5 5 5 5 5 5 5 3 5 5 5 5 5 3 3 5 5 5 5 5 5 5 5 5 5 5 3 5 5 5 5 3 5 5 5 5 3 5 5 5 5 5 5 5 5 3 5 3 5 5 5 5 3 5 5 5 5 5 5 5 5 5 5 5 5 3 5 5 3 5 5 5 5 5 5 5 5 5 5 5 5 5 3 5 5 5 3 5 5 5 5 3 3 5 5 5 5 5 5 5 5 5 5 5 5 5 3 5 5 5 5 5 5 5 5 5 5 5 5 5 5 5 3 3 5 5 5 5 5 5 5 5 5 5 5 5 5 5 5 5 5 5 5 5 5 5 5 5 3 5 3 5 5 5 5 5 5 5 5 5 5 5 5 5 5 5 5 5 5 5 5 5 5 5 3 3 5 3 3 5 5 5 5 5 3 5 3 5 5 5 5 5 5 5 5 5 5 5 5 5 5 5 5 3 5 5 3 5 3 5 3 5 5 5 5 5 5 5 3 5 5 5 5 5 5 5 5 5 5 5 5 5 5 5 3 5 5 5 3 5 5 5 5 3 3 5 5 3 5 5 5 5 5 5 5 5 3 5 5 3 5 3 5 5 5 3 5 5 3 5 3 5 5 3 5 5 5 3 5 5 5 5 3 3 5 5 5 5 5 5 5 5 5 5 5 5 3 5 5 5 5 5 3 5 5 5 5 5 5 3 5 3 5 5 5 5 5 5 5 5 5 5 3 5 5 3 5 5 5 5 5 5 5 5 5 3 3 5 5 5 5 5 3 5 5 5 3 5 3 5 5 5 5 5 5 3 5 5 5 3 5 5 5 5 5 5 5 5 5 5 5 5 5 5 5 5 5 5 5 5 5 5 5 5 5 5 5 5 5 3 5 5 5 5 5 5 3 5 5 5 5 5 5 3 5 3 5 5 3 3 5 5 3 5 5 5 5 5 5 5 5 5 5 5 5 5 5 5 5 5 5 5 5 5 5 5 5 5 5 5 5 3 5 5 5 5 5 5 5 5 5 5 5 5 5 5 5 5 5 5 5 5 5 5 5 5 5 5 5 5 5 5 5 5 3 5 5 5 3 5 5 5 5 5 5 3 5 5 5 5 5 5 5 5 5 5 5 5 5 5 5 5 5 5 3 5 3 5 5 5 5 5 5 5 5 5 5 5 5 5 5 5 5 5 5 5 5 5 5 5 5 5 3 3 3 3 3 3 5 5 5 5 3 5 5 3 5 5 5 5 5 5 5 5 5 3 5 5 5 3 5 5 3 5 3 5 3 5 3 5 3 5 5 5 5 5 5 3 5 5 3 5 5 5 5 5 3 5 5 5 5 5 3 5 5 5 5 5 5 3 5 5 5 5 5 5 5 3 5 5 5 3 5 5 5 5 5 5 5 5 5 5 5 5 3 5 5 3 5 5 5 5 3 5 3 5 5 5 3 5 5 5 5 5 3 5 3 5 5 5 5 5 5 5 5 5 3 5 5 3 5 5 3 5 5 3 3 5 5 5 5 5 3 3 3 5 5 5 5 5 5 3 5 5 5 5 5 5 5 5 5 5 5 5 5 5 5 5 5 5 5 5 5 5 5 5 5 5 5 5 5 5 5 5 5 5 5 5 5 5 3 5 5 5 5 5 3 3 5 5 5 3 5 5 5 3 5 3 5 3 5 3 3 5 3 5 5 5 5 3 5 5 5 5 5 5 5 5 5 5 5 5 5 5 5 5 5 5 5 5 5 5 5 5 5 5 5 5 5 5 3 5 5 5 5 5 5 5 5 5 5 5 5 5 5 5 5 5 3 5 5 5 5 5 3 5 5 5 5 3 5 5 5 5 5 5 5 3 5 5 5 5 5 5 5 5 5 5 5 5 3 5 5 5 5 5 5 5 5 5 5 5 5 3 5 5 5 5 3 3 5 3 5 5 5 5 3 5 5 3 5 5 5 5 5 5 5 3 5 5 5 5 5 5 5 5 5 5 5 5 3 5 5 5 3 3 5 5 5 3 5 5 5 5 5 5 5 3 5 5 5 3 5 5 3 5 5 5 5 5 5 3 5 5 5 5 5 5 5 5 5 5 5 5 5 3 5 5 5 5 3 5 5 5 5 5 5 5 5 5 5 3 5 5 5 3 5 3 5 5 5 5 5 5 5 5 5 5 5 5 5 5 5 5 5 5 5 5 5 5 5 5 5 3 5 5 5 5 5 5 5 5 5 5 5 5 5 5 3 5 3 5 5 3 5 5 5 5 5 5 3 3 5 5 5 5 5 3 5 5 5 3 3 5 3 5 5 5 5 3 5 3 5 5 3 5 5 5 3 3 5 3 5 3 5 3 5 5 5 5 3 5 5 5 5 3 5 5 5 5 5 5 5 5 5 5 5 5 5 5 5 5 5 5 5 3 5 5 5 5 5 3 5 3 5 5 3 5 5 5 5 5 5 3 5 5 5 3 3 5 5 5 3 5 5 5 5 3 5 5 5 5 5 5 5 5 5 5 5 5 5 5 5 5 5 5 5 5 5 5 5 5 5 5 5 5 3 5 5 5 5 5 5 5 3 5 5 5 3 5 5 3 5 5 3 5 3 5 5 3 5 3 3 5 3 5 3 5 5 5 5 5 3 5 3 5 5 5 3 5 5 5 5 3 5 5 5 5 5 3 5 5 5 5 5 5 5 5 5 5 5 5 5 5 5 5 5 5 5 5 5 5 5 5 5 5 5 5 5 5 5 5 5 5 5 5 5 5 5 5 5 5 5 5 5 5 5 3 5 5 5 5 5 5 5 5 5 5 5 5 5 5 5 5 5 5 5 5 5 5 5 5 3 5 5 5 5 5 5 5 5 5 5 5 5 5 5 5 3 5 5 5 3 5 5 5 5 5 5 5 5 5 5 5 5 5 3 5 5 5 5 5 5 5 5 5 5 5 5 5 5 5 5 5 5 5 5 5 5 5 5 5 5 5 5 5 3 5 5 5 5 3 5 3 5 5 5 5 3 5 5 5 3 5 5 5 3 5 5 5 5 3 5 3 5 5 5 5 5 5 5 3 5 5 5 5 3 5 5 5 5 5 5 5 5 5 5 5 5 5 5 5 5 5 5 5 5 5 5 5 5 5 5 5 5 5 5 3 5 5 5 5 5 5 3 5 5 3 5 5 5 5 3 3 3 5 5 3 5 5 5 3 3 5 3 5 5 5 3 5 5 5 5 5 5 5 5 5 3 5 3 5 5 5 5 5 5 5 5 5 5 3 5 5 5 5 5 5 5 5 5 5 5 3 5 5 5 5 5 5 5 5 5 5 5 5 5 5 5 5 5 5 5 5 5 5 5 5 3 5 5 5 5 5 5 5 5 5 3 5 5 5 5 5 5 5 5 5 5 5 5 5 5 5 5 3 3 5 3 5 3 5 5 3 5 5 5 3 3 3 5 5 3 5 3 3 5 5 5 5 3 5 3 3 3 5 5 5 5 5 3 5 5 3 3 5 5 5 5 3 5 3 5 5 3 5 5 5 5 5 5 5 5 5 5 5 5 5 5 5 5 5 5 5 5 5 5 3 5 5 5 3 5 3 3 5 5 3 5 5 3 5 5 5 5 3 5 3 5 5 5 5 5 5 5 5 5 3 5 5 5 5 5 5 5 5 3 5 3 5 5 5 5 5 5 5 5 5 5 5 5 5 5 3 5 5 5 3 5 3 5 5 5 3 5 5 5 5 5 5 5 5 5 5 5 3 5 5 5 5 5 5 5 5 5 5 5 5 5 5 5 5 5 5 3 5 3 5 5 5 3 3 5 5 5 5 5 5 5 5 5 3 5 5 5 5 5 3 5 5 5 3 5 3 5 3 5 3 5 5 5 5 5 5 5 5 3 5 5 5 3 3 5 5 5 5 5 3 3 5 5 5 3 5 3 5 5 5 5 5 5 5 5 3 3 5 5 5 5 3 5 5 5 5 3 5 5 5 5 5 5 5 5 5 5 5 3 5 5 5 5 5 5 5 5 5 3 5 5 5 5 5 5 5 3 5 5 3 5 5 3 3 3 5 5 5 3 5 5 5 3 5 5 5 5 5 5 5 5 5 5 5 3 5 3 5 3 5 5 3 5 5 5 5 5 5 5 5 5 5 3 5 5 3 5 5 3 5 5 3 5 3 5 5 5 5 5 5 5 5 5 5 5 5 5 5 3 5 5 5 5 5 5 5 5 5 5 5 5 5 5 5 5 5 5 3 5 5 5 5 5 3 5 3 5 5 5 5 5 5 5 5 5 3 5 5 5 5 3 5 5 5 5 5 5 5 5 3 5 3 5 5 5 3 5 5 3 5 5 3 5 5 5 3 5 5 5 5 5 5 5 3 5 5 5 5 5 5 5 5 5 5 5 5 5 5 5 5 5 5 5 5 5 5 5 5 5 5 5 5 5 5 5 5 3 5 5 3 5 5 5 3 5 3 5 5 5 5 5 5 5 5 3 5 5 5 5 5 5 5 5 5 5 5 5 5 5 5 5 5 5 5 5 5 5 5 5 5 5 3 5 5 3 5 5 5 5 5 5 5 5 5 5 5 5 5 5 5 5 5 5 5 5 5 5 3 5 5 5 5 5 5 5 5 5 5 5 5 5 3 5 5 5 5 5 5 5 5 5 5 5 5 3 5 3 5 5 3 3 5 5 5 5 5 3 5 3 5 5 3 5 3 5 5 3 3 3 5 5 3 5 5 5 3 3 5 5 5 5 5 5 5 5 5 5 5 5 5 5 3 5 5 5 5 3 5 3 3 5 5 5 3 5 3 5 5 5 3 3 5 5 5 3 5 3 5 3 5 3 5 5 3 5 3 5 5 3 5 5 5 5 5 5 3 5 5 5 5 5 5 5 5 5 5 5 5 5 5 5 5 5 5 5 3 5 5 5 5 5 3 5 5 5 3 3 5 5 3 5 5 5 5 3 5 5 5 5 5 5 5 5 5 3 5 5 5 3 3 5 3 5 5 5 5 5 5 5 3 5 3 5 5 5 5 5 5 5 5 3 5 5 5 5 5 5 5 5 5 5 5 3 5 5 5 5 5 5 5 5 5 3 5 5 3 5 5 5 5 5 5 5 5 5 5 5 5 5 5 5 5 5 5 5 5 5 5 5 5 5 5 5 5 5 5 5 5 5 5 5 5 5 5 5 5 5 5 5 5 5 5 5 5 5 5 3 5 5 5 5 5 5 5 5 5 5 5 5 5 5 5 5 5 5 3 5 5 5 5 5 5 5 5 5 5 5 3 5 5 5 5 5 3 5 5 5 5 5 5 5 5 5 5 5 5 5 5 5 5 5 3 5 5 3 5 5 5 5 5 5 5 5 5 5 3 5 5 3 5 3 5 5 5 5 5 5 5 3 5 3 5 5 3 5 5 5 5 5 3 3 5 5 5 5 5 5 5 5 5 5 5 5 5 5 3 5 3 5 5 3 5 5 5 5 5 5 5 5 3 5 5 3 5 5 5 5 5 3 5 5 5 3 3 5 5 5 3 5 3 3 5 5 5 3 5 5 5 3 5 5 3 3 3 5 3 3 5 5 5 5 5 3 5 3 5 3 5 3 5 5 3 5 3 5 5 3 3 5 5 5 3 5 5 3 5 5 5 5 5 5 5 5 5 5 5 5 3 5 5 5 5 5 5 5 5 5 5 5 5 3 5 5 5 5 5 5 5 5 5 3 5 5 5 3 5 5 5 5 5 5 3 5 3 5 5 5 5 5 5 5 5 5 5 5 5 5 5 5 3 5 5 5 5 5 3 5 3 5 5 3 5 5 5 5 5 5 5 5 5 5 5 5 5 5 5 5 5 5 5 5 5 5 5 5 5 5 5 5 5 5 5 5 5 5 5 5 5 5 5 5 5 5 5 5 5 5 5 5 5 5 5 5 5 5 5 5 5 5 5 5 5 5 5 5 5 5 5 5 5 5 5 5 5 5 5 5 3 5 5 5 5 5 5 5 5 5 5 5 5 5 5 5 5 5 5 5 3 5 5 5 5 5 3 5 5 5 5 5 5 5 5 5 5 5 5 5 5 5 3 5 5 5 5 5 3 5 5 3 5 5 5 5 5 5 5 5 5 5 5 5 5 5 5 5 5 5 5 5 5 5 5 5 5 5 5 5 5 3 5 5 5 5 5 5 5 5 5 5 5 5 5 3 5 3 5 3 3 5 5 5 3 5 5 5 5 5 5 5 5 5 3 5 5 5 5 5 5 5 5 5 5 5 5 5 5 5 5 5 5 5 3 3 5 5 3 5 5 5 5 5 5 5 5 5 5 5 5 5 5 5 3 5 5 3 5 5 5 5 3 5 3 5 5 5 5 5 5 5 5 5 5 5 5 5 3 5 5 5 5 3 5 3 5 5 5 5 5 3 5 5 5 5 5 5 5 5 5 5 5 5 5 5 3 5 5 5 3 5 5 5 5 5 5 5 5 3 5 5 5 5 3 3 5 5 5 5 5 3 5 5 5 5 5 5 5 5 5 5 5 3 5 5 5 5 5 5 3 5 3 5 5 5 5 5 5 5 5 5 5 5 3 5 5 5 3 5 5 5 3 5 3 3 3 5 3 5 3 5 5 5 3 3 5 5 3 5 5 5 3 5 3 5 3 5 5 3 3 3 5 3 5 3 3 5 5 3 5 3 5 5 5 5 5 3 5 3 5 3 5 3 3 5 3 5 5 3 5 5 5 3 5 5 3 5 5 3 5 5 5 5 3 5 5 3 5 3 5 5 5 5 5 5 5 5 5 5 5 3 5 3 5 5 5 5 5 3 5 5 5 5 5 5 5 5 5 5 5 5 5 5 5 5 5 5 5 3 5 5 5 5 3 5 5 5 5 5 5 5 5 5 5 5 5 5 3 5 5 5 5 5 5 5 5 5 5 3 5 5 3 5 5 5 3 3 5 5 5 5 5 3 5 5 5 5 5 5 5 5 5 5 5 5 5 5 5 5 5 5 5 5 5 5 5 5 5 3 5 5 3 5 3 5 5 3 5 5 5 5 5 5 5 5 5 5 5 5 5 5 5 5 5 5 5 5 5 5 5 3 3 5 5 5 5 3 5 5 5 5 5 3 5 5 5 5 5 5 5 5 5 5 5 5 5 5 5 5 3 5 5 5 5 5 5 5 5 5 5 5 5 5 5 5 5 5 5 5 5 5 5 5 3 5 3 5 5 5 5 5 5 5 5 5 5 5 5 5 5 3 5 3 5 5 5 5 5 5 5 5 5 3 5 5 3 5 5 5 5 5 5 5 5 5 5 5 5 5 5 5 5 5 5 5 5 5 5 3 3 5 5 5 5 5 5 5 5 5 5 5 5 5 5 5 5 5 5 5 3 5 5 5 5 5 5 3 5 5 5 5 5 5 5 5 5 3 5 5 5 5 5 5 5 5 5 5 5 5 5 5 5 5 5 5 5 5 5 5 5 5 5 5 5 5 5 5 5 5 5 5 5 5 5 5 5 5 5 5 5 5 5 5 5 5 5 5 5 5 5 5 5 5 3 3 5 3 5 3 3 5 5 5 5 5 5 5 3 5 5 5 5 5 5 5 5 5 3 5 5 3 5 5 5 5 5 5 5 5 5 5 5 5 5 5 5 5 5 5 5 5 5 5 5 5 5 5 5 5 3 5 5 5 5 5 5 5 3 5 5 5 5 5 5 5 5 5 5 5 5 5 5 5 3 5 3 5 5 3 3 3 5 3 5 5 5 3 5 5 5 5 5 5 5 3 5 5 5 5 5 3 5 5 5 5 5 5 5 5 5 5 5 5 5 5 5 5 5 5 5 5 5 3 5 5 5 5 5 5 5 5 5 5 3 5 5 5 5 5 5 5 5 5 5 5 5 5 3 5 5 5 3 3 5 5 5 3 5 5 3 5 5 5 3 5 5 5 5 3 5 5 5 5 5 5 5 5 5 5 5 5 5 5 3 5 5 5 5 5 3 5 5 3 5 5 5 5 5 5 5 5 3 5 5 5 5 3 5 5 5 5 5 5 3 5 5 5 5 3 5 5 5 5 5 5 3 5 5 5 5 5 5 5 5 5 5 5 5 5 5 5 5 5 5 5 5 5 5 5 5 5 5 5 5 5 5 3 5 5 5 5 5 5 5 5 5 5 5 5 5 5 5 5 5 5 5 3 5 3 3 3 5 5 5 5 5 5 3 3 5 5 5 5 5 5 5 5 5 5 3 5 5 5 5 5 5 5 5 5 5 3 5 5 5 5 5 5 3 5 5 5 5 3 5 5 3 5 5 5 3 3 5 5 5 3 5 5 5 5 5 5 5 5 3 5 5 5 5 5 5 3 5 5 3 5 3 3 5 3 5 5 5 5 3 5 5 5 5 5 5 5 5 5 5 5 5 5 5 5 5 5 3 5 5 5 5 5 5 5 5 5 5 5 5 5 5 5 5 5 5 5 5 3 5 3 5 3 5 3 3 5 5 5 5 5 5 5 5 3 5 5 5 5 5 5 5 5 5 5 5 5 5 5 5 5 5 5 3 5 5 5 5 5 5 5 5 5 3 5 5 5 5 5 5 5 5 3 5 5 5 5 5 5 3 5 5 5 3 5 5 3 5 5 5 5 5 3 5 5 5 3 5 5 5 5 5 5 5 5 3 5 5 5 5 5 5 3 5 5 5 5 5 3 5 3 5 3 5 5 3 5 5 5 5 5 5 5 5 5 3 5 5 5 5 5 3 5 5 5 5 5 3 5 5 5 5 5 5 5 5 5 5 5 5 5 5 5 5 5 5 5 5 5 5 5 5 5 5 5 5 5 5 5 5 5 5 3 5 5 3 5 5 5 5 5 5 5 5 5 5 5 5 5 5 5 5 5 5 5 5 5 5 5 5 5 5 5 5 3 5 5 5 5 3 5 5 5 5 3 5 5 5 5 5 5 5 5 5 5 5 5 5 5 5 5 5 5 5 5 5 5 5 5 5 5 5 5 5 3 5 5 5 5 5 5 3 5 5 5 5 5 5 5 5 3 5 3 5 5 5 5 5 5 5 5 5 5 5 3 5 5 5 5 5 3 5 5 5 3 5 5 5 5 5 5 5 5 5 5 5 5 5 5 5 5 5 5 5 5 5 5 3 5 5 5 5 3 5 5 5 5 5 5 5 5 5 5 5 5 5 5 5 5 5 5 5 5 5 5 5 5 5 5 5 5 5 5 5 5 5 3 5 5 5 5 3 5 5 5 5 5 3 5 5 5 3 5 5 5 5 5 5 5 5 5 5 5 5 3 5 5 5 5 5 5 5 5 5 3 3 5 5 5 5 5 5 5 5 5 5 5 5 3 5 3 3 5 5 5 5 5 3 5 5 5 5 5 5 3 5 5 3 5 3 5 5 5 5 5 5 5 5 5 5 5 5 5 5 5 5 5 5 5 5 5 5 5 5 5 5 5 5 5 5 5 5 5 5 3 5 5 3 3 5 5 5 3 5 5 5 5 5 5 5 3 3 3 3 5 5 3 5 5 3 5 3 5 5 5 5 5 5 5 5 5 5 5 5 5 5 5 5 5 5 5 5 5 5 5 5 5 5 5 5 5 5 5 5 5 5 5 3 5 5 5 5 3 5 5 5 5 5 5 5 5 5 3 5 5 5 5 5 3 5 5 5 5 3 5 5 5 5 3 5 5 5 5 3 5 5 5 5 5 5 5 5 5 5 5 5 5 5 5 5 5 5 5 5 3 5 5 3 5 3 5 5 5 5 5 5 5 5 5 5 3 5 5 5 5 3 5 5 3 3 5 5 5 5 5 5 5 5 5 5 5 5 5 5 5 3 5 5 5 5 5 5 5 5 5 5 5 5 5 5 3 3 5 5 3 5 5 5 5 5 5 5 5 5 5 5 5 5 5 5 5 5 3 5 5 5 5 3 5 5 5 5 5 5 5 5 5 3 5 5 5 5 5 3 3 5 5 5 3 5 5 5 5 3 5 5 5 5 5 5 3 5 5 5 5 5 5 5 5 5 5 5 5 3 5 3 5 5 5 3 5 3 5 5 5 5 3 3 5 3 5 5 5 5 5 5 5 5 5 3 5 3 5 5 5 3 5 5 5 5 5 5 3 5 5 5 5 5 5 3 5 5 5 3 5 3 5 3 5 3 3 5 5 3 5 5 3 5 3 5 5 5 5 5 5 5 5 5 5 5 5 5 3 5 5 5 5 3 5 5 5 5 5 5 5 5 5 5 5 3 5 3 5 5 3 3 3 5 5 5 3 5 5 3 5 5 5 5 5 5 5 5 5 5 5 3 5 5 5 5 5 5 3 3 5 5 5 5 5 3 5 3 5 5 5 5 5 5 5 5 5 5 5 5 5 5 5 5 5 5 5 5 5 5 5 5 5 5 5 3 5 5 5 5 5 3 5 5 5 5 5 5 5 5 5 3 3 5 5 3 5 5 5 3 5 5 5 5 3 3 5 3 5 5 3 5 5 5 5 5 5 5 5 5 5 5 5 5 5 5 5 5 5 5 5 5 5 5 5 5 5 5 3 3 5 5 3 5 5 5 5 5 3 3 5 3 5 3 5 5 5 5 5 5 3 5 3 5 5 5 5 5 5 5 5 5 5 5 5 5 5 5 3 5 5 5 5 5 5 5 5 3 5 5 5 5 3 5 5 5 5 5 5 5 5 5 5 5 5 3 5 5 5 5 5 5 5 5 5 5 5 5 5 5 5 5 5 5 5 5 5 5 5 5 5 5 5 5 5 5 5 5 5 5 5 5 5 5 3 5 5 5 5 5 5 5 5 5 5 5 5 5 5 5 5 3 5 5 5 5 3 5 5 5 5 5 5 5 5 5 5 5 3 5 5 5 5 5 5 5 5 3 5 5 5 5 3 5 5 5 3 5 5 5 5 5 5 5 5 5 5 5 5 5 5 5 5 3 5 5 5 5 5 5 3 5 5 5 5 5 3 5 5 5 5 3 3 5 3 3 5 5 5 5 5 5 5 5 5 5 5 5 5 5 5 5 5 5 5 5 5 3 5 5 5 5 5 3 5 5 5 5 5 5 5 5 5 5 5 5 5 5 5 5 5 5 5 3 5 5 5 3 5 5 3 3 5 5 5 3 5 3 5 5 3 5 5 5 5 5 5 3 5 3 5 5 5 3 5 5 3 3 5 3 5 5 5 5 5 5 3 5 5 5 5 5 5 5 3 3 3 5 5 5 3 5 5 5 5 3 5 5 5 5 3 5 3 5 5 5 5 5 5 5 5 5 5 5 5 5 5 3 5 5 3 5 5 5 5 3 5 5 5 5 5 5 3 5 5 5 5 5 5 5 5 3 5 5 3 5 5 5 3 3 5 5 5 5 5 5 5 3 3 5 5 3 5 5 5 5 5 3 5 5 5 5 5 5 3 5 5 3 5 5 5 3 5 5 5 5 5 3 5 5 5 5 5 5 5 5 5 5 5 5 5 5 5 5 5 5 5 5 5 5 3 5 5 5 5 5 3 3 5 3 5 3 3 5 3 5 5 5 5 5 3 5 5 5 5 5 3 5 3 5 5 3 5 5 3 3 5 5 5 5 3 3 5 5 5 3 5 3 5 3 5 5 3 5 5 5 3 5 5 5 5 5 5 3 5 5 3 3 5 3 5 5 3 5 5 5 5 5 5 5 5 3 5 5 5 5 5 5 5 5 5 5 5 5 5 3 5 5 5 3 5 5 5 5 3 5 5 5 5 5 5 5 5 5 5 5 5 5 5 5 5 5 5 5 5 5 3 5 5 5 5 3 5 5 5 5 5 5 5 5 5 5 5 5 5 5 5 5 5 5 5 5 5 5 5 5 5 3 5 5 5 5 3 5 5 5 5 5 5 5 3 5 3 5 5 5 5 5 5 5 3 5 5 3 5 5 5 5 3 5 5 5 5 5 5 5 5 3 5 5 5 3 5 3 5 5 5 5 5 3 5 3 5 5 5 5 3 5 5 3 5 5 5 5 5 3 5 5 5 5 5 5 5 3 5 5 3 5 5 5 5 5 5 5 5 5 3 3 5 5 3 5 5 5 5 5 5 5 3 3 3 5 5 3 5 5 5 3 5 5 5 3 5 5 5 5 5 5 5 5 3 5 3 5 5 5 3 5 5 5 5 5 5 5 3 5 5 5 5 5 5 5 5 5 3 5 5 5 5 5 5 5 5 5 5 5 5 5 5 5 3 5 5 5 5 5 5 3 5 5 5 3 3 5 5 5 5 5 5 5 5 5 3 5 5 5 5 5 5 3 5 5 3 5 3 5 5 5 5 5 5 5 5 5 5 5 5 5 5 5 5 5 5 3 5 5 5 5 5 3 5 3 5 5 5 5 5 5 3 5 3 5 5 5 3 5 5 5 5 3 5 5 5 5 5 3 5 5 5 5 5 5 5 5 5 3 5 3 3 5 5 5 5 5 3 5 5 5 5 5 5 5 3 5 3 3 3 5 5 5 5 5 3 5 5 3 5 5 5 5 5 3 5 5 3 5 5 5 5 5 5 5 5 5 5 5 3 3 5 5 5 5 3 5 5 5 5 5 5 5 5 5 5 5 5 5 5 5 5 5 5 5 5 5 3 5 5 5 5 5 5 5 3 5 5 5 5 5 3 3 3 5 5 5 5 5 5 3 5 3 5 5 5 3 5 5 5 5 5 5 5 5 5 5 5 3 3 5 5 5 5 5 3 5 5 5 5 5 5 5 3 5 5 5 5 5 5 5 5 5 5 5 5 3 5 5 5 5 5 5 5 5 5 5 5 5 5 5 3 5 5 5 5 5 5 5 5 3 5 5 5 5 5 5 5 5 5 5 5 5 5 5 3 5 5 5 5 5 5 3 5 5 5 3 5 5 3 5 5 5 3 5 3 3 3 3 5 5 3 3 5 5 5 3 5 5 3 5 3 5 5 5 5 5 5 5 5 3 3 5 5 3 5 5 3 5 5 5 5 3 5 5 5 5 5 5 3 5 5 5 5 5 5 5 3 5 5 5 5 5 3 5 5 3 3 5 5 5 5 5 5 5 5 5 5 5 5 5 5 5 5 5 5 3 5 5 5 5 5 5 5 5 5 5 5 5 5 5 5 5 5 5 5 5 3 5 5 5 5 5 5 5 5 5 5 5 5 5 3 5 5 5 5 3 5 5 5 5 5 3 5 5 5 5 5 5 5 5 5 5 5 5 5 5 5 5 5 5 5 5 5 5 5 5 5 5 5 5 5 5 5 5 5 5 5 5 5 5 5 5 5 5 5 5 5 5 5 5 5 3 5 5 5 5 5 5 5 5 5 5 5 5 5 5 5 5 5 5 5 5 5 5 5 5 5 5 5 5 5 5 5 3 5 5 5 5 5 5 5 5 3 5 5 5 5 5 5 3 5 5 5 5 5 5 3 5 5 3 5 5 5 5 3 5 5 3 5 5 5 5 5 5 5 5 5 5 5 5 5 5 5 5 5 5 5 5 3 5 5 5 5 5 5 5 5 5 5 5 5 3 5 3 5 5 5 5 5 5 5 5 5 5 5 5 5 5 5 3 5 5 3 5 5 5 5 5 5 5 5 5 5 5 5 5 5 5 3 3 5 5 5 5 3 5 3 5 5 5 3 5 5 3 5 5 5 3 3 5 3 5 5 3 5 5 3 5 5 5 5 5 5 5 5 5 5 5 5 5 5 5 5 5 5 5 5 5 5 5 3 3 5 5 5 3 5 5 3 5 3 3 5 3 5 3 5 3 5 3 5 3 5 5 5 3 5 5 5 5 5 5 5 5 5 5 3 5 5 5 5 5 5 5 5 3 5 5 5 5 5 5 5 5 5 5 5 5 5 5 5 5 5 5 5 5 5 5 5 5 5 5 3 5 5 3 5 5 5 5 5 5 5 3 5 3 5 5 5 5 5 5 5 5 5 3 5 3 3 5 5 5 5 5 5 5 5 5 5 5 5 5 5 5 5 5 3 3 5 5 5 5 5 5 5 5 5 5 5 5 5 3 3 3 5 5 5 5 5 5 5 5 5 5 5 5 3 5 5 3 5 5 5 5 5 5 3 5 5 5 3 5 3 5 5 5 5 3 5 5 5 3 5 5 5 5 5 5 5 5 5 5 5 5 5 5 5 5 5 5 5 5 5 5 5 3 5 3 5 5 5 5 5 5 5 5 5 5 5 3 5 5 5 3 5 5 5 5 5 5 3 5 3 5 5 3 5 5 5 5 3 3 5 5 5 5 5 3 5 5 5 5 5 5 5 5 5 3 5 5 5 5 5 5 5 5 5 3 5 5 5 5 5 5 5 5 5 5 5 3 3 5 5 5 5 5 5 5 5 5 3 5 5 5 5 5 5 5 5 5 5 5 5 5 5 5 5 5 5 3 5 3 5 5 5 5 5 5 5 5 3 5 5 5 5 5 5 5 5 5 5 3 5 5 5 3 5 5 5 5 5 3 5 5 5 5 3 5 5 5 3 5 3 5 3 5 5 3 5 5 5 5 5 5 3 5 5 5 5 5 5 5 3 5 5 5 5 5 5 5 3 5 5 5 5 5 5 5 5 5 5 5 5 5 5 5 5 3 5 5 3 5 3 5 5 5 5 5 5 5 5 3 5 5 5 3 5 5 5 5 5 5 5 5 5 3 3 5 5 3 5 5 5 5 3 5 5 3 5 5 5 5 5 5 5 5 5 3 5 5 3 5 5 5 5 3 5 3 5 5 5 5 5 5 5 5 5 5 5 3 5 3 5 5 3 5 5 5 5 5 3 5 3 5 5 5 3 3 5 5 5 5 5 5 5 3 5 5 5 5 3 5 5 5 5 5 5 5 3 5 5 3 5 5 5 5 3 5 3 3 5 5 3 5 5 5 5 3 5 5 5 5 5 5 3 5 5 5 5 3 5 5 5 5 5 5 3 5 5 3 5 5 3 5 5 5 5 5 3 5 5 5 5 5 3 5 5 5 5 3 5 5 5 5 3 5 5 5 3 5 5 5 5 5 5 5 5 5 5 5 5 5 5 3 5 5 3 5 3 3 5 5 5 5 3 5 3 5 3 5 5 3 3 5 5 5 5 3 5 5 5 3 5 5 3 5 5 5 3 5 5 3 5 5 5 3 5 5 3 5 5 5 5 5 5 5 5 5 5 5 5 5 5 5 5 5 3 5 5 5 5 5 5 5 5 5 5 5 5 5 5 5 5 5 5 5 5 5 5 5 5 5 5 5 5 5 5 3 5 5 5 5 5 5 5 5 5 5 3 3 5 5 5 3 5 5 3 5 5 5 5 5 5 5 5 5 3 5 5 5 5 5 5 5 5 5 5 5 5 5 5 5 5 5 5 5 3 5 5 5 5 3 5 5 3 5 5 5 5 5 5 5 5 5 5 5 5 5 5 5 5 5 5 3 5 5 5 3 5 5 5 5 5 3 5 5 5 5 5 5 5 5 5 5 5 5 5 5 5 5 5 5 5 5 5 5 5 5 5 5 5 5 5 5 5 5 5 5 5 5 5 5 5 5 5 5 5 5 5 5 5 5 5 3 5 5 3 5 3 5 5 3 5 5 5 3 5 5 5 5 5 5 5 5 5 5 3 3 5 5 3 5 5 5 5 5 5 5 5 5 5 5 5 5 5 5 3 3 5 5 5 5 5 5 5 5 5 5 5 3 5 5 5 5 5 5 5 5 5 3 5 5 5 5 5 5 5 5 3 5 5 3 5 5 5 5 3 5 5 5 5 5 3 5 3 5 5 5 5 3 5 5 5 5 3 5 5 3 5 5 5 5 5 5 5 5 5 5 5 5 5 5 5 5 5 3 5 3 5 3 5 5 5 5 5 5 5 5 5 5 5 5 5 5 5 5 5 5 5 5 5 3 5 5 5 5 5 5 5 5 5 3 5 5 5 5 5 5 5 5 5 5 5 5 5 5 5 5 3 3 5 5 5 5 5 5 5 5 5 5 5 5 5 5 5 3 5 5 5 5 5 5 5 5 5 5 5 3 5 5 3 5 5 5 5 5 5 5 5 5 5 5 3 5 3 5 5 5 3 5 5 3 5 5 5 5 5 5 5 5 5 5 5 5 3 3 5 5 5 5 5 5 3 5 5 5 5 5 3 5 5 5 5 5 5 5 5 5 5 5 5 5 5 5 5 5 5 5 5 5 3 3 5 5 5 5 5 5 5 5 5 5 3 3 5 5 5 5 3 5 3 5 3 5 3 5 5 3 3 5 5 5 3 3 5 3 5 5 5 3 5 3 5 5 3 5 5 5 5 5 3 5 5 5 5 5 3 5 3 5 5 5 5 5 5 5 5 5 5 5 3 5 3 3 5 3 5 5 3 5 5 3 5 3 5 5 3 5 5 5 5 5 3 5 5 5 5 5 5 5 5 3 5 5 5 3 5 5 5 5 3 5 3 5 3 5 5 3 5 5 3 3 5 3 5 5 3 3 5 5 3 5 3 5 5 3 3 5 3 5 5 3 5 5 5 3 5 5 3 5 5 5 5 5 5 5 5 5 5 5 5 5 5 5 5 3 5 5 5 5 5 5 5 5 3 5 5 5 3 3 5 5 5 5 3 5 5 3 3 5 5 5 5 5 3 3 5 5 3 3 5 3 5 5 3 5 5 5 5 5 5 5 5 5 5 5 5 5 5 5 5 5 5 5 3 5 5 5 5 5 5 3 5 5 3 5 3 5 5 5 5 5 5 3 5 5 5 3 5 5 5 5 5 5 3 5 3 5 5 5 5 5 5 5 5 3 5 5 5 5 5 5 5 5 5 5 3 5 5 3 5 5 5 5 5 5 5 3 5 5 5 5 5 5 5 5 5 5 5 5 5 5 3 5 5 5 5 5 5 3 5 5 5 5 5 5 5 5 5 5 5 5 5 3 5 5 5 5 5 3 5 5 5 5 5 5 5 3 5 5 5 5 5 5 5 3 5 5 5 5 3 3 3 5 3 5 5 5 5 5 5 3 5 5 5 5 3 5 3 3 3 3 5 3 5 3 3 5 5 5 5 5 5 5 3 5 3 5 5 5 5 5 5 5 3 5 5 5 5 3 5 5 5 5 5 5 3 5 5 5 5 5 5 3 3 5 5 5 5 3 5 3 5 5 5 5 5 5 5 5 5 5 3 5 5 3 5 3 5 5 3 5 3 5 3 5 5 5 5 5 5 5 5 5 5 3 5 5 5 5 5 5 5 5 3 3 5 5 5 3 5 5 5 5 5 5 3 5 3 5 5 5 5 5 3 5 5 5 5 5 5 5 5 5 3 5 5 3 5 5 5 3 5 5 5 5 5 5 3 5 5 5 5 5 5 5 3 5 5 5 5 5 5 5 5 5 5 5 5 3 5 5 5 5 5 3 5 5 3 5 5 5 5 5 5 5 5 5 5 5 5 5 5 5 5 5 5 5 3 5 5 3 5 5 5 5 5 3 5 5 3 5 5 5 5 5 5 5 5 3 5 5 5 3 5 5 5 5 5 5 5 5 5 5 5 5 5 3 5 5 5 5 5 5 5 5 5 5 5 5 5 5 5 5 5 5 5 5 5 5 5 5 5 3 5 5 5 5 5 5 5 3 5 3 5 5 5 3 5 3 5 5 5 3 3 5 5 3 5 3 5 5 5 5 5 3 5 5 5 5 5 3 5 5 5 5 5 5 5 5 5 5 3 5 5 5 3 5 5 5 5 5 5 5 5 5 5 5 5 5 5 5 5 5 3 5 5 3 5 5 3 5 5 5 5 5 5 5 5 5 5 5 5 5 5 5 5 5 5 5 5 5 5 5 5 3 3 5 5 5 5 5 5 3 5 5 5 5 5 5 3 5 5 5 3 5 3 5 3 5 5 5 5 5 5 3 5 5 5 3 5 3 5 5 5 3 5 5 5 5 5 5 5 5 5 5 5 3 5 5 3 5 5 5 3 5 5 5 5 5 5 5 5 5 3 5 5 3 5 5 5 5 3 5 3 5 5 5 5 5 5 5 5 5 5 5 3 5 5 5 3 5 5 5 5 5 5 5 5 5 5 3 5 5 5 5 5 3 5 5 5 5 3 5 5 5 5 5 5 5 5 5 5 5 5 5 5 5 5 5 5 5 5 5 5 3 5 3 5 5 5 5 5 5 5 5 3 5 5 5 5 5 5 5 5 5 5 5 5 5 5 5 5 5 5 5 5 5 5 5 5 5 5 5 3 3 5 5 5 5 5 5 5 5 5 5 5 5 5 5 5 5 5 5 5 5 5 5 5 5 5 5 5 5 5 5 5 5 5 5 5 5 5 5 5 5 5 5 5 5 5 5 5 5 5 5 5 5 5 5 5 5 5 5 5 5 5 5 5 5 5 5 5 5 5 5 5 5 5 5 5 5 5 5 5 3 5 3 5 5 5 5 5 5 5 5 5 3 3 5 3 5 5 3 5 5 5 5 5 5 5 5 5 3 5 5 5 5 5 5 5 3 3 5 5 3 5 3 5 5 3 3 5 5 5 5 5 3 5 5 5 3 5 5 3 5 5 5 5 5 3 5 3 5 5 3 5 5 5 5 3 5 5 5 5 5 5 5 3 5 3 5 5 5 5 5 5 5 5 5 5 5 5 5 5 5 5 5 5 5 5 5 5 5 3 5 5 5 5 5 5 5 5 3 5 3 5 5 5 5 5 5 5 3 5 5 5 5 5 5 5 3 5 5 5 5 5 3 5 5 5 5 5 5 5 3 5 5 5 5 3 5 5 5 5 5 5 5 3 5 5 5 5 5 3 3 5 5 3 3 5 3 5 5 3 5 5 3 5 5 5 5 3 5 3 3 5 5 5 3 5 5 3 5 3 5 5 5 5 5 5 5 5 5 5 5 5 5 5 5 5 3 5 5 5 5 5 3 5 5 5 5 5 3 5 5 3 5 5 5 5 5 5 5 5 5 5 5 5 5 3 5 5 5 3 5 5 5 5 5 5 5 5 5 5 5 5 5 5 5 5 5 3 5 5 5 3 5 5 5 5 5 3 5 5 5 3 5 5 5 3 3 5 5 5 3 5 5 5 5 5 5 5 5 5 5 5 3 5 5 5 5 5 5 5 5 5 5 3 5 5 5 5 5 5 5 5 5 5 5 5 5 5 5 5 5 5 5 5 5 5 5 5 5 5 5 5 5 5 5 5 5 5 5 5 5 5 5 5 5 5 5 5 5 5 5 5 5 5 5 5 5 5 5 5 5 3 5 5 3 5 5 5 5 5 5 5 5 5 5 5 5 3 5 5 5 5 5 5 5 5 5 5 5 3 5 5 5 5 3 5 5 5 5 5 5 5 5 5 5 5 3 5 5 5 5 5 5 5 3 5 5 5 5 3 5 5 5 5 5 5 5 5 5 5 5 5 5 5 5 5 5 5 5 5 3 5 5 5 5 5 3 5 5 3 5 5 5 5 3 5 5 5 5 5 5 5 3 5 5 5 5 5 5 5 5 5 5 5 5 5 5 5 5 3 5 5 5 5 3 5 5 5 5 3 5 5 5 5 3 5 5 5 5 3 5 5 5 5 3 5 5 3 5 5 5 5 3 5 3 5 
</DataArray>
</Cells>
<PointData Scalars="" Vectors="displacement," Tensors="">
<DataArray type="Float64" Name="displacement" NumberOfComponents="3" format="ascii">
1.7644097635674032e-07 0.024999867454048613 0 1.8537227085924052e-05 0.024243843112491403 0 -3.5861737654692159e-08 0.024999123961890423 0 1.7644097635674032e-07 0.024999867454048613 0 1.8537227085924052e-05 0.024243843112491403 0 1.3320897700220577e-05 0.023088450761525482 0 0.00012942640605738019 0.023574044876764528 0 6.7340022976808392e-05 0.023250779680370558 0 0.00013214070267367437 0.022940329964959941 0 8.009474053020314e-05 0.022955439821795133 0 1.3320897700220577e-05 0.023088450761525482 0 0.00013214070267367437 0.022940329964959941 0 0.00013468375229854602 0.023073706227752663 0 0.00021724445959446829 0.023131721518332003 0 0.00013214070267367437 0.022940329964959941 0 8.009474053020314e-05 0.022955439821795133 0 0.00013468375229854602 0.023073706227752663 0 8.009474053020314e-05 0.022955439821795133 0 0.00013468375229854602 0.023073706227752663 0 9.8522614435222851e-05 0.023092426719638837 0 0.00012942640605738019 0.023574044876764528 0 5.1894423777355541e-05 0.024480662558361406 0 0.00013214070267367437 0.022940329964959941 0 0.00033651318535664272 0.023035352161333584 0 0.00021724445959446829 0.023131721518332003 0 1.8537227085924052e-05 0.024243843112491403 0 -4.751024132440069e-06 0.024942820554236498 0 -3.5861737654692159e-08 0.024999123961890423 0 -4.9719203894226392e-08 0.024999136717397272 0 -3.399880341435294e-10 0.024999999163386293 0 2.0911610919632917e-10 0.024999998958808153 0 5.1894423777355541e-05 0.024480662558361406 0 3.898832781634011e-07 0.024998637245604721 0 5.1894423777355541e-05 0.024480662558361406 0 -2.6160096855201913e-07 0.024999083338292018 0 5.1894423777355541e-05 0.024480662558361406 0 0.00017055926182231031 0.024033188159682077 0 6.1488034008004099e-07 0.024999153126908761 0 2.677509216976288e-09 0.024999991204995485 0 2.3792033514479585e-06 0.024995000415654077 0 2.677509216976288e-09 0.024999991204995485 0 2.3792033514479585e-06 0.024995000415654077 0 1.8404507723436588e-09 0.024999992190211134 0 1.2651238621255488e-06 0.024996106102438582 0 2.3792033514479585e-06 0.024995000415654077 0 1.8404507723436588e-09 0.024999992190211134 0 0.00017055926182231031 0.024033188159682077 0 6.2350153785736178e-05 0.024198864673765436 0 0.00013468375229854602 0.023073706227752663 0 0.00021724445959446829 0.023131721518332003 0 0.00012666779116746681 0.023217932347652966 0 0.00013468375229854602 0.023073706227752663 0 9.8522614435222851e-05 0.023092426719638837 0 0.00012666779116746681 0.023217932347652966 0 1.2651238621255488e-06 0.024996106102438582 0 2.3792033514479585e-06 0.024995000415654077 0 1.6659401568862582e-06 0.024991857707816457 0 -7.7369407718510616e-05 0.024446787424595638 0 2.4778305430344105e-05 0.024552100192029424 0 -0.00013945282186761973 0.024602393076267163 0 -7.0304954642946897e-05 0.024300125142080284 0 -7.7369407718510616e-05 0.024446787424595638 0 2.4778305430344105e-05 0.024552100192029424 0 6.2350153785736178e-05 0.024198864673765436 0 1.0178285031562089e-05 0.024833181348452842 0 1.2651238621255488e-06 0.024996106102438582 0 1.6659401568862582e-06 0.024991857707816457 0 4.7199386275044447e-07 0.024997985901327024 0 -7.0304954642946897e-05 0.024300125142080284 0 -7.7369407718510616e-05 0.024446787424595638 0 -0.00012652762981038852 0.024313487037613421 0 4.7199386275044447e-07 0.024997985901327024 0 1.8404507723436588e-09 0.024999992190211134 0 -6.7359873898993244e-10 0.025000000810368919 0 1.2651238621255488e-06 0.024996106102438582 0 4.7199386275044447e-07 0.024997985901327024 0 1.8404507723436588e-09 0.024999992190211134 0 -0.00048563572263121972 0.024409313479347213 0 -0.00046137423920317969 0.024078755163875289 0 -0.00084802983154942029 0.024111685427422119 0 -0.00048563572263121972 0.024409313479347213 0 -0.00012652762981038852 0.024313487037613421 0 -0.00046137423920317969 0.024078755163875289 0 -0.00048563572263121972 0.024409313479347213 0 -0.00012652762981038852 0.024313487037613421 0 -0.00027894505957982589 0.024520392489937946 0 -0.00012652762981038852 0.024313487037613421 0 -0.00013945282186761973 0.024602393076267163 0 -0.00027894505957982589 0.024520392489937946 0 -7.7369407718510616e-05 0.024446787424595638 0 -0.00012652762981038852 0.024313487037613421 0 -0.00013945282186761973 0.024602393076267163 0 -0.00012652762981038852 0.024313487037613421 0 -0.00012078806810375841 0.023821038294576876 0 -0.00046137423920317969 0.024078755163875289 0 6.2350153785736178e-05 0.024198864673765436 0 -2.4794339446145424e-05 0.024255659038818815 0 0.00049967006169685381 0.023907371931189688 0 -0.00012652762981038852 0.024313487037613421 0 -0.00012078806810375841 0.023821038294576876 0 6.2350153785736178e-05 0.024198864673765436 0 -2.8408298137156052e-05 0.023099748466500973 0 9.8522614435222851e-05 0.023092426719638837 0 0.00012666779116746681 0.023217932347652966 0 1.3767886221960067e-05 0.023165545228452173 0 0.00049967006169685381 0.023907371931189688 0 -0.00012078806810375841 0.023821038294576876 0 1.3767886221960067e-05 0.023165545228452173 0 -0.00012078806810375841 0.023821038294576876 0 -0.00056773861240756555 0.023670435352464034 0 1.3767886221960067e-05 0.023165545228452173 0 -0.00056773861240756555 0.023670435352464034 0 -0.00046137423920317969 0.024078755163875289 0 -0.00084802983154942029 0.024111685427422119 0 -0.00034486750481467531 0.023372907788622308 0 -0.00027023221536549651 0.022972941985641301 0 -0.00012078806810375841 0.023821038294576876 0 -0.00056773861240756555 0.023670435352464034 0 -0.00046137423920317969 0.024078755163875289 0 2.2415209554241626e-05 0.022934578712767491 0 5.9899315405516548e-05 0.022939095886368954 0 9.7176976918830722e-05 0.022611496328257187 0 1.7644097635674032e-07 0.024999867454048613 0 1.3320897700220577e-05 0.023088450761525482 0 -1.2510196901820803e-07 0.021979890541138348 0 2.2415209554241626e-05 0.022934578712767491 0 9.7176976918830722e-05 0.022611496328257187 0 -0.00027721658759821303 0.022751314977675335 0 5.9899315405516548e-05 0.022939095886368954 0 5.5237329443161065e-05 0.022871145312440808 0 9.7176976918830722e-05 0.022611496328257187 0 -0.00056773861240756555 0.023670435352464034 0 1.3767886221960067e-05 0.023165545228452173 0 5.9899315405516548e-05 0.022939095886368954 0 -0.00034486750481467531 0.023372907788622308 0 9.1814138825020028e-05 0.022949614571981549 0 9.8522614435222851e-05 0.023092426719638837 0 1.3767886221960067e-05 0.023165545228452173 0 5.9899315405516548e-05 0.022939095886368954 0 8.009474053020314e-05 0.022955439821795133 0 9.8522614435222851e-05 0.023092426719638837 0 5.9899315405516548e-05 0.022939095886368954 0 5.9899315405516548e-05 0.022939095886368954 0 5.6680112159443652e-05 0.022932897763287937 0 5.5237329443161065e-05 0.022871145312440808 0 8.009474053020314e-05 0.022955439821795133 0 5.9899315405516548e-05 0.022939095886368954 0 5.6680112159443652e-05 0.022932897763287937 0 5.6680112159443652e-05 0.022932897763287937 0 5.5237329443161065e-05 0.022871145312440808 0 1.3320897700220577e-05 0.023088450761525482 0 8.009474053020314e-05 0.022955439821795133 0 5.6680112159443652e-05 0.022932897763287937 0 1.3320897700220577e-05 0.023088450761525482 0 5.5237329443161065e-05 0.022871145312440808 0 1.3320897700220577e-05 0.023088450761525482 0 9.7176976918830722e-05 0.022611496328257187 0 1.3320897700220577e-05 0.023088450761525482 0 9.7176976918830722e-05 0.022611496328257187 0 -1.2510196901820803e-07 0.021979890541138348 0 9.7176976918830722e-05 0.022611496328257187 0 -1.2510196901820803e-07 0.021979890541138348 0 -1.2035854593778758e-05 0.021635575101100462 0 9.7176976918830722e-05 0.022611496328257187 0 -1.2035854593778758e-05 0.021635575101100462 0 -0.00027721658759821303 0.022751314977675335 0 -8.1956287789270157e-05 0.02172491959597642 0 -0.00018727021731106472 0.02128174287754277 0 -1.2035854593778758e-05 0.021635575101100462 0 5.8795839208919074e-05 0.020602950727430881 0 9.4980652122579341e-05 0.020029638391709004 0 -1.2035854593778758e-05 0.021635575101100462 0 5.8795839208919074e-05 0.020602950727430881 0 -0.00022194924878631269 0.020350338202648279 0 -1.2510196901820803e-07 0.021979890541138348 0 -1.2035854593778758e-05 0.021635575101100462 0 -1.0305035752835678e-07 0.018136786171710051 0 -1.2035854593778758e-05 0.021635575101100462 0 9.4980652122579341e-05 0.020029638391709004 0 -1.0305035752835678e-07 0.018136786171710051 0 5.8795839208919074e-05 0.020602950727430881 0 0.00011447891222714938 0.020268358725139789 0 9.4980652122579341e-05 0.020029638391709004 0 0.00011447891222714938 0.020268358725139789 0 -0.00022194924878631269 0.020350338202648279 0 4.9357712187403983e-05 0.020137101898149115 0 5.8795839208919074e-05 0.020602950727430881 0 0.00011447891222714938 0.020268358725139789 0 -0.00022194924878631269 0.020350338202648279 0 2.4184734502187713e-05 0.019051671902512807 0 9.4980652122579341e-05 0.020029638391709004 0 -1.0305035752835678e-07 0.018136786171710051 0 2.4184734502187713e-05 0.019051671902512807 0 9.4980652122579341e-05 0.020029638391709004 0 0.00010893152752192731 0.019829999526653024 0 0.00011447891222714938 0.020268358725139789 0 9.4980652122579341e-05 0.020029638391709004 0 0.00011521718186758041 0.02004375644063193 0 0.00011447891222714938 0.020268358725139789 0 0.00011521718186758041 0.02004375644063193 0 0.00010673497721467847 0.020110640400045052 0 0.00011521718186758041 0.02004375644063193 0 7.8911098103921963e-05 0.020025001020172666 0 0.00010673497721467847 0.020110640400045052 0 0.00011521718186758041 0.02004375644063193 0 0.00010893152752192731 0.019829999526653024 0 7.8911098103921963e-05 0.020025001020172666 0 9.4980652122579341e-05 0.020029638391709004 0 0.00011521718186758041 0.02004375644063193 0 0.00010893152752192731 0.019829999526653024 0 2.4184734502187713e-05 0.019051671902512807 0 0.00010893152752192731 0.019829999526653024 0 -4.0673424173547916e-06 0.019841669294919612 0 0.00010893152752192731 0.019829999526653024 0 -4.0673424173547916e-06 0.019841669294919612 0 7.8911098103921963e-05 0.020025001020172666 0 -4.0673424173547916e-06 0.019841669294919612 0 -8.0536150849975309e-05 0.020059097737251674 0 -0.00029218540646427791 0.019831394293311069 0 2.4184734502187713e-05 0.019051671902512807 0 -4.0673424173547916e-06 0.019841669294919612 0 -0.00029218540646427791 0.019831394293311069 0 -8.0536150849975309e-05 0.020059097737251674 0 7.8911098103921963e-05 0.020025001020172666 0 5.8132306027993452e-05 0.020197491441601007 0 -4.0673424173547916e-06 0.019841669294919612 0 -8.0536150849975309e-05 0.020059097737251674 0 7.8911098103921963e-05 0.020025001020172666 0 0.00010673497721467847 0.020110640400045052 0 5.8132306027993452e-05 0.020197491441601007 0 4.9357712187403983e-05 0.020137101898149115 0 -9.4319443912521436e-05 0.020348887990582168 0 7.7379541746555567e-05 0.020094163531462834 0 7.8911098103921963e-05 0.020025001020172666 0 0.00010673497721467847 0.020110640400045052 0 5.8132306027993452e-05 0.020197491441601007 0 -0.00012173802768730123 0.020207266226005088 0 4.9357712187403983e-05 0.020137101898149115 0 1.3661350638439455e-05 0.020253786434107513 0 -8.0536150849975309e-05 0.020059097737251674 0 5.8132306027993452e-05 0.020197491441601007 0 -0.00013985908728910551 0.020190442162743863 0 5.8132306027993452e-05 0.020197491441601007 0 -0.00013985908728910551 0.020190442162743863 0 -0.00024899614001360387 0.020389968612202179 0 -9.4319443912521436e-05 0.020348887990582168 0 -0.00022858035740688434 0.019519807348389671 0 2.2415209554241626e-05 0.022934578712767491 0 -0.00027721658759821303 0.022751314977675335 0 -0.00029563778101234075 0.02315301770072898 0 -0.00018727021731106472 0.02128174287754277 0 -0.00027023221536549651 0.022972941985641301 0 -0.00022194924878631269 0.020350338202648279 0 -4.322994413820457e-05 0.020128876441373445 0 4.9357712187403983e-05 0.020137101898149115 0 0.00011447891222714938 0.020268358725139789 0 0.00010673497721467847 0.020110640400045052 0 4.9357712187403983e-05 0.020137101898149115 0 -0.00027023221536549651 0.022972941985641301 0 -0.00012361695309480992 0.022569458995044544 0 -4.322994413820457e-05 0.020128876441373445 0 4.9357712187403983e-05 0.020137101898149115 0 1.3661350638439455e-05 0.020253786434107513 0 -0.00027023221536549651 0.022972941985641301 0 -0.00065623328382098352 0.024986354210083616 0 -0.00048563572263121972 0.024409313479347213 0 -0.00084802983154942029 0.024111685427422119 0 -0.00073716899617116418 0.024491327095161091 0 -0.00055252547101569671 0.025120082826894437 0 -0.00028988290589305777 0.024988872487526712 0 -0.00054582603689254535 0.024939059109328993 0 -0.00065623328382098352 0.024986354210083616 0 -0.00057883759948858813 0.02459283836434881 0 -0.00073716899617116418 0.024491327095161091 0 -0.00055869655051050135 0.024704035376818711 0 -0.00053290869346989003 0.024626512488325977 0 -0.00054582603689254535 0.024939059109328993 0 -0.00040739737076091707 0.024840753539822631 0 -0.00055869655051050135 0.024704035376818711 0 -0.00028988290589305777 0.024988872487526712 0 -0.00054582603689254535 0.024939059109328993 0 -0.00040739737076091707 0.024840753539822631 0 -0.00028988290589305777 0.024988872487526712 0 -0.00040739737076091707 0.024840753539822631 0 -0.00026389324193341364 0.024720846235666734 0 -0.00026389324193341364 0.024720846235666734 0 -0.0004270673193372771 0.02461249938044514 0 -0.00018187349534888085 0.024319719347488507 0 -0.00040739737076091707 0.024840753539822631 0 -0.0004270673193372771 0.02461249938044514 0 -0.00055869655051050135 0.024704035376818711 0 -0.00040739737076091707 0.024840753539822631 0 -0.00026389324193341364 0.024720846235666734 0 -0.0004270673193372771 0.02461249938044514 0 -0.0004270673193372771 0.02461249938044514 0 -0.00051331030442052482 0.024655469951009167 0 -0.00055869655051050135 0.024704035376818711 0 -0.00051331030442052482 0.024655469951009167 0 -0.00048684135183366681 0.024716511011100648 0 -0.00048483697375310521 0.024725483605373393 0 -0.00051331030442052482 0.024655469951009167 0 -0.00055869655051050135 0.024704035376818711 0 -0.00048483697375310521 0.024725483605373393 0 -0.00055869655051050135 0.024704035376818711 0 -0.00053290869346989003 0.024626512488325977 0 -0.00048483697375310521 0.024725483605373393 0 -0.00012173802768730123 0.020207266226005088 0 -0.00014918900915374434 0.02044087829258396 0 -0.00038479066461669548 0.020358739611507748 0 -0.00012361695309480992 0.022569458995044544 0 -5.2444531513486559e-05 0.022657686517986761 0 -0.00012173802768730123 0.020207266226005088 0 1.3661350638439455e-05 0.020253786434107513 0 -0.00014918900915374434 0.02044087829258396 0 -0.00028988290589305777 0.024988872487526712 0 -0.00026389324193341364 0.024720846235666734 0 0.00010431713054734791 0.024826428182269589 0 -0.00026389324193341364 0.024720846235666734 0 -3.2372197197913056e-05 0.024578340004520589 0 -0.00018187349534888085 0.024319719347488507 0 -0.00026389324193341364 0.024720846235666734 0 0.00010431713054734791 0.024826428182269589 0 -3.2372197197913056e-05 0.024578340004520589 0 0.00010431713054734791 0.024826428182269589 0 -3.2372197197913056e-05 0.024578340004520589 0 0.00024109148308274877 0.02438900086875765 0 -0.00014918900915374434 0.02044087829258396 0 -0.00034177208759691687 0.020440316394825585 0 -0.00037156850447071267 0.020632473345656738 0 0.00010431713054734791 0.024826428182269589 0 0.00024109148308274877 0.02438900086875765 0 0.00065010160600940665 0.024519864765145491 0 -5.2444531513486559e-05 0.022657686517986761 0 0.00026358526188966283 0.022469973319504528 0 0.00040260769230332754 0.024081498614935616 0 0.00024109148308274877 0.02438900086875765 0 0.00065950776251694351 0.024226483430353021 0 0.00040260769230332754 0.024081498614935616 0 0.00024109148308274877 0.02438900086875765 0 0.00014592982396509352 0.024088744317437037 0 -3.2372197197913056e-05 0.024578340004520589 0 0.00024109148308274877 0.02438900086875765 0 -0.00018187349534888085 0.024319719347488507 0 0.00024109148308274877 0.02438900086875765 0 0.00014592982396509352 0.024088744317437037 0 -0.00018187349534888085 0.024319719347488507 0 -0.00018187349534888085 0.024319719347488507 0 -6.7762449992278756e-05 0.023848470448348126 0 -0.00042894494784049999 0.023971695166469936 0 0.00014592982396509352 0.024088744317437037 0 -0.00018187349534888085 0.024319719347488507 0 -6.7762449992278756e-05 0.023848470448348126 0 -6.7762449992278756e-05 0.023848470448348126 0 -0.00042894494784049999 0.023971695166469936 0 -0.00024839046409542845 0.023533305384158279 0 -6.7762449992278756e-05 0.023848470448348126 0 0.00015334567597492734 0.023561428431305313 0 -0.00024839046409542845 0.023533305384158279 0 0.00014592982396509352 0.024088744317437037 0 -6.7762449992278756e-05 0.023848470448348126 0 0.00032186867362803552 0.023781402882738188 0 -6.7762449992278756e-05 0.023848470448348126 0 0.00032186867362803552 0.023781402882738188 0 0.00015334567597492734 0.023561428431305313 0 0.00032186867362803552 0.023781402882738188 0 0.00062615082811355593 0.023643773189553022 0 0.00042444470100181449 0.023481952267831674 0 0.00040260769230332754 0.024081498614935616 0 0.00032186867362803552 0.023781402882738188 0 0.00066996971261070739 0.023910079801394622 0 0.00040260769230332754 0.024081498614935616 0 0.00014592982396509352 0.024088744317437037 0 0.00032186867362803552 0.023781402882738188 0 -0.00070032664330148167 0.024395213136739292 0 -0.00052956064387929948 0.024662591314310232 0 -0.00079951184760100223 0.024250616031021088 0 -0.000823424835131128 0.023902921094278121 0 -0.0013463232190415106 0.024222788679543871 0 -0.00050255361071338143 0.024568556554670912 0 -0.00044738524006180671 0.024822177387833426 0 -0.00048684135183366681 0.024716511011100648 0 -0.00051331030442052482 0.024655469951009167 0 -0.00050255361071338143 0.024568556554670912 0 -0.00048684135183366681 0.024716511011100648 0 -0.0004270673193372771 0.02461249938044514 0 -0.00051331030442052482 0.024655469951009167 0 -0.00050255361071338143 0.024568556554670912 0 -0.00018187349534888085 0.024319719347488507 0 -0.00079951184760100223 0.024250616031021088 0 -0.00042894494784049999 0.023971695166469936 0 -0.0004270673193372771 0.02461249938044514 0 -0.00018187349534888085 0.024319719347488507 0 -0.00050255361071338143 0.024568556554670912 0 -0.00017061115596009137 0.024347526966815955 0 -0.00070032664330148167 0.024395213136739292 0 -0.00079951184760100223 0.024250616031021088 0 -0.00042894494784049999 0.023971695166469936 0 -0.000823424835131128 0.023902921094278121 0 -0.00042894494784049999 0.023971695166469936 0 -0.000823424835131128 0.023902921094278121 0 -0.00024839046409542845 0.023533305384158279 0 -0.00026868223801995819 0.024355130784348089 0 0.00020447810105917035 0.024084190710650374 0 -0.00026868223801995819 0.024355130784348089 0 -0.00052956064387929948 0.024662591314310232 0 0.00030924434331492566 0.02483118032624668 0 0.00010727529395522901 0.024806525568828851 0 0.00022625694005860009 0.024641981431171325 0 0.00030924434331492566 0.02483118032624668 0 0.00010727529395522901 0.024806525568828851 0 3.5805701526209133e-05 0.024951762142314957 0 0.00010727529395522901 0.024806525568828851 0 2.8481832120961783e-05 0.024866576018771437 0 -2.5043569225095171e-05 0.024812563920600713 0 0.00010727529395522901 0.024806525568828851 0 2.8481832120961783e-05 0.024866576018771437 0 3.5805701526209133e-05 0.024951762142314957 0 2.8481832120961783e-05 0.024866576018771437 0 3.5805701526209133e-05 0.024951762142314957 0 -1.6834115313213898e-05 0.024889749603561603 0 -0.00052956064387929948 0.024662591314310232 0 -0.00041794900110554391 0.024773763936323048 0 -0.00044738524006180671 0.024822177387833426 0 -0.00042879476546095572 0.02478682729261179 0 -0.00034114388605061935 0.024869185057311945 0 -0.00044738524006180671 0.024822177387833426 0 -0.00042879476546095572 0.02478682729261179 0 -0.00048684135183366681 0.024716511011100648 0 3.5805701526209133e-05 0.024951762142314957 0 -5.465190288463851e-05 0.024919349811320539 0 -1.6834115313213898e-05 0.024889749603561603 0 -0.00046320779102035646 0.02493189891944592 0 -0.00034114388605061935 0.024869185057311945 0 -0.00019739106310644143 0.024971020677362624 0 -0.00052956064387929948 0.024662591314310232 0 -6.1020016991919944e-05 0.024959548704810743 0 -0.00021868054788292776 0.024863130529197815 0 -0.00034114388605061935 0.024869185057311945 0 -0.00019739106310644143 0.024971020677362624 0 -0.00042879476546095572 0.02478682729261179 0 -0.00034114388605061935 0.024869185057311945 0 -0.00032109063923295179 0.024771554660886375 0 -0.00021868054788292776 0.024863130529197815 0 -0.00034114388605061935 0.024869185057311945 0 -0.00032109063923295179 0.024771554660886375 0 -5.465190288463851e-05 0.024919349811320539 0 -4.9455200781741453e-05 0.02488961671497833 0 -1.6834115313213898e-05 0.024889749603561603 0 -4.9455200781741453e-05 0.02488961671497833 0 -1.6834115313213898e-05 0.024889749603561603 0 -2.5043569225095171e-05 0.024812563920600713 0 2.8481832120961783e-05 0.024866576018771437 0 -1.6834115313213898e-05 0.024889749603561603 0 -2.5043569225095171e-05 0.024812563920600713 0 -4.9455200781741453e-05 0.02488961671497833 0 -2.5043569225095171e-05 0.024812563920600713 0 -5.4628646241684256e-05 0.02486869816593424 0 -5.4089985812345801e-05 0.024909415161622674 0 -3.1514397320586442e-05 0.024955119737092406 0 -4.0939084340939122e-05 0.024965977173906376 0 -4.9455200781741453e-05 0.02488961671497833 0 -5.4628646241684256e-05 0.02486869816593424 0 -5.4089985812345801e-05 0.024909415161622674 0 -5.4628646241684256e-05 0.02486869816593424 0 -5.4089985812345801e-05 0.024909415161622674 0 -5.5307524630240432e-05 0.024895776264251615 0 -5.4089985812345801e-05 0.024909415161622674 0 -3.1514397320586442e-05 0.024955119737092406 0 -5.5307524630240432e-05 0.024895776264251615 0 -5.4089985812345801e-05 0.024909415161622674 0 -5.1375885374987777e-05 0.024922077946999115 0 -4.0939084340939122e-05 0.024965977173906376 0 -4.9455200781741453e-05 0.02488961671497833 0 -5.4089985812345801e-05 0.024909415161622674 0 -5.1375885374987777e-05 0.024922077946999115 0 -5.465190288463851e-05 0.024919349811320539 0 -4.9455200781741453e-05 0.02488961671497833 0 -5.1375885374987777e-05 0.024922077946999115 0 -3.1514397320586442e-05 0.024955119737092406 0 -1.0560443926438442e-07 0.025000069790381663 0 -3.1075070162891074e-08 0.024999833161113198 0 -3.1514397320586442e-05 0.024955119737092406 0 -1.0560443926438442e-07 0.025000069790381663 0 -4.0939084340939122e-05 0.024965977173906376 0 -1.0560443926438442e-07 0.025000069790381663 0 -4.0939084340939122e-05 0.024965977173906376 0 -3.4644353781908075e-05 0.024924852372462881 0 -5.465190288463851e-05 0.024919349811320539 0 -5.1375885374987777e-05 0.024922077946999115 0 -4.0939084340939122e-05 0.024965977173906376 0 -6.1020016991919944e-05 0.024959548704810743 0 -7.7575069376617002e-05 0.024958585873484984 0 -0.00019739106310644143 0.024971020677362624 0 -4.0939084340939122e-05 0.024965977173906376 0 -0.00010556690123413414 0.024915578424163892 0 -4.0939084340939122e-05 0.024965977173906376 0 -0.00010556690123413414 0.024915578424163892 0 -3.4644353781908075e-05 0.024924852372462881 0 -0.00021868054788292776 0.024863130529197815 0 -0.00019739106310644143 0.024971020677362624 0 -0.00010556690123413414 0.024915578424163892 0 -0.00021868054788292776 0.024863130529197815 0 -0.00010556690123413414 0.024915578424163892 0 -0.00014682095897903782 0.024805630534153387 0 -0.00010556690123413414 0.024915578424163892 0 -0.00014682095897903782 0.024805630534153387 0 -3.4644353781908075e-05 0.024924852372462881 0 -0.00014682095897903782 0.024805630534153387 0 -3.4644353781908075e-05 0.024924852372462881 0 -5.0622962052596479e-05 0.024799507197678278 0 -1.0560443926438442e-07 0.025000069790381663 0 -3.4644353781908075e-05 0.024924852372462881 0 2.5176176909789603e-07 0.024999272621041374 0 -3.4644353781908075e-05 0.024924852372462881 0 2.5176176909789603e-07 0.024999272621041374 0 -5.0622962052596479e-05 0.024799507197678278 0 1.0178285031562089e-05 0.024833181348452842 0 -4.0481500876698388e-08 0.024999820252647128 0 2.4778305430344105e-05 0.024552100192029424 0 2.5176176909789603e-07 0.024999272621041374 0 -5.0622962052596479e-05 0.024799507197678278 0 2.4778305430344105e-05 0.024552100192029424 0 -5.0622962052596479e-05 0.024799507197678278 0 -0.00013945282186761973 0.024602393076267163 0 -0.00014682095897903782 0.024805630534153387 0 -5.0622962052596479e-05 0.024799507197678278 0 -0.00013945282186761973 0.024602393076267163 0 -0.00014682095897903782 0.024805630534153387 0 -0.00013945282186761973 0.024602393076267163 0 -0.00024720029182533282 0.024689982104732687 0 -0.00013945282186761973 0.024602393076267163 0 -0.00024720029182533282 0.024689982104732687 0 -0.00027894505957982589 0.024520392489937946 0 -0.00024720029182533282 0.024689982104732687 0 -0.00027894505957982589 0.024520392489937946 0 -0.00036928621919978379 0.024655227504035506 0 -0.00048563572263121972 0.024409313479347213 0 -0.00053290869346989003 0.024626512488325977 0 -0.00036928621919978379 0.024655227504035506 0 -0.00048563572263121972 0.024409313479347213 0 -0.00073716899617116418 0.024491327095161091 0 -0.00053290869346989003 0.024626512488325977 0 -0.00048563572263121972 0.024409313479347213 0 -0.00027894505957982589 0.024520392489937946 0 -0.00036928621919978379 0.024655227504035506 0 -0.00036928621919978379 0.024655227504035506 0 -0.00048483697375310521 0.024725483605373393 0 -0.00032109063923295179 0.024771554660886375 0 -0.00053290869346989003 0.024626512488325977 0 -0.00036928621919978379 0.024655227504035506 0 -0.00048483697375310521 0.024725483605373393 0 -0.00042879476546095572 0.02478682729261179 0 -0.00048684135183366681 0.024716511011100648 0 -0.00048483697375310521 0.024725483605373393 0 -0.00042879476546095572 0.02478682729261179 0 -0.00048483697375310521 0.024725483605373393 0 -0.00032109063923295179 0.024771554660886375 0 -0.00021868054788292776 0.024863130529197815 0 -0.00014682095897903782 0.024805630534153387 0 -0.00032109063923295179 0.024771554660886375 0 -0.00014682095897903782 0.024805630534153387 0 -0.00024720029182533282 0.024689982104732687 0 -0.00032109063923295179 0.024771554660886375 0 -0.00024720029182533282 0.024689982104732687 0 -0.00036928621919978379 0.024655227504035506 0 -0.00032109063923295179 0.024771554660886375 0 -1.8845709823223698e-05 0.014544947137786217 0 0.00012770383728194276 0.014517076589274864 0 7.8062977858743955e-05 0.014391265267311043 0 -1.8845709823223698e-05 0.014544947137786217 0 7.8062977858743955e-05 0.014391265267311043 0 -0.00013419369839344774 0.014389779142096026 0 -1.8845709823223698e-05 0.014544947137786217 0 -0.00013419369839344774 0.014389779142096026 0 -0.00023180782106109961 0.01460267090380285 0 -1.8845709823223698e-05 0.014544947137786217 0 -4.9544106316224188e-05 0.014696205178927916 0 -0.00023180782106109961 0.01460267090380285 0 -1.8845709823223698e-05 0.014544947137786217 0 6.2083448110044075e-05 0.014617331328103035 0 0.00012770383728194276 0.014517076589274864 0 -1.8845709823223698e-05 0.014544947137786217 0 6.2083448110044075e-05 0.014617331328103035 0 -4.9544106316224188e-05 0.014696205178927916 0 6.2083448110044075e-05 0.014617331328103035 0 0.00012770383728194276 0.014517076589274864 0 0.00021411349717571552 0.01453844671754378 0 0.00012770383728194276 0.014517076589274864 0 0.00019074466762679105 0.014504852572280879 0 0.00021411349717571552 0.01453844671754378 0 0.00019074466762679105 0.014504852572280879 0 0.00017557088929372557 0.014306819278929512 0 7.8062977858743955e-05 0.014391265267311043 0 0.00012770383728194276 0.014517076589274864 0 0.00019074466762679105 0.014504852572280879 0 7.8062977858743955e-05 0.014391265267311043 0 0.00019074466762679105 0.014504852572280879 0 0.00017557088929372557 0.014306819278929512 0 0.00018046413532370629 0.01468116524414881 0 0.00017557088929372557 0.014306819278929512 0 7.8062977858743955e-05 0.014391265267311043 0 -3.6132160151338445e-06 0.014126382685152953 0 7.8062977858743955e-05 0.014391265267311043 0 -0.00013419369839344774 0.014389779142096026 0 -3.6132160151338445e-06 0.014126382685152953 0 -0.00013419369839344774 0.014389779142096026 0 -3.6132160151338445e-06 0.014126382685152953 0 -0.00019638597869700629 0.014171448891092684 0 -3.6132160151338445e-06 0.014126382685152953 0 -0.00014017358599624288 0.014012213391368098 0 -0.00019638597869700629 0.014171448891092684 0 -3.6132160151338445e-06 0.014126382685152953 0 -3.1623639983791417e-05 0.013591134639425273 0 0.00011615168917127076 0.013796580101683106 0 -3.6132160151338445e-06 0.014126382685152953 0 -0.00014017358599624288 0.014012213391368098 0 -3.1623639983791417e-05 0.013591134639425273 0 0.00017557088929372557 0.014306819278929512 0 -3.6132160151338445e-06 0.014126382685152953 0 0.00011615168917127076 0.013796580101683106 0 -3.1623639983791417e-05 0.013591134639425273 0 0.00011615168917127076 0.013796580101683106 0 5.2490237648625341e-05 0.013194494561288111 0 0.00011615168917127076 0.013796580101683106 0 5.2490237648625341e-05 0.013194494561288111 0 5.7577409052988453e-07 0.013726355332154914 0 5.2490237648625341e-05 0.013194494561288111 0 5.7577409052988453e-07 0.013726355332154914 0 -7.6863905821326093e-07 0.01224930724961971 0 0.00011615168917127076 0.013796580101683106 0 5.7577409052988453e-07 0.013726355332154914 0 0.00017411069288309839 0.014398549957330687 0 0.00017557088929372557 0.014306819278929512 0 0.00011615168917127076 0.013796580101683106 0 0.00017411069288309839 0.014398549957330687 0 0.00017557088929372557 0.014306819278929512 0 0.00017411069288309839 0.014398549957330687 0 0.00018046413532370629 0.01468116524414881 0 0.00017411069288309839 0.014398549957330687 0 0.00021026263262963036 0.015037437354537067 0 0.00018046413532370629 0.01468116524414881 0 5.7577409052988453e-07 0.013726355332154914 0 0.00017411069288309839 0.014398549957330687 0 3.1418477336934303e-07 0.015203260597758977 0 0.00017411069288309839 0.014398549957330687 0 3.1418477336934303e-07 0.015203260597758977 0 0.00021026263262963036 0.015037437354537067 0 3.1418477336934303e-07 0.015203260597758977 0 0.00021026263262963036 0.015037437354537067 0 0.00016962222875695993 0.015723170580240205 0 0.00021026263262963036 0.015037437354537067 0 0.00027217496500413717 0.015053025458874219 0 0.00018046413532370629 0.01468116524414881 0 0.00021026263262963036 0.015037437354537067 0 0.00027217496500413717 0.015053025458874219 0 0.00023872130134625088 0.015322617453610752 0 0.00027217496500413717 0.015053025458874219 0 0.00018046413532370629 0.01468116524414881 0 0.00019959570690934562 0.015124725758056918 0 0.00019074466762679105 0.014504852572280879 0 0.00018046413532370629 0.01468116524414881 0 0.00021411349717571552 0.01453844671754378 0 0.00018046413532370629 0.01468116524414881 0 -3.1125506075544566e-05 0.015120193108555675 0 0.00019959570690934562 0.015124725758056918 0 0.00016483761910561544 0.014686488816739139 0 9.8110859117826475e-05 0.014858346380857685 0 -3.1125506075544566e-05 0.015120193108555675 0 0.00019959570690934562 0.015124725758056918 0 3.9413643796876585e-05 0.015341368077735425 0 0.00027217496500413717 0.015053025458874219 0 0.00025371107599446869 0.015179127335426061 0 0.0003254955349839871 0.015172110534654368 0 0.00027217496500413717 0.015053025458874219 0 0.00019959570690934562 0.015124725758056918 0 0.0003254955349839871 0.015172110534654368 0 0.00025371107599446869 0.015179127335426061 0 0.00018360677373670961 0.015143899298843893 0 0.0003254955349839871 0.015172110534654368 0 0.00025371107599446869 0.015179127335426061 0 0.00018360677373670961 0.015143899298843893 0 0.0001209972601524263 0.015299735705704889 0 -2.173218680364317e-05 0.015183189987458786 0 0.0001209972601524263 0.015299735705704889 0 -0.00020272381329984271 0.015423075665349706 0 0.00018360677373670961 0.015143899298843893 0 -2.173218680364317e-05 0.015183189987458786 0 0.0001209972601524263 0.015299735705704889 0 0.0001209972601524263 0.015299735705704889 0 8.6764681208590755e-05 0.015773006825603425 0 -0.00020272381329984271 0.015423075665349706 0 0.00027217496500413717 0.015053025458874219 0 0.00025371107599446869 0.015179127335426061 0 0.00023872130134625088 0.015322617453610752 0 0.00025371107599446869 0.015179127335426061 0 0.0001209972601524263 0.015299735705704889 0 0.00023872130134625088 0.015322617453610752 0 0.0001209972601524263 0.015299735705704889 0 0.00023872130134625088 0.015322617453610752 0 8.6764681208590755e-05 0.015773006825603425 0 0.00023872130134625088 0.015322617453610752 0 0.00016962222875695993 0.015723170580240205 0 8.6764681208590755e-05 0.015773006825603425 0 0.00021026263262963036 0.015037437354537067 0 0.00023872130134625088 0.015322617453610752 0 0.00016962222875695993 0.015723170580240205 0 3.1418477336934303e-07 0.015203260597758977 0 0.00016962222875695993 0.015723170580240205 0 6.4963946179276724e-07 0.016680752239749842 0 0.00016962222875695993 0.015723170580240205 0 6.4963946179276724e-07 0.016680752239749842 0 1.4005775511753637e-06 0.016439751429854044 0 6.4963946179276724e-07 0.016680752239749842 0 1.4005775511753637e-06 0.016439751429854044 0 -9.2803222805011365e-05 0.01718374336409605 0 0.00016962222875695993 0.015723170580240205 0 1.4005775511753637e-06 0.016439751429854044 0 8.6764681208590755e-05 0.015773006825603425 0 8.6764681208590755e-05 0.015773006825603425 0 -0.00010804153501097402 0.016121955787589549 0 -0.00020272381329984271 0.015423075665349706 0 1.4005775511753637e-06 0.016439751429854044 0 8.6764681208590755e-05 0.015773006825603425 0 -0.00010804153501097402 0.016121955787589549 0 -0.00048120124570519388 0.016229691277717045 0 -0.00010804153501097402 0.016121955787589549 0 -0.00020272381329984271 0.015423075665349706 0 -0.00048120124570519388 0.016229691277717045 0 -0.00010804153501097402 0.016121955787589549 0 -9.2803222805011365e-05 0.01718374336409605 0 -0.00048120124570519388 0.016229691277717045 0 -9.2803222805011365e-05 0.01718374336409605 0 -1.6968185637319556e-06 0.018131920795312308 0 -0.00036492651959022193 0.016440492095625706 0 -0.0004186405912007745 0.017743121295829452 0 6.4963946179276724e-07 0.016680752239749842 0 -9.2803222805011365e-05 0.01718374336409605 0 -1.6968185637319556e-06 0.018131920795312308 0 1.4005775511753637e-06 0.016439751429854044 0 -0.00010804153501097402 0.016121955787589549 0 -9.2803222805011365e-05 0.01718374336409605 0 2.4184734502187713e-05 0.019051671902512807 0 -1.0305035752835678e-07 0.018136786171710051 0 -0.00017920187541541183 0.019098464889916969 0 -0.0004186405912007745 0.017743121295829452 0 -0.0004390050192939149 0.017748521430875332 0 -0.00040226682048178096 0.016654054144999673 0 -0.00067576053708397459 0.017454839857699554 0 -0.00071885372688113545 0.016673256449327323 0 2.4184734502187713e-05 0.019051671902512807 0 -0.00017920187541541183 0.019098464889916969 0 -0.00010359192322077914 0.019141732518609358 0 -0.00040226682048178096 0.016654054144999673 0 -0.00071885372688113545 0.016673256449327323 0 -0.00074502859335030282 0.015920204883934915 0 1.3633348848721696e-05 0.019044213953167428 0 -0.00025586690719387996 0.01963752655698078 0 -0.00017920187541541183 0.019098464889916969 0 -0.00010359192322077914 0.019141732518609358 0 -0.00015761805740294472 0.019259409940163213 0 -0.0004390050192939149 0.017748521430875332 0 -0.00031985058574620951 0.018345816377391719 0 -8.0536150849975309e-05 0.020059097737251674 0 -0.00029218540646427791 0.019831394293311069 0 -0.00029747789669470849 0.02006918434223845 0 -0.00025586690719387996 0.01963752655698078 0 -0.00031985058574620951 0.018345816377391719 0 -8.0536150849975309e-05 0.020059097737251674 0 -0.00013985908728910551 0.020190442162743863 0 -0.00029747789669470849 0.02006918434223845 0 -0.00036492651959022193 0.016440492095625706 0 -0.00018909648308032504 0.015664637880588295 0 -0.00040226682048178096 0.016654054144999673 0 -0.00074502859335030282 0.015920204883934915 0 -0.00015721781979577344 0.015874079105626465 0 -0.00074502859335030282 0.015920204883934915 0 -0.00015721781979577344 0.015874079105626465 0 -0.000438744383544225 0.015285321018731557 0 -2.173218680364317e-05 0.015183189987458786 0 -0.00015721781979577344 0.015874079105626465 0 -0.000438744383544225 0.015285321018731557 0 -3.5116901382484672e-05 0.015227361559775283 0 -0.00018909648308032504 0.015664637880588295 0 -0.00013985908728910551 0.020190442162743863 0 -0.00029747789669470849 0.02006918434223845 0 -0.00024899614001360387 0.020389968612202179 0 -0.0002510415590574469 0.018311713066420869 0 -8.5023055075387585e-05 0.01792526905366618 0 -0.000277654796984509 0.017749532632051389 0 -0.00031985058574620951 0.018345816377391719 0 -0.00018369747647780112 0.016310166156414709 0 -0.00031985058574620951 0.018345816377391719 0 -0.00022858035740688434 0.019519807348389671 0 -0.0002588649568530383 0.018833320302735174 0 -0.00024233867655651484 0.019147049468179078 0 0.00035236480052654238 0.018797669333450281 0 -0.00014918900915374434 0.02044087829258396 0 -0.00034177208759691687 0.020440316394825585 0 -0.00038479066461669548 0.020358739611507748 0 -1.6138950225280355e-05 0.019901884802418141 0 -0.00022858035740688434 0.019519807348389671 0 -0.00038032489160258487 0.020455775648540907 0 -0.00034177208759691687 0.020440316394825585 0 -0.00038479066461669548 0.020358739611507748 0 -1.6138950225280355e-05 0.019901884802418141 0 -0.00021252028412280298 0.020044130913276267 0 -8.5023055075387585e-05 0.01792526905366618 0 -0.000277654796984509 0.017749532632051389 0 8.2145563665703258e-05 0.017535071262189811 0 -2.173218680364317e-05 0.015183189987458786 0 -0.000438744383544225 0.015285321018731557 0 -0.00018408732934687699 0.014934771791931247 0 -0.00022858035740688434 0.019519807348389671 0 0.00014181488416479504 0.017010471825512876 0 -0.00018369747647780112 0.016310166156414709 0 0.00014181488416479504 0.017010471825512876 0 -1.6138950225280355e-05 0.019901884802418141 0 0.0001623667051297517 0.018689938671351009 0 -0.0002588649568530383 0.018833320302735174 0 0.00035236480052654238 0.018797669333450281 0 0.00047194401537812837 0.018513580314702686 0 0.00014181488416479504 0.017010471825512876 0 0.0001623667051297517 0.018689938671351009 0 0.00022331445017822191 0.020534325764429727 0 0.0003716995576229686 0.020466401700885577 0 0.00021939182332019844 0.02044537334319331 0 -1.6138950225280355e-05 0.019901884802418141 0 0.00026358526188966283 0.022469973319504528 0 -0.00038521840086926616 0.02046073436363223 0 -0.00034177208759691687 0.020440316394825585 0 -0.00037156850447071267 0.020632473345656738 0 0.00024109148308274877 0.02438900086875765 0 0.00065010160600940665 0.024519864765145491 0 0.00065950776251694351 0.024226483430353021 0 0.00026358526188966283 0.022469973319504528 0 0.00059472673835451214 0.024658129732856738 0 0.00067691383961036432 0.024515934167567571 0 0.00065950776251694351 0.024226483430353021 0 0.00089669960053009618 0.024083262797376079 0 0.00065950776251694351 0.024226483430353021 0 0.00066996971261070739 0.023910079801394622 0 0.00089669960053009618 0.024083262797376079 0 0.00040260769230332754 0.024081498614935616 0 0.00065950776251694351 0.024226483430353021 0 0.00066996971261070739 0.023910079801394622 0 0.00066996971261070739 0.023910079801394622 0 0.0010128200501969729 0.02372210433024784 0 0.00089669960053009618 0.024083262797376079 0 0.00066996971261070739 0.023910079801394622 0 0.00062615082811355593 0.023643773189553022 0 0.0010128200501969729 0.02372210433024784 0 0.00032186867362803552 0.023781402882738188 0 0.00066996971261070739 0.023910079801394622 0 0.00062615082811355593 0.023643773189553022 0 0.0010128200501969729 0.02372210433024784 0 0.00089669960053009618 0.024083262797376079 0 0.0013124997437461885 0.024073857717368752 0 0.00119802794482734 0.023515952081258836 0 0.00099097117588649113 0.023531848092694766 0 0.0011684096314570958 0.023343143110790082 0 0.0011684904553473951 0.023854520348567512 0 0.0009875588740044061 0.022072563391060909 0 0.00119802794482734 0.023515952081258836 0 0.00099097117588649113 0.023531848092694766 0 0.0012243108150405207 0.023753426802168409 0 0.0003716995576229686 0.020466401700885577 0 0.00021939182332019844 0.02044537334319331 0 0.00039733280975125148 0.020319509176968828 0 0.00067691383961036432 0.024515934167567571 0 0.00089669960053009618 0.024083262797376079 0 0.0013124997437461885 0.024073857717368752 0 0.00026358526188966283 0.022469973319504528 0 0.0009875588740044061 0.022072563391060909 0 0.0003716995576229686 0.020466401700885577 0 0.00042562159644088805 0.020348953395057202 0 0.00039733280975125148 0.020319509176968828 0 0.0001623667051297517 0.018689938671351009 0 0.00045018244587652161 0.018903133166069369 0 0.00088510906922987967 0.016344428395653421 0 0.00056933188576699129 0.016437309533791921 0 0.00071374708902138101 0.016136331461475636 0 0.00088510906922987967 0.016344428395653421 0 0.00079804832304676576 0.016556025605231568 0 0.00056933188576699129 0.016437309533791921 0 0.00045018244587652161 0.018903133166069369 0 0.00047572470667199969 0.016745593502227665 0 0.00045018244587652161 0.018903133166069369 0 0.0010376107729272808 0.019917215775287302 0 0.00077752585319308654 0.020674364234967213 0 0.00061886849935547359 0.020492768263577023 0 0.00095750623913192054 0.02025622055556547 0 0.00045018244587652161 0.018903133166069369 0 0.0009875588740044061 0.022072563391060909 0 0.0009875588740044061 0.022072563391060909 0 0.0010376107729272808 0.019917215775287302 0 0.00119802794482734 0.023515952081258836 0 0.0012243108150405207 0.023753426802168409 0 0.0013553010629353641 0.02354835659172131 0 0.0012243108150405207 0.023753426802168409 0 0.0013824397895962767 0.023643833384090557 0 0.0013553010629353641 0.02354835659172131 0 0.00064052405432924364 0.020091734736925385 0 0.00073491758808825688 0.019866271128476429 0 0.0011438441589009518 0.01973574965272341 0 0.0010376107729272808 0.019917215775287302 0 0.0010473530669942617 0.021550398452302652 0 0.0013824397895962767 0.023643833384090557 0 0.0014370643432895115 0.023517145249206287 0 0.0013553010629353641 0.02354835659172131 0 0.0014479965005473195 0.023522741626337804 0 0.0013553010629353641 0.02354835659172131 0 0.0013634901815844404 0.023356718004830083 0 0.0010473530669942617 0.021550398452302652 0 0.0010224851833662868 0.021974701274903512 0 0.00119802794482734 0.023515952081258836 0 0.0013553010629353641 0.02354835659172131 0 0.0013634901815844404 0.023356718004830083 0 0.00079804832304676576 0.016556025605231568 0 0.00048875981342836401 0.016774557556782442 0 0.00056933188576699129 0.016437309533791921 0 0.0010376107729272808 0.019917215775287302 0 0.00089292368313545261 0.018878567491423151 0 0.00048875981342836401 0.016774557556782442 0 0.00056933188576699129 0.016437309533791921 0 0.00031089081315134853 0.016520943685330091 0 0.0010473530669942617 0.021550398452302652 0 0.00089292368313545261 0.018878567491423151 0 0.00034798287309647727 0.016009228606701776 0 0.00036864652766638588 0.01621393670372865 0 0.00032091542741227806 0.016366974797747208 0 0.00033196970409607034 0.016379464190942255 0 0.00044960124107522765 0.016306319015041121 0 0.00066225027497078851 0.015794149483491646 0 0.00090878731011770103 0.015741001415328127 0 0.00025962434621591875 0.016195633375625133 0 0.00056933188576699129 0.016437309533791921 0 0.00071374708902138101 0.016136331461475636 0 0.00020409675565142505 0.016304361509891251 0 0.00047572470667199969 0.016745593502227665 0 0.00036864652766638588 0.01621393670372865 0 0.00056933188576699129 0.016437309533791921 0 0.00020409675565142505 0.016304361509891251 0 0.00031089081315134853 0.016520943685330091 0 0.00013706980044819495 0.014821542931569837 0 8.6742466773624693e-05 0.015018108636920933 0 0.00025218017201733659 0.014997568789624464 0 0.00066225027497078851 0.015794149483491646 0 0.00060668719798293404 0.015426171331926737 0 0.00039404469530777742 0.01556897916065492 0 0.00034798287309647727 0.016009228606701776 0 0.00037060283680438033 0.015162546679013057 0 0.00066225027497078851 0.015794149483491646 0 0.00090878731011770103 0.015741001415328127 0 0.00060668719798293404 0.015426171331926737 0 0.00030822605543795667 0.018160943803426286 0 0.0003519590007769428 0.018061561712756358 0 0.00040274208811285695 0.018115789637763603 0 -0.00014290067802167318 0.01732659744334928 0 -2.9144795408095021e-05 0.017056618072337687 0 0.00057821188360789022 0.01690507826789896 0 -2.9144795408095021e-05 0.017056618072337687 0 0.00050611905533502635 0.016822321327645027 0 0.00057821188360789022 0.01690507826789896 0 0.0001623667051297517 0.018689938671351009 0 0.00047572470667199969 0.016745593502227665 0 -0.00018408732934687699 0.014934771791931247 0 0.00013706980044819495 0.014821542931569837 0 8.6742466773624693e-05 0.015018108636920933 0 0.00014181488416479504 0.017010471825512876 0 0.00034798287309647727 0.016009228606701776 0 0.00047572470667199969 0.016745593502227665 0 0.00034798287309647727 0.016009228606701776 0 0.00018360677373670961 0.015143899298843893 0 -2.173218680364317e-05 0.015183189987458786 0 8.6742466773624693e-05 0.015018108636920933 0 -2.173218680364317e-05 0.015183189987458786 0 -0.00018408732934687699 0.014934771791931247 0 8.6742466773624693e-05 0.015018108636920933 0 0.00018360677373670961 0.015143899298843893 0 0.00025218017201733659 0.014997568789624464 0 0.0003254955349839871 0.015172110534654368 0 0.00018360677373670961 0.015143899298843893 0 8.6742466773624693e-05 0.015018108636920933 0 0.00025218017201733659 0.014997568789624464 0 0.00019959570690934562 0.015124725758056918 0 0.00019236494249562713 0.015415566373873941 0 0.0003254955349839871 0.015172110534654368 0 0.00019236494249562713 0.015415566373873941 0 0.00037351517283241899 0.015394823924215635 0 0.0003254955349839871 0.015172110534654368 0 0.00060668719798293404 0.015426171331926737 0 0.00037351517283241899 0.015394823924215635 0 0.0003254955349839871 0.015172110534654368 0 0.00037060283680438033 0.015162546679013057 0 0.00036202322783378477 0.015186651542780115 0 0.00019959570690934562 0.015124725758056918 0 0.00019236494249562713 0.015415566373873941 0 3.9413643796876585e-05 0.015341368077735425 0 -3.1125506075544566e-05 0.015120193108555675 0 3.9413643796876585e-05 0.015341368077735425 0 -0.00014416956564307896 0.015481987399957821 0 3.9413643796876585e-05 0.015341368077735425 0 5.947021141569248e-05 0.01544651530475327 0 -5.3855890550506269e-05 0.01547880354281936 0 3.9413643796876585e-05 0.015341368077735425 0 -5.3855890550506269e-05 0.01547880354281936 0 -0.00014416956564307896 0.015481987399957821 0 0.00019236494249562713 0.015415566373873941 0 3.9413643796876585e-05 0.015341368077735425 0 5.947021141569248e-05 0.01544651530475327 0 3.8566599227056467e-05 0.015851056088759884 0 -0.00010024656949263847 0.01523974666023608 0 0.00019236494249562713 0.015415566373873941 0 5.947021141569248e-05 0.01544651530475327 0 5.894582204564496e-05 0.015552883124565374 0 0.00019236494249562713 0.015415566373873941 0 5.894582204564496e-05 0.015552883124565374 0 0.00017725231335285869 0.015710868432012647 0 5.894582204564496e-05 0.015552883124565374 0 -5.3855890550506269e-05 0.01547880354281936 0 -0.0001996374562924614 0.015694057992621153 0 5.894582204564496e-05 0.015552883124565374 0 0.00017725231335285869 0.015710868432012647 0 -0.0001996374562924614 0.015694057992621153 0 5.947021141569248e-05 0.01544651530475327 0 5.894582204564496e-05 0.015552883124565374 0 -5.3855890550506269e-05 0.01547880354281936 0 0.00066225027497078851 0.015794149483491646 0 0.00017725231335285869 0.015710868432012647 0 0.00039404469530777742 0.01556897916065492 0 0.00065920478446669011 0.015783409343498638 0 3.8566599227056467e-05 0.015851056088759884 0 0.00019236494249562713 0.015415566373873941 0 0.00017725231335285869 0.015710868432012647 0 0.00039404469530777742 0.01556897916065492 0 0.00019236494249562713 0.015415566373873941 0 0.00037351517283241899 0.015394823924215635 0 0.00039404469530777742 0.01556897916065492 0 0.00060668719798293404 0.015426171331926737 0 0.00037351517283241899 0.015394823924215635 0 0.00039404469530777742 0.01556897916065492 0 0.00066225027497078851 0.015794149483491646 0 5.2613131041603739e-06 0.015889944199991093 0 0.00025962434621591875 0.016195633375625133 0 5.2613131041603739e-06 0.015889944199991093 0 0.00025962434621591875 0.016195633375625133 0 -7.967215165306938e-05 0.016183181617783187 0 8.8672727445104378e-05 0.016319617476971696 0 0.00036864652766638588 0.01621393670372865 0 2.5734391004558803e-05 0.016328962310959365 0 0.00025962434621591875 0.016195633375625133 0 -7.967215165306938e-05 0.016183181617783187 0 2.5734391004558803e-05 0.016328962310959365 0 0.00020409675565142505 0.016304361509891251 0 0.00016143456692554401 0.016473594045815512 0 0.00020409675565142505 0.016304361509891251 0 0.00031089081315134853 0.016520943685330091 0 0.00016143456692554401 0.016473594045815512 0 0.00048875981342836401 0.016774557556782442 0 0.00031089081315134853 0.016520943685330091 0 0.00010624608258863355 0.016661542047248616 0 0.00048875981342836401 0.016774557556782442 0 0.00010624608258863355 0.016661542047248616 0 -5.058942686261163e-05 0.016952352502016928 0 0.00031089081315134853 0.016520943685330091 0 0.00016143456692554401 0.016473594045815512 0 0.00010624608258863355 0.016661542047248616 0 2.5734391004558803e-05 0.016328962310959365 0 0.00016143456692554401 0.016473594045815512 0 -2.7143509936959864e-05 0.016503880761695209 0 0.00016143456692554401 0.016473594045815512 0 0.00010624608258863355 0.016661542047248616 0 -2.7143509936959864e-05 0.016503880761695209 0 -0.00020926067241134545 0.016717954289057372 0 -0.00020391205090041935 0.016547875047905614 0 -0.00034414212062937983 0.016585991687557661 0 -0.00037865747368064697 0.016780373611465137 0 -0.00020926067241134545 0.016717954289057372 0 -0.00034414212062937983 0.016585991687557661 0 -0.00037865747368064697 0.016780373611465137 0 -0.00020926067241134545 0.016717954289057372 0 -0.00024206709742339449 0.016863131118131581 0 0.00010624608258863355 0.016661542047248616 0 -7.3015139204986803e-05 0.016766444626180776 0 -0.00011449581505220537 0.016628150264051483 0 -0.00020926067241134545 0.016717954289057372 0 -7.3015139204986803e-05 0.016766444626180776 0 -0.00010325497798077613 0.016867176183795355 0 0.00010624608258863355 0.016661542047248616 0 -7.3015139204986803e-05 0.016766444626180776 0 -5.058942686261163e-05 0.016952352502016928 0 -0.00020926067241134545 0.016717954289057372 0 -7.3015139204986803e-05 0.016766444626180776 0 -0.00011449581505220537 0.016628150264051483 0 -0.00020926067241134545 0.016717954289057372 0 -0.00011449581505220537 0.016628150264051483 0 -0.00020391205090041935 0.016547875047905614 0 -0.00011449581505220537 0.016628150264051483 0 -2.7143509936959864e-05 0.016503880761695209 0 -0.00020391205090041935 0.016547875047905614 0 0.00010624608258863355 0.016661542047248616 0 -0.00011449581505220537 0.016628150264051483 0 -2.7143509936959864e-05 0.016503880761695209 0 -2.7143509936959864e-05 0.016503880761695209 0 -0.00020391205090041935 0.016547875047905614 0 -0.0001612258274916279 0.016369535475426827 0 -0.00028692204638578172 0.016428941951382569 0 -0.00020391205090041935 0.016547875047905614 0 -0.0001612258274916279 0.016369535475426827 0 -0.00028692204638578172 0.016428941951382569 0 -0.00020391205090041935 0.016547875047905614 0 -0.00034414212062937983 0.016585991687557661 0 -0.00028692204638578172 0.016428941951382569 0 -0.00034414212062937983 0.016585991687557661 0 -0.00041389558859692099 0.016421918458646476 0 -0.00028692204638578172 0.016428941951382569 0 -0.00031275410092176161 0.016211704177799272 0 -0.0001612258274916279 0.016369535475426827 0 5.2613131041603739e-06 0.015889944199991093 0 -0.00031275410092176161 0.016211704177799272 0 -0.00061814263778765441 0.015925364006476182 0 -0.00028692204638578172 0.016428941951382569 0 -0.00031275410092176161 0.016211704177799272 0 -0.00041389558859692099 0.016421918458646476 0 -0.00031275410092176161 0.016211704177799272 0 -0.0001612258274916279 0.016369535475426827 0 -7.967215165306938e-05 0.016183181617783187 0 2.5734391004558803e-05 0.016328962310959365 0 -2.7143509936959864e-05 0.016503880761695209 0 -0.0001612258274916279 0.016369535475426827 0 2.5734391004558803e-05 0.016328962310959365 0 -0.0001612258274916279 0.016369535475426827 0 -7.967215165306938e-05 0.016183181617783187 0 5.2613131041603739e-06 0.015889944199991093 0 -0.00031275410092176161 0.016211704177799272 0 -7.967215165306938e-05 0.016183181617783187 0 6.1401746282438153e-05 0.015292712546303494 0 -0.00018478037485475339 0.015735642343711675 0 0.00034712452242939871 0.014629031454190197 0 0.00032998247262646985 0.014572505809940997 0 0.00042111786780321003 0.014499305989727665 0 0.00041100382044271632 0.014547368725632065 0 0.00034712452242939871 0.014629031454190197 0 0.00042111786780321003 0.014499305989727665 0 0.00041100382044271632 0.014547368725632065 0 0.00038566499046963879 0.014691349399122868 0 0.00034712452242939871 0.014629031454190197 0 -0.00031275410092176161 0.016211704177799272 0 -0.00050170310584984196 0.016235918217702858 0 -0.00061814263778765441 0.015925364006476182 0 6.1401746282438153e-05 0.015292712546303494 0 0.00035824400298909245 0.01477868077312681 0 -0.00065719702613227938 0.016094499951584348 0 -0.00050170310584984196 0.016235918217702858 0 -0.00056866147859435689 0.016611621114350095 0 -0.00065719702613227938 0.016094499951584348 0 -0.00050170310584984196 0.016235918217702858 0 -0.00061814263778765441 0.015925364006476182 0 6.1401746282438153e-05 0.015292712546303494 0 -0.00010024656949263847 0.01523974666023608 0 -0.00031275410092176161 0.016211704177799272 0 -0.00050170310584984196 0.016235918217702858 0 -0.00041389558859692099 0.016421918458646476 0 -0.00034414212062937983 0.016585991687557661 0 -0.00041389558859692099 0.016421918458646476 0 -0.00056866147859435689 0.016611621114350095 0 -0.00050170310584984196 0.016235918217702858 0 -0.00041389558859692099 0.016421918458646476 0 -0.00056866147859435689 0.016611621114350095 0 0.00026278806459198738 0.015147131219993048 0 0.00029623691704496147 0.015025409708703918 0 0.0002530176991268408 0.015018829713161779 0 0.00029623691704496147 0.015025409708703918 0 0.0002530176991268408 0.015018829713161779 0 0.00027886650327667328 0.014971881066344951 0 -0.00037865747368064697 0.016780373611465137 0 -0.00034414212062937983 0.016585991687557661 0 -0.00056866147859435689 0.016611621114350095 0 0.00028329473003936502 0.014654843475155119 0 0.00021199920989063633 0.014591693985767481 0 0.00022969319711975194 0.01474020432048536 0 0.00030323290360476644 0.014744858770273895 0 0.00028329473003936502 0.014654843475155119 0 0.00022969319711975194 0.01474020432048536 0 0.00030323290360476644 0.014744858770273895 0 0.00028329473003936502 0.014654843475155119 0 0.00034712452242939871 0.014629031454190197 0 0.00038566499046963879 0.014691349399122868 0 0.00030323290360476644 0.014744858770273895 0 0.00034712452242939871 0.014629031454190197 0 0.00026938442315596904 0.014550233246733654 0 0.00042111786780321003 0.014499305989727665 0 0.00020875770084905303 0.014499393249611539 0 0.00032998247262646985 0.014572505809940997 0 0.00026938442315596904 0.014550233246733654 0 0.00042111786780321003 0.014499305989727665 0 0.00028329473003936502 0.014654843475155119 0 0.00026938442315596904 0.014550233246733654 0 0.00021199920989063633 0.014591693985767481 0 0.00028329473003936502 0.014654843475155119 0 0.00032998247262646985 0.014572505809940997 0 0.00026938442315596904 0.014550233246733654 0 0.00028329473003936502 0.014654843475155119 0 0.00034712452242939871 0.014629031454190197 0 0.00032998247262646985 0.014572505809940997 0 -0.00010024656949263847 0.01523974666023608 0 0.00035412681204617999 0.01411890667420502 0 0.00011470890503002958 0.014606885351580176 0 6.5412287944733639e-05 0.014676826924558843 0 0.0002341420446758092 0.014662362447619825 0 1.5356343206411733e-05 0.014734710384907236 0 0.00014424687696722424 0.013813963126376127 0 0.00011470890503002958 0.014606885351580176 0 -7.0349282190137116e-05 0.014552853598900392 0 0.00022913417014565687 0.01453498968531227 0 0.00011470890503002958 0.014606885351580176 0 6.5412287944733639e-05 0.014676826924558843 0 -7.0349282190137116e-05 0.014552853598900392 0 1.5356343206411733e-05 0.014734710384907236 0 -3.3530896785950688e-05 0.015054275399844302 0 6.5412287944733639e-05 0.014676826924558843 0 -7.0349282190137116e-05 0.014552853598900392 0 -0.00010348585195868344 0.014689958504451409 0 -0.00010024656949263847 0.01523974666023608 0 -3.3530896785950688e-05 0.015054275399844302 0 -5.3855890550506269e-05 0.01547880354281936 0 -0.0001996374562924614 0.015694057992621153 0 -0.00014509414655539254 0.015482099315925962 0 -7.5732565239930151e-05 0.015160153254710883 0 -3.3530896785950688e-05 0.015054275399844302 0 6.2083448110044075e-05 0.014617331328103035 0 0.00021411349717571552 0.01453844671754378 0 8.0762742482525207e-05 0.014725838693342064 0 -6.2273241091073231e-06 0.014835160843603378 0 0.00018117057133444617 0.014822078394320957 0 8.0762742482525207e-05 0.014725838693342064 0 9.8110859117826475e-05 0.014858346380857685 0 -3.3530896785950688e-05 0.015054275399844302 0 0.00021411349717571552 0.01453844671754378 0 0.00018117057133444617 0.014822078394320957 0 8.0762742482525207e-05 0.014725838693342064 0 -6.2273241091073231e-06 0.014835160843603378 0 -4.9544106316224188e-05 0.014696205178927916 0 -0.00019006411236130669 0.014845891713296984 0 6.2083448110044075e-05 0.014617331328103035 0 8.0762742482525207e-05 0.014725838693342064 0 -4.9544106316224188e-05 0.014696205178927916 0 -6.2273241091073231e-06 0.014835160843603378 0 8.0762742482525207e-05 0.014725838693342064 0 -4.9544106316224188e-05 0.014696205178927916 0 0.00013890982057417929 0.01929525904042265 0 8.2430793111223447e-05 0.019407619674315996 0 6.5954755809697284e-05 0.019329068571316648 0 0.00020550746556336828 0.019388685791253479 0 0.00013890982057417929 0.01929525904042265 0 8.2430793111223447e-05 0.019407619674315996 0 0.00020550746556336828 0.019388685791253479 0 0.00018648565978594521 0.019511437763239204 0 8.2430793111223447e-05 0.019407619674315996 0 0.00020550746556336828 0.019388685791253479 0 0.00032233164788530191 0.019287048558333266 0 0.00034635584443123865 0.019440973148960494 0 0.00020550746556336828 0.019388685791253479 0 0.00034635584443123865 0.019440973148960494 0 0.00018648565978594521 0.019511437763239204 0 0.00051268488015980161 0.018703558775156663 0 0.00014784264471853184 0.018228023892492777 0 0.00020550746556336828 0.019388685791253479 0 0.00032233164788530191 0.019287048558333266 0 0.00013890982057417929 0.01929525904042265 0 0.00058095596821612432 0.017002729828714803 0 0.00038529123053730057 0.016986375267502143 0 0.00044772614418316873 0.016880509837868762 0 0.00038529123053730057 0.016986375267502143 0 0.00044772614418316873 0.016880509837868762 0 0.00029234685230347082 0.016901310541911921 0 0.00044772614418316873 0.016880509837868762 0 0.00036843328107350544 0.016781683017043414 0 0.00029234685230347082 0.016901310541911921 0 0.00038566499046963879 0.014691349399122868 0 0.00030323290360476644 0.014744858770273895 0 0.00029595805747081947 0.014913426385705874 0 0.00030096567276191783 0.014905334355103475 0 0.0002701346445023567 0.014833055587537444 0 0.00020901057577379836 0.01483720125947954 0 0.00030096567276191783 0.014905334355103475 0 0.00029595805747081947 0.014913426385705874 0 0.00026722365765589196 0.014938158888827513 0 0.00030096567276191783 0.014905334355103475 0 0.00029595805747081947 0.014913426385705874 0 0.0002701346445023567 0.014833055587537444 0 0.00035824400298909245 0.01477868077312681 0 0.00029529573810643995 0.014943541218820701 0 0.00030323290360476644 0.014744858770273895 0 0.00029595805747081947 0.014913426385705874 0 0.0002701346445023567 0.014833055587537444 0 0.00030323290360476644 0.014744858770273895 0 0.0002701346445023567 0.014833055587537444 0 0.00022969319711975194 0.01474020432048536 0 0.00029623691704496147 0.015025409708703918 0 0.00029595805747081947 0.014913426385705874 0 0.00027886650327667328 0.014971881066344951 0 -0.00018478037485475339 0.015735642343711675 0 0.00015618231467627122 0.016728610968927238 0 0.00035051784313268412 0.015861887452903924 0 0.00015618231467627122 0.016728610968927238 0 0.0002530176991268408 0.015018829713161779 0 0.00027886650327667328 0.014971881066344951 0 0.00026722365765589196 0.014938158888827513 0 -0.00037865747368064697 0.016780373611465137 0 -0.00056866147859435689 0.016611621114350095 0 -0.00049954193167363521 0.017100476424534956 0 0.00029595805747081947 0.014913426385705874 0 0.00027886650327667328 0.014971881066344951 0 0.00026722365765589196 0.014938158888827513 0 0.00044772614418316873 0.016880509837868762 0 0.00036843328107350544 0.016781683017043414 0 0.0005481666748232666 0.016730266137662864 0 0.00058095596821612432 0.017002729828714803 0 0.00044772614418316873 0.016880509837868762 0 0.0005481666748232666 0.016730266137662864 0 0.00051268488015980161 0.018703558775156663 0 0.00015618231467627122 0.016728610968927238 0 0.00014016455207297568 0.019368024616978632 0 7.2411666079451794e-06 0.018261893471619255 0 0.00030919212373812599 0.018658612875381255 0 0.0007182620299521574 0.018947106947108949 0 0.00030919212373812599 0.018658612875381255 0 0.00079349243894705993 0.01833281678617028 0 0.0007182620299521574 0.018947106947108949 0 0.00030919212373812599 0.018658612875381255 0 0.00047137001714329577 0.019088385011382526 0 0.00053344371312064617 0.018537988226090193 0 0.00062985419690637456 0.01910408237187353 0 7.2411666079451794e-06 0.018261893471619255 0 0.00030919212373812599 0.018658612875381255 0 0.00065471212506854938 0.018065246024944345 0 0.00030919212373812599 0.018658612875381255 0 0.00065471212506854938 0.018065246024944345 0 0.00079393020102685584 0.018317693449346178 0 -0.00049954193167363521 0.017100476424534956 0 -5.1094851568951933e-05 0.016963517675042068 0 -0.00024206709742339449 0.016863131118131581 0 0.00015618231467627122 0.016728610968927238 0 0.00015986117520601888 0.017703826695196431 0 0.00015986117520601888 0.017703826695196431 0 0.00062985419690637456 0.01910408237187353 0 -5.1094851568951933e-05 0.016963517675042068 0 -0.00010325497798077613 0.016867176183795355 0 -0.00024206709742339449 0.016863131118131581 0 0.00015986117520601888 0.017703826695196431 0 -7.8271275204274567e-06 0.017344773728214361 0 -7.3015139204986803e-05 0.016766444626180776 0 -5.058942686261163e-05 0.016952352502016928 0 -0.00010325497798077613 0.016867176183795355 0 -0.00020926067241134545 0.016717954289057372 0 -0.00010325497798077613 0.016867176183795355 0 -0.00024206709742339449 0.016863131118131581 0 -0.00037865747368064697 0.016780373611465137 0 -0.00049954193167363521 0.017100476424534956 0 -0.00024206709742339449 0.016863131118131581 0 0.000714679971491704 0.018525497661345088 0 0.00055535508610682056 0.01856709856227403 0 0.00058035315896835945 0.018612699226061836 0 0.00089292368313545261 0.018878567491423151 0 0.00062985419690637456 0.01910408237187353 0 0.00089292368313545261 0.018878567491423151 0 0.00015986117520601888 0.017703826695196431 0 0.00091455064524035949 0.020517516755633718 0 0.00099788510260568394 0.020674233732930002 0 0.0010485133738429185 0.020551378807869135 0 0.0007182620299521574 0.018947106947108949 0 0.00079349243894705993 0.01833281678617028 0 0.0013299283870285487 0.019303608296474564 0 0.00062985419690637456 0.01910408237187353 0 0.0011772859999150279 0.020754292907179048 0 0.0011865661407759851 0.020380819269146245 0 0.00054353625821113006 0.019332013402932224 0 0.0007182620299521574 0.018947106947108949 0 0.00071645106674603719 0.019378268266310526 0 0.0013299283870285487 0.019303608296474564 0 0.0012926574219872869 0.019391956505967214 0 0.00071645106674603719 0.019378268266310526 0 0.0013299283870285487 0.019303608296474564 0 0.00070073959891610923 0.019264510031321409 0 0.00051317971468892935 0.019255787055098054 0 0.00057715589820733586 0.019345013429705439 0 0.0011865661407759851 0.020380819269146245 0 0.0011772859999150279 0.020754292907179048 0 0.00032753960475139768 0.019249664032243482 0 0.00051317971468892935 0.019255787055098054 0 0.00048334255224847551 0.019393125238448015 0 0.00014016455207297568 0.019368024616978632 0 0.00047137001714329577 0.019088385011382526 0 0.00071645106674603719 0.019378268266310526 0 0.0007182620299521574 0.018947106947108949 0 0.00047137001714329577 0.019088385011382526 0 0.00071645106674603719 0.019378268266310526 0 0.00014016455207297568 0.019368024616978632 0 0.00030919212373812599 0.018658612875381255 0 0.00047137001714329577 0.019088385011382526 0 0.00051268488015980161 0.018703558775156663 0 0.00054353625821113006 0.019332013402932224 0 0.00032753960475139768 0.019249664032243482 0 0.00048334255224847551 0.019393125238448015 0 0.00034635584443123865 0.019440973148960494 0 0.00051268488015980161 0.018703558775156663 0 0.00037334876522708408 0.019588349318047024 0 0.00048334255224847551 0.019393125238448015 0 0.00034635584443123865 0.019440973148960494 0 0.00049005864852154346 0.01953830062201807 0 0.00048334255224847551 0.019393125238448015 0 0.0006142943811219525 0.019472746632517426 0 0.00049005864852154346 0.01953830062201807 0 0.00070073959891610923 0.019264510031321409 0 0.0006142943811219525 0.019472746632517426 0 0.00057715589820733586 0.019345013429705439 0 0.00068856945550416074 0.019391796671031837 0 0.0010112976472203255 0.01919403985580392 0 0.00083230264720461221 0.019563383340630552 0 0.0011865661407759851 0.020380819269146245 0 0.0010053367165068488 0.01978492731873065 0 0.0013416183461692872 0.020692606561369099 0 0.0014509695620608936 0.020403567605084855 0 0.0012203819033222043 0.020540479355160114 0 0.0010053367165068488 0.01978492731873065 0 0.0017564997563325809 0.021312692006147653 0 0.00048334255224847551 0.019393125238448015 0 0.0006142943811219525 0.019472746632517426 0 0.00057715589820733586 0.019345013429705439 0 0.00051317971468892935 0.019255787055098054 0 0.00048334255224847551 0.019393125238448015 0 0.00057715589820733586 0.019345013429705439 0 0.0017564997563325809 0.021312692006147653 0 0.002133433473782221 0.02294331237739853 0 0.0034623370904450518 0.023264574720403594 0 0.0029500952488041893 0.023068327828948725 0 0.003019639830612431 0.022337869965832143 0 0.0034623370904450518 0.023264574720403594 0 0.0029500952488041893 0.023068327828948725 0 0.0028303650837149122 0.023630283386519353 0 0.0029500952488041893 0.023068327828948725 0 0.0028303650837149122 0.023630283386519353 0 0.0024865523362008822 0.023021728422571615 0 0.0013628667665456799 0.022581647453212277 0 0.0016077464403051289 0.022745103328351061 0 0.0014369335994206254 0.022891838088902151 0 0.0013628667665456799 0.022581647453212277 0 0.0016077464403051289 0.022745103328351061 0 0.0018096947205477288 0.022565622960882274 0 0.0017189515962388198 0.021894448887403457 0 0.0019135542311298779 0.021795835736342289 0 0.0016563329114705294 0.02178151194786581 0 0.002133433473782221 0.02294331237739853 0 0.0014132278780180864 0.020973558044679003 0 0.0013416183461692872 0.020692606561369099 0 0.0012203819033222043 0.020540479355160114 0 0.0013048639140678909 0.020692737266935421 0 0.0017564997563325809 0.021312692006147653 0 0.0014132278780180864 0.020973558044679003 0 0.0011865661407759851 0.020380819269146245 0 0.0014132278780180864 0.020973558044679003 0 0.0010679410577675887 0.020608027995379335 0 0.00099880498418837712 0.020607806512353954 0 0.0010380066102724328 0.020679057982195711 0 0.0014132278780180864 0.020973558044679003 0 0.0011772859999150279 0.020754292907179048 0 0.0016077464403051289 0.022745103328351061 0 0.0018096947205477288 0.022565622960882274 0 0.0018375960511643437 0.022614597885174632 0 0.0016077464403051289 0.022745103328351061 0 0.0018375960511643437 0.022614597885174632 0 0.0016484171871619577 0.023076369478234857 0 0.0016077464403051289 0.022745103328351061 0 0.0016484171871619577 0.023076369478234857 0 0.0014369335994206254 0.022891838088902151 0 0.0011772859999150279 0.020754292907179048 0 0.001348617449033032 0.022043499569137075 0 0.0010282517775028976 0.020449641925997974 0 0.00091455064524035949 0.020517516755633718 0 0.0010485133738429185 0.020551378807869135 0 0.0010947867046901664 0.020436003994849468 0 0.0010282517775028976 0.020449641925997974 0 0.0010485133738429185 0.020551378807869135 0 0.0010473530669942617 0.021550398452302652 0 0.001348617449033032 0.022043499569137075 0 0.0014479965005473195 0.023522741626337804 0 0.0016484171871619577 0.023076369478234857 0 0.0013634901815844404 0.023356718004830083 0 0.00119802794482734 0.023515952081258836 0 0.0013634901815844404 0.023356718004830083 0 0.0011684096314570958 0.023343143110790082 0 0.0016484171871619577 0.023076369478234857 0 0.0013634901815844404 0.023356718004830083 0 0.001395795374559969 0.023113713137218807 0 0.0013634901815844404 0.023356718004830083 0 0.001395795374559969 0.023113713137218807 0 0.0011684096314570958 0.023343143110790082 0 0.001395795374559969 0.023113713137218807 0 0.0014369335994206254 0.022891838088902151 0 0.0011782068260960056 0.022949197656784451 0 0.0013628667665456799 0.022581647453212277 0 0.0014369335994206254 0.022891838088902151 0 0.0011782068260960056 0.022949197656784451 0 0.0016484171871619577 0.023076369478234857 0 0.001395795374559969 0.023113713137218807 0 0.0014369335994206254 0.022891838088902151 0 0.0014031194145928193 0.0231276655506607 0 0.00086305706754521711 0.023066048714594424 0 0.001395795374559969 0.023113713137218807 0 0.0011782068260960056 0.022949197656784451 0 0.00095347001513435893 0.023092304182185643 0 0.0011782068260960056 0.022949197656784451 0 0.0009343543383675243 0.022846538305989796 0 0.00095347001513435893 0.023092304182185643 0 0.00099097117588649113 0.023531848092694766 0 0.00093118015048399732 0.023151122814305054 0 0.0011684096314570958 0.023343143110790082 0 0.001395795374559969 0.023113713137218807 0 0.00093118015048399732 0.023151122814305054 0 0.0011684096314570958 0.023343143110790082 0 0.00093118015048399732 0.023151122814305054 0 0.00070708177900989774 0.023316054485839191 0 0.00034925577057547515 0.023160262831681606 0 0.00099097117588649113 0.023531848092694766 0 0.00093118015048399732 0.023151122814305054 0 0.00070708177900989774 0.023316054485839191 0 0.00062615082811355593 0.023643773189553022 0 0.00070708177900989774 0.023316054485839191 0 0.00042444470100181449 0.023481952267831674 0 0.00062615082811355593 0.023643773189553022 0 0.0010128200501969729 0.02372210433024784 0 0.00070708177900989774 0.023316054485839191 0 0.0011684904553473951 0.023854520348567512 0 0.00066890938635000329 0.023260986890428124 0 0.0009343543383675243 0.022846538305989796 0 0.00095347001513435893 0.023092304182185643 0 0.00053167059520741313 0.023090065648723845 0 0.00086305706754521711 0.023066048714594424 0 0.00082356636937766503 0.023729670326181666 0 0.0013945415067607827 0.023420638958563347 0 0.00082356636937766503 0.023729670326181666 0 0.0019066169847014819 0.023954658878674765 0 0.0013697959965625981 0.023946682588092561 0 0.0013176084518721897 0.024297868337725514 0 0.0015621554720751897 0.02361339500144766 0 0.0021690911637608371 0.02363202878689356 0 0.001538131003403683 0.023612159035853657 0 0.0021493073213150081 0.023622418890326305 0 0.0018378543676398622 0.023167101636799577 0 0.0019066169847014819 0.023954658878674765 0 0.001538131003403683 0.023612159035853657 0 0.0013697959965625981 0.023946682588092561 0 0.0019066169847014819 0.023954658878674765 0 0.001538131003403683 0.023612159035853657 0 0.0020104248728255504 0.02362034769735424 0 0.002133433473782221 0.02294331237739853 0 0.0013945415067607827 0.023420638958563347 0 0.0013628667665456799 0.022581647453212277 0 0.0011782068260960056 0.022949197656784451 0 0.0009343543383675243 0.022846538305989796 0 0.0024752678830242151 0.023615030373915959 0 0.0019066169847014819 0.023954658878674765 0 0.0020104248728255504 0.02362034769735424 0 0.002133433473782221 0.02294331237739853 0 0.0021690911637608371 0.02363202878689356 0 0.0028303650837149122 0.023630283386519353 0 0.0021493073213150081 0.023622418890326305 0 0.0024865523362008822 0.023021728422571615 0 0.0021493073213150081 0.023622418890326305 0 0.0024865523362008822 0.023021728422571615 0 0.0018378543676398622 0.023167101636799577 0 0.0024865523362008822 0.023021728422571615 0 0.0018378543676398622 0.023167101636799577 0 0.0018924707352677055 0.022636526035783269 0 0.0018378543676398622 0.023167101636799577 0 0.0016087326242359605 0.022860149554457698 0 0.0014683287615097843 0.023183717118286096 0 0.001538131003403683 0.023612159035853657 0 0.0018378543676398622 0.023167101636799577 0 0.0014683287615097843 0.023183717118286096 0 0.0018924707352677055 0.022636526035783269 0 0.0020323069110077092 0.022202980955500901 0 0.0017106818539024701 0.022066762518137495 0 0.0014700675772079024 0.022512298632047321 0 0.0018924707352677055 0.022636526035783269 0 0.0017106818539024701 0.022066762518137495 0 0.0014700675772079024 0.022512298632047321 0 0.0016087326242359605 0.022860149554457698 0 0.0018924707352677055 0.022636526035783269 0 0.0018378543676398622 0.023167101636799577 0 0.0016087326242359605 0.022860149554457698 0 0.0018924707352677055 0.022636526035783269 0 0.0024865523362008822 0.023021728422571615 0 0.0018924707352677055 0.022636526035783269 0 0.0023400395495842287 0.02246440880634501 0 0.0018924707352677055 0.022636526035783269 0 0.0023400395495842287 0.02246440880634501 0 0.0020323069110077092 0.022202980955500901 0 0.0023667085091332771 0.021906538415986127 0 0.0021281623459203937 0.021524418951980567 0 0.0022519042036767386 0.021007871600213401 0 0.0020323069110077092 0.022202980955500901 0 0.0020199316740452515 0.021824171121025072 0 0.0017106818539024701 0.022066762518137495 0 0.0020323069110077092 0.022202980955500901 0 0.0023667085091332771 0.021906538415986127 0 0.0020199316740452515 0.021824171121025072 0 0.0023400395495842287 0.02246440880634501 0 0.0020323069110077092 0.022202980955500901 0 0.0023667085091332771 0.021906538415986127 0 0.0023667085091332771 0.021906538415986127 0 0.0021281623459203937 0.021524418951980567 0 0.0020199316740452515 0.021824171121025072 0 0.0021281623459203937 0.021524418951980567 0 0.0020199316740452515 0.021824171121025072 0 0.0019618592698393282 0.021383692251531958 0 0.0017106818539024701 0.022066762518137495 0 0.0019618592698393282 0.021383692251531958 0 0.0012771496916807431 0.022001410852399109 0 0.0019374034287527357 0.021440583966817927 0 0.0012464521587138276 0.021812282851833849 0 0.0014700675772079024 0.022512298632047321 0 0.0017106818539024701 0.022066762518137495 0 0.0012771496916807431 0.022001410852399109 0 0.0020199316740452515 0.021824171121025072 0 0.0017106818539024701 0.022066762518137495 0 0.0019618592698393282 0.021383692251531958 0 0.00068766603953779998 0.020736974533807472 0 0.00069557226163340937 0.02073852680331012 0 0.00071386281590317608 0.020710455529608995 0 0.001420000769635537 0.021232104040996576 0 0.0019618592698393282 0.021383692251531958 0 0.0011575246540897724 0.021659263151598985 0 0.0010631818906357154 0.020954650128401951 0 0.0014735311564133585 0.020870765662768007 0 0.00071663320315093449 0.020828430865709319 0 0.00070390736389186904 0.020762402201003678 0 0.00071435408441781762 0.020917871578066242 0 0.00068766603953779998 0.020736974533807472 0 0.00071663320315093449 0.020828430865709319 0 0.00069557226163340937 0.02073852680331012 0 0.00071663320315093449 0.020828430865709319 0 0.00069557226163340937 0.02073852680331012 0 0.00070390736389186904 0.020762402201003678 0 0.00069557226163340937 0.02073852680331012 0 0.00070390736389186904 0.020762402201003678 0 0.00072618045253168638 0.02066542304729355 0 0.00069557226163340937 0.02073852680331012 0 0.00072618045253168638 0.02066542304729355 0 0.00071386281590317608 0.020710455529608995 0 0.001420000769635537 0.021232104040996576 0 0.002295462526209519 0.021092390303289143 0 0.0019618592698393282 0.021383692251531958 0 0.0021281623459203937 0.021524418951980567 0 0.0019618592698393282 0.021383692251531958 0 0.0022519042036767386 0.021007871600213401 0 0.002295462526209519 0.021092390303289143 0 0.0019618592698393282 0.021383692251531958 0 0.0022519042036767386 0.021007871600213401 0 0.0022519042036767386 0.021007871600213401 0 0.00092727286186802056 0.020579789256985673 0 0.0012111560219360325 0.020274192176198233 0 0.002295462526209519 0.021092390303289143 0 0.0022519042036767386 0.021007871600213401 0 0.00092727286186802056 0.020579789256985673 0 0.00071386281590317608 0.020710455529608995 0 0.00078421491006700297 0.020589421177523083 0 0.00092727286186802056 0.020579789256985673 0 0.0014735311564133585 0.020870765662768007 0 0.0010068436138946104 0.020653087133030223 0 0.00072618045253168638 0.02066542304729355 0 0.00071386281590317608 0.020710455529608995 0 0.00078421491006700297 0.020589421177523083 0 0.00078421491006700297 0.020589421177523083 0 0.00074793553187207495 0.020507088204637244 0 0.00073709502079651631 0.020575491787652701 0 0.00072618045253168638 0.02066542304729355 0 0.00078421491006700297 0.020589421177523083 0 0.00073709502079651631 0.020575491787652701 0 0.00078421491006700297 0.020589421177523083 0 0.00074793553187207495 0.020507088204637244 0 0.00092727286186802056 0.020579789256985673 0 0.00074793553187207495 0.020507088204637244 0 0.00092727286186802056 0.020579789256985673 0 0.00064743034586275516 0.020341548163592536 0 0.00092727286186802056 0.020579789256985673 0 0.00073954462961859171 0.019999533559050309 0 0.00064743034586275516 0.020341548163592536 0 0.0012111560219360325 0.020274192176198233 0 0.0013771785961701798 0.019667766308764625 0 0.00073954462961859171 0.019999533559050309 0 0.00092727286186802056 0.020579789256985673 0 0.0012111560219360325 0.020274192176198233 0 0.00073954462961859171 0.019999533559050309 0 0.0022257240226782452 0.021007105502749288 0 0.0022740289283980182 0.021016204038367084 0 0.0022519042036767386 0.021007871600213401 0 0.0012111560219360325 0.020274192176198233 0 0.0013771785961701798 0.019667766308764625 0 0.0023667085091332771 0.021906538415986127 0 0.0022519042036767386 0.021007871600213401 0 0.003019639830612431 0.022337869965832143 0 0.0029500952488041893 0.023068327828948725 0 0.0024865523362008822 0.023021728422571615 0 0.003019639830612431 0.022337869965832143 0 0.0024865523362008822 0.023021728422571615 0 0.0023400395495842287 0.02246440880634501 0 0.003019639830612431 0.022337869965832143 0 0.0023400395495842287 0.02246440880634501 0 0.0023667085091332771 0.021906538415986127 0 0.003019639830612431 0.022337869965832143 0 0.0013771785961701798 0.019667766308764625 0 0.00083230264720461221 0.019563383340630552 0 0.00073954462961859171 0.019999533559050309 0 0.0010112976472203255 0.01919403985580392 0 0.0013771785961701798 0.019667766308764625 0 0.00083230264720461221 0.019563383340630552 0 0.0017564997563325809 0.021312692006147653 0 0.0022740289283980182 0.021016204038367084 0 0.00068856945550416074 0.019391796671031837 0 0.00083230264720461221 0.019563383340630552 0 0.00049005864852154346 0.01953830062201807 0 0.00083230264720461221 0.019563383340630552 0 0.00062175630138108112 0.019724920455500672 0 0.00073954462961859171 0.019999533559050309 0 0.00083230264720461221 0.019563383340630552 0 0.00062175630138108112 0.019724920455500672 0 0.00049005864852154346 0.01953830062201807 0 0.0010053367165068488 0.01978492731873065 0 0.00056966426914656734 0.019638143283467011 0 0.00062175630138108112 0.019724920455500672 0 0.00049005864852154346 0.01953830062201807 0 0.00046716963550048917 0.019817447751710883 0 0.00034512688644866563 0.019595229650672872 0 0.00046716963550048917 0.019817447751710883 0 0.00027603929091247743 0.019708907534576922 0 0.00049005864852154346 0.01953830062201807 0 0.00034512688644866563 0.019595229650672872 0 0.00046716963550048917 0.019817447751710883 0 0.00034635584443123865 0.019440973148960494 0 0.00049005864852154346 0.01953830062201807 0 0.00034512688644866563 0.019595229650672872 0 0.00046716963550048917 0.019817447751710883 0 0.0004492791112606285 0.020109086484909857 0 0.00034244378786164067 0.019925201493003131 0 0.00046716963550048917 0.019817447751710883 0 0.00027603929091247743 0.019708907534576922 0 0.00034244378786164067 0.019925201493003131 0 0.00046716963550048917 0.019817447751710883 0 0.00057226336516417054 0.020068260714613186 0 0.0004492791112606285 0.020109086484909857 0 0.00046716963550048917 0.019817447751710883 0 0.00073954462961859171 0.019999533559050309 0 0.00057226336516417054 0.020068260714613186 0 0.00062175630138108112 0.019724920455500672 0 0.00046716963550048917 0.019817447751710883 0 0.00073954462961859171 0.019999533559050309 0 0.00073954462961859171 0.019999533559050309 0 0.00057226336516417054 0.020068260714613186 0 0.00064743034586275516 0.020341548163592536 0 0.00057226336516417054 0.020068260714613186 0 0.00064743034586275516 0.020341548163592536 0 0.0004492791112606285 0.020109086484909857 0 0.00064743034586275516 0.020341548163592536 0 0.00057159648241085904 0.02042263431121414 0 0.00046159044612378874 0.02029138089237028 0 0.00074793553187207495 0.020507088204637244 0 0.00064743034586275516 0.020341548163592536 0 0.00057159648241085904 0.02042263431121414 0 0.00057159648241085904 0.02042263431121414 0 0.00046159044612378874 0.02029138089237028 0 0.00039865045696528344 0.020378823831955727 0 0.00046159044612378874 0.02029138089237028 0 0.00032741483637915327 0.020287905936143467 0 0.00039865045696528344 0.020378823831955727 0 0.00046159044612378874 0.02029138089237028 0 0.00035101543740478501 0.020129912673907614 0 0.00032741483637915327 0.020287905936143467 0 0.00064743034586275516 0.020341548163592536 0 0.00046159044612378874 0.02029138089237028 0 0.0004492791112606285 0.020109086484909857 0 0.00046159044612378874 0.02029138089237028 0 0.0004492791112606285 0.020109086484909857 0 0.00035101543740478501 0.020129912673907614 0 0.0004492791112606285 0.020109086484909857 0 0.00035101543740478501 0.020129912673907614 0 0.00034244378786164067 0.019925201493003131 0 0.00024255628456420702 0.019954133326343812 0 0.0002457593094142038 0.020164406183279502 0 0.00010972978850141762 0.020222881563943581 0 0.00024255628456420702 0.019954133326343812 0 0.00035101543740478501 0.020129912673907614 0 0.00034244378786164067 0.019925201493003131 0 0.00024255628456420702 0.019954133326343812 0 0.00035101543740478501 0.020129912673907614 0 0.0002457593094142038 0.020164406183279502 0 0.0002457593094142038 0.020164406183279502 0 0.00032741483637915327 0.020287905936143467 0 0.00010972978850141762 0.020222881563943581 0 0.00035101543740478501 0.020129912673907614 0 0.0002457593094142038 0.020164406183279502 0 0.00032741483637915327 0.020287905936143467 0 0.00032741483637915327 0.020287905936143467 0 0.00010972978850141762 0.020222881563943581 0 0.00031959305628799669 0.020387873761305877 0 -0.00010908373109044194 0.019092823739441555 0 -3.1205858632532835e-05 0.019185391237321416 0 -4.6010345576321555e-05 0.019048263055028755 0 -0.00010908373109044194 0.019092823739441555 0 1.1348195940594589e-05 0.019357224475326482 0 -4.6010345576321555e-05 0.019048263055028755 0 -0.00010908373109044194 0.019092823739441555 0 -2.6788010798191451e-05 0.019635771682338501 0 1.1348195940594589e-05 0.019357224475326482 0 2.0141081563814861e-05 0.019664299696217628 0 -2.416505709133625e-05 0.019643609704882707 0 0.00024255628456420702 0.019954133326343812 0 0.00010972978850141762 0.020222881563943581 0 -2.6788010798191451e-05 0.019635771682338501 0 0.00013094048121262898 0.019648192188700217 0 -2.6788010798191451e-05 0.019635771682338501 0 5.8408387922596112e-05 0.019534147971696236 0 0.00024255628456420702 0.019954133326343812 0 0.00013094048121262898 0.019648192188700217 0 -2.6788010798191451e-05 0.019635771682338501 0 0.00024255628456420702 0.019954133326343812 0 0.00013094048121262898 0.019648192188700217 0 0.00027603929091247743 0.019708907534576922 0 0.00024255628456420702 0.019954133326343812 0 0.00027603929091247743 0.019708907534576922 0 0.00034244378786164067 0.019925201493003131 0 0.00034635584443123865 0.019440973148960494 0 0.00034512688644866563 0.019595229650672872 0 0.00018648565978594521 0.019511437763239204 0 0.00013094048121262898 0.019648192188700217 0 0.00027603929091247743 0.019708907534576922 0 0.00018648565978594521 0.019511437763239204 0 0.00034512688644866563 0.019595229650672872 0 0.00027603929091247743 0.019708907534576922 0 0.00018648565978594521 0.019511437763239204 0 0.00018648565978594521 0.019511437763239204 0 5.8408387922596112e-05 0.019534147971696236 0 8.2430793111223447e-05 0.019407619674315996 0 0.00013094048121262898 0.019648192188700217 0 0.00018648565978594521 0.019511437763239204 0 5.8408387922596112e-05 0.019534147971696236 0 -0.00018864912688088621 0.023823772424332073 0 -0.00053732994752995371 0.024034168368715896 0 -0.00020097760757381035 0.024311474448299293 0 -0.00018864912688088621 0.023823772424332073 0 3.9921356218693648e-05 0.024062180120101247 0 7.9887753407502607e-05 0.023562097999139237 0 -0.00018864912688088621 0.023823772424332073 0 3.9921356218693648e-05 0.024062180120101247 0 -0.00020097760757381035 0.024311474448299293 0 -0.00014592943584259652 0.02353432841422802 0 7.9887753407502607e-05 0.023562097999139237 0 -2.9951150659410306e-05 0.023387964348248049 0 -0.00018864912688088621 0.023823772424332073 0 -0.00014592943584259652 0.02353432841422802 0 7.9887753407502607e-05 0.023562097999139237 0 -0.00018864912688088621 0.023823772424332073 0 -0.00014592943584259652 0.02353432841422802 0 -0.00048017267389455578 0.023521375851228443 0 -0.00018864912688088621 0.023823772424332073 0 -0.00053732994752995371 0.024034168368715896 0 -0.00048017267389455578 0.023521375851228443 0 -0.00031708829355820458 0.024527021834123211 0 -0.00027576840347540529 0.024202995202956139 0 -4.0577577733840621e-05 0.025014256363366634 0 -0.00012052806892671349 0.025017981836751087 0 -3.2056101143608902e-05 0.02500568293383305 0 -4.0577577733840621e-05 0.025014256363366634 0 -3.8876806193957352e-08 0.025000006591199775 0 -3.2056101143608902e-05 0.02500568293383305 0 -4.0577577733840621e-05 0.025014256363366634 0 -6.1889239651007195e-08 0.025000103158473952 0 -3.8876806193957352e-08 0.025000006591199775 0 -6.1889239651007195e-08 0.025000103158473952 0 -0.00012052806892671349 0.025017981836751087 0 -8.7560059132339618e-05 0.024941391751579757 0 -4.0577577733840621e-05 0.025014256363366634 0 -6.1889239651007195e-08 0.025000103158473952 0 -0.00012052806892671349 0.025017981836751087 0 -0.00053732994752995371 0.024034168368715896 0 -0.00033651918768448896 0.024450701498263946 0 -0.00030959467582650365 0.024728177791849135 0 -0.00012052806892671349 0.025017981836751087 0 -8.7560059132339618e-05 0.024941391751579757 0 -0.00030959467582650365 0.024728177791849135 0 -0.00031708829355820458 0.024527021834123211 0 -0.00031509684643095571 0.024681788771055719 0 -6.1889239651007195e-08 0.025000103158473952 0 -8.7560059132339618e-05 0.024941391751579757 0 -5.4714225207985888e-08 0.024999433464768468 0 -8.7560059132339618e-05 0.024941391751579757 0 -5.4714225207985888e-08 0.024999433464768468 0 -0.00030959467582650365 0.024728177791849135 0 -1.1465688077086958e-07 0.024999912923579389 0 -0.0002062768334733875 0.024755255050426153 0 -3.1514397320586442e-05 0.024955119737092406 0 -3.1075070162891074e-08 0.024999833161113198 0 -7.1848999625272905e-05 0.024852183991698026 0 -3.1514397320586442e-05 0.024955119737092406 0 -7.1848999625272905e-05 0.024852183991698026 0 -5.5307524630240432e-05 0.024895776264251615 0 -5.4714225207985888e-08 0.024999433464768468 0 -0.00036385163402805206 0.024654374122117611 0 -0.00030959467582650365 0.024728177791849135 0 -0.00033651918768448896 0.024450701498263946 0 -0.00036385163402805206 0.024654374122117611 0 -0.00030959467582650365 0.024728177791849135 0 -5.4628646241684256e-05 0.02486869816593424 0 -7.1848999625272905e-05 0.024852183991698026 0 -5.5307524630240432e-05 0.024895776264251615 0 -2.5043569225095171e-05 0.024812563920600713 0 -5.4628646241684256e-05 0.02486869816593424 0 -7.1848999625272905e-05 0.024852183991698026 0 -0.0002062768334733875 0.024755255050426153 0 4.0605050355859803e-05 0.024585125037054061 0 -2.5043569225095171e-05 0.024812563920600713 0 -7.1848999625272905e-05 0.024852183991698026 0 4.2325744873364499e-05 0.024557301794613282 0 -0.00033651918768448896 0.024450701498263946 0 -0.00036385163402805206 0.024654374122117611 0 -0.00020097760757381035 0.024311474448299293 0 -0.00036385163402805206 0.024654374122117611 0 -0.00020097760757381035 0.024311474448299293 0 4.2325744873364499e-05 0.024557301794613282 0 -0.00053732994752995371 0.024034168368715896 0 -0.00033651918768448896 0.024450701498263946 0 -0.00020097760757381035 0.024311474448299293 0 3.9921356218693648e-05 0.024062180120101247 0 -0.00020097760757381035 0.024311474448299293 0 4.2325744873364499e-05 0.024557301794613282 0 0.00010727529395522901 0.024806525568828851 0 4.2325744873364499e-05 0.024557301794613282 0 0.00022625694005860009 0.024641981431171325 0 0.00010727529395522901 0.024806525568828851 0 -2.5043569225095171e-05 0.024812563920600713 0 4.2325744873364499e-05 0.024557301794613282 0 4.2325744873364499e-05 0.024557301794613282 0 0.00022625694005860009 0.024641981431171325 0 0.00029100360108052186 0.02436411764793215 0 0.00022625694005860009 0.024641981431171325 0 0.00044069380727725777 0.024573159676138163 0 0.00029100360108052186 0.02436411764793215 0 0.00030924434331492566 0.02483118032624668 0 0.00022625694005860009 0.024641981431171325 0 0.00044069380727725777 0.024573159676138163 0 0.00044069380727725777 0.024573159676138163 0 0.00029100360108052186 0.02436411764793215 0 0.00068502248314247273 0.024390126846374295 0 0.00030924434331492566 0.02483118032624668 0 0.00044069380727725777 0.024573159676138163 0 0.00069756491771451833 0.024613272061518043 0 0.00044069380727725777 0.024573159676138163 0 0.00069756491771451833 0.024613272061518043 0 0.00068502248314247273 0.024390126846374295 0 0.00028119619793810985 0.0243470419947629 0 0.00079392342580611658 0.024399907034210695 0 0.00029100360108052186 0.02436411764793215 0 0.00075192027787788476 0.024294500159896457 0 0.00053711896676129662 0.023960544574587753 0 0.00075192027787788476 0.024294500159896457 0 0.00080351214968630788 0.023979326610398716 0 0.00053711896676129662 0.023960544574587753 0 3.9921356218693648e-05 0.024062180120101247 0 0.00029100360108052186 0.02436411764793215 0 0.00025460611156946894 0.023876251240105919 0 0.00029100360108052186 0.02436411764793215 0 0.00025460611156946894 0.023876251240105919 0 0.00053711896676129662 0.023960544574587753 0 3.9921356218693648e-05 0.024062180120101247 0 4.2325744873364499e-05 0.024557301794613282 0 0.00029100360108052186 0.02436411764793215 0 0.00070708177900989774 0.023316054485839191 0 0.00042444470100181449 0.023481952267831674 0 0.00034925577057547515 0.023160262831681606 0 0.00042444470100181449 0.023481952267831674 0 0.00015334567597492734 0.023561428431305313 0 0.00034925577057547515 0.023160262831681606 0 0.00032186867362803552 0.023781402882738188 0 0.00042444470100181449 0.023481952267831674 0 0.00015334567597492734 0.023561428431305313 0 0.00020447810105917035 0.024084190710650374 0 0.00082356636937766503 0.023729670326181666 0 0.00069756491771451833 0.024613272061518043 0 0.00068502248314247273 0.024390126846374295 0 0.001065563049335187 0.024390842383675584 0 0.00015334567597492734 0.023561428431305313 0 -0.00024839046409542845 0.023533305384158279 0 0.00034925577057547515 0.023160262831681606 0 0.00079392342580611658 0.024399907034210695 0 0.00082356636937766503 0.023729670326181666 0 0.00075192027787788476 0.024294500159896457 0 0.0010610943182825707 0.024064566546603456 0 0.0013176084518721897 0.024297868337725514 0 0.00075192027787788476 0.024294500159896457 0 0.00080351214968630788 0.023979326610398716 0 0.0010610943182825707 0.024064566546603456 0 0.0010610943182825707 0.024064566546603456 0 0.0013697959965625981 0.023946682588092561 0 0.0013176084518721897 0.024297868337725514 0 0.0010610943182825707 0.024064566546603456 0 0.0013697959965625981 0.023946682588092561 0 0.0010849539495793729 0.023791754425254226 0 0.001538131003403683 0.023612159035853657 0 0.0010849539495793729 0.023791754425254226 0 0.0011650920520372191 0.023376241007397821 0 0.001538131003403683 0.023612159035853657 0 0.0013697959965625981 0.023946682588092561 0 0.0010849539495793729 0.023791754425254226 0 0.0010849539495793729 0.023791754425254226 0 0.0007945537389282423 0.023578786892967871 0 0.0011650920520372191 0.023376241007397821 0 0.00080351214968630788 0.023979326610398716 0 0.0010610943182825707 0.024064566546603456 0 0.0010849539495793729 0.023791754425254226 0 0.00080351214968630788 0.023979326610398716 0 0.0010849539495793729 0.023791754425254226 0 0.0007945537389282423 0.023578786892967871 0 0.00080351214968630788 0.023979326610398716 0 0.0007945537389282423 0.023578786892967871 0 0.00053711896676129662 0.023960544574587753 0 0.0007945537389282423 0.023578786892967871 0 0.00093162377771968598 0.023176921210251101 0 0.00064466712855656592 0.023206589561713876 0 0.00093162377771968598 0.023176921210251101 0 0.00064466712855656592 0.023206589561713876 0 0.00086273184719742109 0.022807312816142549 0 0.0007945537389282423 0.023578786892967871 0 0.00093162377771968598 0.023176921210251101 0 0.0011650920520372191 0.023376241007397821 0 0.00093162377771968598 0.023176921210251101 0 0.0011650920520372191 0.023376241007397821 0 0.0012139438681898799 0.022897280585889666 0 0.0011650920520372191 0.023376241007397821 0 0.0014683287615097843 0.023183717118286096 0 0.0012139438681898799 0.022897280585889666 0 0.0016087326242359605 0.022860149554457698 0 0.0014683287615097843 0.023183717118286096 0 0.0012139438681898799 0.022897280585889666 0 0.001538131003403683 0.023612159035853657 0 0.0011650920520372191 0.023376241007397821 0 0.0014683287615097843 0.023183717118286096 0 3.9921356218693648e-05 0.024062180120101247 0 0.00025460611156946894 0.023876251240105919 0 7.9887753407502607e-05 0.023562097999139237 0 0.0007945537389282423 0.023578786892967871 0 0.00053711896676129662 0.023960544574587753 0 0.00043662236923066076 0.023563817426834086 0 0.00025460611156946894 0.023876251240105919 0 0.00053711896676129662 0.023960544574587753 0 0.00043662236923066076 0.023563817426834086 0 0.0007945537389282423 0.023578786892967871 0 0.00043662236923066076 0.023563817426834086 0 0.00064466712855656592 0.023206589561713876 0 0.00043662236923066076 0.023563817426834086 0 0.00064466712855656592 0.023206589561713876 0 0.00037464330329748752 0.023195766546949329 0 0.00043662236923066076 0.023563817426834086 0 0.00037464330329748752 0.023195766546949329 0 7.9887753407502607e-05 0.023562097999139237 0 0.00025460611156946894 0.023876251240105919 0 0.00043662236923066076 0.023563817426834086 0 7.9887753407502607e-05 0.023562097999139237 0 0.00037464330329748752 0.023195766546949329 0 7.9887753407502607e-05 0.023562097999139237 0 0.00017954500334737492 0.022739159196576084 0 7.9887753407502607e-05 0.023562097999139237 0 0.0001037792376169779 0.023349223272868744 0 0.00016656931699872066 0.023328848910886931 0 8.7489081856933465e-05 0.023615927275278645 0 3.6222215313191403e-05 0.022739306083207324 0 7.9887753407502607e-05 0.023562097999139237 0 0.0001037792376169779 0.023349223272868744 0 -2.9951150659410306e-05 0.023387964348248049 0 0.0001037792376169779 0.023349223272868744 0 2.2318263232746776e-05 0.023236813515093841 0 -2.9951150659410306e-05 0.023387964348248049 0 0.0001037792376169779 0.023349223272868744 0 0.00018806839264907856 0.023322676830281091 0 0.00010277590197960577 0.023245278945923487 0 2.9975532540139983e-05 0.022955472842601854 0 3.6222215313191403e-05 0.022739306083207324 0 0.00037464330329748752 0.023195766546949329 0 0.00017954500334737492 0.022739159196576084 0 0.00055263903756507156 0.022871833164768082 0 0.00017954500334737492 0.022739159196576084 0 0.00055263903756507156 0.022871833164768082 0 0.00073874619190001766 0.022438698763267356 0 0.00064466712855656592 0.023206589561713876 0 0.00037464330329748752 0.023195766546949329 0 0.00055263903756507156 0.022871833164768082 0 3.6222215313191403e-05 0.022739306083207324 0 0.00057367082460899543 0.022131351453111337 0 -0.00028261180688839811 0.022115578314629798 0 -1.7633738040596162e-05 0.022002162195262288 0 0.00041155117951149087 0.021898378250228473 0 3.6222215313191403e-05 0.022739306083207324 0 0.00035803976397335262 0.022802389230087632 0 -1.7633738040596162e-05 0.022002162195262288 0 -1.1452831913361881e-05 0.021493143378475493 0 6.8282912636569582e-05 0.021480217124733431 0 7.4193161191892398e-06 0.021700915730860065 0 0.00036906280164910211 0.022188736671191041 0 -1.7633738040596162e-05 0.022002162195262288 0 0.00021699509695357152 0.02171943130203623 0 5.2263158077858181e-05 0.02140678494422877 0 -0.00028261180688839811 0.022115578314629798 0 -1.7633738040596162e-05 0.022002162195262288 0 -1.1452831913361881e-05 0.021493143378475493 0 -1.7633738040596162e-05 0.022002162195262288 0 0.00021699509695357152 0.02171943130203623 0 0.00041155117951149087 0.021898378250228473 0 0.00021699509695357152 0.02171943130203623 0 0.00042563402007688458 0.021566866769411469 0 5.2263158077858181e-05 0.02140678494422877 0 8.9284211032909471e-05 0.023157079055574414 0 0.00029878909164411264 0.023050583245203898 0 -4.4269019204408286e-05 0.023109154941347642 0 0.00015616618959302526 0.023177738118321776 0 8.9284211032909471e-05 0.023157079055574414 0 0.00029878909164411264 0.023050583245203898 0 0.00018806839264907856 0.023322676830281091 0 0.00015616618959302526 0.023177738118321776 0 0.00029878909164411264 0.023050583245203898 0 0.00015616618959302526 0.023177738118321776 0 8.9284211032909471e-05 0.023157079055574414 0 0.00010277590197960577 0.023245278945923487 0 0.0001037792376169779 0.023349223272868744 0 0.00010277590197960577 0.023245278945923487 0 2.2318263232746776e-05 0.023236813515093841 0 8.9284211032909471e-05 0.023157079055574414 0 0.00010277590197960577 0.023245278945923487 0 2.2318263232746776e-05 0.023236813515093841 0 0.00018806839264907856 0.023322676830281091 0 0.00015616618959302526 0.023177738118321776 0 0.00010277590197960577 0.023245278945923487 0 0.0014700675772079024 0.022512298632047321 0 0.0012139438681898799 0.022897280585889666 0 0.001103104153311915 0.022528993396995083 0 0.0014700675772079024 0.022512298632047321 0 0.0016087326242359605 0.022860149554457698 0 0.0012139438681898799 0.022897280585889666 0 0.0012139438681898799 0.022897280585889666 0 0.001103104153311915 0.022528993396995083 0 0.00086273184719742109 0.022807312816142549 0 0.001103104153311915 0.022528993396995083 0 0.00086273184719742109 0.022807312816142549 0 0.00073874619190001766 0.022438698763267356 0 0.00093162377771968598 0.023176921210251101 0 0.0012139438681898799 0.022897280585889666 0 0.00086273184719742109 0.022807312816142549 0 0.00064466712855656592 0.023206589561713876 0 0.00055263903756507156 0.022871833164768082 0 0.00086273184719742109 0.022807312816142549 0 0.00055263903756507156 0.022871833164768082 0 0.00086273184719742109 0.022807312816142549 0 0.00073874619190001766 0.022438698763267356 0 0.00057367082460899543 0.022131351453111337 0 0.0012464521587138276 0.021812282851833849 0 0.00041155117951149087 0.021898378250228473 0 0.00042563402007688458 0.021566866769411469 0 0.0011575246540897724 0.021659263151598985 0 0.00021699509695357152 0.02171943130203623 0 0.00041155117951149087 0.021898378250228473 0 0.00042563402007688458 0.021566866769411469 0 0.0014700675772079024 0.022512298632047321 0 0.001103104153311915 0.022528993396995083 0 0.0012771496916807431 0.022001410852399109 0 0.001103104153311915 0.022528993396995083 0 0.00073874619190001766 0.022438698763267356 0 0.0012771496916807431 0.022001410852399109 0 0.0010631818906357154 0.020954650128401951 0 0.00082008683520319408 0.021244962525079576 0 0.00068766603953779998 0.020736974533807472 0 0.00093245722537424664 0.020680371847886653 0 0.00080747866915053602 0.02092843009587679 0 0.001420000769635537 0.021232104040996576 0 0.0011575246540897724 0.021659263151598985 0 0.00061537542529661502 0.021291619141927069 0 0.00042563402007688458 0.021566866769411469 0 0.00061537542529661502 0.021291619141927069 0 5.2263158077858181e-05 0.02140678494422877 0 0.00082008683520319408 0.021244962525079576 0 0.00061419838227953294 0.022407542859912189 0 0.00082008683520319408 0.021244962525079576 0 0.00036906280164910211 0.022188736671191041 0 0.00093245722537424664 0.020680371847886653 0 0.0010338419311639753 0.020920325690047994 0 0.0013928194202990714 0.020741560288077571 0 0.00042563402007688458 0.021566866769411469 0 0.0011575246540897724 0.021659263151598985 0 0.00061537542529661502 0.021291619141927069 0 0.0010338419311639753 0.020920325690047994 0 0.0011036412155845108 0.02138863894338882 0 0.00080747866915053602 0.02092843009587679 0 0.0011036412155845108 0.02138863894338882 0 0.00080747866915053602 0.02092843009587679 0 0.00071435408441781762 0.020917871578066242 0 0.0010338419311639753 0.020920325690047994 0 0.0011036412155845108 0.02138863894338882 0 0.0013928194202990714 0.020741560288077571 0 0.00093245722537424664 0.020680371847886653 0 0.0010338419311639753 0.020920325690047994 0 0.00080747866915053602 0.02092843009587679 0 0.00071663320315093449 0.020828430865709319 0 0.00080747866915053602 0.02092843009587679 0 0.00071435408441781762 0.020917871578066242 0 0.00068766603953779998 0.020736974533807472 0 0.00071663320315093449 0.020828430865709319 0 0.00080747866915053602 0.02092843009587679 0 0.00047227723085776997 0.02494759031018742 0 0.00054506891999578475 0.023144316734236562 0 0.00035803976397335262 0.022802389230087632 0 4.1655725051367829e-05 0.024181720463956308 0 0.0003741722653100461 0.024918354902812571 0 0.00080169733792733778 0.024915831555169299 0 0.00067102554013741137 0.024780325337388207 0 0.0003741722653100461 0.024918354902812571 0 0.00067587609917635653 0.024958023358252705 0 0.00017504790483478715 0.0250239929601885 0 0.0003741722653100461 0.024918354902812571 0 0.00067102554013741137 0.024780325337388207 0 0.00054815087223640492 0.024708590422387704 0 0.0003741722653100461 0.024918354902812571 0 0.00033417150053716285 0.024673480642509994 0 0.00017938700540453254 0.024881209010300276 0 0.0003741722653100461 0.024918354902812571 0 0.00054815087223640492 0.024708590422387704 0 0.00033417150053716285 0.024673480642509994 0 0.00093245722537424664 0.020680371847886653 0 0.0014105810252464277 0.020570282899451078 0 0.0013928194202990714 0.020741560288077571 0 0.0003741722653100461 0.024918354902812571 0 0.00067587609917635653 0.024958023358252705 0 0.00069761266293558969 0.02490181768473812 0 0.00087524179768824078 0.021757186758609711 0 0.00039841412444434387 0.021849391462495517 0 0.00040876391009766474 0.021779632256537316 0 0.00035803976397335262 0.022802389230087632 0 0.00036906280164910211 0.022188736671191041 0 0.00035997074771817517 0.02267124435768441 0 0.00040565809704219599 0.022557987918928976 0 0.00046634548059831555 0.022653010476618225 0 0.00035803976397335262 0.022802389230087632 0 0.00054506891999578475 0.023144316734236562 0 0.00040565809704219599 0.022557987918928976 0 0.00046634548059831555 0.022653010476618225 0 0.00048088385671188506 0.022556075104451106 0 0.00036906280164910211 0.022188736671191041 0 0.00061419838227953294 0.022407542859912189 0 0.00054506891999578475 0.023144316734236562 0 0.00061419838227953294 0.022407542859912189 0 0.00054506891999578475 0.023144316734236562 0 0.0010795460477979128 0.022150908653457164 0 0.00061419838227953294 0.022407542859912189 0 0.0010795460477979128 0.022150908653457164 0 0.00081619192006158494 0.022806113075668433 0 0.00095804877359327502 0.022802612828398662 0 0.0010421011511014932 0.022246199970406562 0 0.00087897228450011325 0.024734115030659504 0 0.00067102554013741137 0.024780325337388207 0 0.00068543875385290059 0.024643720792328377 0 0.00080169733792733778 0.024915831555169299 0 0.00087897228450011325 0.024734115030659504 0 0.00067102554013741137 0.024780325337388207 0 0.0010795460477979128 0.022150908653457164 0 0.0012219788098786373 0.021157598863678587 0 0.00068543875385290059 0.024643720792328377 0 0.00074436470875885441 0.024441765762260401 0 0.00055701774332503177 0.024567512439792372 0 0.0010795460477979128 0.022150908653457164 0 0.0011021842724782283 0.023192026997009212 0 0.0011036412155845108 0.02138863894338882 0 0.0013928194202990714 0.020741560288077571 0 0.0010235915322261645 0.021784653547692052 0 0.00087897228450011325 0.024734115030659504 0 0.00097598005511742776 0.024060225590489055 0 0.00081965982435835505 0.024301695409069679 0 0.00087897228450011325 0.024734115030659504 0 0.00074436470875885441 0.024441765762260401 0 0.00081965982435835505 0.024301695409069679 0 0.00087897228450011325 0.024734115030659504 0 0.00068543875385290059 0.024643720792328377 0 0.00074436470875885441 0.024441765762260401 0 0.00074436470875885441 0.024441765762260401 0 0.00047763807932366511 0.024367472332997631 0 0.00055701774332503177 0.024567512439792372 0 0.00055701774332503177 0.024567512439792372 0 0.00054815087223640492 0.024708590422387704 0 0.00033417150053716285 0.024673480642509994 0 0.00068543875385290059 0.024643720792328377 0 0.00055701774332503177 0.024567512439792372 0 0.00054815087223640492 0.024708590422387704 0 0.00067102554013741137 0.024780325337388207 0 0.00068543875385290059 0.024643720792328377 0 0.00054815087223640492 0.024708590422387704 0 0.00047763807932366511 0.024367472332997631 0 0.00055701774332503177 0.024567512439792372 0 0.00033417150053716285 0.024673480642509994 0 0.00047763807932366511 0.024367472332997631 0 0.00033417150053716285 0.024673480642509994 0 0.00019452436886141541 0.024316816110951857 0 2.9299887848971445e-05 0.024824874342822989 0 0.00019452436886141541 0.024316816110951857 0 -0.00015578614039061075 0.024166232273875647 0 0.00033417150053716285 0.024673480642509994 0 2.9299887848971445e-05 0.024824874342822989 0 0.00019452436886141541 0.024316816110951857 0 1.5873524062964908e-05 0.024806645893172177 0 -6.2015493933257801e-05 0.024577055041410695 0 1.4310037734925516e-05 0.024907946762069751 0 1.2389194262369047e-05 0.024953720118052712 0 5.5499508150695823e-06 0.024955260804632593 0 2.9299887848971445e-05 0.024824874342822989 0 1.4310037734925516e-05 0.024907946762069751 0 5.5499508150695823e-06 0.024955260804632593 0 1.4310037734925516e-05 0.024907946762069751 0 2.8801330728640367e-05 0.024905275063432042 0 -6.8132142244422217e-06 0.024946467899786398 0 2.9299887848971445e-05 0.024824874342822989 0 1.4310037734925516e-05 0.024907946762069751 0 2.8801330728640367e-05 0.024905275063432042 0 2.2501228351994008e-05 0.024960296372503493 0 -5.5715545215301398e-05 0.025003370365770151 0 -6.8132142244422217e-06 0.024946467899786398 0 2.8801330728640367e-05 0.024905275063432042 0 2.2501228351994008e-05 0.024960296372503493 0 -6.8132142244422217e-06 0.024946467899786398 0 2.8801330728640367e-05 0.024905275063432042 0 2.2501228351994008e-05 0.024960296372503493 0 0.00017504790483478715 0.0250239929601885 0 0.00033417150053716285 0.024673480642509994 0 2.9299887848971445e-05 0.024824874342822989 0 0.00017938700540453254 0.024881209010300276 0 2.9299887848971445e-05 0.024824874342822989 0 2.8801330728640367e-05 0.024905275063432042 0 0.00017938700540453254 0.024881209010300276 0 2.8801330728640367e-05 0.024905275063432042 0 0.00017938700540453254 0.024881209010300276 0 0.00017504790483478715 0.0250239929601885 0 0.0003741722653100461 0.024918354902812571 0 0.00017938700540453254 0.024881209010300276 0 0.00017504790483478715 0.0250239929601885 0 8.9284211032909471e-05 0.023157079055574414 0 -4.4269019204408286e-05 0.023109154941347642 0 2.2318263232746776e-05 0.023236813515093841 0 -4.4269019204408286e-05 0.023109154941347642 0 2.2318263232746776e-05 0.023236813515093841 0 -0.00010267737696659461 0.023265357479638173 0 2.2318263232746776e-05 0.023236813515093841 0 -0.00010267737696659461 0.023265357479638173 0 -2.9951150659410306e-05 0.023387964348248049 0 -4.4269019204408286e-05 0.023109154941347642 0 -0.00010267737696659461 0.023265357479638173 0 -0.00025644446532825714 0.023252234740686852 0 4.1655725051367829e-05 0.024181720463956308 0 -3.6341780138458815e-05 0.024368141580248404 0 2.2501228351994008e-05 0.024960296372503493 0 0.00017504790483478715 0.0250239929601885 0 -5.5715545215301398e-05 0.025003370365770151 0 -4.4269019204408286e-05 0.023109154941347642 0 -0.00025644446532825714 0.023252234740686852 0 -0.00041770044930069747 0.023163577318418567 0 -0.00010267737696659461 0.023265357479638173 0 -0.00025644446532825714 0.023252234740686852 0 -0.00019556780130301958 0.023371559973435319 0 -0.00025644446532825714 0.023252234740686852 0 -0.00048017267389455578 0.023521375851228443 0 -0.00041770044930069747 0.023163577318418567 0 -0.00014592943584259652 0.02353432841422802 0 -0.00019556780130301958 0.023371559973435319 0 -0.00048017267389455578 0.023521375851228443 0 -0.00025644446532825714 0.023252234740686852 0 -0.00019556780130301958 0.023371559973435319 0 -0.00048017267389455578 0.023521375851228443 0 -0.00014592943584259652 0.02353432841422802 0 -0.00019556780130301958 0.023371559973435319 0 -2.9951150659410306e-05 0.023387964348248049 0 -0.00010267737696659461 0.023265357479638173 0 -0.00019556780130301958 0.023371559973435319 0 -2.9951150659410306e-05 0.023387964348248049 0 -3.8876806193957352e-08 0.025000006591199775 0 -3.2056101143608902e-05 0.02500568293383305 0 -1.0735057162143716e-05 0.024994621415078865 0 -0.00027576840347540529 0.024202995202956139 0 -3.6341780138458815e-05 0.024368141580248404 0 -3.2056101143608902e-05 0.02500568293383305 0 -2.0766995520229635e-06 0.02498361225308424 0 -4.1940285926503667e-06 0.024984476526586967 0 -8.0913673175847899e-06 0.024976536735698593 0 -1.0735057162143716e-05 0.024994621415078865 0 -3.410667690137701e-06 0.02497821174321865 0 -3.2056101143608902e-05 0.02500568293383305 0 -4.1940285926503667e-06 0.024984476526586967 0 -1.0735057162143716e-05 0.024994621415078865 0 -3.6341780138458815e-05 0.024368141580248404 0 -4.270003096080252e-05 0.024394836550682045 0 2.7564566877803684e-07 0.024982925794482507 0 -4.1940285926503667e-06 0.024984476526586967 0 -8.0913673175847899e-06 0.024976536735698593 0 -4.1940285926503667e-06 0.024984476526586967 0 -8.0913673175847899e-06 0.024976536735698593 0 -1.0735057162143716e-05 0.024994621415078865 0 -9.7780205017225539e-09 0.024999978001808393 0 -1.0735057162143716e-05 0.024994621415078865 0 -3.410667690137701e-06 0.02497821174321865 0 -3.8876806193957352e-08 0.025000006591199775 0 -9.7780205017225539e-09 0.024999978001808393 0 -1.0735057162143716e-05 0.024994621415078865 0 -9.7780205017225539e-09 0.024999978001808393 0 -3.410667690137701e-06 0.02497821174321865 0 1.2901965438013508e-08 0.024999938577922289 0 -8.0913673175847899e-06 0.024976536735698593 0 -3.410667690137701e-06 0.02497821174321865 0 -6.8132142244422217e-06 0.024946467899786398 0 -3.410667690137701e-06 0.02497821174321865 0 -6.8132142244422217e-06 0.024946467899786398 0 1.2389194262369047e-05 0.024953720118052712 0 2.7564566877803684e-07 0.024982925794482507 0 -8.0913673175847899e-06 0.024976536735698593 0 -6.8132142244422217e-06 0.024946467899786398 0 -3.6341780138458815e-05 0.024368141580248404 0 -4.3381277009874305e-05 0.025081128683931319 0 1.4310037734925516e-05 0.024907946762069751 0 -6.8132142244422217e-06 0.024946467899786398 0 1.2389194262369047e-05 0.024953720118052712 0 -3.410667690137701e-06 0.02497821174321865 0 1.2389194262369047e-05 0.024953720118052712 0 1.2901965438013508e-08 0.024999938577922289 0 1.2901965438013508e-08 0.024999938577922289 0 1.8259665711885745e-05 0.024979381309750786 0 1.3085387036642163e-09 0.024999996115740549 0 1.2389194262369047e-05 0.024953720118052712 0 1.2901965438013508e-08 0.024999938577922289 0 1.8259665711885745e-05 0.024979381309750786 0 1.2389194262369047e-05 0.024953720118052712 0 1.8259665711885745e-05 0.024979381309750786 0 5.5499508150695823e-06 0.024955260804632593 0 1.8259665711885745e-05 0.024979381309750786 0 3.399057516651029e-05 0.024969145961150702 0 3.2432730098770873e-05 0.024950788138427465 0 1.8259665711885745e-05 0.024979381309750786 0 1.3085387036642163e-09 0.024999996115740549 0 3.2432730098770873e-05 0.024950788138427465 0 0.00019452436886141541 0.024316816110951857 0 0.00013624785875309599 0.023734573382633066 0 0.00044153820891580143 0.024050216377470554 0 0.00019452436886141541 0.024316816110951857 0 -0.00015578614039061075 0.024166232273875647 0 0.00013624785875309599 0.023734573382633066 0 -6.2015493933257801e-05 0.024577055041410695 0 -0.00014262025670969337 0.024241616287668848 0 -0.00015578614039061075 0.024166232273875647 0 0.00013624785875309599 0.023734573382633066 0 -0.00026304961386200952 0.023621694038722545 0 1.8259665711885745e-05 0.024979381309750786 0 5.5499508150695823e-06 0.024955260804632593 0 3.399057516651029e-05 0.024969145961150702 0 0.00013624785875309599 0.023734573382633066 0 -0.00012726141800878073 0.023341921400713336 0 0.00015459057115981819 0.023164464862007666 0 0.00013624785875309599 0.023734573382633066 0 0.00015459057115981819 0.023164464862007666 0 0.00046620702581031271 0.023470060521289606 0 -0.00026304961386200952 0.023621694038722545 0 -0.00012726141800878073 0.023341921400713336 0 -0.00038683808286899002 0.023118812739088366 0 0.00013624785875309599 0.023734573382633066 0 -0.00026304961386200952 0.023621694038722545 0 -0.00012726141800878073 0.023341921400713336 0 -0.00014262025670969337 0.024241616287668848 0 2.6871106210037141e-05 0.024224471097180837 0 -0.00012726141800878073 0.023341921400713336 0 0.00015459057115981819 0.023164464862007666 0 -0.00038683808286899002 0.023118812739088366 0 3.7887262067676498e-05 0.02373474698514708 0 2.6871106210037141e-05 0.024224471097180837 0 7.7390823399400193e-05 0.024575529857452642 0 3.5314993984812076e-05 0.024378926682848211 0 0.00010977710707895962 0.024694971363853045 0 7.7390823399400193e-05 0.024575529857452642 0 0.00010977710707895962 0.024694971363853045 0 0.00010586167178014348 0.024759447690792899 0 1.3085387036642163e-09 0.024999996115740549 0 5.028551505481898e-09 0.024999875572615678 0 1.5066903996635672e-05 0.024949171664288918 0 1.3085387036642163e-09 0.024999996115740549 0 3.2432730098770873e-05 0.024950788138427465 0 1.5066903996635672e-05 0.024949171664288918 0 3.399057516651029e-05 0.024969145961150702 0 3.2432730098770873e-05 0.024950788138427465 0 6.6233416427562939e-05 0.024892176268259771 0 1.5066903996635672e-05 0.024949171664288918 0 2.5562264373328514e-05 0.02489416027813857 0 4.9089493330525177e-05 0.02485095328526513 0 3.2432730098770873e-05 0.024950788138427465 0 5.313239466737218e-05 0.024882306224882397 0 1.5066903996635672e-05 0.024949171664288918 0 3.2432730098770873e-05 0.024950788138427465 0 6.6233416427562939e-05 0.024892176268259771 0 5.313239466737218e-05 0.024882306224882397 0 2.6871106210037141e-05 0.024224471097180837 0 7.6951642023508741e-05 0.024373441967843239 0 0.000146826844073659 0.024873338196071161 0 5.313239466737218e-05 0.024882306224882397 0 0.00010586167178014348 0.024759447690792899 0 2.6871106210037141e-05 0.024224471097180837 0 9.2861132680587062e-05 0.024513239244011088 0 5.313239466737218e-05 0.024882306224882397 0 0.00010586167178014348 0.024759447690792899 0 4.9089493330525177e-05 0.02485095328526513 0 5.313239466737218e-05 0.024882306224882397 0 1.5066903996635672e-05 0.024949171664288918 0 4.9089493330525177e-05 0.02485095328526513 0 5.028551505481898e-09 0.024999875572615678 0 1.5066903996635672e-05 0.024949171664288918 0 2.5562264373328514e-05 0.02489416027813857 0 2.5562264373328514e-05 0.02489416027813857 0 -2.8115196101034509e-09 0.024999772533530515 0 5.7480121577850372e-05 0.024818077115021441 0 5.028551505481898e-09 0.024999875572615678 0 2.5562264373328514e-05 0.02489416027813857 0 -2.8115196101034509e-09 0.024999772533530515 0 -2.8115196101034509e-09 0.024999772533530515 0 5.7480121577850372e-05 0.024818077115021441 0 2.2622614702160116e-05 0.024783296936278721 0 5.7480121577850372e-05 0.024818077115021441 0 7.8381586630880829e-05 0.024730605313982041 0 2.2622614702160116e-05 0.024783296936278721 0 5.7480121577850372e-05 0.024818077115021441 0 8.8082012568092496e-05 0.024772621259404923 0 8.5073089881335383e-05 0.024736955127000373 0 2.5562264373328514e-05 0.02489416027813857 0 5.7480121577850372e-05 0.024818077115021441 0 8.8082012568092496e-05 0.024772621259404923 0 2.5562264373328514e-05 0.02489416027813857 0 4.9089493330525177e-05 0.02485095328526513 0 8.8082012568092496e-05 0.024772621259404923 0 0.00010586167178014348 0.024759447690792899 0 4.9089493330525177e-05 0.02485095328526513 0 8.8082012568092496e-05 0.024772621259404923 0 7.7390823399400193e-05 0.024575529857452642 0 8.8082012568092496e-05 0.024772621259404923 0 8.5073089881335383e-05 0.024736955127000373 0 7.7390823399400193e-05 0.024575529857452642 0 0.00010586167178014348 0.024759447690792899 0 8.8082012568092496e-05 0.024772621259404923 0 7.7390823399400193e-05 0.024575529857452642 0 8.5073089881335383e-05 0.024736955127000373 0 7.8381586630880829e-05 0.024730605313982041 0 7.7390823399400193e-05 0.024575529857452642 0 7.8381586630880829e-05 0.024730605313982041 0 -5.4462486563313987e-05 0.024455029636563784 0 7.7390823399400193e-05 0.024575529857452642 0 3.5314993984812076e-05 0.024378926682848211 0 -5.4462486563313987e-05 0.024455029636563784 0 -8.1934628511933086e-06 0.024404179646612616 0 -0.0001823003504256868 0.024024228214422898 0 -5.1651501784408882e-05 0.024066407613613762 0 -0.00015531585312233775 0.024052647931407056 0 -0.00030829530134983863 0.023588601024937039 0 5.7480121577850372e-05 0.024818077115021441 0 8.5073089881335383e-05 0.024736955127000373 0 7.8381586630880829e-05 0.024730605313982041 0 -5.1651501784408882e-05 0.024066407613613762 0 -3.8912416548037392e-05 0.024404334107240244 0 2.2622614702160116e-05 0.024783296936278721 0 -5.1651501784408882e-05 0.024066407613613762 0 -3.8912416548037392e-05 0.024404334107240244 0 -0.00015531585312233775 0.024052647931407056 0 -3.8912416548037392e-05 0.024404334107240244 0 -0.00015531585312233775 0.024052647931407056 0 -8.8968866933200174e-05 0.02427731215076789 0 -8.8968866933200174e-05 0.02427731215076789 0 -0.00018538284679730604 0.024135557492422105 0 -7.8760907867725087e-05 0.024336202286669231 0 -0.00015531585312233775 0.024052647931407056 0 -8.8968866933200174e-05 0.02427731215076789 0 -0.00018538284679730604 0.024135557492422105 0 -3.8912416548037392e-05 0.024404334107240244 0 -3.9350790975808595e-05 0.024657373874459911 0 -3.6863896346844136e-05 0.024441744500994643 0 -3.8912416548037392e-05 0.024404334107240244 0 -8.8968866933200174e-05 0.02427731215076789 0 -3.6863896346844136e-05 0.024441744500994643 0 -3.9350790975808595e-05 0.024657373874459911 0 6.7535210720127445e-10 0.024999456156716268 0 9.1914027242876907e-08 0.024999903450025465 0 -2.8115196101034509e-09 0.024999772533530515 0 2.2622614702160116e-05 0.024783296936278721 0 6.7535210720127445e-10 0.024999456156716268 0 -3.9350790975808595e-05 0.024657373874459911 0 2.2622614702160116e-05 0.024783296936278721 0 6.7535210720127445e-10 0.024999456156716268 0 -3.8912416548037392e-05 0.024404334107240244 0 -3.9350790975808595e-05 0.024657373874459911 0 2.2622614702160116e-05 0.024783296936278721 0 -8.1934628511933086e-06 0.024404179646612616 0 1.0306173092244838e-05 0.024719947903023443 0 -0.00052391213328254328 0.023464549713390227 0 -0.00048875168273206202 0.023236278855671099 0 -0.00056720347699629604 0.023447601602394209 0 -0.00052391213328254328 0.023464549713390227 0 -0.00056720347699629604 0.023447601602394209 0 -0.00043097809103672177 0.023753058070905806 0 -0.00052391213328254328 0.023464549713390227 0 -0.00048875168273206202 0.023236278855671099 0 -0.00048415524806824352 0.023204988746063727 0 -0.00048875168273206202 0.023236278855671099 0 -0.00056720347699629604 0.023447601602394209 0 -0.00045532443228252191 0.023138883234069083 0 -0.00056601980892888933 0.02350322991574429 0 -0.00055642928395363946 0.023637316315679259 0 -0.00056720347699629604 0.023447601602394209 0 -0.00043097809103672177 0.023753058070905806 0 -0.00044356512298712373 0.024102860796940288 0 -0.00043097809103672177 0.023753058070905806 0 -0.00029233105141077039 0.024024007345664102 0 -0.00044356512298712373 0.024102860796940288 0 -0.00015531585312233775 0.024052647931407056 0 -0.00018538284679730604 0.024135557492422105 0 -0.00028857690679104684 0.023897056013746219 0 -0.00043097809103672177 0.023753058070905806 0 -0.00029233105141077039 0.024024007345664102 0 -0.00028857690679104684 0.023897056013746219 0 -0.00018538284679730604 0.024135557492422105 0 -0.00029233105141077039 0.024024007345664102 0 -0.00028857690679104684 0.023897056013746219 0 -0.00015531585312233775 0.024052647931407056 0 -0.00028857690679104684 0.023897056013746219 0 -0.00030829530134983863 0.023588601024937039 0 -0.00052391213328254328 0.023464549713390227 0 -0.00028857690679104684 0.023897056013746219 0 -0.00030829530134983863 0.023588601024937039 0 -0.00052391213328254328 0.023464549713390227 0 -0.00043097809103672177 0.023753058070905806 0 -0.00028857690679104684 0.023897056013746219 0 -0.00052391213328254328 0.023464549713390227 0 -0.00030829530134983863 0.023588601024937039 0 -0.00052039027804850633 0.023339616798533882 0 -0.0001823003504256868 0.024024228214422898 0 -0.00037465908878156902 0.023680799481074443 0 -5.4462486563313987e-05 0.024455029636563784 0 -0.00027383184364618041 0.024025503172414992 0 -0.00021654507905075304 0.02393851552305977 0 -5.4462486563313987e-05 0.024455029636563784 0 -0.00021654507905075304 0.02393851552305977 0 -0.00011675546128461874 0.02404624147539124 0 -0.00052391213328254328 0.023464549713390227 0 -0.00052039027804850633 0.023339616798533882 0 -0.00049595349462079261 0.023281462133443672 0 -0.00052391213328254328 0.023464549713390227 0 -0.00048415524806824352 0.023204988746063727 0 -0.00049595349462079261 0.023281462133443672 0 -0.00048415524806824352 0.023204988746063727 0 -0.00049595349462079261 0.023281462133443672 0 -0.00043841534232345316 0.023197410466588238 0 -0.00052039027804850633 0.023339616798533882 0 -0.00049595349462079261 0.023281462133443672 0 -0.00038267403080644279 0.023386609448385144 0 -0.00037465908878156902 0.023680799481074443 0 -0.00037030160984100004 0.02343730735746604 0 -0.00049595349462079261 0.023281462133443672 0 -0.00038267403080644279 0.023386609448385144 0 -0.00043841534232345316 0.023197410466588238 0 -0.00027383184364618041 0.024025503172414992 0 -0.00030213563050322144 0.023679434355154131 0 -0.00038267403080644279 0.023386609448385144 0 -0.00030213563050322144 0.023679434355154131 0 -0.00038267403080644279 0.023386609448385144 0 -0.00026143146047454902 0.023317431773312556 0 -0.00027383184364618041 0.024025503172414992 0 -0.00030213563050322144 0.023679434355154131 0 -0.00021654507905075304 0.02393851552305977 0 0.00073463267730905458 0.023470882403406258 0 0.00089330830688311971 0.023349287577490448 0 0.00047746075049035993 0.023145600290274501 0 0.00089330830688311971 0.023349287577490448 0 0.00047746075049035993 0.023145600290274501 0 0.00065372583384147836 0.022733464791261836 0 0.00073463267730905458 0.023470882403406258 0 0.00047746075049035993 0.023145600290274501 0 -0.00026143146047454902 0.023317431773312556 0 0.00017550368434143078 0.023551858491580389 0 -0.00024255618547798811 0.023363175877712652 0 0.00047746075049035993 0.023145600290274501 0 0.00022894223439864426 0.022840894291988951 0 -0.00026143146047454902 0.023317431773312556 0 0.00015459057115981819 0.023164464862007666 0 0.00073182990277196052 0.023265297898736333 0 0.00046620702581031271 0.023470060521289606 0 3.7887262067676498e-05 0.02373474698514708 0 0.00028771652572832213 0.02366543418488944 0 3.5314993984812076e-05 0.024378926682848211 0 -5.4462486563313987e-05 0.024455029636563784 0 -0.00011675546128461874 0.02404624147539124 0 -0.00030213563050322144 0.023679434355154131 0 -0.00021654507905075304 0.02393851552305977 0 -0.00011675546128461874 0.02404624147539124 0 0.00017550368434143078 0.023551858491580389 0 0.00028771652572832213 0.02366543418488944 0 0.00089330830688311971 0.023349287577490448 0 0.00073182990277196052 0.023265297898736333 0 0.00070013010649295289 0.023475859971978329 0 0.00073463267730905458 0.023470882403406258 0 0.00089330830688311971 0.023349287577490448 0 0.00073182990277196052 0.023265297898736333 0 0.00089330830688311971 0.023349287577490448 0 0.00070013010649295289 0.023475859971978329 0 0.00078292790760836888 0.023682294139877776 0 0.00073182990277196052 0.023265297898736333 0 0.00070013010649295289 0.023475859971978329 0 0.00046620702581031271 0.023470060521289606 0 0.00070013010649295289 0.023475859971978329 0 0.00046620702581031271 0.023470060521289606 0 0.00055557568647600841 0.02370977377544381 0 0.00013624785875309599 0.023734573382633066 0 0.00055557568647600841 0.02370977377544381 0 0.00044153820891580143 0.024050216377470554 0 0.00013624785875309599 0.023734573382633066 0 0.00046620702581031271 0.023470060521289606 0 0.00055557568647600841 0.02370977377544381 0 0.00055557568647600841 0.02370977377544381 0 0.00074664332958196801 0.023936068973042249 0 0.00044153820891580143 0.024050216377470554 0 0.00089330830688311971 0.023349287577490448 0 0.00078292790760836888 0.023682294139877776 0 0.00097598005511742776 0.024060225590489055 0 0.00055557568647600841 0.02370977377544381 0 0.00074664332958196801 0.023936068973042249 0 0.00078292790760836888 0.023682294139877776 0 0.00070013010649295289 0.023475859971978329 0 0.00055557568647600841 0.02370977377544381 0 0.00078292790760836888 0.023682294139877776 0 0.00074664332958196801 0.023936068973042249 0 0.00078292790760836888 0.023682294139877776 0 0.00097598005511742776 0.024060225590489055 0 0.0014349850034851097 0.020729540615096544 0 0.001265282857400583 0.022048626638615596 0 0.0010235915322261645 0.021784653547692052 0 0.00074664332958196801 0.023936068973042249 0 0.00097598005511742776 0.024060225590489055 0 0.00080930672409453312 0.024112835626209549 0 0.00097598005511742776 0.024060225590489055 0 0.00081965982435835505 0.024301695409069679 0 0.00080930672409453312 0.024112835626209549 0 0.00074436470875885441 0.024441765762260401 0 0.00081965982435835505 0.024301695409069679 0 0.00067781728625270073 0.024172974417093873 0 0.00081965982435835505 0.024301695409069679 0 0.00067781728625270073 0.024172974417093873 0 0.00080930672409453312 0.024112835626209549 0 0.00074664332958196801 0.023936068973042249 0 0.00067781728625270073 0.024172974417093873 0 0.00080930672409453312 0.024112835626209549 0 0.00074664332958196801 0.023936068973042249 0 0.00067781728625270073 0.024172974417093873 0 0.00044153820891580143 0.024050216377470554 0 0.00047763807932366511 0.024367472332997631 0 0.00067781728625270073 0.024172974417093873 0 0.00044153820891580143 0.024050216377470554 0 0.00074436470875885441 0.024441765762260401 0 0.00047763807932366511 0.024367472332997631 0 0.00067781728625270073 0.024172974417093873 0 0.00047763807932366511 0.024367472332997631 0 0.00019452436886141541 0.024316816110951857 0 0.00044153820891580143 0.024050216377470554 0 0.00022894223439864426 0.022840894291988951 0 8.144280080281643e-05 0.022121867760280009 0 -0.00020921915130369347 0.022871981272124812 0 0.00022894223439864426 0.022840894291988951 0 0.00051638846667893226 0.022505223466206647 0 8.144280080281643e-05 0.022121867760280009 0 0.00022894223439864426 0.022840894291988951 0 0.00065372583384147836 0.022733464791261836 0 0.00051638846667893226 0.022505223466206647 0 0.00047746075049035993 0.023145600290274501 0 0.00022894223439864426 0.022840894291988951 0 0.00065372583384147836 0.022733464791261836 0 0.00089330830688311971 0.023349287577490448 0 0.001265282857400583 0.022048626638615596 0 0.00065372583384147836 0.022733464791261836 0 0.00093242244672148589 0.023280064524614404 0 0.0011021842724782283 0.023192026997009212 0 0.001265282857400583 0.022048626638615596 0 0.00065372583384147836 0.022733464791261836 0 0.00075770899493318624 0.022248560659999618 0 0.00065372583384147836 0.022733464791261836 0 0.00051638846667893226 0.022505223466206647 0 0.00075770899493318624 0.022248560659999618 0 0.0010949464756379956 0.021362462615932866 0 0.00045814302742539393 0.021521585759225675 0 0.0011036412155845108 0.02138863894338882 0 0.0010235915322261645 0.021784653547692052 0 8.144280080281643e-05 0.022121867760280009 0 0.00075770899493318624 0.022248560659999618 0 0.0010235915322261645 0.021784653547692052 0 8.144280080281643e-05 0.022121867760280009 0 0.001265282857400583 0.022048626638615596 0 0.00075770899493318624 0.022248560659999618 0 0.0010235915322261645 0.021784653547692052 0 0.00051638846667893226 0.022505223466206647 0 0.00075770899493318624 0.022248560659999618 0 8.144280080281643e-05 0.022121867760280009 0 0.00070390736389186904 0.020762402201003678 0 0.00071435408441781762 0.020917871578066242 0 0.00071850869111902472 0.020676662219706456 0 0.00045814302742539393 0.021521585759225675 0 0.00016447831166336197 0.021688318150291305 0 8.144280080281643e-05 0.022121867760280009 0 -0.00020921915130369347 0.022871981272124812 0 -0.00042197625366787735 0.02273520606981828 0 -0.00042197625366787735 0.02273520606981828 0 -0.0004540162734834753 0.023011954196575542 0 -0.0004072928578349132 0.023113216019380392 0 -0.00020921915130369347 0.022871981272124812 0 -0.00042197625366787735 0.02273520606981828 0 -0.0004072928578349132 0.023113216019380392 0 0.00072618045253168638 0.02066542304729355 0 0.00071850869111902472 0.020676662219706456 0 0.00073709502079651631 0.020575491787652701 0 0.00070390736389186904 0.020762402201003678 0 0.00072618045253168638 0.02066542304729355 0 0.00071850869111902472 0.020676662219706456 0 0.00074793553187207495 0.020507088204637244 0 0.00057159648241085904 0.02042263431121414 0 0.00060177753366442402 0.020486252109135059 0 0.00073709502079651631 0.020575491787652701 0 0.00060177753366442402 0.020486252109135059 0 0.00069837764156194314 0.020601468659247408 0 0.00074793553187207495 0.020507088204637244 0 0.00073709502079651631 0.020575491787652701 0 0.00060177753366442402 0.020486252109135059 0 0.00060177753366442402 0.020486252109135059 0 0.00069837764156194314 0.020601468659247408 0 0.00047004350041123422 0.020607988590901596 0 0.00071850869111902472 0.020676662219706456 0 0.00073709502079651631 0.020575491787652701 0 0.00069837764156194314 0.020601468659247408 0 0.00016447831166336197 0.021688318150291305 0 0.0001628525273025801 0.021861283605923636 0 -0.0004540162734834753 0.023011954196575542 0 -0.00037841964307602349 0.023124728936380026 0 -0.0004072928578349132 0.023113216019380392 0 -0.0004540162734834753 0.023011954196575542 0 -0.0004112375835080875 0.023078446818166259 0 -0.00042975630919381177 0.023059168111092241 0 -0.0004540162734834753 0.023011954196575542 0 -0.0004112375835080875 0.023078446818166259 0 -0.00037841964307602349 0.023124728936380026 0 -0.0004112375835080875 0.023078446818166259 0 -0.00036462612801285271 0.02310542182284037 0 -0.00042975630919381177 0.023059168111092241 0 0.0001628525273025801 0.021861283605923636 0 -0.00023351410646973593 0.021288414948235919 0 -0.0004112375835080875 0.023078446818166259 0 -0.00036462612801285271 0.02310542182284037 0 -0.00037841964307602349 0.023124728936380026 0 -0.00036462612801285271 0.02310542182284037 0 -0.00037841964307602349 0.023124728936380026 0 -0.00029783753877789601 0.023106463995959028 0 -0.00037841964307602349 0.023124728936380026 0 -0.00038124530194402149 0.023195929486894265 0 -0.00034424586632194161 0.023128193168869254 0 -0.00037841964307602349 0.023124728936380026 0 -0.00034424586632194161 0.023128193168869254 0 -0.00029783753877789601 0.023106463995959028 0 -0.00037841964307602349 0.023124728936380026 0 -0.00038124530194402149 0.023195929486894265 0 -0.0004072928578349132 0.023113216019380392 0 -0.00038124530194402149 0.023195929486894265 0 -0.00035717019220730023 0.023277593814246246 0 -0.0004072928578349132 0.023113216019380392 0 -0.00038124530194402149 0.023195929486894265 0 -0.00035717019220730023 0.023277593814246246 0 -0.00039329748001543015 0.023223596844502831 0 -0.00038267403080644279 0.023386609448385144 0 -0.00035717019220730023 0.023277593814246246 0 -0.00039329748001543015 0.023223596844502831 0 -0.00038267403080644279 0.023386609448385144 0 -0.00035717019220730023 0.023277593814246246 0 -0.00026143146047454902 0.023317431773312556 0 -0.00035717019220730023 0.023277593814246246 0 -0.00026143146047454902 0.023317431773312556 0 -0.0004072928578349132 0.023113216019380392 0 -0.00020921915130369347 0.022871981272124812 0 -0.00026143146047454902 0.023317431773312556 0 -0.0004072928578349132 0.023113216019380392 0 0.00022894223439864426 0.022840894291988951 0 -0.00020921915130369347 0.022871981272124812 0 -0.00026143146047454902 0.023317431773312556 0 -5.4966693596261861e-05 0.019534616733321252 0 -3.1205858632532835e-05 0.019185391237321416 0 0.00015050115302828551 0.019288908909514537 0 -5.4966693596261861e-05 0.019534616733321252 0 -3.1205858632532835e-05 0.019185391237321416 0 -0.00014879349843389646 0.019294107370676515 0 2.0141081563814861e-05 0.019664299696217628 0 0.00020691352262594445 0.019842437344453498 0 -0.00010908373109044194 0.019092823739441555 0 -3.1205858632532835e-05 0.019185391237321416 0 0.00015050115302828551 0.019288908909514537 0 0.00032741483637915327 0.020287905936143467 0 0.00031959305628799669 0.020387873761305877 0 0.00039865045696528344 0.020378823831955727 0 0.00031959305628799669 0.020387873761305877 0 0.00028900457267279074 0.020248568335953003 0 0.00034526479836504613 0.02037869010832687 0 -5.4966693596261861e-05 0.019534616733321252 0 0.00015050115302828551 0.019288908909514537 0 0.00021408972057407314 0.020045442602327362 0 0.00020691352262594445 0.019842437344453498 0 0.00022809782521495452 0.020016618472646457 0 0.00031959305628799669 0.020387873761305877 0 0.00028900457267279074 0.020248568335953003 0 0.00021408972057407314 0.020045442602327362 0 0.00028900457267279074 0.020248568335953003 0 0.00036561594980681676 0.020431857780198615 0 0.00031171231650666366 0.020278760402503496 0 0.00028900457267279074 0.020248568335953003 0 0.00034526479836504613 0.02037869010832687 0 0.00036561594980681676 0.020431857780198615 0 0.00034526479836504613 0.02037869010832687 0 0.0004702082943369293 0.020430250113099298 0 0.00036561594980681676 0.020431857780198615 0 0.00031959305628799669 0.020387873761305877 0 0.00034526479836504613 0.02037869010832687 0 0.00039865045696528344 0.020378823831955727 0 0.00034526479836504613 0.02037869010832687 0 0.00039865045696528344 0.020378823831955727 0 0.0004702082943369293 0.020430250113099298 0 0.00057159648241085904 0.02042263431121414 0 0.00039865045696528344 0.020378823831955727 0 0.0004702082943369293 0.020430250113099298 0 0.00057159648241085904 0.02042263431121414 0 0.00060177753366442402 0.020486252109135059 0 0.0004702082943369293 0.020430250113099298 0 0.00060177753366442402 0.020486252109135059 0 0.00036561594980681676 0.020431857780198615 0 0.00047004350041123422 0.020607988590901596 0 0.00060177753366442402 0.020486252109135059 0 0.0004702082943369293 0.020430250113099298 0 0.00036561594980681676 0.020431857780198615 0 0.00016803422226191543 0.02036467278114347 0 -0.00023351410646973593 0.021288414948235919 0 0.00036561594980681676 0.020431857780198615 0 0.00021637001017211547 0.020250652812788705 0 0.00031171231650666366 0.020278760402503496 0 -0.00088205474511870226 0.020627274770988184 0 -0.00074216251121654695 0.02022116527807314 0 -0.00050783292949659465 0.020479725696865576 0 -0.0007438155465499792 0.021698011551734182 0 -0.00023351410646973593 0.021288414948235919 0 -0.001115357815690995 0.020149711068564384 0 -0.00074216251121654695 0.02022116527807314 0 -0.00090334887622823797 0.020046974543428787 0 -0.001115357815690995 0.020149711068564384 0 -0.00088205474511870226 0.020627274770988184 0 -0.00074216251121654695 0.02022116527807314 0 -0.00074216251121654695 0.02022116527807314 0 -0.00058680208244081913 0.019990018161868642 0 -0.00090334887622823797 0.020046974543428787 0 -0.00074216251121654695 0.02022116527807314 0 -0.00041398497793425696 0.020156928986767221 0 -0.00050783292949659465 0.020479725696865576 0 -0.00074216251121654695 0.02022116527807314 0 -0.00041398497793425696 0.020156928986767221 0 -0.00058680208244081913 0.019990018161868642 0 -0.00041398497793425696 0.020156928986767221 0 -0.00021072943627343816 0.020009604107690093 0 -0.00058680208244081913 0.019990018161868642 0 -0.00041398497793425696 0.020156928986767221 0 -0.00050783292949659465 0.020479725696865576 0 1.1281380018031951e-06 0.020129088187738401 0 -0.00023351410646973593 0.021288414948235919 0 -6.8215169691017609e-05 0.020304295310606065 0 0.00021637001017211547 0.020250652812788705 0 0.00031425633621310597 0.020170057885089694 0 0.00031171231650666366 0.020278760402503496 0 0.00028900457267279074 0.020248568335953003 0 0.00031425633621310597 0.020170057885089694 0 0.00031171231650666366 0.020278760402503496 0 0.00028900457267279074 0.020248568335953003 0 0.00031425633621310597 0.020170057885089694 0 0.00021408972057407314 0.020045442602327362 0 0.00021408972057407314 0.020045442602327362 0 2.7386820868091323e-05 0.020029921278254547 0 -2.105120474970114e-05 0.019880308777575316 0 0.00021408972057407314 0.020045442602327362 0 2.7386820868091323e-05 0.020029921278254547 0 1.1281380018031951e-06 0.020129088187738401 0 0.00031425633621310597 0.020170057885089694 0 0.00021408972057407314 0.020045442602327362 0 1.1281380018031951e-06 0.020129088187738401 0 -6.8215169691017609e-05 0.020304295310606065 0 -8.4326674224501264e-06 0.020188433924919973 0 -0.00041398497793425696 0.020156928986767221 0 1.1281380018031951e-06 0.020129088187738401 0 -0.00021072943627343816 0.020009604107690093 0 -0.00021072943627343816 0.020009604107690093 0 -4.1440827898516516e-05 0.019991270166694584 0 -0.00013213955368985566 0.019909270419193097 0 1.1281380018031951e-06 0.020129088187738401 0 -0.00021072943627343816 0.020009604107690093 0 -4.1440827898516516e-05 0.019991270166694584 0 2.7386820868091323e-05 0.020029921278254547 0 1.1281380018031951e-06 0.020129088187738401 0 -4.1440827898516516e-05 0.019991270166694584 0 -4.1440827898516516e-05 0.019991270166694584 0 -0.00010364120075422267 0.019852996365972767 0 -2.105120474970114e-05 0.019880308777575316 0 -4.1440827898516516e-05 0.019991270166694584 0 -0.00011609045515643494 0.019873190530219527 0 -0.00013213955368985566 0.019909270419193097 0 -4.1440827898516516e-05 0.019991270166694584 0 -0.00010364120075422267 0.019852996365972767 0 -0.00011609045515643494 0.019873190530219527 0 -5.4966693596261861e-05 0.019534616733321252 0 0.00021408972057407314 0.020045442602327362 0 -2.105120474970114e-05 0.019880308777575316 0 -0.00010364120075422267 0.019852996365972767 0 -2.105120474970114e-05 0.019880308777575316 0 -0.0001456837378481609 0.019686110962566956 0 2.7386820868091323e-05 0.020029921278254547 0 -4.1440827898516516e-05 0.019991270166694584 0 -2.105120474970114e-05 0.019880308777575316 0 -5.4966693596261861e-05 0.019534616733321252 0 -2.105120474970114e-05 0.019880308777575316 0 -0.0001456837378481609 0.019686110962566956 0 -0.00013125916303672802 0.019809598446372947 0 -0.00019981595797780437 0.019626951239271901 0 -0.00013756385580484501 0.019843051955039631 0 -0.00013125916303672802 0.019809598446372947 0 -0.00011609045515643494 0.019873190530219527 0 -0.00013213955368985566 0.019909270419193097 0 -0.00013125916303672802 0.019809598446372947 0 -0.00013213955368985566 0.019909270419193097 0 -0.00025510057776289809 0.019840890702589799 0 -0.00021072943627343816 0.020009604107690093 0 -0.00025510057776289809 0.019840890702589799 0 -0.00058680208244081913 0.019990018161868642 0 -0.00021072943627343816 0.020009604107690093 0 -0.00013213955368985566 0.019909270419193097 0 -0.00025510057776289809 0.019840890702589799 0 -0.00025510057776289809 0.019840890702589799 0 -0.00055119157629076611 0.019728095137123477 0 -0.00019981595797780437 0.019626951239271901 0 -0.00013125916303672802 0.019809598446372947 0 -0.00025510057776289809 0.019840890702589799 0 -0.00019981595797780437 0.019626951239271901 0 -0.00055119157629076611 0.019728095137123477 0 -0.00085722689805967371 0.01934560540791317 0 -0.00019981595797780437 0.019626951239271901 0 -0.00025510057776289809 0.019840890702589799 0 -0.00055119157629076611 0.019728095137123477 0 -0.00058680208244081913 0.019990018161868642 0 -0.00055119157629076611 0.019728095137123477 0 -0.00058680208244081913 0.019990018161868642 0 -0.00098079432630960987 0.019941341346859747 0 -0.00058680208244081913 0.019990018161868642 0 -0.00090334887622823797 0.020046974543428787 0 -0.00098079432630960987 0.019941341346859747 0 -0.001115357815690995 0.020149711068564384 0 -0.00090334887622823797 0.020046974543428787 0 -0.0011232237405759413 0.019962747915741218 0 -0.00090334887622823797 0.020046974543428787 0 -0.00098079432630960987 0.019941341346859747 0 -0.0011232237405759413 0.019962747915741218 0 -0.00055119157629076611 0.019728095137123477 0 -0.00098079432630960987 0.019941341346859747 0 -0.00085722689805967371 0.01934560540791317 0 -0.00098079432630960987 0.019941341346859747 0 -0.0011232237405759413 0.019962747915741218 0 -0.0014820625506745597 0.02025627810691526 0 -0.00098079432630960987 0.019941341346859747 0 -0.00085722689805967371 0.01934560540791317 0 -0.0014820625506745597 0.02025627810691526 0 -0.00085722689805967371 0.01934560540791317 0 -0.0012227489735819263 0.01901888592588568 0 -0.0014820625506745597 0.02025627810691526 0 -0.00085722689805967371 0.01934560540791317 0 -0.00093433117753285229 0.018684265945101333 0 -0.0012227489735819263 0.01901888592588568 0 -0.00093433117753285229 0.018684265945101333 0 -0.0012227489735819263 0.01901888592588568 0 -0.0012238986812758636 0.018472743666407138 0 -0.0012238986812758636 0.018472743666407138 0 -0.0012759554720047403 0.018243211516927847 0 -0.00090729988766047787 0.018171986207594571 0 -0.00093433117753285229 0.018684265945101333 0 -0.0012238986812758636 0.018472743666407138 0 -0.00090729988766047787 0.018171986207594571 0 -0.00093433117753285229 0.018684265945101333 0 -0.00090729988766047787 0.018171986207594571 0 -0.00057709831988888162 0.018541546294144461 0 -0.00090729988766047787 0.018171986207594571 0 -0.00057709831988888162 0.018541546294144461 0 -0.00040721208764499706 0.017482467585793349 0 -0.00085722689805967371 0.01934560540791317 0 -0.00057709831988888162 0.018541546294144461 0 -0.00031513110977387815 0.018543486911936573 0 -0.00087696475568425816 0.019300158870977205 0 -0.00030547323158263453 0.019105763628824508 0 -0.00085722689805967371 0.01934560540791317 0 -0.00093433117753285229 0.018684265945101333 0 -0.00057709831988888162 0.018541546294144461 0 -0.00057709831988888162 0.018541546294144461 0 -0.00031513110977387815 0.018543486911936573 0 -0.00012541024534202771 0.01790060320795997 0 -0.00057709831988888162 0.018541546294144461 0 -0.00012541024534202771 0.01790060320795997 0 -0.00040721208764499706 0.017482467585793349 0 -0.00031513110977387815 0.018543486911936573 0 -0.00012541024534202771 0.01790060320795997 0 0.00016855283788497425 0.01824172257997007 0 -0.00030547323158263453 0.019105763628824508 0 5.1973540659178791e-07 0.019052146197388879 0 -0.00042004971404626231 0.023042921193671344 0 -0.00036823618352262492 0.023052171088787349 0 -0.00036030952225811659 0.022821206167081776 0 -0.00042004971404626231 0.023042921193671344 0 -0.00036030952225811659 0.022821206167081776 0 -0.00041153345416256336 0.022678998881049885 0 -0.00042004971404626231 0.023042921193671344 0 -0.00044101076883266396 0.023015171244341426 0 -0.00041153345416256336 0.022678998881049885 0 -0.00042004971404626231 0.023042921193671344 0 -0.00044101076883266396 0.023015171244341426 0 -0.00043841534232345316 0.023197410466588238 0 -0.00048415524806824352 0.023204988746063727 0 -0.00044101076883266396 0.023015171244341426 0 -0.00043841534232345316 0.023197410466588238 0 -0.00038267403080644279 0.023386609448385144 0 -0.00043841534232345316 0.023197410466588238 0 -0.00039329748001543015 0.023223596844502831 0 -0.00042004971404626231 0.023042921193671344 0 -0.00043841534232345316 0.023197410466588238 0 -0.00039329748001543015 0.023223596844502831 0 -0.00038124530194402149 0.023195929486894265 0 -0.00039329748001543015 0.023223596844502831 0 -0.00038531806608306068 0.023143319719293787 0 -0.00042004971404626231 0.023042921193671344 0 -0.00039329748001543015 0.023223596844502831 0 -0.00038531806608306068 0.023143319719293787 0 -0.00042004971404626231 0.023042921193671344 0 -0.00038531806608306068 0.023143319719293787 0 -0.00036823618352262492 0.023052171088787349 0 -0.00038124530194402149 0.023195929486894265 0 -0.00038531806608306068 0.023143319719293787 0 -0.00034424586632194161 0.023128193168869254 0 -0.00038531806608306068 0.023143319719293787 0 -0.00034424586632194161 0.023128193168869254 0 -0.00036823618352262492 0.023052171088787349 0 -0.00034424586632194161 0.023128193168869254 0 -0.00029783753877789601 0.023106463995959028 0 -0.00029281458023910711 0.02304369068451316 0 -0.00029783753877789601 0.023106463995959028 0 -0.00029281458023910711 0.02304369068451316 0 -0.00013991112307395169 0.02302174529620964 0 -0.00034424586632194161 0.023128193168869254 0 -0.00029281458023910711 0.02304369068451316 0 -0.00036823618352262492 0.023052171088787349 0 -0.0007438155465499792 0.021698011551734182 0 -0.00061500610880010876 0.021457510808225555 0 -0.001115357815690995 0.020149711068564384 0 -0.0011232237405759413 0.019962747915741218 0 -0.0010615123473814243 0.019851221391722837 0 -0.00036462612801285271 0.02310542182284037 0 -0.00029783753877789601 0.023106463995959028 0 -0.00013991112307395169 0.02302174529620964 0 -0.0010615123473814243 0.019851221391722837 0 -0.0014820625506745597 0.02025627810691526 0 -0.00028428843977004736 0.022151250241282804 0 -0.0011232237405759413 0.019962747915741218 0 -0.0010615123473814243 0.019851221391722837 0 -0.0014820625506745597 0.02025627810691526 0 -0.00061500610880010876 0.021457510808225555 0 -0.0003170059020472896 0.022063008377436667 0 -0.00013991112307395169 0.02302174529620964 0 -0.00036030952225811659 0.022821206167081776 0 -0.00028428843977004736 0.022151250241282804 0 -0.00029281458023910711 0.02304369068451316 0 -0.00036823618352262492 0.023052171088787349 0 -0.00036030952225811659 0.022821206167081776 0 -0.00029281458023910711 0.02304369068451316 0 -0.00013991112307395169 0.02302174529620964 0 -0.00036030952225811659 0.022821206167081776 0 -0.00036030952225811659 0.022821206167081776 0 -0.00028428843977004736 0.022151250241282804 0 -0.00041153345416256336 0.022678998881049885 0 -0.00028428843977004736 0.022151250241282804 0 -0.00034009730270962753 0.022707163264986528 0 -0.00041153345416256336 0.022678998881049885 0 -0.00028428843977004736 0.022151250241282804 0 -0.00057118740633964403 0.022801520756257427 0 -0.00034009730270962753 0.022707163264986528 0 -0.0014656476695934317 0.020280933275405495 0 -0.0012636877562947828 0.020590069035081024 0 -0.0012227489735819263 0.01901888592588568 0 -0.0014820625506745597 0.02025627810691526 0 -0.0016510718230534414 0.018203830704777331 0 -0.0014820625506745597 0.02025627810691526 0 -0.00028428843977004736 0.022151250241282804 0 -0.00093482059648113298 0.022985494020496659 0 -0.0012759554720047403 0.018243211516927847 0 -0.0016510718230534414 0.018203830704777331 0 -0.0013690295413578389 0.018298626495985928 0 -0.0012227489735819263 0.01901888592588568 0 -0.0012238986812758636 0.018472743666407138 0 -0.0016510718230534414 0.018203830704777331 0 -0.0012238986812758636 0.018472743666407138 0 -0.0012759554720047403 0.018243211516927847 0 -0.0016510718230534414 0.018203830704777331 0 -0.00057341304641391584 0.022818855368730451 0 -0.00053430847109378859 0.023031306434914339 0 -0.00093482059648113298 0.022985494020496659 0 -0.00057118740633964403 0.022801520756257427 0 -0.00060302097324516719 0.023036281206509905 0 -0.00057118740633964403 0.022801520756257427 0 -0.00046033486048070726 0.022907900778017295 0 -0.00046890686896044689 0.023075215394083814 0 -0.00057118740633964403 0.022801520756257427 0 -0.00046033486048070726 0.022907900778017295 0 -0.00034009730270962753 0.022707163264986528 0 -0.00028428843977004736 0.022151250241282804 0 -0.00093482059648113298 0.022985494020496659 0 -0.00057118740633964403 0.022801520756257427 0 -0.0004041711748900221 0.022955806940391631 0 -0.00038502922901687708 0.022924172333592605 0 -0.00040708061790095223 0.023041281662001763 0 -0.0004041711748900221 0.022955806940391631 0 -0.00038502922901687708 0.022924172333592605 0 -0.00034009730270962753 0.022707163264986528 0 -0.00046033486048070726 0.022907900778017295 0 -0.0004041711748900221 0.022955806940391631 0 -0.00034009730270962753 0.022707163264986528 0 -0.00034009730270962753 0.022707163264986528 0 -0.00039993289638361689 0.022871394556616392 0 -0.00041153345416256336 0.022678998881049885 0 -0.00038502922901687708 0.022924172333592605 0 -0.00034009730270962753 0.022707163264986528 0 -0.00039993289638361689 0.022871394556616392 0 -0.00038502922901687708 0.022924172333592605 0 -0.00039993289638361689 0.022871394556616392 0 -0.00043675064327891052 0.023047217526211798 0 -0.00044101076883266396 0.023015171244341426 0 -0.00039993289638361689 0.022871394556616392 0 -0.00041153345416256336 0.022678998881049885 0 -0.00048875168273206202 0.023236278855671099 0 -0.00048415524806824352 0.023204988746063727 0 -0.00043675064327891052 0.023047217526211798 0 -0.00048415524806824352 0.023204988746063727 0 -0.00044101076883266396 0.023015171244341426 0 -0.00043675064327891052 0.023047217526211798 0 -0.00044101076883266396 0.023015171244341426 0 -0.00039993289638361689 0.022871394556616392 0 -0.00043675064327891052 0.023047217526211798 0 -0.00048875168273206202 0.023236278855671099 0 -0.00043675064327891052 0.023047217526211798 0 -0.00041830450481843926 0.023068249923922941 0 -0.00048875168273206202 0.023236278855671099 0 -0.00041830450481843926 0.023068249923922941 0 -0.00045532443228252191 0.023138883234069083 0 -0.00041830450481843926 0.023068249923922941 0 -0.00040708061790095223 0.023041281662001763 0 -0.00045532443228252191 0.023138883234069083 0 -0.00038502922901687708 0.022924172333592605 0 -0.00043675064327891052 0.023047217526211798 0 -0.00041830450481843926 0.023068249923922941 0 -0.00038502922901687708 0.022924172333592605 0 -0.00041830450481843926 0.023068249923922941 0 -0.00040708061790095223 0.023041281662001763 0 -0.00043773843454353241 0.023078885709991448 0 -0.00040708061790095223 0.023041281662001763 0 -0.00045532443228252191 0.023138883234069083 0 -0.00043773843454353241 0.023078885709991448 0 -0.0005181203531963674 0.023070319854074036 0 -0.00045532443228252191 0.023138883234069083 0 -0.00043773843454353241 0.023078885709991448 0 -0.0005181203531963674 0.023070319854074036 0 -0.00045958096227392695 0.023063253781376077 0 -0.0005181203531963674 0.023070319854074036 0 -0.00045958096227392695 0.023063253781376077 0 -0.00049052734899832952 0.023024275750762189 0 -0.00045958096227392695 0.023063253781376077 0 -0.00043423084350578586 0.02307398044403226 0 -0.00040839531293220232 0.023054151423135067 0 -0.00043773843454353241 0.023078885709991448 0 -0.00045958096227392695 0.023063253781376077 0 -0.00043423084350578586 0.02307398044403226 0 -0.00043423084350578586 0.02307398044403226 0 -0.00042004392042757486 0.023051822633800494 0 -0.00046890686896044689 0.023075215394083814 0 -0.00043773843454353241 0.023078885709991448 0 -0.00043423084350578586 0.02307398044403226 0 -0.00042004392042757486 0.023051822633800494 0 -0.00043773843454353241 0.023078885709991448 0 -0.00042004392042757486 0.023051822633800494 0 -0.00040708061790095223 0.023041281662001763 0 -0.0004041711748900221 0.022955806940391631 0 -0.00042004392042757486 0.023051822633800494 0 -0.00040708061790095223 0.023041281662001763 0 -0.0004041711748900221 0.022955806940391631 0 -0.00042004392042757486 0.023051822633800494 0 -0.00046890686896044689 0.023075215394083814 0 -0.00093482059648113298 0.022985494020496659 0 -0.00060302097324516719 0.023036281206509905 0 -0.00053419812018179545 0.022971477123679356 0 -0.00046033486048070726 0.022907900778017295 0 -0.0004041711748900221 0.022955806940391631 0 -0.00046890686896044689 0.023075215394083814 0 -0.0012636877562947828 0.020590069035081024 0 -0.00078279275700399468 0.020833071039369155 0 -0.0016510718230534414 0.018203830704777331 0 -0.0013690295413578389 0.018298626495985928 0 -0.00099094387582216717 0.018658965633269204 0 -0.00099094387582216717 0.018658965633269204 0 -0.0013755969650217942 0.019965130467868172 0 -0.0022448755646499257 0.01926091560993028 0 -0.0013690295413578389 0.018298626495985928 0 -0.00099094387582216717 0.018658965633269204 0 -0.0022448755646499257 0.01926091560993028 0 -0.00053430847109378859 0.023031306434914339 0 -0.00052682641699047816 0.022872678868484916 0 -0.00043423084350578586 0.02307398044403226 0 -0.00046890686896044689 0.023075215394083814 0 -0.00040839531293220232 0.023054151423135067 0 -0.00060302097324516719 0.023036281206509905 0 -0.00053419812018179545 0.022971477123679356 0 -0.000657250997506701 0.022687054252206434 0 -0.00078279275700399468 0.020833071039369155 0 -0.00049067795749095351 0.02141548131265443 0 -0.00053419812018179545 0.022971477123679356 0 -0.000657250997506701 0.022687054252206434 0 -0.00046413594874955842 0.022460448462624225 0 -0.000657250997506701 0.022687054252206434 0 -0.00046413594874955842 0.022460448462624225 0 -0.00059851213030341958 0.022293842369040813 0 -0.00099094387582216717 0.018658965633269204 0 -0.00045921849497170003 0.020359529606551144 0 -0.0013755969650217942 0.019965130467868172 0 -0.0013755969650217942 0.019965130467868172 0 -0.00094284083027142531 0.021037511672037209 0 -0.0015048063338972207 0.020924369176392319 0 -0.00045921849497170003 0.020359529606551144 0 -0.0013755969650217942 0.019965130467868172 0 -0.00094284083027142531 0.021037511672037209 0 -0.00094284083027142531 0.021037511672037209 0 -0.0015048063338972207 0.020924369176392319 0 -0.00099516279363829003 0.021737876282579911 0 -0.00049067795749095351 0.02141548131265443 0 -0.00047335352094757076 0.022083561304153468 0 -0.00046413594874955842 0.022460448462624225 0 -0.00059851213030341958 0.022293842369040813 0 -0.00049686672218611321 0.022145713695455014 0 -0.00045921849497170003 0.020359529606551144 0 -0.00094284083027142531 0.021037511672037209 0 -0.00049686672218611321 0.022145713695455014 0 -0.00038859725425127332 0.022922466040590686 0 -0.00055848909014756141 0.02293508433279819 0 -0.00049052734899832952 0.023024275750762189 0 -0.00038859725425127332 0.022922466040590686 0 -0.00055848909014756141 0.02293508433279819 0 -0.00054633769635247724 0.022773981024311721 0 -0.00055848909014756141 0.02293508433279819 0 -0.0006085940524231194 0.022857326375071152 0 -0.00064064398428560797 0.02296834224492578 0 -0.0005181203531963674 0.023070319854074036 0 -0.00049052734899832952 0.023024275750762189 0 -0.00058047496549476431 0.023017878275751566 0 -0.00055848909014756141 0.02293508433279819 0 -0.00049052734899832952 0.023024275750762189 0 -0.00058047496549476431 0.023017878275751566 0 -0.00040839531293220232 0.023054151423135067 0 -0.00038859725425127332 0.022922466040590686 0 -0.00049052734899832952 0.023024275750762189 0 -0.00045958096227392695 0.023063253781376077 0 -0.00040839531293220232 0.023054151423135067 0 -0.00049052734899832952 0.023024275750762189 0 -0.00052682641699047816 0.022872678868484916 0 -0.00049762952032130609 0.022616495266471071 0 -0.00040721208764499706 0.017482467585793349 0 -0.00054432001096764372 0.016528105111270921 0 -3.8697428564258035e-06 0.016741448536101843 0 -0.00040721208764499706 0.017482467585793349 0 -3.8697428564258035e-06 0.016741448536101843 0 0.00020710878060116748 0.017204843158738641 0 -0.00012541024534202771 0.01790060320795997 0 -0.00040721208764499706 0.017482467585793349 0 0.00020710878060116748 0.017204843158738641 0 -0.00040721208764499706 0.017482467585793349 0 -0.0010539851059046888 0.017275102061262756 0 -0.00054432001096764372 0.016528105111270921 0 -0.00090729988766047787 0.018171986207594571 0 -0.00040721208764499706 0.017482467585793349 0 -0.0010539851059046888 0.017275102061262756 0 -0.0012759554720047403 0.018243211516927847 0 -0.00090729988766047787 0.018171986207594571 0 -0.0010539851059046888 0.017275102061262756 0 -0.0012759554720047403 0.018243211516927847 0 -0.0013690295413578389 0.018298626495985928 0 -0.0010539851059046888 0.017275102061262756 0 -0.0013924469032873725 0.018288127284108509 0 -0.001588338946386532 0.018181294868194729 0 -0.0013755969650217942 0.019965130467868172 0 -0.0022448755646499257 0.01926091560993028 0 -0.0021143515228303077 0.020300786751037171 0 -0.0013755969650217942 0.019965130467868172 0 -0.0015048063338972207 0.020924369176392319 0 -0.0021143515228303077 0.020300786751037171 0 -0.0015048063338972207 0.020924369176392319 0 -0.0021143515228303077 0.020300786751037171 0 -0.0022111071831225058 0.021076030689263382 0 -0.0022111071831225058 0.021076030689263382 0 -0.0032101243791434224 0.020283644517692618 0 -0.0027398017602570388 0.021493241822295703 0 -0.0021143515228303077 0.020300786751037171 0 -0.0022111071831225058 0.021076030689263382 0 -0.0032101243791434224 0.020283644517692618 0 -0.0022448755646499257 0.01926091560993028 0 -0.0021143515228303077 0.020300786751037171 0 -0.0032101243791434224 0.020283644517692618 0 -0.001588338946386532 0.018181294868194729 0 -0.0019323603273132674 0.018828925282241466 0 -0.0019323603273132674 0.018828925282241466 0 -0.0023895118271294556 0.016199123017349937 0 -0.00054432001096764372 0.016528105111270921 0 -1.0752402641926072e-05 0.01637210510120455 0 -7.9308591852711595e-05 0.016015410923354092 0 -0.00054432001096764372 0.016528105111270921 0 -1.0752402641926072e-05 0.01637210510120455 0 -3.8697428564258035e-06 0.016741448536101843 0 -0.0015285422764519791 0.015216865523042581 0 -0.002190113760921081 0.015628851568257829 0 -0.0020395722618547284 0.014778629670307407 0 -0.0015285422764519791 0.015216865523042581 0 -0.0015836450218996944 0.01605207911494121 0 -0.002190113760921081 0.015628851568257829 0 -0.0023895118271294556 0.016199123017349937 0 -0.0028425371240901978 0.018774607330938043 0 -0.0032101243791434224 0.020283644517692618 0 -0.0042271165650834422 0.021191790496369364 0 -0.0035102941576661655 0.021749596358194651 0 -0.0032101243791434224 0.020283644517692618 0 -0.0035102941576661655 0.021749596358194651 0 -0.0027398017602570388 0.021493241822295703 0 -0.002190113760921081 0.015628851568257829 0 -0.0027925275678294969 0.015218288158230541 0 -0.0020395722618547284 0.014778629670307407 0 -0.0035102941576661655 0.021749596358194651 0 -0.002742763231872909 0.022348171029068244 0 -0.0027398017602570388 0.021493241822295703 0 -0.0022572778354221952 0.01927550484852222 0 -0.0013165498712954771 0.016258282417770796 0 -0.0028425371240901978 0.018774607330938043 0 -0.0022572778354221952 0.01927550484852222 0 -0.002742763231872909 0.022348171029068244 0 -0.0027398017602570388 0.021493241822295703 0 -0.001866886318220191 0.021941646140015852 0 -0.0022572778354221952 0.01927550484852222 0 -0.0024262850263729197 0.022295588561390092 0 -0.0022111071831225058 0.021076030689263382 0 -0.0027398017602570388 0.021493241822295703 0 -0.001866886318220191 0.021941646140015852 0 -0.0015048063338972207 0.020924369176392319 0 -0.0022111071831225058 0.021076030689263382 0 -0.0015456842977430219 0.021577072795400373 0 -0.0022111071831225058 0.021076030689263382 0 -0.0015456842977430219 0.021577072795400373 0 -0.001866886318220191 0.021941646140015852 0 -0.0015456842977430219 0.021577072795400373 0 -0.001866886318220191 0.021941646140015852 0 -0.0012123020206072205 0.022107069803461003 0 -0.001866886318220191 0.021941646140015852 0 -0.0015301695293210382 0.02234681461959535 0 -0.0012123020206072205 0.022107069803461003 0 -0.0024158948947431026 0.022221350650777405 0 -0.001866886318220191 0.021941646140015852 0 -0.0015301695293210382 0.02234681461959535 0 -0.0024158948947431026 0.022221350650777405 0 -0.0015301695293210382 0.02234681461959535 0 -0.0014654086891033333 0.022792387155929881 0 -0.0011420301335487355 0.021189554416664414 0 -0.00087197480333276042 0.020410165497344309 0 -0.0015301695293210382 0.02234681461959535 0 -0.001172934363232687 0.022631879484652787 0 -0.0014654086891033333 0.022792387155929881 0 -0.001172934363232687 0.022631879484652787 0 -0.0012720442240563223 0.022686860148852864 0 -0.00075227582802210396 0.022689741562465334 0 -0.0014840118730781342 0.021793898095087 0 -0.0011420301335487355 0.021189554416664414 0 -0.00048305143903713328 0.022840383029035943 0 -0.0004909640173919879 0.022614780901398814 0 -0.00075227582802210396 0.022689741562465334 0 -0.0004909640173919879 0.022614780901398814 0 -0.00063218430281213901 0.022536748855114301 0 -0.00039168922977206679 0.022456773531525816 0 -0.0004909640173919879 0.022614780901398814 0 -0.00019698395774871095 0.022633120515733584 0 -0.00039168922977206679 0.022456773531525816 0 -0.00048305143903713328 0.022840383029035943 0 -0.0004909640173919879 0.022614780901398814 0 -0.00019698395774871095 0.022633120515733584 0 -0.00019698395774871095 0.022633120515733584 0 1.8787037822710413e-05 0.022471529864067748 0 -0.00016430210693805632 0.022383503054058715 0 -0.0018740932657241311 0.018271557484238962 0 -0.0015849404338112727 0.018117908621290077 0 -0.0014802166374129914 0.018326362250389625 0 -0.0022572778354221952 0.01927550484852222 0 -0.0011420301335487355 0.021189554416664414 0 -0.0015557814569583368 0.018547211131876757 0 -0.0018740932657241311 0.018271557484238962 0 -0.0014802166374129914 0.018326362250389625 0 -0.0015557814569583368 0.018547211131876757 0 -0.0014802166374129914 0.018326362250389625 0 -0.0009382796764568508 0.018269036735823422 0 -0.0014802166374129914 0.018326362250389625 0 -0.0009382796764568508 0.018269036735823422 0 -0.0008101367640320717 0.017771730462886735 0 -0.0015849404338112727 0.018117908621290077 0 -0.0014802166374129914 0.018326362250389625 0 -0.0013597928228896575 0.018000028268099703 0 -0.0014802166374129914 0.018326362250389625 0 -0.0011433972822270982 0.017290319765515493 0 -0.0008101367640320717 0.017771730462886735 0 -0.00087197480333276042 0.020410165497344309 0 -0.0011106607017138958 0.018974282511827756 0 -0.0014404921072728014 0.017749967060895318 0 -0.0011106607017138958 0.018974282511827756 0 -0.0011433972822270982 0.017290319765515493 0 -0.0008101367640320717 0.017771730462886735 0 -0.00053304912790450606 0.017398714881994459 0 -0.0008101367640320717 0.017771730462886735 0 -0.00053304912790450606 0.017398714881994459 0 -0.0002087675823093092 0.017863912640186309 0 -0.0015285422764519791 0.015216865523042581 0 -0.0020395722618547284 0.014778629670307407 0 -0.0012714765209811746 0.014335535603346541 0 -0.0013165498712954771 0.016258282417770796 0 -0.00086898173108407425 0.016263017173137242 0 -0.0009382796764568508 0.018269036735823422 0 -0.0008101367640320717 0.017771730462886735 0 -0.0002087675823093092 0.017863912640186309 0 -0.00048224635949871815 0.022480473234399743 0 -0.00055691128308613482 0.022602361021607502 0 -0.00057064097009199824 0.022563583422375352 0 -0.00048224635949871815 0.022480473234399743 0 -0.00055532846673301715 0.022418170083121192 0 -0.00057064097009199824 0.022563583422375352 0 -0.00048224635949871815 0.022480473234399743 0 -0.00049686672218611321 0.022145713695455014 0 -0.00055532846673301715 0.022418170083121192 0 -0.00055691128308613482 0.022602361021607502 0 -0.00060278498916947981 0.022712862127547116 0 -0.00063140633618521014 0.022675959831512535 0 -0.00048224635949871815 0.022480473234399743 0 -0.00055691128308613482 0.022602361021607502 0 -0.00060278498916947981 0.022712862127547116 0 -0.00060278498916947981 0.022712862127547116 0 -0.00063140633618521014 0.022675959831512535 0 -0.00066411604162246261 0.022789007089133367 0 -0.00048224635949871815 0.022480473234399743 0 -0.00060278498916947981 0.022712862127547116 0 -0.00054633769635247724 0.022773981024311721 0 -0.00060278498916947981 0.022712862127547116 0 -0.0006085940524231194 0.022857326375071152 0 -0.00054633769635247724 0.022773981024311721 0 -0.00055848909014756141 0.02293508433279819 0 -0.0006085940524231194 0.022857326375071152 0 -0.00054633769635247724 0.022773981024311721 0 -0.00059851213030341958 0.022293842369040813 0 -0.00048224635949871815 0.022480473234399743 0 -0.00049686672218611321 0.022145713695455014 0 -0.00049762952032130609 0.022616495266471071 0 -0.00048717543981250397 0.022491188167752762 0 -0.00038859725425127332 0.022922466040590686 0 -0.00048224635949871815 0.022480473234399743 0 -0.00054633769635247724 0.022773981024311721 0 -0.00094284083027142531 0.021037511672037209 0 -0.00049686672218611321 0.022145713695455014 0 -0.00099516279363829003 0.021737876282579911 0 -0.00049686672218611321 0.022145713695455014 0 -0.00099516279363829003 0.021737876282579911 0 -0.00078093252821991835 0.022266317706566886 0 -0.0015048063338972207 0.020924369176392319 0 -0.0015456842977430219 0.021577072795400373 0 -0.00099516279363829003 0.021737876282579911 0 -0.0015456842977430219 0.021577072795400373 0 -0.00099516279363829003 0.021737876282579911 0 -0.0012123020206072205 0.022107069803461003 0 -0.00099516279363829003 0.021737876282579911 0 -0.0012123020206072205 0.022107069803461003 0 -0.00078093252821991835 0.022266317706566886 0 -0.00097674143257482919 0.022432827881101826 0 -0.00078093252821991835 0.022266317706566886 0 -0.00068973532895765422 0.022519677803543806 0 -0.0012123020206072205 0.022107069803461003 0 -0.00097674143257482919 0.022432827881101826 0 -0.00078093252821991835 0.022266317706566886 0 -0.0015301695293210382 0.02234681461959535 0 -0.0012123020206072205 0.022107069803461003 0 -0.00097674143257482919 0.022432827881101826 0 -0.00055532846673301715 0.022418170083121192 0 -0.00068973532895765422 0.022519677803543806 0 -0.00057064097009199824 0.022563583422375352 0 -0.00049686672218611321 0.022145713695455014 0 -0.00078093252821991835 0.022266317706566886 0 -0.00055532846673301715 0.022418170083121192 0 -0.00078093252821991835 0.022266317706566886 0 -0.00055532846673301715 0.022418170083121192 0 -0.00068973532895765422 0.022519677803543806 0 -0.00068973532895765422 0.022519677803543806 0 -0.00068295162009063292 0.022622527850891656 0 -0.00057064097009199824 0.022563583422375352 0 -0.00068973532895765422 0.022519677803543806 0 -0.00082505353960854618 0.022609848662849676 0 -0.00068295162009063292 0.022622527850891656 0 -0.0015301695293210382 0.02234681461959535 0 -0.001172934363232687 0.022631879484652787 0 -0.00097674143257482919 0.022432827881101826 0 -0.001172934363232687 0.022631879484652787 0 -0.00097674143257482919 0.022432827881101826 0 -0.00082505353960854618 0.022609848662849676 0 -0.00097674143257482919 0.022432827881101826 0 -0.00068973532895765422 0.022519677803543806 0 -0.00082505353960854618 0.022609848662849676 0 -0.00082505353960854618 0.022609848662849676 0 -0.00075227582802210396 0.022689741562465334 0 -0.00068295162009063292 0.022622527850891656 0 -0.001172934363232687 0.022631879484652787 0 -0.00082505353960854618 0.022609848662849676 0 -0.00075227582802210396 0.022689741562465334 0 -0.0011420301335487355 0.021189554416664414 0 -0.00048858436552705299 0.022769207675311872 0 -0.00075227582802210396 0.022689741562465334 0 -0.00063218430281213901 0.022536748855114301 0 -0.00068295162009063292 0.022622527850891656 0 -0.0004909640173919879 0.022614780901398814 0 -0.00075227582802210396 0.022689741562465334 0 -0.00063218430281213901 0.022536748855114301 0 -0.00068295162009063292 0.022622527850891656 0 -0.00063177992040387915 0.022591990804211447 0 -0.00064645750015511743 0.022521380400264981 0 -0.00063218430281213901 0.022536748855114301 0 -0.00068295162009063292 0.022622527850891656 0 -0.00064645750015511743 0.022521380400264981 0 -0.00063177992040387915 0.022591990804211447 0 -0.00065821402131766656 0.022489902257685046 0 -0.00064645750015511743 0.022521380400264981 0 -0.00063177992040387915 0.022591990804211447 0 -0.00057064097009199824 0.022563583422375352 0 -0.00060810081679006417 0.022611636125724841 0 -0.00068295162009063292 0.022622527850891656 0 -0.00063177992040387915 0.022591990804211447 0 -0.00057064097009199824 0.022563583422375352 0 -0.00055691128308613482 0.022602361021607502 0 -0.00057064097009199824 0.022563583422375352 0 -0.00060810081679006417 0.022611636125724841 0 -0.00063140633618521014 0.022675959831512535 0 -0.00060810081679006417 0.022611636125724841 0 -0.00069002681670719238 0.022600085361505332 0 -0.00055691128308613482 0.022602361021607502 0 -0.00063140633618521014 0.022675959831512535 0 -0.00060810081679006417 0.022611636125724841 0 -0.00063177992040387915 0.022591990804211447 0 -0.00069002681670719238 0.022600085361505332 0 -0.00071246649051261396 0.022461666255628818 0 -0.00063177992040387915 0.022591990804211447 0 -0.00060810081679006417 0.022611636125724841 0 -0.00069002681670719238 0.022600085361505332 0 -0.00069002681670719238 0.022600085361505332 0 -0.00080128979180691003 0.022621813599623064 0 -0.00071756734048036461 0.022733315761570855 0 -0.00069002681670719238 0.022600085361505332 0 -0.00080128979180691003 0.022621813599623064 0 -0.00076783785324175595 0.022521976624313551 0 -0.00080128979180691003 0.022621813599623064 0 -0.00080091642376780637 0.022704143377993476 0 -0.00071756734048036461 0.022733315761570855 0 -0.00080091642376780637 0.022704143377993476 0 -0.00084849474231593342 0.022729060576803281 0 -0.00083321509980890918 0.022642776723636057 0 -0.00080128979180691003 0.022621813599623064 0 -0.00080091642376780637 0.022704143377993476 0 -0.00083321509980890918 0.022642776723636057 0 -0.00080091642376780637 0.022704143377993476 0 -0.00077374956942230196 0.022836627879372035 0 -0.00084849474231593342 0.022729060576803281 0 -0.00077374956942230196 0.022836627879372035 0 -0.00071930749250172915 0.02289828119529061 0 -0.00077523160384336954 0.023112520813080406 0 -0.00080091642376780637 0.022704143377993476 0 -0.00077374956942230196 0.022836627879372035 0 -0.00071756734048036461 0.022733315761570855 0 -0.00077374956942230196 0.022836627879372035 0 -0.00071756734048036461 0.022733315761570855 0 -0.00071930749250172915 0.02289828119529061 0 -0.00063140633618521014 0.022675959831512535 0 -0.00069002681670719238 0.022600085361505332 0 -0.00071756734048036461 0.022733315761570855 0 -0.00071756734048036461 0.022733315761570855 0 -0.00066411604162246261 0.022789007089133367 0 -0.00071930749250172915 0.02289828119529061 0 -0.00063140633618521014 0.022675959831512535 0 -0.00071756734048036461 0.022733315761570855 0 -0.00066411604162246261 0.022789007089133367 0 -0.00060278498916947981 0.022712862127547116 0 -0.00066411604162246261 0.022789007089133367 0 -0.00068807606263945572 0.022924521650678858 0 -0.00066411604162246261 0.022789007089133367 0 -0.00071930749250172915 0.02289828119529061 0 -0.00068807606263945572 0.022924521650678858 0 -0.00071930749250172915 0.02289828119529061 0 -0.0007455302349633462 0.023042846191125409 0 -0.00068807606263945572 0.022924521650678858 0 -0.00071930749250172915 0.02289828119529061 0 -0.0007455302349633462 0.023042846191125409 0 -0.00077523160384336954 0.023112520813080406 0 -0.0007455302349633462 0.023042846191125409 0 -0.00072869642138824442 0.023039220879563307 0 -0.00068807606263945572 0.022924521650678858 0 -0.00072869642138824442 0.023039220879563307 0 -0.00068807606263945572 0.022924521650678858 0 -0.00069617510197135513 0.023024287429936063 0 -0.00060278498916947981 0.022712862127547116 0 -0.0006085940524231194 0.022857326375071152 0 -0.00068807606263945572 0.022924521650678858 0 -0.0006085940524231194 0.022857326375071152 0 -0.00068807606263945572 0.022924521650678858 0 -0.00064064398428560797 0.02296834224492578 0 -0.00076752167916539467 0.023174705152491516 0 -0.00074445446718567326 0.023535633747776716 0 -0.00069989981957532116 0.023197720250165348 0 -0.00074445446718567326 0.023535633747776716 0 -0.00049122863649485608 0.02345270192634568 0 -0.00069989981957532116 0.023197720250165348 0 -0.00076752167916539467 0.023174705152491516 0 -0.00073521303422761052 0.023090185019111652 0 -0.00069989981957532116 0.023197720250165348 0 -0.00072869642138824442 0.023039220879563307 0 -0.00076752167916539467 0.023174705152491516 0 -0.00073521303422761052 0.023090185019111652 0 -0.0007455302349633462 0.023042846191125409 0 -0.00072869642138824442 0.023039220879563307 0 -0.00076752167916539467 0.023174705152491516 0 -0.0007455302349633462 0.023042846191125409 0 -0.00076752167916539467 0.023174705152491516 0 -0.00077523160384336954 0.023112520813080406 0 -0.00076752167916539467 0.023174705152491516 0 -0.00077523160384336954 0.023112520813080406 0 -0.00074445446718567326 0.023535633747776716 0 -0.00077523160384336954 0.023112520813080406 0 -0.00074445446718567326 0.023535633747776716 0 -0.00092620287203336923 0.02285375629783502 0 -0.00074445446718567326 0.023535633747776716 0 -0.00094284606690318645 0.024462298584328437 0 -0.00059170942392710354 0.024268634827895152 0 -0.00075293829219563464 0.023510534667986617 0 -0.00092259483514484661 0.023629283406960407 0 -0.00094284606690318645 0.024462298584328437 0 -0.00072789475486836756 0.02448957358643452 0 -0.00059170942392710354 0.024268634827895152 0 -0.00077523160384336954 0.023112520813080406 0 -0.00092620287203336923 0.02285375629783502 0 -0.00082873131703072847 0.022874472139542478 0 -0.00077374956942230196 0.022836627879372035 0 -0.00077523160384336954 0.023112520813080406 0 -0.00082873131703072847 0.022874472139542478 0 -0.00077374956942230196 0.022836627879372035 0 -0.00082873131703072847 0.022874472139542478 0 -0.00084849474231593342 0.022729060576803281 0 -0.00084849474231593342 0.022729060576803281 0 -0.00091099183848736048 0.022714883216588117 0 -0.00089807316552621501 0.022588099998843314 0 -0.00092620287203336923 0.02285375629783502 0 -0.00084849474231593342 0.022729060576803281 0 -0.00091099183848736048 0.022714883216588117 0 -0.00092259483514484661 0.023629283406960407 0 -0.0010644135579554904 0.023628978804880012 0 -0.00092620287203336923 0.02285375629783502 0 -0.00082873131703072847 0.022874472139542478 0 -0.00084849474231593342 0.022729060576803281 0 -0.00072789475486836756 0.02448957358643452 0 -0.00078342630143556384 0.024636912131199298 0 -0.00058487455625136884 0.024561323535390974 0 -0.00072789475486836756 0.02448957358643452 0 -0.00058487455625136884 0.024561323535390974 0 -0.00059170942392710354 0.024268634827895152 0 -0.00094284606690318645 0.024462298584328437 0 -0.00072789475486836756 0.02448957358643452 0 -0.00078342630143556384 0.024636912131199298 0 -0.00094284606690318645 0.024462298584328437 0 -0.00096213319925548505 0.024632879932331531 0 -0.00078342630143556384 0.024636912131199298 0 -0.00096213319925548505 0.024632879932331531 0 -0.00078342630143556384 0.024636912131199298 0 -0.00083306894245861783 0.024766777966809386 0 -0.00078342630143556384 0.024636912131199298 0 -0.00066206764555036773 0.024710671117941941 0 -0.00058487455625136884 0.024561323535390974 0 -0.00078342630143556384 0.024636912131199298 0 -0.00066206764555036773 0.024710671117941941 0 -0.00083306894245861783 0.024766777966809386 0 -0.00045757439741191623 0.024652354227995051 0 -0.00013359234004223252 0.024548598378212688 0 -0.00042424484460778611 0.024798438197611662 0 -0.00039659821540687041 0.024481639844841151 0 -0.00045757439741191623 0.024652354227995051 0 -0.00013359234004223252 0.024548598378212688 0 -0.00066206764555036773 0.024710671117941941 0 -0.00058487455625136884 0.024561323535390974 0 -0.00045757439741191623 0.024652354227995051 0 -0.00066206764555036773 0.024710671117941941 0 -0.00045757439741191623 0.024652354227995051 0 -0.00057309388718540977 0.024783699582503912 0 -0.00058487455625136884 0.024561323535390974 0 -0.00039659821540687041 0.024481639844841151 0 -0.00059170942392710354 0.024268634827895152 0 -0.00058487455625136884 0.024561323535390974 0 -0.00039659821540687041 0.024481639844841151 0 -0.00045757439741191623 0.024652354227995051 0 -0.00039659821540687041 0.024481639844841151 0 -0.00013359234004223252 0.024548598378212688 0 -0.00028909141982134257 0.024328973863526223 0 -0.00013359234004223252 0.024548598378212688 0 -0.0001105816821729351 0.024270476385122947 0 -6.1404049318724299e-05 0.024364675086032853 0 -0.00013359234004223252 0.024548598378212688 0 -0.0001105816821729351 0.024270476385122947 0 -0.00028909141982134257 0.024328973863526223 0 -0.0001105816821729351 0.024270476385122947 0 -6.1404049318724299e-05 0.024364675086032853 0 -8.2835867821217206e-05 0.024429725918591813 0 -0.0001105816821729351 0.024270476385122947 0 -0.00028909141982134257 0.024328973863526223 0 -0.00039019669162663817 0.024015798559990701 0 -0.00059170942392710354 0.024268634827895152 0 -0.00028909141982134257 0.024328973863526223 0 -0.00039019669162663817 0.024015798559990701 0 -0.00039659821540687041 0.024481639844841151 0 -0.00059170942392710354 0.024268634827895152 0 -0.00028909141982134257 0.024328973863526223 0 -3.9412408775945654e-08 0.025000013257584136 0 -3.4914647321628671e-05 0.024996662748370192 0 -1.5648297276394856e-05 0.025000734607779115 0 -3.9412408775945654e-08 0.025000013257584136 0 -3.4914647321628671e-05 0.024996662748370192 0 -2.6322471712039502e-05 0.024993092338055176 0 -5.2477138044852959e-05 0.024989239987907131 0 -3.4914647321628671e-05 0.024996662748370192 0 -3.2840024999449692e-05 0.024999502277699322 0 -5.2477138044852959e-05 0.024989239987907131 0 -3.4914647321628671e-05 0.024996662748370192 0 -8.4482032559593214e-05 0.024961166643674721 0 -3.4914647321628671e-05 0.024996662748370192 0 -8.4482032559593214e-05 0.024961166643674721 0 -2.6322471712039502e-05 0.024993092338055176 0 -8.4482032559593214e-05 0.024961166643674721 0 -2.6322471712039502e-05 0.024993092338055176 0 -8.8417867548328509e-05 0.024792933951462547 0 -0.0001068885858689562 0.024785483182763267 0 -5.9276874754647278e-05 0.024670386384771859 0 -3.9412408775945654e-08 0.025000013257584136 0 3.3668826708786324e-08 0.024999929523327732 0 -2.6322471712039502e-05 0.024993092338055176 0 3.3668826708786324e-08 0.024999929523327732 0 -2.6322471712039502e-05 0.024993092338055176 0 -8.8417867548328509e-05 0.024792933951462547 0 3.3668826708786324e-08 0.024999929523327732 0 -8.8417867548328509e-05 0.024792933951462547 0 -1.6775150492950175e-07 0.02499908208140629 0 -6.1404049318724299e-05 0.024364675086032853 0 -8.8417867548328509e-05 0.024792933951462547 0 -8.2835867821217206e-05 0.024429725918591813 0 -5.9276874754647278e-05 0.024670386384771859 0 -8.2072795622469515e-05 0.024752275860242812 0 -8.8417867548328509e-05 0.024792933951462547 0 -8.2835867821217206e-05 0.024429725918591813 0 -0.00011473022482050724 0.024639860932253007 0 -8.2835867821217206e-05 0.024429725918591813 0 -0.00011473022482050724 0.024639860932253007 0 -0.00010958884051745972 0.024454525309792859 0 -0.00012173890056885987 0.024707070100750798 0 -8.4359851116413197e-05 0.024804530207130377 0 -9.9172941986329209e-05 0.024698218658222314 0 -0.00011473022482050724 0.024639860932253007 0 -0.00010977788776828143 0.024627208434265996 0 -0.00010958884051745972 0.024454525309792859 0 -0.00010977788776828143 0.024627208434265996 0 -0.00012173890056885987 0.024707070100750798 0 -0.00010929437302584048 0.024709656565273141 0 -0.00011473022482050724 0.024639860932253007 0 -0.00010977788776828143 0.024627208434265996 0 -0.00012173890056885987 0.024707070100750798 0 -8.8417867548328509e-05 0.024792933951462547 0 -0.00011473022482050724 0.024639860932253007 0 -8.4359851116413197e-05 0.024804530207130377 0 -0.00011473022482050724 0.024639860932253007 0 -0.00012173890056885987 0.024707070100750798 0 -8.4359851116413197e-05 0.024804530207130377 0 -1.6775150492950175e-07 0.02499908208140629 0 -8.4359851116413197e-05 0.024804530207130377 0 -9.9172941986329209e-05 0.024698218658222314 0 -8.8417867548328509e-05 0.024792933951462547 0 -1.6775150492950175e-07 0.02499908208140629 0 -8.4359851116413197e-05 0.024804530207130377 0 -0.00039019669162663817 0.024015798559990701 0 -0.00011751454478888639 0.024070516670292707 0 -0.00049122863649485608 0.02345270192634568 0 -0.00074445446718567326 0.023535633747776716 0 -0.00059170942392710354 0.024268634827895152 0 -0.00039019669162663817 0.024015798559990701 0 -0.00074445446718567326 0.023535633747776716 0 -0.00039019669162663817 0.024015798559990701 0 -0.00049122863649485608 0.02345270192634568 0 -0.0001105816821729351 0.024270476385122947 0 -0.00039019669162663817 0.024015798559990701 0 -0.00011751454478888639 0.024070516670292707 0 -0.0001105816821729351 0.024270476385122947 0 -8.2835867821217206e-05 0.024429725918591813 0 -0.00011751454478888639 0.024070516670292707 0 -8.2835867821217206e-05 0.024429725918591813 0 -0.00011751454478888639 0.024070516670292707 0 -0.00010958884051745972 0.024454525309792859 0 -0.00011751454478888639 0.024070516670292707 0 -0.00010958884051745972 0.024454525309792859 0 4.2311100328719882e-06 0.024615501440780882 0 -0.00011094384594080816 0.024105178378586938 0 -8.0370259557872812e-05 0.023992677833241834 0 -0.00011751454478888639 0.024070516670292707 0 -0.00013007832010618532 0.023394792175874535 0 -0.00049122863649485608 0.02345270192634568 0 -0.00010977788776828143 0.024627208434265996 0 -0.00010958884051745972 0.024454525309792859 0 4.2311100328719882e-06 0.024615501440780882 0 -0.00010977788776828143 0.024627208434265996 0 4.2311100328719882e-06 0.024615501440780882 0 -0.00010929437302584048 0.024709656565273141 0 -0.00049122863649485608 0.02345270192634568 0 -0.00053281486746367375 0.023185291706960952 0 -0.00032857643748237939 0.023217627024253871 0 -0.00049122863649485608 0.02345270192634568 0 -0.00053281486746367375 0.023185291706960952 0 -0.00069989981957532116 0.023197720250165348 0 -0.00013007832010618532 0.023394792175874535 0 -0.00049122863649485608 0.02345270192634568 0 -0.00032857643748237939 0.023217627024253871 0 -0.00045239400425184427 0.023114686183509769 0 -0.00019259772722358967 0.023115987985466411 0 -0.00051980843506597193 0.022991920682559706 0 -0.00053281486746367375 0.023185291706960952 0 -0.00045239400425184427 0.023114686183509769 0 -0.00060940603988650051 0.023092100615390829 0 -0.00053281486746367375 0.023185291706960952 0 -0.00045239400425184427 0.023114686183509769 0 -0.00032857643748237939 0.023217627024253871 0 -0.00013007832010618532 0.023394792175874535 0 -0.00032857643748237939 0.023217627024253871 0 -0.00019259772722358967 0.023115987985466411 0 -8.0370259557872812e-05 0.023992677833241834 0 -0.00016469736035250779 0.024135984985156331 0 4.2311100328719882e-06 0.024615501440780882 0 -4.3900218400012955e-05 0.02476930623205446 0 -0.00010929437302584048 0.024709656565273141 0 -0.00016469736035250779 0.024135984985156331 0 3.0163898686003824e-05 0.02457950340915515 0 -0.00045239400425184427 0.023114686183509769 0 -0.00032857643748237939 0.023217627024253871 0 -0.00019259772722358967 0.023115987985466411 0 -9.3846992203946888e-05 0.024441455164457154 0 -8.2978477263172102e-05 0.024399312763295003 0 -0.00014821981775688564 0.024396817436235448 0 -0.00016469736035250779 0.024135984985156331 0 -0.00034603886958854414 0.023655300651505555 0 -8.2978477263172102e-05 0.024399312763295003 0 -0.00014821981775688564 0.024396817436235448 0 -0.00013163675812226708 0.024348183960855131 0 -0.00016469736035250779 0.024135984985156331 0 -8.8077415648327731e-05 0.024668096576261823 0 -0.00045239400425184427 0.023114686183509769 0 -0.00051980843506597193 0.022991920682559706 0 -0.00060940603988650051 0.023092100615390829 0 1.3277983532351983e-08 0.025000021999043956 0 -2.3574405000046773e-05 0.025012161758494571 0 -5.3946690319338383e-08 0.025000017890603573 0 -5.1118720304814229e-08 0.024999905763754181 0 -6.1675527382864926e-05 0.024881872279716083 0 -0.0001159291248126663 0.024699889796499515 0 -9.9172941986329209e-05 0.024698218658222314 0 -0.00010929437302584048 0.024709656565273141 0 -0.0001159291248126663 0.024699889796499515 0 -0.00011346521072934291 0.024686584862528244 0 -9.9172941986329209e-05 0.024698218658222314 0 -0.00012173890056885987 0.024707070100750798 0 -9.9172941986329209e-05 0.024698218658222314 0 -0.00010929437302584048 0.024709656565273141 0 -7.8577953279144116e-05 0.024998079616318399 0 -2.3574405000046773e-05 0.025012161758494571 0 -3.1436535914978432e-05 0.024988996819429919 0 -8.8077415648327731e-05 0.024668096576261823 0 -6.1675527382864926e-05 0.024881872279716083 0 -2.3574405000046773e-05 0.025012161758494571 0 -3.1436535914978432e-05 0.024988996819429919 0 -5.3946690319338383e-08 0.025000017890603573 0 -3.1436535914978432e-05 0.024988996819429919 0 -5.3946690319338383e-08 0.025000017890603573 0 9.1914027242876907e-08 0.024999903450025465 0 -3.1436535914978432e-05 0.024988996819429919 0 -9.0607661972993966e-05 0.024925597573368461 0 9.1914027242876907e-08 0.024999903450025465 0 -7.8577953279144116e-05 0.024998079616318399 0 -3.1436535914978432e-05 0.024988996819429919 0 -9.0607661972993966e-05 0.024925597573368461 0 -3.9350790975808595e-05 0.024657373874459911 0 -9.0607661972993966e-05 0.024925597573368461 0 9.1914027242876907e-08 0.024999903450025465 0 -4.6472904903615857e-05 0.024646934473911829 0 -6.6826963819903838e-05 0.024660065814934781 0 -3.9350790975808595e-05 0.024657373874459911 0 -5.6831364485462813e-05 0.024378098429623993 0 -3.6863896346844136e-05 0.024441744500994643 0 -0.00012715409760983179 0.024332485329841266 0 -0.00018653225245024804 0.024278002286920761 0 -0.00034603886958854414 0.023655300651505555 0 -0.0004552923098422803 0.023700790093697827 0 -0.00013163675812226708 0.024348183960855131 0 -0.00020080525154149884 0.02425360852278426 0 -0.00023814213017094509 0.024343978186213294 0 -0.00014821981775688564 0.024396817436235448 0 -0.00013163675812226708 0.024348183960855131 0 -0.00023814213017094509 0.024343978186213294 0 -5.6831364485462813e-05 0.024378098429623993 0 -8.527097276123116e-05 0.024394818797269728 0 -7.8760907867725087e-05 0.024336202286669231 0 -8.8077415648327731e-05 0.024668096576261823 0 -0.00012715409760983179 0.024332485329841266 0 -8.8077415648327731e-05 0.024668096576261823 0 -6.6826963819903838e-05 0.024660065814934781 0 -6.1945382322473326e-05 0.024418320580637989 0 -5.6831364485462813e-05 0.024378098429623993 0 -8.527097276123116e-05 0.024394818797269728 0 -8.8968866933200174e-05 0.02427731215076789 0 -3.6863896346844136e-05 0.024441744500994643 0 -7.8760907867725087e-05 0.024336202286669231 0 -5.6831364485462813e-05 0.024378098429623993 0 -3.6863896346844136e-05 0.024441744500994643 0 -7.8760907867725087e-05 0.024336202286669231 0 -8.527097276123116e-05 0.024394818797269728 0 -7.8760907867725087e-05 0.024336202286669231 0 -0.00020080525154149884 0.02425360852278426 0 -0.00018538284679730604 0.024135557492422105 0 -7.8760907867725087e-05 0.024336202286669231 0 -0.00020080525154149884 0.02425360852278426 0 -0.00029233105141077039 0.024024007345664102 0 -0.00020080525154149884 0.02425360852278426 0 -0.00044356512298712373 0.024102860796940288 0 -0.00020080525154149884 0.02425360852278426 0 -0.00023814213017094509 0.024343978186213294 0 -0.00044356512298712373 0.024102860796940288 0 -0.00018538284679730604 0.024135557492422105 0 -0.00029233105141077039 0.024024007345664102 0 -0.00020080525154149884 0.02425360852278426 0 -0.00069562328014960775 0.023037517825238586 0 -0.00066167152781718196 0.023039403909145228 0 -0.00069528905742965205 0.023050070691807735 0 -0.00069562328014960775 0.023037517825238586 0 -0.00068890804831420486 0.023082569974991276 0 -0.00072450622795935168 0.023191876744394189 0 -0.00069562328014960775 0.023037517825238586 0 -0.00068890804831420486 0.023082569974991276 0 -0.00069528905742965205 0.023050070691807735 0 -0.00068890804831420486 0.023082569974991276 0 -0.00066040632867179669 0.023057926026718752 0 -0.00069528905742965205 0.023050070691807735 0 -0.00068890804831420486 0.023082569974991276 0 -0.00072450622795935168 0.023191876744394189 0 -0.00058796853887224405 0.023116839074119423 0 -0.0004552923098422803 0.023700790093697827 0 -0.00055642928395363946 0.023637316315679259 0 -0.00056720347699629604 0.023447601602394209 0 -0.00072450622795935168 0.023191876744394189 0 -0.00058796853887224405 0.023116839074119423 0 -0.0005181203531963674 0.023070319854074036 0 -0.00058796853887224405 0.023116839074119423 0 -0.00045532443228252191 0.023138883234069083 0 -0.00056720347699629604 0.023447601602394209 0 -0.00058796853887224405 0.023116839074119423 0 -0.00045532443228252191 0.023138883234069083 0 -0.0005181203531963674 0.023070319854074036 0 -0.00058796853887224405 0.023116839074119423 0 -0.00060613573780261463 0.023052644100642696 0 -0.00058796853887224405 0.023116839074119423 0 -0.00066040632867179669 0.023057926026718752 0 -0.00060613573780261463 0.023052644100642696 0 -0.00068890804831420486 0.023082569974991276 0 -0.00058796853887224405 0.023116839074119423 0 -0.00066040632867179669 0.023057926026718752 0 -0.00066040632867179669 0.023057926026718752 0 -0.00065612996947460951 0.023032142535174906 0 -0.00060613573780261463 0.023052644100642696 0 -0.00066040632867179669 0.023057926026718752 0 -0.00065612996947460951 0.023032142535174906 0 -0.00070141483295092311 0.02305166295243866 0 -0.0005181203531963674 0.023070319854074036 0 -0.00060613573780261463 0.023052644100642696 0 -0.00058047496549476431 0.023017878275751566 0 -0.00065612996947460951 0.023032142535174906 0 -0.00060613573780261463 0.023052644100642696 0 -0.00058047496549476431 0.023017878275751566 0 -0.00068807606263945572 0.022924521650678858 0 -0.00064064398428560797 0.02296834224492578 0 -0.00069617510197135513 0.023024287429936063 0 -0.00055848909014756141 0.02293508433279819 0 -0.00058047496549476431 0.023017878275751566 0 -0.00064064398428560797 0.02296834224492578 0 -0.00065612996947460951 0.023032142535174906 0 -0.00058047496549476431 0.023017878275751566 0 -0.00064064398428560797 0.02296834224492578 0 -0.00069617510197135513 0.023024287429936063 0 -0.00073521303422761052 0.023090185019111652 0 -0.00070141483295092311 0.02305166295243866 0 -0.00065612996947460951 0.023032142535174906 0 -0.00069617510197135513 0.023024287429936063 0 -0.00070141483295092311 0.02305166295243866 0 -0.00065612996947460951 0.023032142535174906 0 -0.00064064398428560797 0.02296834224492578 0 -0.00069617510197135513 0.023024287429936063 0 -0.00072869642138824442 0.023039220879563307 0 -0.00069617510197135513 0.023024287429936063 0 -0.00073521303422761052 0.023090185019111652 0 -0.00073521303422761052 0.023090185019111652 0 -0.00069989981957532116 0.023197720250165348 0 -0.00070225151370537477 0.023073298743844037 0 -0.00073521303422761052 0.023090185019111652 0 -0.00070141483295092311 0.02305166295243866 0 -0.00070225151370537477 0.023073298743844037 0 -0.00069989981957532116 0.023197720250165348 0 -0.00060940603988650051 0.023092100615390829 0 -0.00070225151370537477 0.023073298743844037 0 -0.00053281486746367375 0.023185291706960952 0 -0.00069989981957532116 0.023197720250165348 0 -0.00060940603988650051 0.023092100615390829 0 -0.00051980843506597193 0.022991920682559706 0 -0.00060940603988650051 0.023092100615390829 0 -0.00066167152781718196 0.023039403909145228 0 -0.00060940603988650051 0.023092100615390829 0 -0.00066167152781718196 0.023039403909145228 0 -0.00070225151370537477 0.023073298743844037 0 -0.00051980843506597193 0.022991920682559706 0 -0.00069562328014960775 0.023037517825238586 0 -0.00066167152781718196 0.023039403909145228 0 -0.00066167152781718196 0.023039403909145228 0 -0.00069528905742965205 0.023050070691807735 0 -0.00070225151370537477 0.023073298743844037 0 -0.00066040632867179669 0.023057926026718752 0 -0.00069528905742965205 0.023050070691807735 0 -0.00070141483295092311 0.02305166295243866 0 -0.00069528905742965205 0.023050070691807735 0 -0.00070141483295092311 0.02305166295243866 0 -0.00070225151370537477 0.023073298743844037 0 0.00039212909451043318 0.001511395539100959 0 -3.8926397344370263e-05 0.0019017536900345932 0 0.00050033022939598257 0.0018482501667991794 0 0.00039212909451043318 0.001511395539100959 0 -3.8926397344370263e-05 0.0019017536900345932 0 -0.0002018919955713202 0.0012937718568491363 0 -3.8926397344370263e-05 0.0019017536900345932 0 0.00050033022939598257 0.0018482501667991794 0 0.00053451053499101587 0.0023108008799617723 0 0.00050033022939598257 0.0018482501667991794 0 0.00084039757416188774 0.0019335659238778132 0 0.00053451053499101587 0.0023108008799617723 0 0.00050033022939598257 0.0018482501667991794 0 0.00084039757416188774 0.0019335659238778132 0 0.00087981260795384579 0.0015124079534180686 0 0.00084039757416188774 0.0019335659238778132 0 0.00087981260795384579 0.0015124079534180686 0 0.0011876154768867475 0.0017134657203398487 0 0.00084039757416188774 0.0019335659238778132 0 0.0011720481790243433 0.0021292621051351829 0 0.0011876154768867475 0.0017134657203398487 0 0.00087981260795384579 0.0015124079534180686 0 0.001156845728781569 0.0014546101374310746 0 0.0011908087988121768 0.0011903107133259929 0 0.00087981260795384579 0.0015124079534180686 0 0.001156845728781569 0.0014546101374310746 0 0.0011876154768867475 0.0017134657203398487 0 0.00039212909451043318 0.001511395539100959 0 0.00050033022939598257 0.0018482501667991794 0 0.00087981260795384579 0.0015124079534180686 0 0.00039212909451043318 0.001511395539100959 0 0.00087981260795384579 0.0015124079534180686 0 0.00076210275170984321 0.0010078005008753686 0 0.00087981260795384579 0.0015124079534180686 0 0.00076210275170984321 0.0010078005008753686 0 0.0011908087988121768 0.0011903107133259929 0 0.0014059676456387121 0.00093797684438468834 0 0.0012827329163894207 0.0010988685969051774 0 0.001391747321142451 0.00091518981073707942 0 0.001011654553592247 0.0010429830736131583 0 0.00053337908133391525 0.0013030429907604376 0 0.00039212909451043318 0.001511395539100959 0 0.00076210275170984321 0.0010078005008753686 0 -0.0002018919955713202 0.0012937718568491363 0 0.0012827329163894207 0.0010988685969051774 0 0.0011442581055883922 0.0012420611648515704 0 0.0011892570546567891 0.0011741279672755347 0 0.0012581161425892582 0.0013010747575402195 0 0.0011442581055883922 0.0012420611648515704 0 0.0013868428556106335 0.0013230417201087761 0 0.00053337908133391525 0.0013030429907604376 0 -0.00034257012411673571 0.00101771435471057 0 0.001206877789751567 0.0012562498819077986 0 0.0011442581055883922 0.0012420611648515704 0 0.0011892570546567891 0.0011741279672755347 0 0.001206877789751567 0.0012562498819077986 0 0.0012581161425892582 0.0013010747575402195 0 0.0011442581055883922 0.0012420611648515704 0 0.001206877789751567 0.0012562498819077986 0 0.0012581161425892582 0.0013010747575402195 0 0.0011956645010458454 0.0012594928379191643 0 0.0012581161425892582 0.0013010747575402195 0 0.001527319185707304 0.0016278103258602111 0 0.0014839615317236491 0.0021226166740511546 0 0.0011737808244694622 0.0014066111717307018 0 0.0017961468400651476 0.0013900622489892 0 0.0012581161425892582 0.0013010747575402195 0 0.001527319185707304 0.0016278103258602111 0 0.0013868428556106335 0.0013230417201087761 0 0.001527319185707304 0.0016278103258602111 0 0.0013868428556106335 0.0013230417201087761 0 0.0018595345367118119 0.0015301654984951508 0 -0.0013534161833983125 0.0016348391973973028 0 -0.0011016590071815796 0.0024793368066702501 0 -0.00064384918969059661 0.0019305086054329311 0 -0.0013534161833983125 0.0016348391973973028 0 -0.0011016590071815796 0.0024793368066702501 0 -0.0018505327831923703 0.0026044587777860695 0 -0.0002018919955713202 0.0012937718568491363 0 -0.0013534161833983125 0.0016348391973973028 0 -0.00064384918969059661 0.0019305086054329311 0 -3.8926397344370263e-05 0.0019017536900345932 0 -0.0002018919955713202 0.0012937718568491363 0 -0.00064384918969059661 0.0019305086054329311 0 -0.0011016590071815796 0.0024793368066702501 0 -0.00064384918969059661 0.0019305086054329311 0 -0.00042360671017766774 0.0025431910798767127 0 -3.8926397344370263e-05 0.0019017536900345932 0 -0.00064384918969059661 0.0019305086054329311 0 -0.00042360671017766774 0.0025431910798767127 0 -0.00042360671017766774 0.0025431910798767127 0 -0.0012772056926251584 0.0037067461132352501 0 0.00015046400422222012 0.0031339818714713483 0 -0.0011016590071815796 0.0024793368066702501 0 -0.0012772056926251584 0.0037067461132352501 0 -0.0018505327831923703 0.0026044587777860695 0 -0.0011016590071815796 0.0024793368066702501 0 -0.00042360671017766774 0.0025431910798767127 0 -0.0012772056926251584 0.0037067461132352501 0 0.0040059845911536397 0.015394621605579924 0 0.004185302297150746 0.015504610180102874 0 0.0039107810249789914 0.015225808911461107 0 0.0022144240972808696 0.0089963598513737204 0 0.0020655528080500288 0.0089653570546425372 0 0.0040059845911536397 0.015394621605579924 0 0.0035966675727281752 0.015152671744522407 0 0.0039107810249789914 0.015225808911461107 0 0.0015514596149068356 0.0096729752146671403 0 0.001830202133256081 0.009172235957312834 0 0.0035966675727281752 0.015152671744522407 0 0.0035451646037679245 0.015048924583234227 0 0.0039107810249789914 0.015225808911461107 0 -3.8926397344370263e-05 0.0019017536900345932 0 -0.00042360671017766774 0.0025431910798767127 0 0.00053451053499101587 0.0023108008799617723 0 -0.00042360671017766774 0.0025431910798767127 0 0.00015046400422222012 0.0031339818714713483 0 0.00053451053499101587 0.0023108008799617723 0 0.00084039757416188774 0.0019335659238778132 0 0.00053451053499101587 0.0023108008799617723 0 0.0011720481790243433 0.0021292621051351829 0 0.00053451053499101587 0.0023108008799617723 0 0.001282224449897337 0.0025600086004059189 0 0.0011720481790243433 0.0021292621051351829 0 0.00015046400422222012 0.0031339818714713483 0 0.00053451053499101587 0.0023108008799617723 0 0.001282224449897337 0.0025600086004059189 0 0.001830202133256081 0.009172235957312834 0 0.0021638057130733981 0.0083809497957810022 0 0.00084521315363812765 0.0028283463065436869 0 0.0012548527993356696 0.0026916428067444084 0 0.0013159605093281436 0.0025130201255163923 0 0.00084521315363812765 0.0028283463065436869 0 0.0012548527993356696 0.0026916428067444084 0 0.0012432677934450353 0.0030366934940382045 0 0.0022144240972808696 0.0089963598513737204 0 0.0021638057130733981 0.0083809497957810022 0 0.0035966675727281752 0.015152671744522407 0 0.0035451646037679245 0.015048924583234227 0 0.00318059659025543 0.014877866397039341 0 0.0012548527993356696 0.0026916428067444084 0 0.0015416021881033963 0.0025987070417660949 0 0.0012432677934450353 0.0030366934940382045 0 0.0015416021881033963 0.0025987070417660949 0 0.0018682117308882174 0.0026706286527684213 0 0.0012432677934450353 0.0030366934940382045 0 0.0012548527993356696 0.0026916428067444084 0 0.00137029384566823 0.0024879082730472441 0 0.0015416021881033963 0.0025987070417660949 0 0.0020173005675262279 0.0079559738083993317 0 0.0021638057130733981 0.0083809497957810022 0 0.0012548527993356696 0.0026916428067444084 0 0.00137029384566823 0.0024879082730472441 0 0.0013159605093281436 0.0025130201255163923 0 0.00137029384566823 0.0024879082730472441 0 0.0015416021881033963 0.0025987070417660949 0 0.0015498253005691871 0.0023524023215060878 0 0.0015416021881033963 0.0025987070417660949 0 0.0018682117308882174 0.0026706286527684213 0 0.0018349331141347574 0.0022203931517093415 0 0.0015416021881033963 0.0025987070417660949 0 0.0018349331141347574 0.0022203931517093415 0 0.0015498253005691871 0.0023524023215060878 0 0.0018349331141347574 0.0022203931517093415 0 0.0018077861990055337 0.001833984056016874 0 0.0015597440015871471 0.0021206930625350061 0 0.0018349331141347574 0.0022203931517093415 0 0.0015498253005691871 0.0023524023215060878 0 0.0015597440015871471 0.0021206930625350061 0 0.0018349331141347574 0.0022203931517093415 0 0.0018077861990055337 0.001833984056016874 0 0.0022426795015468093 0.001628307513354342 0 0.0018077861990055337 0.001833984056016874 0 0.0015606410660409578 0.0018849613931908081 0 0.0016976080397218894 0.0016663928195683676 0 0.0018077861990055337 0.001833984056016874 0 0.0015606410660409578 0.0018849613931908081 0 0.0015597440015871471 0.0021206930625350061 0 0.0015606410660409578 0.0018849613931908081 0 0.0014075756505019168 0.0020416929389705961 0 0.0015597440015871471 0.0021206930625350061 0 0.0015606410660409578 0.0018849613931908081 0 0.0014075756505019168 0.0020416929389705961 0 0.0013576865380791395 0.0018538313949892937 0 0.0014075756505019168 0.0020416929389705961 0 0.0011720481790243433 0.0021292621051351829 0 0.0013576865380791395 0.0018538313949892937 0 0.0014075756505019168 0.0020416929389705961 0 0.0011720481790243433 0.0021292621051351829 0 0.0013749634570780285 0.002270143560390413 0 0.001282224449897337 0.0025600086004059189 0 0.0011720481790243433 0.0021292621051351829 0 0.0013749634570780285 0.002270143560390413 0 0.00137029384566823 0.0024879082730472441 0 0.001282224449897337 0.0025600086004059189 0 0.0013749634570780285 0.002270143560390413 0 0.00137029384566823 0.0024879082730472441 0 0.0013749634570780285 0.002270143560390413 0 0.001443689942332153 0.0023397455082083025 0 0.001443689942332153 0.0023397455082083025 0 0.0015498253005691871 0.0023524023215060878 0 0.0015597440015871471 0.0021206930625350061 0 0.00137029384566823 0.0024879082730472441 0 0.001443689942332153 0.0023397455082083025 0 0.0015498253005691871 0.0023524023215060878 0 0.0014075756505019168 0.0020416929389705961 0 0.0013749634570780285 0.002270143560390413 0 0.0015597440015871471 0.0021206930625350061 0 0.0013749634570780285 0.002270143560390413 0 0.001443689942332153 0.0023397455082083025 0 0.0015597440015871471 0.0021206930625350061 0 0.00066146103488267652 -0.0043532480736121421 0 0.00081565057786754972 -0.0041279015541726971 0 0.0009218863241494188 -0.0042915740113720719 0 0.00066146103488267652 -0.0043532480736121421 0 0.00055489285851292001 -0.0041416673722296359 0 0.00081565057786754972 -0.0041279015541726971 0 0.0018682117308882174 0.0026706286527684213 0 0.0018349331141347574 0.0022203931517093415 0 0.0026375323059695034 0.002052706063960854 0 0.00031339862109622577 -0.0042102147039732489 0 0.00066146103488267652 -0.0043532480736121421 0 0.00055489285851292001 -0.0041416673722296359 0 0.0010859640417269043 -0.00077362337211412183 0 0.0016327045559197733 -0.0011353908935524352 0 0.0018349331141347574 0.0022203931517093415 0 0.0026375323059695034 0.002052706063960854 0 0.0022426795015468093 0.001628307513354342 0 0.0026375323059695034 0.002052706063960854 0 0.0022426795015468093 0.001628307513354342 0 0.0027266831012802864 0.0010922305427645967 0 0.0016327045559197733 -0.0011353908935524352 0 0.0021225315064083159 -0.0016291534509727816 0 0.0026375323059695034 0.002052706063960854 0 0.0027266831012802864 0.0010922305427645967 0 0.0033914722524061485 0.0013371328980664766 0 0.0022426795015468093 0.001628307513354342 0 0.0027266831012802864 0.0010922305427645967 0 0.0023031873605175871 0.0011032897734473733 0 0.0022426795015468093 0.001628307513354342 0 0.0023031873605175871 0.0011032897734473733 0 0.0019484419890342178 0.0014720290538608129 0 0.0026206177763524806 0.00035230347726971641 0 0.0019742596373953725 0.0009958098705664534 0 0.0018789232119764431 0.00058999409683539044 0 0.0027266831012802864 0.0010922305427645967 0 0.0023031873605175871 0.0011032897734473733 0 0.0026206177763524806 0.00035230347726971641 0 0.0023031873605175871 0.0011032897734473733 0 0.0026206177763524806 0.00035230347726971641 0 0.0019742596373953725 0.0009958098705664534 0 0.0026034773049762702 -0.0045171243032758853 0 0.0026823685722389161 -0.0047906133939028374 0 0.0027266831012802864 0.0010922305427645967 0 0.0026206177763524806 0.00035230347726971641 0 0.0033586627670884666 5.6594892623461149e-05 0 0.0015870587950558642 0.0012463845380250957 0 0.0015090995925500794 0.0016005525395959435 0 0.0017461499160616011 0.0013932196197682493 0 0.0015870587950558642 0.0012463845380250957 0 0.0013620121729835592 0.0014055637835984174 0 0.0015090995925500794 0.0016005525395959435 0 0.0013620121729835592 0.0014055637835984174 0 0.0011876154768867475 0.0017134657203398487 0 0.0015090995925500794 0.0016005525395959435 0 0.0013620121729835592 0.0014055637835984174 0 0.001156845728781569 0.0014546101374310746 0 0.0011908087988121768 0.0011903107133259929 0 0.0013620121729835592 0.0014055637835984174 0 0.001156845728781569 0.0014546101374310746 0 0.0011876154768867475 0.0017134657203398487 0 0.0011720481790243433 0.0021292621051351829 0 0.0011876154768867475 0.0017134657203398487 0 0.0013576865380791395 0.0018538313949892937 0 0.0011876154768867475 0.0017134657203398487 0 0.0013576865380791395 0.0018538313949892937 0 0.0015090995925500794 0.0016005525395959435 0 0.0015606410660409578 0.0018849613931908081 0 0.0013576865380791395 0.0018538313949892937 0 0.0015090995925500794 0.0016005525395959435 0 0.0015606410660409578 0.0018849613931908081 0 0.0015090995925500794 0.0016005525395959435 0 0.0016976080397218894 0.0016663928195683676 0 0.0018077861990055337 0.001833984056016874 0 0.0016976080397218894 0.0016663928195683676 0 0.0019484419890342178 0.0014720290538608129 0 0.0016976080397218894 0.0016663928195683676 0 0.0019484419890342178 0.0014720290538608129 0 0.0017461499160616011 0.0013932196197682493 0 0.0015090995925500794 0.0016005525395959435 0 0.0016976080397218894 0.0016663928195683676 0 0.0017461499160616011 0.0013932196197682493 0 0.0018077861990055337 0.001833984056016874 0 0.0022426795015468093 0.001628307513354342 0 0.0019484419890342178 0.0014720290538608129 0 0.0023031873605175871 0.0011032897734473733 0 0.0019484419890342178 0.0014720290538608129 0 0.0019742596373953725 0.0009958098705664534 0 0.0019484419890342178 0.0014720290538608129 0 0.0017461499160616011 0.0013932196197682493 0 0.0019742596373953725 0.0009958098705664534 0 0.0015870587950558642 0.0012463845380250957 0 0.0017461499160616011 0.0013932196197682493 0 0.0019742596373953725 0.0009958098705664534 0 0.0015870587950558642 0.0012463845380250957 0 0.0017396103122486811 0.00092875717597425351 0 0.0019742596373953725 0.0009958098705664534 0 0.0017396103122486811 0.00092875717597425351 0 0.0019742596373953725 0.0009958098705664534 0 0.0018789232119764431 0.00058999409683539044 0 0.0017396103122486811 0.00092875717597425351 0 0.0015841517597551332 0.00078571956352104389 0 0.0018789232119764431 0.00058999409683539044 0 0.0017396103122486811 0.00092875717597425351 0 0.0015841517597551332 0.00078571956352104389 0 0.0014996017104670191 0.0011056684514382119 0 0.001011654553592247 0.0010429830736131583 0 0.0015407048091418004 0.00082983905903728566 0 0.0014059676456387121 0.00093797684438468834 0 0.0012827329163894207 0.0010988685969051774 0 0.0015841517597551332 0.00078571956352104389 0 0.00076210275170984321 0.0010078005008753686 0 0.0015841517597551332 0.00078571956352104389 0 0.0011908087988121768 0.0011903107133259929 0 0.0015870587950558642 0.0012463845380250957 0 0.0017396103122486811 0.00092875717597425351 0 0.0014996017104670191 0.0011056684514382119 0 0.0015841517597551332 0.00078571956352104389 0 0.0014996017104670191 0.0011056684514382119 0 0.0011908087988121768 0.0011903107133259929 0 0.0015870587950558642 0.0012463845380250957 0 0.0013620121729835592 0.0014055637835984174 0 0.0014996017104670191 0.0011056684514382119 0 0.0013620121729835592 0.0014055637835984174 0 0.0014996017104670191 0.0011056684514382119 0 0.0011908087988121768 0.0011903107133259929 0 0.0014059676456387121 0.00093797684438468834 0 0.0015841517597551332 0.00078571956352104389 0 0.0013667083807950876 0.00079856240737575721 0 0.0015841517597551332 0.00078571956352104389 0 0.0013667083807950876 0.00079856240737575721 0 0.0018789232119764431 0.00058999409683539044 0 0.0036649859266464982 -0.0091489731469843009 0 0.0031542301550036649 -0.0092708029615009655 0 0.003275752929372757 -0.0088584483990115995 0 0.0016286346209526481 -0.0021634918934762865 0 0.002706867677890825 -0.0045515141255058952 0 0.0031542301550036649 -0.0092708029615009655 0 0.003275752929372757 -0.0088584483990115995 0 0.0028992089952002155 -0.0088236456165940481 0 0.003275752929372757 -0.0088584483990115995 0 0.0028992089952002155 -0.0088236456165940481 0 0.0032870714237637744 -0.0084978174146461988 0 0.0036649859266464982 -0.0091489731469843009 0 0.003275752929372757 -0.0088584483990115995 0 0.0036545810964441774 -0.0085847373919065561 0 0.0016286346209526481 -0.0021634918934762865 0 0.0026806104319569411 -0.0038782703277852834 0 0.003275752929372757 -0.0088584483990115995 0 0.0036545810964441774 -0.0085847373919065561 0 0.0032870714237637744 -0.0084978174146461988 0 0.0026283682208161955 -0.0094259288014245032 0 0.0028992089952002155 -0.0088236456165940481 0 0.0023697335253186225 -0.0090902777205900346 0 0.0026283682208161955 -0.0094259288014245032 0 0.0023697335253186225 -0.0090902777205900346 0 0.0020260294991813529 -0.0095848766061891379 0 0.0026034773049762702 -0.0045171243032758853 0 0.002706867677890825 -0.0045515141255058952 0 0.0026283682208161955 -0.0094259288014245032 0 0.0031542301550036649 -0.0092708029615009655 0 0.0028992089952002155 -0.0088236456165940481 0 0.0028992089952002155 -0.0088236456165940481 0 0.0023697335253186225 -0.0090902777205900346 0 0.0024982254300216144 -0.0085638357661678328 0 0.0028992089952002155 -0.0088236456165940481 0 0.0024982254300216144 -0.0085638357661678328 0 0.0030200344121980739 -0.0082477954283294817 0 0.0025906315093837573 -0.0083815879307604178 0 0.0033387987803933303 -0.0088983310672960149 0 0.0024982254300216144 -0.0085638357661678328 0 0.0030008919990346062 -0.0079483456303153059 0 0.0036889010389692376 -0.0083627251116479197 0 0.0030008919990346062 -0.0079483456303153059 0 0.0036889010389692376 -0.0083627251116479197 0 0.0039807822558359275 -0.0077502577699999162 0 0.0024982254300216144 -0.0085638357661678328 0 0.0030008919990346062 -0.0079483456303153059 0 0.0020279578326903203 -0.0081837446096964112 0 0.0036545810964441774 -0.0085847373919065561 0 0.0032870714237637744 -0.0084978174146461988 0 0.0036324852077311322 -0.0079297771900784953 0 0.0026806104319569411 -0.0038782703277852834 0 0.0038229707975701069 -0.0038527785939999918 0 0.0028992089952002155 -0.0088236456165940481 0 0.0032870714237637744 -0.0084978174146461988 0 0.0030200344121980739 -0.0082477954283294817 0 0.0033387987803933303 -0.0088983310672960149 0 0.0038229707975701069 -0.0038527785939999918 0 0.0036889010389692376 -0.0083627251116479197 0 0.0048909242834635786 -0.00798780387433984 0 0.0039807822558359275 -0.0077502577699999162 0 0.0032870714237637744 -0.0084978174146461988 0 0.0030200344121980739 -0.0082477954283294817 0 0.0036324852077311322 -0.0079297771900784953 0 0.0017139017670028461 0.0013389275980195839 0 0.0017472539430440921 0.0018182657771787223 0 0.0016914328814455664 0.0019294145794821465 0 0.0017472539430440921 0.0018182657771787223 0 0.0016914328814455664 0.0019294145794821465 0 0.00175586079227411 0.0019449665999510173 0 0.0029526437966025045 0.0014374718076708025 0 0.0035451714086825797 -0.00040954844526804615 0 0.0038229707975701069 -0.0038527785939999918 0 0.0035451714086825797 -0.00040954844526804615 0 0.0017495457223453475 0.0020040395118080213 0 0.0020790073118640263 0.0018927498859016663 0 0.0023557480135212869 0.0022960609774099867 0 0.0017472539430440921 0.0018182657771787223 0 0.0017495457223453475 0.0020040395118080213 0 0.0020790073118640263 0.0018927498859016663 0 0.0017472539430440921 0.0018182657771787223 0 0.0020790073118640263 0.0018927498859016663 0 0.0019718280586642082 0.0015657039997371643 0 0.0020790073118640263 0.0018927498859016663 0 0.002430970323322422 0.0017795827673528102 0 0.0023557480135212869 0.0022960609774099867 0 0.002430970323322422 0.0017795827673528102 0 0.0022289012104750616 0.0016260951036599436 0 0.0023815195107336714 0.0013713409761501832 0 0.0020790073118640263 0.0018927498859016663 0 0.002430970323322422 0.0017795827673528102 0 0.0022289012104750616 0.0016260951036599436 0 0.0022289012104750616 0.0016260951036599436 0 0.0019718280586642082 0.0015657039997371643 0 0.0020859480643336051 0.0012064570233760495 0 0.0017139017670028461 0.0013389275980195839 0 0.0017472539430440921 0.0018182657771787223 0 0.0019718280586642082 0.0015657039997371643 0 0.0020790073118640263 0.0018927498859016663 0 0.0022289012104750616 0.0016260951036599436 0 0.0019718280586642082 0.0015657039997371643 0 0.0017139017670028461 0.0013389275980195839 0 0.0019718280586642082 0.0015657039997371643 0 0.0020859480643336051 0.0012064570233760495 0 0.0017428154205556359 0.00071145158350365109 0 0.0017139017670028461 0.0013389275980195839 0 0.0020859480643336051 0.0012064570233760495 0 0.0022289012104750616 0.0016260951036599436 0 0.0020859480643336051 0.0012064570233760495 0 0.0023815195107336714 0.0013713409761501832 0 0.0020859480643336051 0.0012064570233760495 0 0.0023815195107336714 0.0013713409761501832 0 0.0024152892718596356 0.00080445032558055867 0 0.0012827329163894207 0.0010988685969051774 0 0.001391747321142451 0.00091518981073707942 0 0.0011892570546567891 0.0011741279672755347 0 0.0017428154205556359 0.00071145158350365109 0 0.0020859480643336051 0.0012064570233760495 0 0.0024152892718596356 0.00080445032558055867 0 0.0016286346209526481 -0.0021634918934762865 0 0.0018950325579234427 0.0013538940478845822 0 0.0014757768630744759 -1.0322274246981961e-06 0 0.0016286346209526481 -0.0021634918934762865 0 0.001527319185707304 0.0016278103258602111 0 0.0014839615317236491 0.0021226166740511546 0 0.0017532004717062048 0.0019187882351006313 0 0.0024152892718596356 0.00080445032558055867 0 0.00311999368746348 0.00088505075780291869 0 0.0027506410362593023 0.0014479393788155337 0 0.001206877789751567 0.0012562498819077986 0 0.0011892570546567891 0.0011741279672755347 0 0.0011956645010458454 0.0012594928379191643 0 0.0018950325579234427 0.0013538940478845822 0 0.0017961468400651476 0.0013900622489892 0 0.0023815195107336714 0.0013713409761501832 0 0.0024152892718596356 0.00080445032558055867 0 0.0027506410362593023 0.0014479393788155337 0 0.00311999368746348 0.00088505075780291869 0 0.0027506410362593023 0.0014479393788155337 0 0.0031179070120360168 0.0015171240461409954 0 0.00311999368746348 0.00088505075780291869 0 0.0031179070120360168 0.0015171240461409954 0 0.0034376216744852772 0.0013727866118664787 0 0.0027506410362593023 0.0014479393788155337 0 0.0030406433227040193 0.001833153866631608 0 0.002784697910912879 0.0020546602362024181 0 0.0027506410362593023 0.0014479393788155337 0 0.0031179070120360168 0.0015171240461409954 0 0.0030406433227040193 0.001833153866631608 0 0.0031179070120360168 0.0015171240461409954 0 0.0030406433227040193 0.001833153866631608 0 0.0033717650826831746 0.0018174210690343417 0 0.002430970323322422 0.0017795827673528102 0 0.0023815195107336714 0.0013713409761501832 0 0.0027506410362593023 0.0014479393788155337 0 0.002430970323322422 0.0017795827673528102 0 0.0027506410362593023 0.0014479393788155337 0 0.002784697910912879 0.0020546602362024181 0 0.002430970323322422 0.0017795827673528102 0 0.002784697910912879 0.0020546602362024181 0 0.0023557480135212869 0.0022960609774099867 0 0.0030406433227040193 0.001833153866631608 0 0.002784697910912879 0.0020546602362024181 0 0.003212858015854512 0.0023616832858152329 0 0.0030406433227040193 0.001833153866631608 0 0.003212858015854512 0.0023616832858152329 0 0.0033717650826831746 0.0018174210690343417 0 0.003212858015854512 0.0023616832858152329 0 0.0031794472080475498 0.0024746201995397869 0 0.003248423817543361 0.0025373883254131077 0 0.003220306358302671 0.002458819934803548 0 0.0033592606909042411 0.0018220489701729714 0 0.003212858015854512 0.0023616832858152329 0 0.0031794472080475498 0.0024746201995397869 0 0.0031798950676419154 0.0024992769559753795 0 0.0031794472080475498 0.0024746201995397869 0 0.003248423817543361 0.0025373883254131077 0 0.0031659502416275282 0.0025330854757863635 0 0.0031179070120360168 0.0015171240461409954 0 0.0033717650826831746 0.0018174210690343417 0 0.0034376216744852772 0.0013727866118664787 0 0.0033592606909042411 0.0018220489701729714 0 0.0036480474054403603 0.0042109032646203883 0 0.0046750941370836494 0.0050322049340256981 0 0.0036480474054403603 0.0042109032646203883 0 0.003248423817543361 0.0025373883254131077 0 0.0031659502416275282 0.0025330854757863635 0 0.0032378401011667582 0.0026876898066280955 0 0.0057405003530484576 0.0069122176334414183 0 0.0067628635607587693 0.0087182178216164176 0 0.0051202442762092919 0.0085757294002413234 0 0.0057405003530484576 0.0069122176334414183 0 0.0045710426292770879 0.0074117672272398603 0 0.0051202442762092919 0.0085757294002413234 0 0.0031794472080475498 0.0024746201995397869 0 0.0031659502416275282 0.0025330854757863635 0 0.0031794709279225333 0.0025319010829740955 0 0.0057405003530484576 0.0069122176334414183 0 0.0045710426292770879 0.0074117672272398603 0 0.0046464273701382472 0.0049317027340595801 0 0.0046750941370836494 0.0050322049340256981 0 0.0038168226286938983 0.00366649145614904 0 0.0031794472080475498 0.0024746201995397869 0 0.0031794709279225333 0.0025319010829740955 0 0.0031798950676419154 0.0024992769559753795 0 0.0045710426292770879 0.0074117672272398603 0 0.0046464273701382472 0.0049317027340595801 0 0.0034261675651955036 0.0068857365795843518 0 0.0046464273701382472 0.0049317027340595801 0 0.0034261675651955036 0.0068857365795843518 0 0.0032326601244407468 0.0043902911113749459 0 0.0018159911385439284 0.0065051633592375499 0 0.0034261675651955036 0.0068857365795843518 0 0.0032326601244407468 0.0043902911113749459 0 0.0018159911385439284 0.0065051633592375499 0 0.00079414605748172958 0.004976238497191479 0 0.0032326601244407468 0.0043902911113749459 0 0.0018159911385439284 0.0065051633592375499 0 0.002396724629692466 0.0082244281766750658 0 0.0034261675651955036 0.0068857365795843518 0 0.0018159911385439284 0.0065051633592375499 0 0.002396724629692466 0.0082244281766750658 0 0.00085548760306125885 0.0080054365374620882 0 0.002396724629692466 0.0082244281766750658 0 0.0034261675651955036 0.0068857365795843518 0 0.003651387740719153 0.0091531451213947776 0 0.0045710426292770879 0.0074117672272398603 0 0.0034261675651955036 0.0068857365795843518 0 0.003651387740719153 0.0091531451213947776 0 0.002396724629692466 0.0082244281766750658 0 0.003651387740719153 0.0091531451213947776 0 0.0018136568674385733 0.0098027779236010137 0 0.002396724629692466 0.0082244281766750658 0 0.0018136568674385733 0.0098027779236010137 0 0.00085548760306125885 0.0080054365374620882 0 0.003651387740719153 0.0091531451213947776 0 0.0018136568674385733 0.0098027779236010137 0 0.0029286186229415413 0.010726271791848534 0 0.0018136568674385733 0.0098027779236010137 0 0.00066094922587342216 0.01077283533102753 0 0.0017807983425027095 0.011543145861953676 0 0.0018136568674385733 0.0098027779236010137 0 0.0029286186229415413 0.010726271791848534 0 0.0017807983425027095 0.011543145861953676 0 0.003651387740719153 0.0091531451213947776 0 0.0029286186229415413 0.010726271791848534 0 0.0047989787850807406 0.010467633717622857 0 0.0029286186229415413 0.010726271791848534 0 0.0047989787850807406 0.010467633717622857 0 0.0038382975745082444 0.011813735281416169 0 0.0047989787850807406 0.010467633717622857 0 0.0062572155384546862 0.011140629886187366 0 0.0047840185534332932 0.012294740048822035 0 0.0014126766355473509 0.0021936759961918378 0 0.0019825798575135488 0.0022381540884995514 0 0.001988858072750537 0.0030561767194469472 0 0.0047989787850807406 0.010467633717622857 0 0.0062572155384546862 0.011140629886187366 0 0.0067628635607587693 0.0087182178216164176 0 0.0021038803547050525 0.0019929970911225616 0 0.0019825798575135488 0.0022381540884995514 0 0.001988858072750537 0.0030561767194469472 0 0.0043811986378340011 0.0068395808130825436 0 0.0036480474054403603 0.0042109032646203883 0 0.0014839615317236491 0.0021226166740511546 0 0.0017532004717062048 0.0019187882351006313 0 0.0019825798575135488 0.0022381540884995514 0 0.0021038803547050525 0.0019929970911225616 0 0.0017532004717062048 0.0019187882351006313 0 0.0019825798575135488 0.0022381540884995514 0 0.0017961468400651476 0.0013900622489892 0 0.0018416529814513772 0.002036056881816082 0 0.0017961468400651476 0.0013900622489892 0 0.0036480474054403603 0.0042109032646203883 0 0.0047989787850807406 0.010467633717622857 0 0.0067628635607587693 0.0087182178216164176 0 0.0051202442762092919 0.0085757294002413234 0 0.0045710426292770879 0.0074117672272398603 0 0.003651387740719153 0.0091531451213947776 0 0.0051202442762092919 0.0085757294002413234 0 0.003651387740719153 0.0091531451213947776 0 0.0047989787850807406 0.010467633717622857 0 0.0051202442762092919 0.0085757294002413234 0 -0.0015285422764519791 0.015216865523042581 0 -0.0012714765209811746 0.014335535603346541 0 -0.00091568166499199756 0.014767560387070828 0 -0.0012714765209811746 0.014335535603346541 0 -0.00091568166499199756 0.014767560387070828 0 -0.00049612038346962385 0.01390125089828202 0 -0.0002087675823093092 0.017863912640186309 0 0.00051433383370513147 0.017449921726612378 0 3.5397017064030244e-06 0.017175437798070972 0 -0.00053304912790450606 0.017398714881994459 0 -0.0002087675823093092 0.017863912640186309 0 3.5397017064030244e-06 0.017175437798070972 0 -0.00086898173108407425 0.016263017173137242 0 0.00013763016749594387 0.014419180456327658 0 0.00013763016749594387 0.014419180456327658 0 0.00016373046124998388 0.012126495315418165 0 0.00013763016749594387 0.014419180456327658 0 0.00057273120720177455 0.014692756246945781 0 -0.00049612038346962385 0.01390125089828202 0 0.00029637832914428716 0.014327835385026895 0 -0.00032596998458216868 0.014904256112818559 0 -0.00091568166499199756 0.014767560387070828 0 -0.00049612038346962385 0.01390125089828202 0 -0.00032596998458216868 0.014904256112818559 0 -0.00069029960496719387 0.0071737000055371817 0 -0.001328505399145303 0.0096339689300209211 0 -0.0021553915264763924 0.0085172751948060874 0 -0.00034612980348533754 0.010410524753998217 0 -0.0012654772148907416 0.011769988691762283 0 0.00013763016749594387 0.014419180456327658 0 -0.00034612980348533754 0.010410524753998217 0 -0.00050060626064729976 0.012636957782671595 0 -9.049596156411023e-05 0.012867149735720276 0 -0.00015332106641376407 0.012441543506970515 0 -9.049596156411023e-05 0.012867149735720276 0 8.5152915837684309e-05 0.01244194291053005 0 -0.00015332106641376407 0.012441543506970515 0 0.0018159911385439284 0.0065051633592375499 0 -0.0011792688122405808 0.0068738410453015276 0 0.00079414605748172958 0.004976238497191479 0 -9.049596156411023e-05 0.012867149735720276 0 0.00034430717474017976 0.012551010685661316 0 8.5152915837684309e-05 0.01244194291053005 0 -0.00034612980348533754 0.010410524753998217 0 0.00057384720238424635 0.0086797779651559652 0 0.0018159911385439284 0.0065051633592375499 0 -0.0011792688122405808 0.0068738410453015276 0 0.00085548760306125885 0.0080054365374620882 0 -0.00034612980348533754 0.010410524753998217 0 0.00010929792341526924 0.0073239410899677889 0 -0.00069029960496719387 0.0071737000055371817 0 0.00085548760306125885 0.0080054365374620882 0 6.7217159025832559e-05 0.0093670266193209579 0 0.0018136568674385733 0.0098027779236010137 0 0.00085548760306125885 0.0080054365374620882 0 6.7217159025832559e-05 0.0093670266193209579 0 0.0018136568674385733 0.0098027779236010137 0 6.7217159025832559e-05 0.0093670266193209579 0 0.00066094922587342216 0.01077283533102753 0 6.7217159025832559e-05 0.0093670266193209579 0 0.00066094922587342216 0.01077283533102753 0 -0.00091015211529829577 0.011000371624220158 0 0.00066094922587342216 0.01077283533102753 0 0.00028453447157387595 0.012135723349681318 0 0.0017807983425027095 0.011543145861953676 0 0.00066094922587342216 0.01077283533102753 0 -0.00091015211529829577 0.011000371624220158 0 0.00028453447157387595 0.012135723349681318 0 6.7217159025832559e-05 0.0093670266193209579 0 -0.00091015211529829577 0.011000371624220158 0 -0.001328505399145303 0.0096339689300209211 0 -0.00091015211529829577 0.011000371624220158 0 -0.0026073508613323579 0.011110579592591723 0 -0.0016119386975754553 0.012169415348030441 0 -0.00091015211529829577 0.011000371624220158 0 -0.001328505399145303 0.0096339689300209211 0 -0.0026073508613323579 0.011110579592591723 0 -0.00069029960496719387 0.0071737000055371817 0 6.7217159025832559e-05 0.0093670266193209579 0 -0.001328505399145303 0.0096339689300209211 0 -0.00091568166499199756 0.014767560387070828 0 -0.00032596998458216868 0.014904256112818559 0 -0.00095650121254903632 0.015484193445958703 0 -0.001328505399145303 0.0096339689300209211 0 -0.0021553915264763924 0.0085172751948060874 0 -0.0036646975728587871 0.0098939565787276567 0 -0.0012654772148907416 0.011769988691762283 0 -0.0022643900553507984 0.012452686190246611 0 -0.001328505399145303 0.0096339689300209211 0 -0.0026073508613323579 0.011110579592591723 0 -0.0036646975728587871 0.0098939565787276567 0 -0.0015285422764519791 0.015216865523042581 0 -0.0015836450218996944 0.01605207911494121 0 -0.00095650121254903632 0.015484193445958703 0 -0.0051708961341872276 0.011279261336451168 0 -0.0026073508613323579 0.011110579592591723 0 -0.0036646975728587871 0.0098939565787276567 0 -0.0023895118271294556 0.016199123017349937 0 -0.0022643900553507984 0.012452686190246611 0 -0.0015285422764519791 0.015216865523042581 0 -0.00091568166499199756 0.014767560387070828 0 -0.00095650121254903632 0.015484193445958703 0 -1.0752402641926072e-05 0.01637210510120455 0 -3.8697428564258035e-06 0.016741448536101843 0 0.00032035745081200015 0.016246639376611933 0 -3.8697428564258035e-06 0.016741448536101843 0 0.00032035745081200015 0.016246639376611933 0 0.00036165431368029337 0.016589235939937365 0 -0.0051708961341872276 0.011279261336451168 0 -0.0026073508613323579 0.011110579592591723 0 -0.0033292529503105277 0.012600426402834956 0 -1.0752402641926072e-05 0.01637210510120455 0 -7.9308591852711595e-05 0.016015410923354092 0 0.00032035745081200015 0.016246639376611933 0 -0.0023895118271294556 0.016199123017349937 0 -0.0016915576110155901 0.0140731692951407 0 -0.0026073508613323579 0.011110579592591723 0 -0.0033292529503105277 0.012600426402834956 0 -0.0016119386975754553 0.012169415348030441 0 -0.0033292529503105277 0.012600426402834956 0 -0.0014251146600189532 0.014030936511039604 0 -0.0016119386975754553 0.012169415348030441 0 -0.0016915576110155901 0.0140731692951407 0 -0.00028184723337607812 0.01520170815828998 0 0.00032035745081200015 0.016246639376611933 0 0.00063078709661835834 0.016260384204256677 0 0.00036165431368029337 0.016589235939937365 0 -0.00028184723337607812 0.01520170815828998 0 0.00084304199679240968 0.015707097894731171 0 -0.0014251146600189532 0.014030936511039604 0 0.00028453447157387595 0.012135723349681318 0 0.00088615562800609213 0.013743160118641655 0 -0.00091015211529829577 0.011000371624220158 0 -0.0016119386975754553 0.012169415348030441 0 0.00028453447157387595 0.012135723349681318 0 -0.0014251146600189532 0.014030936511039604 0 -0.0016119386975754553 0.012169415348030441 0 0.00028453447157387595 0.012135723349681318 0 0.00028453447157387595 0.012135723349681318 0 0.00088615562800609213 0.013743160118641655 0 0.001924875764855062 0.012983869385093312 0 0.00028453447157387595 0.012135723349681318 0 0.0017807983425027095 0.011543145861953676 0 0.001924875764855062 0.012983869385093312 0 0.00088615562800609213 0.013743160118641655 0 0.00096606608727755543 0.015700428795162546 0 0.0019628545747204743 0.014460081484678113 0 -0.0014251146600189532 0.014030936511039604 0 0.00088615562800609213 0.013743160118641655 0 0.00096606608727755543 0.015700428795162546 0 0.00088615562800609213 0.013743160118641655 0 0.001924875764855062 0.012983869385093312 0 0.0019628545747204743 0.014460081484678113 0 0.00096606608727755543 0.015700428795162546 0 0.0019628545747204743 0.014460081484678113 0 0.0020087430638737434 0.015733156348655249 0 0.00096606608727755543 0.015700428795162546 0 0.0013039860698188929 0.016446096720525293 0 0.00079345517926425761 0.016395688337420045 0 0.00096606608727755543 0.015700428795162546 0 0.0013039860698188929 0.016446096720525293 0 0.0020087430638737434 0.015733156348655249 0 0.0013039860698188929 0.016446096720525293 0 0.00079345517926425761 0.016395688337420045 0 0.0011423466048269926 0.017074846797465043 0 0.0013039860698188929 0.016446096720525293 0 0.0020087430638737434 0.015733156348655249 0 0.0018943017823050399 0.016562082577027341 0 0.0013039860698188929 0.016446096720525293 0 0.0018943017823050399 0.016562082577027341 0 0.0017532480775509457 0.01703252468020993 0 0.0013039860698188929 0.016446096720525293 0 0.0011423466048269926 0.017074846797465043 0 0.0017532480775509457 0.01703252468020993 0 0.00064915752680106721 0.017090567713221472 0 0.00079345517926425761 0.016395688337420045 0 0.0011423466048269926 0.017074846797465043 0 0.00064915752680106721 0.017090567713221472 0 0.00079345517926425761 0.016395688337420045 0 0.00056660026785436087 0.016647284465415312 0 0.00063078709661835834 0.016260384204256677 0 0.00096606608727755543 0.015700428795162546 0 0.00079345517926425761 0.016395688337420045 0 0.00063078709661835834 0.016260384204256677 0 0.00079345517926425761 0.016395688337420045 0 0.00056660026785436087 0.016647284465415312 0 0.00036165431368029337 0.016589235939937365 0 0.00056660026785436087 0.016647284465415312 0 0.00020710878060116748 0.017204843158738641 0 0.00063078709661835834 0.016260384204256677 0 0.00036165431368029337 0.016589235939937365 0 0.00056660026785436087 0.016647284465415312 0 0.00064915752680106721 0.017090567713221472 0 0.00056660026785436087 0.016647284465415312 0 0.00020710878060116748 0.017204843158738641 0 -3.8697428564258035e-06 0.016741448536101843 0 0.00036165431368029337 0.016589235939937365 0 0.00020710878060116748 0.017204843158738641 0 0.002277865455831498 0.007408440259152182 0 0.00090327352717030362 0.0090046996154110968 0 0.0044672882457225914 0.013673279828381422 0 0.0050729945699930336 0.013432110259827231 0 0.0047755129285217751 0.014493556490549956 0 0.004607234440571391 0.011720270731562352 0 0.002277865455831498 0.007408440259152182 0 0.0044672882457225914 0.013673279828381422 0 0.0057139161815593208 0.013444812932041935 0 0.0047840185534332932 0.012294740048822035 0 -0.0013534161833983125 0.0016348391973973028 0 -0.0018505327831923703 0.0026044587777860695 0 -0.0026762465883815199 0.0020809972073143096 0 -0.00034257012411673571 0.00101771435471057 0 0.002277865455831498 0.007408440259152182 0 -0.0018505327831923703 0.0026044587777860695 0 -0.0026762465883815199 0.0020809972073143096 0 -0.0028578212261317335 0.0031348508644756757 0 0.0021038803547050525 0.0019929970911225616 0 0.0021852430644461532 0.0011982526145757333 0 0.0018595345367118119 0.0015301654984951508 0 0.0043811986378340011 0.0068395808130825436 0 0.002277865455831498 0.007408440259152182 0 0.0013868428556106335 0.0013230417201087761 0 0.0021852430644461532 0.0011982526145757333 0 0.0018595345367118119 0.0015301654984951508 0 0.0021038803547050525 0.0019929970911225616 0 0.0017532004717062048 0.0019187882351006313 0 0.0018595345367118119 0.0015301654984951508 0 0.001527319185707304 0.0016278103258602111 0 0.0017532004717062048 0.0019187882351006313 0 0.0018595345367118119 0.0015301654984951508 0 0.0062572155384546862 0.011140629886187366 0 0.0057139161815593208 0.013444812932041935 0 0.0047840185534332932 0.012294740048822035 0 0.0047989787850807406 0.010467633717622857 0 0.0047840185534332932 0.012294740048822035 0 0.0038382975745082444 0.011813735281416169 0 0.0044672882457225914 0.013673279828381422 0 0.0047840185534332932 0.012294740048822035 0 0.0037025567495494417 0.013041083535272238 0 0.0029286186229415413 0.010726271791848534 0 0.0038382975745082444 0.011813735281416169 0 0.0028239333587807562 0.012350398458445542 0 0.0037025567495494417 0.013041083535272238 0 0.0028239333587807562 0.012350398458445542 0 0.0028109401331849475 0.013686266391536606 0 0.0038382975745082444 0.011813735281416169 0 0.0037025567495494417 0.013041083535272238 0 0.0028239333587807562 0.012350398458445542 0 0.0047840185534332932 0.012294740048822035 0 0.0038382975745082444 0.011813735281416169 0 0.0037025567495494417 0.013041083535272238 0 0.0029286186229415413 0.010726271791848534 0 0.0017807983425027095 0.011543145861953676 0 0.0028239333587807562 0.012350398458445542 0 0.0017807983425027095 0.011543145861953676 0 0.0028239333587807562 0.012350398458445542 0 0.001924875764855062 0.012983869385093312 0 0.0028239333587807562 0.012350398458445542 0 0.001924875764855062 0.012983869385093312 0 0.0028109401331849475 0.013686266391536606 0 0.001924875764855062 0.012983869385093312 0 0.0028109401331849475 0.013686266391536606 0 0.0019628545747204743 0.014460081484678113 0 0.0028109401331849475 0.013686266391536606 0 0.0019628545747204743 0.014460081484678113 0 0.0028086268922427149 0.014757186331169481 0 0.0044672882457225914 0.013673279828381422 0 0.0037025567495494417 0.013041083535272238 0 0.0035978468804415973 0.014122561224735198 0 0.0037025567495494417 0.013041083535272238 0 0.0028109401331849475 0.013686266391536606 0 0.0035978468804415973 0.014122561224735198 0 0.0028109401331849475 0.013686266391536606 0 0.0035978468804415973 0.014122561224735198 0 0.0028086268922427149 0.014757186331169481 0 0.0044672882457225914 0.013673279828381422 0 0.0035978468804415973 0.014122561224735198 0 0.0041016316358356321 0.014484551827691745 0 0.0035978468804415973 0.014122561224735198 0 0.0035383380301762424 0.014952796462502515 0 0.0041016316358356321 0.014484551827691745 0 0.0035978468804415973 0.014122561224735198 0 0.0035383380301762424 0.014952796462502515 0 0.0028086268922427149 0.014757186331169481 0 0.0029997474898737571 0.015461829931782725 0 0.0035383380301762424 0.014952796462502515 0 0.0028086268922427149 0.014757186331169481 0 0.0029997474898737571 0.015461829931782725 0 0.0035383380301762424 0.014952796462502515 0 0.0035170504313464671 0.015506604769142732 0 0.0035383380301762424 0.014952796462502515 0 0.0035170504313464671 0.015506604769142732 0 0.0040852340795909268 0.015083755347293877 0 0.0035383380301762424 0.014952796462502515 0 0.0040852340795909268 0.015083755347293877 0 0.0041016316358356321 0.014484551827691745 0 0.0019628545747204743 0.014460081484678113 0 0.0028086268922427149 0.014757186331169481 0 0.0020087430638737434 0.015733156348655249 0 0.0029997474898737571 0.015461829931782725 0 0.0028086268922427149 0.014757186331169481 0 0.0020087430638737434 0.015733156348655249 0 0.0020087430638737434 0.015733156348655249 0 0.0024888058048874147 0.016992953835573199 0 0.0018943017823050399 0.016562082577027341 0 0.0020345047815903657 0.015640339418730262 0 0.0028272713555312309 0.016589108210335244 0 0.0029997474898737571 0.015461829931782725 0 0.0020087430638737434 0.015733156348655249 0 0.0030958631682767692 0.015913830091061083 0 0.0024888058048874147 0.016992953835573199 0 0.0018943017823050399 0.016562082577027341 0 0.0017532480775509457 0.01703252468020993 0 0.0029997474898737571 0.015461829931782725 0 0.0030958631682767692 0.015913830091061083 0 0.0035170504313464671 0.015506604769142732 0 0.0030958631682767692 0.015913830091061083 0 0.0035170504313464671 0.015506604769142732 0 0.0037275075350705843 0.015738058151851302 0 0.0035170504313464671 0.015506604769142732 0 0.0037275075350705843 0.015738058151851302 0 0.0038957933755381494 0.015524225850442759 0 0.0037275075350705843 0.015738058151851302 0 0.0039289573712440306 0.015611587308712514 0 0.0039822246529968635 0.015664211776128565 0 0.0039289573712440306 0.015611587308712514 0 0.0040829543772501432 0.015551892951127159 0 0.0039822246529968635 0.015664211776128565 0 0.0040829543772501432 0.015551892951127159 0 0.004189696566147762 0.015468051600192727 0 0.0038957933755381494 0.015524225850442759 0 0.0039289573712440306 0.015611587308712514 0 0.0040829543772501432 0.015551892951127159 0 0.0038957933755381494 0.015524225850442759 0 0.0037275075350705843 0.015738058151851302 0 0.0039289573712440306 0.015611587308712514 0 0.0038957933755381494 0.015524225850442759 0 0.0041025792179253603 0.015558180773471913 0 0.0041520240361222318 0.015484564596327938 0 0.0040886609165073544 0.015618071496119683 0 0.0041025792179253603 0.015558180773471913 0 0.0040829543772501432 0.015551892951127159 0 0.0039822246529968635 0.015664211776128565 0 0.0041025792179253603 0.015558180773471913 0 0.0040829543772501432 0.015551892951127159 0 0.004189696566147762 0.015468051600192727 0 0.0041025792179253603 0.015558180773471913 0 0.004189696566147762 0.015468051600192727 0 0.0041520240361222318 0.015484564596327938 0 0.0035170504313464671 0.015506604769142732 0 0.0038957933755381494 0.015524225850442759 0 0.0040852340795909268 0.015083755347293877 0 0.004189696566147762 0.015468051600192727 0 0.0038957933755381494 0.015524225850442759 0 0.0040852340795909268 0.015083755347293877 0 -0.00035858144314816222 0.0088011364957265234 0 0.00090327352717030362 0.0090046996154110968 0 0.004189696566147762 0.015468051600192727 0 0.0040852340795909268 0.015083755347293877 0 0.0047755129285217751 0.014493556490549956 0 0.0040852340795909268 0.015083755347293877 0 0.0047755129285217751 0.014493556490549956 0 0.0041016316358356321 0.014484551827691745 0 0.0044672882457225914 0.013673279828381422 0 0.0047755129285217751 0.014493556490549956 0 0.0041016316358356321 0.014484551827691745 0 -0.0012772056926251584 0.0037067461132352501 0 -0.0018505327831923703 0.0026044587777860695 0 -0.0028578212261317335 0.0031348508644756757 0 -0.0012772056926251584 0.0037067461132352501 0 -0.0030192886679002982 0.0042031714765086324 0 -0.0028578212261317335 0.0031348508644756757 0 0.0015514596149068356 0.0096729752146671403 0 -0.00035858144314816222 0.0088011364957265234 0 0.0040059845911536397 0.015394621605579924 0 0.0041520240361222318 0.015484564596327938 0 0.004185302297150746 0.015504610180102874 0 0.0040059845911536397 0.015394621605579924 0 0.004189696566147762 0.015468051600192727 0 0.0041520240361222318 0.015484564596327938 0 0.004185302297150746 0.015504610180102874 0 0.0041859700317326597 0.015447631649281861 0 0.0039107810249789914 0.015225808911461107 0 0.0041520240361222318 0.015484564596327938 0 0.004185302297150746 0.015504610180102874 0 0.0040886609165073544 0.015618071496119683 0 0.0031063909764769255 0.013925473131278085 0 0.0028856066036376765 0.010973098141518995 0 0.004185302297150746 0.015504610180102874 0 0.0042244212873840817 0.015714498608211325 0 0.0040886609165073544 0.015618071496119683 0 0.0001130090382817102 0.0032761345539475575 0 8.7474125406016703e-05 0.0035789251853904831 0 0.00032933190032555194 0.0033207906146487144 0 0.0028856066036376765 0.010973098141518995 0 -0.00010325437839173602 0.0072455044523468881 0 0.0017985237888849424 0.01251198696534222 0 0.0018210290561199568 0.011831923923026904 0 0.0023559792406026504 0.011868234745948728 0 0.0017985237888849424 0.01251198696534222 0 0.0026198238026087007 0.012288677228553216 0 0.0023559792406026504 0.011868234745948728 0 0.0042244212873840817 0.015714498608211325 0 0.0040886609165073544 0.015618071496119683 0 0.0038850341738058689 0.015836017246239474 0 0.0028856066036376765 0.010973098141518995 0 0.0029727258217314627 0.016071807989405634 0 0.0042244212873840817 0.015714498608211325 0 0.0038850341738058689 0.015836017246239474 0 0.0036058930022362899 0.016228171564883678 0 0.0040886609165073544 0.015618071496119683 0 0.0038850341738058689 0.015836017246239474 0 0.0039822246529968635 0.015664211776128565 0 0.0041025792179253603 0.015558180773471913 0 0.0040886609165073544 0.015618071496119683 0 0.0039822246529968635 0.015664211776128565 0 0.0037275075350705843 0.015738058151851302 0 0.0038850341738058689 0.015836017246239474 0 0.0036132170438556844 0.01595052370961994 0 0.0037275075350705843 0.015738058151851302 0 0.0038850341738058689 0.015836017246239474 0 0.0039822246529968635 0.015664211776128565 0 0.0030958631682767692 0.015913830091061083 0 0.0037275075350705843 0.015738058151851302 0 0.0036132170438556844 0.01595052370961994 0 0.0024888058048874147 0.016992953835573199 0 0.0021810689691150044 0.017492834576962095 0 0.0029397314353220108 0.01779443594289774 0 0.0028272713555312309 0.016589108210335244 0 0.0029727258217314627 0.016071807989405634 0 0.0030958631682767692 0.015913830091061083 0 0.0036132170438556844 0.01595052370961994 0 0.0036058930022362899 0.016228171564883678 0 0.0038850341738058689 0.015836017246239474 0 0.0036132170438556844 0.01595052370961994 0 0.0036058930022362899 0.016228171564883678 0 0.0024888058048874147 0.016992953835573199 0 0.0021810689691150044 0.017492834576962095 0 0.0017532480775509457 0.01703252468020993 0 0.0021810689691150044 0.017492834576962095 0 0.0017532480775509457 0.01703252468020993 0 0.0015915233486942352 0.017595241762819944 0 0.0018734229718947377 0.018045102404349495 0 0.0017771221332015723 0.018239831478391227 0 0.0013832941727545806 0.018170953697868013 0 0.0021810689691150044 0.017492834576962095 0 0.0021673460026907709 0.018030149314470643 0 0.0029397314353220108 0.01779443594289774 0 0.0018543292764498119 0.018097412547238925 0 0.0015184505610040984 0.018149954399839054 0 0.0021810689691150044 0.017492834576962095 0 0.0021673460026907709 0.018030149314470643 0 0.0015915233486942352 0.017595241762819944 0 0.0018734229718947377 0.018045102404349495 0 0.0022355916833336413 0.017898244585726898 0 0.0024123771604920513 0.018166778358038815 0 0.0018543292764498119 0.018097412547238925 0 0.0029727258217314627 0.016071807989405634 0 0.0018734229718947377 0.018045102404349495 0 0.0017771221332015723 0.018239831478391227 0 0.0024123771604920513 0.018166778358038815 0 0.0029727258217314627 0.016071807989405634 0 0.0011198201118732571 0.015483698295947763 0 0.00049330456239665276 0.019574120535752953 0 0.0011198201118732571 0.015483698295947763 0 -0.00083957812349776811 0.019745625260194945 0 -0.00064326361390142854 0.01976303306218823 0 -0.00094614687677990468 0.019457701123197783 0 -0.00083957812349776811 0.019745625260194945 0 -0.0010105065569506195 0.019646821815798576 0 -0.0011216018440595732 0.019916354687043798 0 -0.00083957812349776811 0.019745625260194945 0 -0.00056105610695729804 0.019899700408828668 0 -0.0011216018440595732 0.019916354687043798 0 -0.00083957812349776811 0.019745625260194945 0 -0.0010105065569506195 0.019646821815798576 0 -0.00094614687677990468 0.019457701123197783 0 -0.00056105610695729804 0.019899700408828668 0 -0.00064326361390142854 0.01976303306218823 0 -0.0005118709904186027 0.019782678367399088 0 -0.00083957812349776811 0.019745625260194945 0 -0.00056105610695729804 0.019899700408828668 0 -0.00064326361390142854 0.01976303306218823 0 -0.00064326361390142854 0.01976303306218823 0 -0.00052738853969427186 0.019711504401478629 0 -0.0005118709904186027 0.019782678367399088 0 -0.00052738853969427186 0.019711504401478629 0 -0.00058390661374737923 0.019706972389565414 0 -0.000539173071092238 0.019676548025041131 0 -0.0004853757030923708 0.019633667173556749 0 -0.00095217457458351236 0.019875574783582581 0 -0.00052738853969427186 0.019711504401478629 0 -0.00050105971799106936 0.019698779780022286 0 -0.000539173071092238 0.019676548025041131 0 -0.00064326361390142854 0.01976303306218823 0 -0.00052738853969427186 0.019711504401478629 0 -0.00094614687677990468 0.019457701123197783 0 -0.00095217457458351236 0.019875574783582581 0 -0.001005072850776239 0.019736506698411316 0 -0.0010105065569506195 0.019646821815798576 0 -0.00094614687677990468 0.019457701123197783 0 -0.0012082918228401018 0.019539117608628524 0 -0.00095217457458351236 0.019875574783582581 0 -0.0010249055255760293 0.019521312827023796 0 -0.00078460059390098513 0.019203871966711136 0 -0.0015380513651045771 0.019458671354304204 0 -0.0018082788318937683 0.019031461113548361 0 -0.0018190751740218031 0.020069780823766089 0 -0.0023924225075014727 0.019933253534006989 0 -0.0020476308674248142 0.01973428369362995 0 -0.00078460059390098513 0.019203871966711136 0 -0.0015380513651045771 0.019458671354304204 0 -0.0012082918228401018 0.019539117608628524 0 -0.00095217457458351236 0.019875574783582581 0 -0.0030918908871589955 0.016285703828352569 0 -0.00078460059390098513 0.019203871966711136 0 -0.0018564642840143742 0.018953409524699049 0 -0.0018082788318937683 0.019031461113548361 0 -0.0044528393296166882 0.013317611881033824 0 -0.0045009882579604759 0.01323694835115812 0 -0.0044830804304547677 0.012901986092052928 0 -0.0044528393296166882 0.013317611881033824 0 -0.0044830804304547677 0.012901986092052928 0 -0.0034640893000390163 0.01330591161829886 0 -0.0030918908871589955 0.016285703828352569 0 -0.0032396849030025409 0.014952387168404031 0 -0.0052879915109687869 -0.00038851762650738 0 -0.0052381985590676788 -0.0012854153305270585 0 -0.0029544738280375461 -0.00077777779547902836 0 -0.0044306042392062775 0.0097197981068462506 0 -0.0029436660655723767 0.012843438664868067 0 -0.0028038433231676119 0.010257293201828652 0 -0.005034821967479999 0.0095082223607841944 0 -0.0044306042392062775 0.0097197981068462506 0 -0.0029436660655723767 0.012843438664868067 0 -0.0017034693073979517 0.012964686151641893 0 -0.0032396849030025409 0.014952387168404031 0 -0.0032396849030025409 0.014952387168404031 0 -0.0044574285484527887 0.0076702884649976801 0 -0.0044306042392062775 0.0097197981068462506 0 -0.0028065414283685928 0.010237822807876456 0 -0.0027049202793593872 0.0083762840967327272 0 -0.0038904757652743482 0.008287829446328757 0 -0.0044574285484527887 0.0076702884649976801 0 -0.0018397652045781113 0.0046426542428636194 0 -0.0017843692075194283 0.003638962438031257 0 0.00018578195315711331 0.0036159778078482599 0 -0.0017034693073979517 0.012964686151641893 0 -0.0022435931773597908 0.0061710609910884716 0 -0.005034821967479999 0.0095082223607841944 0 -0.0044306042392062775 0.0097197981068462506 0 -0.0027049202793593872 0.0083762840967327272 0 -0.00018774812102306584 0.0099097554822050685 0 -0.00083358296708916323 0.010209271229250864 0 -0.00088986816636830199 0.011380100046489304 0 -0.0044574285484527887 0.0076702884649976801 0 -0.0022435931773597908 0.0061710609910884716 0 -0.0052381985590676788 -0.0012854153305270585 0 -0.0029544738280375461 -0.00077777779547902836 0 -0.002684839174937267 -0.0015480664799312931 0 -0.0022435931773597908 0.0061710609910884716 0 -0.00010325437839173602 0.0072455044523468881 0 -0.0015380513651045771 0.019458671354304204 0 -0.0011216018440595732 0.019916354687043798 0 -0.0012082918228401018 0.019539117608628524 0 -0.0017034693073979517 0.012964686151641893 0 0.0011198201118732571 0.015483698295947763 0 -0.00010325437839173602 0.0072455044523468881 0 0.0011198201118732571 0.015483698295947763 0 -0.00018774812102306584 0.0099097554822050685 0 -0.00088986816636830199 0.011380100046489304 0 0.00077863533636582632 0.011434734124443319 0 -0.0010105065569506195 0.019646821815798576 0 -0.0011216018440595732 0.019916354687043798 0 -0.0012082918228401018 0.019539117608628524 0 -0.00012541024534202771 0.01790060320795997 0 0.00016855283788497425 0.01824172257997007 0 0.00046610667436227147 0.017650432366153653 0 -0.00012541024534202771 0.01790060320795997 0 0.00020710878060116748 0.017204843158738641 0 0.00046610667436227147 0.017650432366153653 0 0.00064915752680106721 0.017090567713221472 0 0.00020710878060116748 0.017204843158738641 0 0.00046610667436227147 0.017650432366153653 0 5.1973540659178791e-07 0.019052146197388879 0 0.00029768203434852144 0.018971384389803479 0 0.00016855283788497425 0.01824172257997007 0 0.00046610667436227147 0.017650432366153653 0 0.00087062687328873494 0.018191558442085892 0 0.00087062687328873494 0.018191558442085892 0 0.00098207228593546483 0.017646806530422145 0 0.0013832941727545806 0.018170953697868013 0 0.00046610667436227147 0.017650432366153653 0 0.00087062687328873494 0.018191558442085892 0 0.00098207228593546483 0.017646806530422145 0 0.00064915752680106721 0.017090567713221472 0 0.00046610667436227147 0.017650432366153653 0 0.00098207228593546483 0.017646806530422145 0 0.00064915752680106721 0.017090567713221472 0 0.00098207228593546483 0.017646806530422145 0 0.0011423466048269926 0.017074846797465043 0 0.00098207228593546483 0.017646806530422145 0 0.0011423466048269926 0.017074846797465043 0 0.0015915233486942352 0.017595241762819944 0 0.0011423466048269926 0.017074846797465043 0 0.0017532480775509457 0.01703252468020993 0 0.0015915233486942352 0.017595241762819944 0 0.00049330456239665276 0.019574120535752953 0 0.00029768203434852144 0.018971384389803479 0 0.0021673460026907709 0.018030149314470643 0 0.0015915233486942352 0.017595241762819944 0 0.0013832941727545806 0.018170953697868013 0 0.00098207228593546483 0.017646806530422145 0 0.0015915233486942352 0.017595241762819944 0 0.0013832941727545806 0.018170953697868013 0 0.0017771221332015723 0.018239831478391227 0 0.00087062687328873494 0.018191558442085892 0 0.0013832941727545806 0.018170953697868013 0 -0.00056105610695729804 0.019899700408828668 0 -0.00043740315142719419 0.019828463985979997 0 -0.0005118709904186027 0.019782678367399088 0 -0.00056105610695729804 0.019899700408828668 0 -0.00032922024395979992 0.019891018503053484 0 -0.00043740315142719419 0.019828463985979997 0 -0.00043740315142719419 0.019828463985979997 0 -0.00045745112748760787 0.019749598820840025 0 -0.00035308594155437434 0.019787474830672704 0 -0.00043740315142719419 0.019828463985979997 0 -0.0005118709904186027 0.019782678367399088 0 -0.00045745112748760787 0.019749598820840025 0 -0.00052738853969427186 0.019711504401478629 0 -0.00050105971799106936 0.019698779780022286 0 -0.00045745112748760787 0.019749598820840025 0 -0.00052738853969427186 0.019711504401478629 0 -0.0005118709904186027 0.019782678367399088 0 -0.00045745112748760787 0.019749598820840025 0 -0.00050105971799106936 0.019698779780022286 0 -0.00045745112748760787 0.019749598820840025 0 -0.00044257516937214371 0.019710189320239199 0 -0.00035308594155437434 0.019787474830672704 0 -0.00028402573962420691 0.019774444619582197 0 -0.00036729248876020605 0.019726141207726498 0 -0.00035308594155437434 0.019787474830672704 0 -0.00036729248876020605 0.019726141207726498 0 -0.00044257516937214371 0.019710189320239199 0 -0.00045745112748760787 0.019749598820840025 0 -0.00035308594155437434 0.019787474830672704 0 -0.00044257516937214371 0.019710189320239199 0 -0.00032922024395979992 0.019891018503053484 0 -0.00035308594155437434 0.019787474830672704 0 -0.00023672764783970652 0.019817000807499967 0 -0.00032922024395979992 0.019891018503053484 0 -0.00043740315142719419 0.019828463985979997 0 -0.00035308594155437434 0.019787474830672704 0 -0.00013756385580484501 0.019843051955039631 0 -0.00032922024395979992 0.019891018503053484 0 -0.00023672764783970652 0.019817000807499967 0 -0.00035308594155437434 0.019787474830672704 0 -0.00028402573962420691 0.019774444619582197 0 -0.00023672764783970652 0.019817000807499967 0 -0.00028402573962420691 0.019774444619582197 0 -0.00023672764783970652 0.019817000807499967 0 -0.00019438598956815733 0.019811479893661825 0 -0.00013125916303672802 0.019809598446372947 0 -0.00011609045515643494 0.019873190530219527 0 -0.00015304261308767049 0.019827454100482058 0 -0.00023672764783970652 0.019817000807499967 0 -0.00019438598956815733 0.019811479893661825 0 -0.00015304261308767049 0.019827454100482058 0 -0.00011609045515643494 0.019873190530219527 0 -0.00019438598956815733 0.019811479893661825 0 -0.00015304261308767049 0.019827454100482058 0 -0.00013125916303672802 0.019809598446372947 0 -0.00013756385580484501 0.019843051955039631 0 -0.00015304261308767049 0.019827454100482058 0 -0.00013756385580484501 0.019843051955039631 0 -0.00023672764783970652 0.019817000807499967 0 -0.00015304261308767049 0.019827454100482058 0 -0.0001456837378481609 0.019686110962566956 0 -0.0002648038998186395 0.019586616203873565 0 -0.00017727344412148377 0.019481057910417234 0 -0.0001456837378481609 0.019686110962566956 0 -0.00018774294008987768 0.01977515450185106 0 -0.0002648038998186395 0.019586616203873565 0 -0.00010364120075422267 0.019852996365972767 0 -0.0001456837378481609 0.019686110962566956 0 -0.00018774294008987768 0.01977515450185106 0 -0.00010364120075422267 0.019852996365972767 0 -0.00011609045515643494 0.019873190530219527 0 -0.00018774294008987768 0.01977515450185106 0 -0.00011609045515643494 0.019873190530219527 0 -0.00019438598956815733 0.019811479893661825 0 -0.00018774294008987768 0.01977515450185106 0 -0.00019438598956815733 0.019811479893661825 0 -0.00018774294008987768 0.01977515450185106 0 -0.00028167420519740105 0.019729778251733929 0 -0.00028402573962420691 0.019774444619582197 0 -0.00019438598956815733 0.019811479893661825 0 -0.00028167420519740105 0.019729778251733929 0 -0.00028402573962420691 0.019774444619582197 0 -0.00028167420519740105 0.019729778251733929 0 -0.00036729248876020605 0.019726141207726498 0 -0.00028167420519740105 0.019729778251733929 0 -0.00036334581156807468 0.019636129911025837 0 -0.00036729248876020605 0.019726141207726498 0 -0.00028167420519740105 0.019729778251733929 0 -0.00036334581156807468 0.019636129911025837 0 -0.0002648038998186395 0.019586616203873565 0 -0.00036334581156807468 0.019636129911025837 0 -0.0002648038998186395 0.019586616203873565 0 -0.00043682359759957516 0.019326706785292302 0 -0.00018774294008987768 0.01977515450185106 0 -0.00028167420519740105 0.019729778251733929 0 -0.0002648038998186395 0.019586616203873565 0 -0.00044089993048268935 0.019566570559392132 0 -0.00050276182034753578 0.019597813157754371 0 -0.00043682359759957516 0.019326706785292302 0 -0.000709794916036784 0.019541747105019408 0 -0.00044446421007696379 0.019331603055376262 0 -0.00036334581156807468 0.019636129911025837 0 -0.00044089993048268935 0.019566570559392132 0 -0.00043682359759957516 0.019326706785292302 0 -0.00044089993048268935 0.019566570559392132 0 -0.00044392028568744147 0.019652278994203336 0 -0.00050276182034753578 0.019597813157754371 0 -0.00036334581156807468 0.019636129911025837 0 -0.00044089993048268935 0.019566570559392132 0 -0.00044392028568744147 0.019652278994203336 0 -0.00036334581156807468 0.019636129911025837 0 -0.00036729248876020605 0.019726141207726498 0 -0.00044392028568744147 0.019652278994203336 0 -0.00036729248876020605 0.019726141207726498 0 -0.00044392028568744147 0.019652278994203336 0 -0.00044257516937214371 0.019710189320239199 0 -0.00049212462854529733 0.019665886447277348 0 -0.00050276182034753578 0.019597813157754371 0 -0.000539173071092238 0.019676548025041131 0 -0.000709794916036784 0.019541747105019408 0 -0.001005072850776239 0.019736506698411316 0 -0.00044392028568744147 0.019652278994203336 0 -0.00049212462854529733 0.019665886447277348 0 -0.00050276182034753578 0.019597813157754371 0 -0.00044392028568744147 0.019652278994203336 0 -0.00049212462854529733 0.019665886447277348 0 -0.00044257516937214371 0.019710189320239199 0 -0.00050105971799106936 0.019698779780022286 0 -0.00049212462854529733 0.019665886447277348 0 -0.00044257516937214371 0.019710189320239199 0 -0.00050105971799106936 0.019698779780022286 0 -0.00049212462854529733 0.019665886447277348 0 -0.000539173071092238 0.019676548025041131 0 -0.0011001424340102112 0.019526652047355677 0 -0.00096407965189802803 0.019522213233971065 0 -0.001383038759206682 0.019766738295922848 0 -0.00096407965189802803 0.019522213233971065 0 -0.0010510367247189227 0.019368341949984002 0 -0.00089562614850193444 0.01926890703080085 0 -0.0011001424340102112 0.019526652047355677 0 -0.00096407965189802803 0.019522213233971065 0 -0.0010510367247189227 0.019368341949984002 0 -0.0011001424340102112 0.019526652047355677 0 -0.0010510367247189227 0.019368341949984002 0 -0.0012040423636783132 0.019261806600781556 0 -0.0011001424340102112 0.019526652047355677 0 -0.0012040423636783132 0.019261806600781556 0 -0.0014416714245967608 0.019262586863846611 0 -0.0012040423636783132 0.019261806600781556 0 -0.0010600733888973292 0.019269796494394618 0 -0.0010878214838886031 0.019146370272744392 0 -0.0010510367247189227 0.019368341949984002 0 -0.0012040423636783132 0.019261806600781556 0 -0.0010600733888973292 0.019269796494394618 0 -0.0010510367247189227 0.019368341949984002 0 -0.0010600733888973292 0.019269796494394618 0 -0.00089562614850193444 0.01926890703080085 0 -0.0010600733888973292 0.019269796494394618 0 -0.00089562614850193444 0.01926890703080085 0 -0.0010878214838886031 0.019146370272744392 0 -0.00094509959484819861 0.019064259151650227 0 -0.00096205242497442731 0.018876078018839917 0 -0.00073529262871961513 0.019033244171845279 0 -0.00089562614850193444 0.01926890703080085 0 -0.00094509959484819861 0.019064259151650227 0 -0.0010878214838886031 0.019146370272744392 0 -0.00094509959484819861 0.019064259151650227 0 -0.0010878214838886031 0.019146370272744392 0 -0.0011251105007326399 0.018948870843414248 0 -0.0012040423636783132 0.019261806600781556 0 -0.0010878214838886031 0.019146370272744392 0 -0.0012826299840483651 0.019057130701831838 0 -0.0010878214838886031 0.019146370272744392 0 -0.0012826299840483651 0.019057130701831838 0 -0.0011251105007326399 0.018948870843414248 0 -0.0012826299840483651 0.019057130701831838 0 -0.0011251105007326399 0.018948870843414248 0 -0.0013060224424052251 0.018846717407990848 0 -0.0011251105007326399 0.018948870843414248 0 -0.0011347190445476904 0.018724555174587796 0 -0.0013060224424052251 0.018846717407990848 0 -0.00088820588866778724 0.018454815124504708 0 -0.0013694165902591491 0.018282766033848607 0 -0.0011347190445476904 0.018724555174587796 0 -0.00089371029597613231 0.018520528290345402 0 -0.0014697211480742402 0.018605149054711057 0 -0.0010099086008535426 0.018358853561938109 0 -0.00089371029597613231 0.018520528290345402 0 -0.0013051928122187989 0.017960699606265635 0 -0.0011347190445476904 0.018724555174587796 0 -0.00089371029597613231 0.018520528290345402 0 -0.00094719169655237839 0.018733494175091046 0 -0.00089371029597613231 0.018520528290345402 0 -0.00094719169655237839 0.018733494175091046 0 -0.00079605700693921458 0.018805753883626864 0 -0.00094719169655237839 0.018733494175091046 0 -0.00096205242497442731 0.018876078018839917 0 -0.00079605700693921458 0.018805753883626864 0 -0.0011347190445476904 0.018724555174587796 0 -0.00094719169655237839 0.018733494175091046 0 -0.00096205242497442731 0.018876078018839917 0 -0.0011251105007326399 0.018948870843414248 0 -0.0011347190445476904 0.018724555174587796 0 -0.00096205242497442731 0.018876078018839917 0 -0.00094509959484819861 0.019064259151650227 0 -0.0011251105007326399 0.018948870843414248 0 -0.00096205242497442731 0.018876078018839917 0 -0.00079605700693921458 0.018805753883626864 0 -0.00073529262871961513 0.019033244171845279 0 -0.00038037514854591837 0.018896074637451854 0 -0.0010099086008535426 0.018358853561938109 0 -0.00089371029597613231 0.018520528290345402 0 -0.00038037514854591837 0.018896074637451854 0 -0.00089371029597613231 0.018520528290345402 0 -0.00079605700693921458 0.018805753883626864 0 -0.00038037514854591837 0.018896074637451854 0 -0.00096205242497442731 0.018876078018839917 0 -0.00079605700693921458 0.018805753883626864 0 -0.00073529262871961513 0.019033244171845279 0 -0.00073529262871961513 0.019033244171845279 0 -0.00043682359759957516 0.019326706785292302 0 -0.00038037514854591837 0.018896074637451854 0 -0.00074362681456830641 0.018462738730132402 0 -0.0003967182403398684 0.0188255490629551 0 -0.00089562614850193444 0.01926890703080085 0 -0.00073529262871961513 0.019033244171845279 0 -0.00043682359759957516 0.019326706785292302 0 -0.00096407965189802803 0.019522213233971065 0 -0.00089562614850193444 0.01926890703080085 0 -0.00043682359759957516 0.019326706785292302 0 -0.00089562614850193444 0.01926890703080085 0 -0.00094509959484819861 0.019064259151650227 0 -0.00073529262871961513 0.019033244171845279 0 -0.00043682359759957516 0.019326706785292302 0 -0.00025647634604030611 0.019287720720459457 0 -0.00038037514854591837 0.018896074637451854 0 -0.0002648038998186395 0.019586616203873565 0 -0.00043682359759957516 0.019326706785292302 0 -0.00025647634604030611 0.019287720720459457 0 -0.00025647634604030611 0.019287720720459457 0 -0.00038037514854591837 0.018896074637451854 0 -0.00019171101385063237 0.019076938808626234 0 -0.00038037514854591837 0.018896074637451854 0 -0.00019171101385063237 0.019076938808626234 0 -0.00030101380888568639 0.018833562752267777 0 -0.00025647634604030611 0.019287720720459457 0 -0.00019171101385063237 0.019076938808626234 0 -0.00014879349843389646 0.019294107370676515 0 -3.1205858632532835e-05 0.019185391237321416 0 -0.00019171101385063237 0.019076938808626234 0 -0.00014879349843389646 0.019294107370676515 0 -3.1205858632532835e-05 0.019185391237321416 0 -0.00019171101385063237 0.019076938808626234 0 -4.6010345576321555e-05 0.019048263055028755 0 -5.4966693596261861e-05 0.019534616733321252 0 -0.00014879349843389646 0.019294107370676515 0 -0.00017727344412148377 0.019481057910417234 0 -0.0002648038998186395 0.019586616203873565 0 -0.00025647634604030611 0.019287720720459457 0 -0.00017727344412148377 0.019481057910417234 0 -0.00025647634604030611 0.019287720720459457 0 -0.00014879349843389646 0.019294107370676515 0 -0.00017727344412148377 0.019481057910417234 0 -5.4966693596261861e-05 0.019534616733321252 0 -0.0001456837378481609 0.019686110962566956 0 -0.00017727344412148377 0.019481057910417234 0 -0.0020365652545224896 0.019420277493570878 0 -0.0016958328357001391 0.019221819499182415 0 -0.0023338859232718448 0.018969834819534386 0 -0.0020365652545224896 0.019420277493570878 0 -0.002348210540367256 0.019472414978557315 0 -0.0023338859232718448 0.018969834819534386 0 -0.0045855642274389603 0.014397036438527638 0 -0.0046349201054511381 0.015366121733755915 0 -0.004072707627111009 0.01518015212005501 0 -0.0034871277180505431 0.016971812937243615 0 -0.003321256581896974 0.017308880236232761 0 -0.0045855642274389603 0.014397036438527638 0 -0.004072707627111009 0.01518015212005501 0 -0.0037214737521960865 0.014725664312365952 0 -0.0045855642274389603 0.014397036438527638 0 -0.0037214737521960865 0.014725664312365952 0 -0.0039485054032189154 0.014174797400561294 0 -0.0030918908871589955 0.016285703828352569 0 -0.0034871277180505431 0.016971812937243615 0 -0.0044812559855432746 0.013469727470715943 0 -0.0039485054032189154 0.014174797400561294 0 -0.0037703806730815842 0.013879053876746162 0 -0.0044812559855432746 0.013469727470715943 0 -0.0045855642274389603 0.014397036438527638 0 -0.0039485054032189154 0.014174797400561294 0 -0.0023924225075014727 0.019933253534006989 0 -0.002348210540367256 0.019472414978557315 0 -0.0020476308674248142 0.01973428369362995 0 -0.0020365652545224896 0.019420277493570878 0 -0.002348210540367256 0.019472414978557315 0 -0.0020476308674248142 0.01973428369362995 0 -0.0020365652545224896 0.019420277493570878 0 -0.0020476308674248142 0.01973428369362995 0 -0.0017662202414206706 0.019682055465726933 0 -0.0018190751740218031 0.020069780823766089 0 -0.0020476308674248142 0.01973428369362995 0 -0.0017662202414206706 0.019682055465726933 0 -0.0018190751740218031 0.020069780823766089 0 -0.0017662202414206706 0.019682055465726933 0 -0.001383038759206682 0.019766738295922848 0 -0.0011001424340102112 0.019526652047355677 0 -0.001383038759206682 0.019766738295922848 0 -0.0016958328357001391 0.019221819499182415 0 -0.0012564674560814125 0.019417533181989362 0 -0.0015104429242943586 0.019575914857538384 0 -0.0011001424340102112 0.019526652047355677 0 -0.0018239514378102894 0.019360892733488681 0 -0.0014416714245967608 0.019262586863846611 0 -0.0020365652545224896 0.019420277493570878 0 -0.0017662202414206706 0.019682055465726933 0 -0.0016958328357001391 0.019221819499182415 0 -0.0017662202414206706 0.019682055465726933 0 -0.001383038759206682 0.019766738295922848 0 -0.0016958328357001391 0.019221819499182415 0 -0.0018239514378102894 0.019360892733488681 0 -0.0019538105173659151 0.018935659945803117 0 -0.002276718119099169 0.018865212426105542 0 -0.0018239514378102894 0.019360892733488681 0 -0.0017172603097743288 0.018927477178365251 0 -0.0019538105173659151 0.018935659945803117 0 -0.0018239514378102894 0.019360892733488681 0 -0.0017172603097743288 0.018927477178365251 0 -0.0014416714245967608 0.019262586863846611 0 -0.0012040423636783132 0.019261806600781556 0 -0.0012826299840483651 0.019057130701831838 0 -0.0014416714245967608 0.019262586863846611 0 -0.0017172603097743288 0.018927477178365251 0 -0.0014416714245967608 0.019262586863846611 0 -0.0014748516250586989 0.01893392585320422 0 -0.0012826299840483651 0.019057130701831838 0 -0.0014416714245967608 0.019262586863846611 0 -0.0014748516250586989 0.01893392585320422 0 -0.0012826299840483651 0.019057130701831838 0 -0.0014748516250586989 0.01893392585320422 0 -0.0013060224424052251 0.018846717407990848 0 -0.0010099086008535426 0.018358853561938109 0 -0.0013051928122187989 0.017960699606265635 0 -0.0015018375610202405 0.017553657559010893 0 -0.0011347190445476904 0.018724555174587796 0 -0.0013060224424052251 0.018846717407990848 0 -0.0014697211480742402 0.018605149054711057 0 -0.0014748516250586989 0.01893392585320422 0 -0.0013060224424052251 0.018846717407990848 0 -0.0014697211480742402 0.018605149054711057 0 -0.0017172603097743288 0.018927477178365251 0 -0.0014748516250586989 0.01893392585320422 0 -0.0014697211480742402 0.018605149054711057 0 -0.0017172603097743288 0.018927477178365251 0 -0.0014697211480742402 0.018605149054711057 0 -0.0019972204404684365 0.018591618324297277 0 -0.0013051928122187989 0.017960699606265635 0 -0.0016615237064139851 0.017489456287552815 0 -0.0015018375610202405 0.017553657559010893 0 -0.0013694165902591491 0.018282766033848607 0 -0.0016747971027329881 0.018089098443003371 0 -0.0019538105173659151 0.018935659945803117 0 -0.0019972204404684365 0.018591618324297277 0 -0.002276718119099169 0.018865212426105542 0 -0.0017172603097743288 0.018927477178365251 0 -0.0019538105173659151 0.018935659945803117 0 -0.0019972204404684365 0.018591618324297277 0 -0.0016615237064139851 0.017489456287552815 0 -0.0018953259089165969 0.017175857051875326 0 -0.0018706691186834996 0.017114386200792999 0 -0.0019972204404684365 0.018591618324297277 0 -0.002276718119099169 0.018865212426105542 0 -0.0025687027902533124 0.018580251598366484 0 -0.002276718119099169 0.018865212426105542 0 -0.0025981478995056374 0.019101741494085937 0 -0.0025687027902533124 0.018580251598366484 0 -0.0016747971027329881 0.018089098443003371 0 -0.0029067429343469587 0.017096909762946134 0 -0.0018239514378102894 0.019360892733488681 0 -0.002276718119099169 0.018865212426105542 0 -0.0025981478995056374 0.019101741494085937 0 -0.0015104429242943586 0.019575914857538384 0 -0.003321256581896974 0.017308880236232761 0 -0.0044008745169567065 0.015461713453946452 0 -0.004055051463793812 0.015801256104785232 0 -0.0037240094317783144 0.015644350233360693 0 -0.003321256581896974 0.017308880236232761 0 -0.0043596999272880778 0.015250998166607839 0 -0.0046349201054511381 0.015366121733755915 0 -0.004072707627111009 0.01518015212005501 0 -0.0037240094317783144 0.015644350233360693 0 -0.004055051463793812 0.015801256104785232 0 -0.0044448049870396411 0.016087031839526471 0 -0.0034882094016832638 0.016089653081490997 0 -0.003321256581896974 0.017308880236232761 0 -0.0029067429343469587 0.017096909762946134 0 -0.0044008745169567065 0.015461713453946452 0 -0.004055051463793812 0.015801256104785232 0 -0.0044448049870396411 0.016087031839526471 0 -0.0029067429343469587 0.017096909762946134 0 -0.0026444323961370771 0.016359650222118119 0 -0.0029067429343469587 0.017096909762946134 0 -0.0026542985020467226 0.017079815128457548 0 -0.004055051463793812 0.015801256104785232 0 -0.0034882094016832638 0.016089653081490997 0 -0.0037240094317783144 0.015644350233360693 0 -0.0034882094016832638 0.016089653081490997 0 -0.0030322652522682529 0.01553453414793741 0 -0.0037240094317783144 0.015644350233360693 0 -0.0034882094016832638 0.016089653081490997 0 -0.0030322652522682529 0.01553453414793741 0 -0.0023486062302765878 0.016086669243827609 0 -0.0026444323961370771 0.016359650222118119 0 -0.0019149371880386097 0.016280507595358866 0 -0.0017219102584493018 0.016764262355237609 0 -0.00155728123700057 0.016466723354755991 0 -0.0016737574398939098 0.016749966490582226 0 -0.0030322652522682529 0.01553453414793741 0 -0.0023193552863031387 0.015360603789225147 0 -0.002909212001708651 0.014852365361607188 0 -0.0030322652522682529 0.01553453414793741 0 -0.003427654197758426 0.015223929572514679 0 -0.002909212001708651 0.014852365361607188 0 -0.0030322652522682529 0.01553453414793741 0 -0.003427654197758426 0.015223929572514679 0 -0.0037240094317783144 0.015644350233360693 0 -0.004072707627111009 0.01518015212005501 0 -0.003427654197758426 0.015223929572514679 0 -0.0037214737521960865 0.014725664312365952 0 -0.004072707627111009 0.01518015212005501 0 -0.003427654197758426 0.015223929572514679 0 -0.0037240094317783144 0.015644350233360693 0 -0.0023486062302765878 0.016086669243827609 0 -0.0016605387453515164 0.015559454795348225 0 -0.0012476930981502538 0.016114557940518637 0 -0.00155728123700057 0.016466723354755991 0 -0.0012476930981502538 0.016114557940518637 0 -0.0014087323508209031 0.016454427081752543 0 -0.0019149371880386097 0.016280507595358866 0 -0.0012714847103662051 0.016138648985617791 0 -0.0023486062302765878 0.016086669243827609 0 -0.0023193552863031387 0.015360603789225147 0 -0.0016605387453515164 0.015559454795348225 0 -0.0030322652522682529 0.01553453414793741 0 -0.0023486062302765878 0.016086669243827609 0 -0.0023193552863031387 0.015360603789225147 0 -0.0023193552863031387 0.015360603789225147 0 -0.0016583255695702445 0.014760657546160667 0 -0.002909212001708651 0.014852365361607188 0 -0.0016605387453515164 0.015559454795348225 0 -0.0016583255695702445 0.014760657546160667 0 -0.0010254143873060905 0.0159011382129714 0 -0.0023193552863031387 0.015360603789225147 0 -0.0016605387453515164 0.015559454795348225 0 -0.0016583255695702445 0.014760657546160667 0 -0.0016583255695702445 0.014760657546160667 0 -0.002909212001708651 0.014852365361607188 0 -0.0027261768068831552 0.014224598300470858 0 -0.0016583255695702445 0.014760657546160667 0 -0.00241188136178544 0.013658868064804413 0 -0.0027261768068831552 0.014224598300470858 0 -0.0014071380120062769 0.01081654295623607 0 -0.00043126338587734742 0.0045651431958680664 0 -0.00095519646569148554 0.0052961453483404038 0 -0.0014155355761819881 0.0046590540074203188 0 -0.00076469128197293129 0.0048664424833831845 0 -0.00043126338587734742 0.0045651431958680664 0 -0.00082580917478138679 0.0005034082500852508 0 -0.00070960572845253731 -0.0029192102805080211 0 -0.0003937088243611767 -0.0028501133835699293 0 -0.00056967109204651288 -0.0031217829670247273 0 -0.003427654197758426 0.015223929572514679 0 -0.0037214737521960865 0.014725664312365952 0 -0.002909212001708651 0.014852365361607188 0 -0.0037214737521960865 0.014725664312365952 0 -0.0033855636489234084 0.014224347966040121 0 -0.0039485054032189154 0.014174797400561294 0 -0.0037214737521960865 0.014725664312365952 0 -0.002909212001708651 0.014852365361607188 0 -0.0033855636489234084 0.014224347966040121 0 -0.002909212001708651 0.014852365361607188 0 -0.0027261768068831552 0.014224598300470858 0 -0.0033855636489234084 0.014224347966040121 0 -0.00241188136178544 0.013658868064804413 0 -0.0027261768068831552 0.014224598300470858 0 -0.0032819411825561165 0.013623385417075414 0 -0.0027261768068831552 0.014224598300470858 0 -0.0032819411825561165 0.013623385417075414 0 -0.0033855636489234084 0.014224347966040121 0 -0.0044812559855432746 0.013469727470715943 0 -0.0032819411825561165 0.013623385417075414 0 -0.0037703806730815842 0.013879053876746162 0 -0.0032819411825561165 0.013623385417075414 0 -0.0033855636489234084 0.014224347966040121 0 -0.0037703806730815842 0.013879053876746162 0 -0.0033855636489234084 0.014224347966040121 0 -0.0039485054032189154 0.014174797400561294 0 -0.0037703806730815842 0.013879053876746162 0 -0.0044574285484527887 0.0076702884649976801 0 -0.0023065157992330472 0.0073388320336796554 0 -0.0030918908871589955 0.016285703828352569 0 -0.004004192115581116 0.012791181619160756 0 -0.0052879915109687869 -0.00038851762650738 0 -0.0013108457800703416 0.00089926065493015181 0 -0.0029544738280375461 -0.00077777779547902836 0 -0.0044528393296166882 0.013317611881033824 0 -0.0032819411825561165 0.013623385417075414 0 -0.0034640893000390163 0.01330591161829886 0 -0.0013108457800703416 0.00089926065493015181 0 -0.0029544738280375461 -0.00077777779547902836 0 -0.0012535122838971816 -0.0010738818686386877 0 -0.00010325437839173602 0.0072455044523468881 0 -0.0005454607567033843 -0.0004136699217173212 0 -0.0052381985590676788 -0.0012854153305270585 0 -0.0011624597956417172 -0.0033231369717316894 0 -0.001287641814643155 -0.0030477646854377496 0 -0.0052381985590676788 -0.0012854153305270585 0 -0.002684839174937267 -0.0015480664799312931 0 -0.001287641814643155 -0.0030477646854377496 0 -0.0029544738280375461 -0.00077777779547902836 0 -0.002684839174937267 -0.0015480664799312931 0 -0.0012535122838971816 -0.0010738818686386877 0 -0.0022435931773597908 0.0061710609910884716 0 -0.0005454607567033843 -0.0004136699217173212 0 -0.002684839174937267 -0.0015480664799312931 0 -0.0012535122838971816 -0.0010738818686386877 0 -0.001287641814643155 -0.0030477646854377496 0 -0.0005454607567033843 -0.0004136699217173212 0 -0.00065936500272417101 -0.0038515964851051454 0 -0.0011624597956417172 -0.0033231369717316894 0 -0.00096696854145328403 -0.003149998674253186 0 -0.00058707106545329577 -0.0034162926408646773 0 -0.0011624597956417172 -0.0033231369717316894 0 -0.001287641814643155 -0.0030477646854377496 0 -0.00096696854145328403 -0.003149998674253186 0 -0.0010449083498570459 -0.0027812819904376464 0 -0.00036058502721129286 -0.0023185294644848089 0 -0.001287641814643155 -0.0030477646854377496 0 -0.00096696854145328403 -0.003149998674253186 0 -0.00085898146694436434 -0.0030713705807173569 0 -0.0012535122838971816 -0.0010738818686386877 0 -0.001287641814643155 -0.0030477646854377496 0 0.00070267169527528036 -0.00036946083481556347 0 -0.00096696854145328403 -0.003149998674253186 0 -0.00085898146694436434 -0.0030713705807173569 0 -0.00075481143531384224 -0.00319638635403243 0 -0.00241188136178544 0.013658868064804413 0 -0.0032819411825561165 0.013623385417075414 0 -0.0034640893000390163 0.01330591161829886 0 -0.00043126338587734742 0.0045651431958680664 0 -0.0023065157992330472 0.0073388320336796554 0 0.0026486919372499238 0.0022333044548909229 0 -0.0013108457800703416 0.00089926065493015181 0 0.00070267169527528036 -0.00036946083481556347 0 -0.0013108457800703416 0.00089926065493015181 0 -0.0012535122838971816 -0.0010738818686386877 0 0.00070267169527528036 -0.00036946083481556347 0 -0.00043126338587734742 0.0045651431958680664 0 -0.00036058502721129286 -0.0023185294644848089 0 -0.00070960572845253731 -0.0029192102805080211 0 -0.00085898146694436434 -0.0030713705807173569 0 -0.00071814654100004773 -0.0030805293305791164 0 -0.00070960572845253731 -0.0029192102805080211 0 -0.00071814654100004773 -0.0030805293305791164 0 -0.00056967109204651288 -0.0031217829670247273 0 -0.00071814654100004773 -0.0030805293305791164 0 -0.00056967109204651288 -0.0031217829670247273 0 -0.00075481143531384224 -0.00319638635403243 0 -0.00085898146694436434 -0.0030713705807173569 0 -0.00071814654100004773 -0.0030805293305791164 0 -0.00075481143531384224 -0.00319638635403243 0 -0.00056967109204651288 -0.0031217829670247273 0 -0.00039052529230784928 -0.0033726108773130289 0 -0.00037750425115175182 -0.0031287456828564572 0 -0.0003937088243611767 -0.0028501133835699293 0 -0.00056967109204651288 -0.0031217829670247273 0 -0.00037750425115175182 -0.0031287456828564572 0 -0.00065936500272417101 -0.0038515964851051454 0 8.1152486793291679e-06 -0.0034728159235483851 0 -0.00026033755558923193 -0.0033893603920332909 0 -0.00073345440323619219 -0.0032244636733413526 0 -0.00056967109204651288 -0.0031217829670247273 0 -0.00039052529230784928 -0.0033726108773130289 0 -0.00075481143531384224 -0.00319638635403243 0 -0.00011538847291890292 -0.0034142008990212637 0 -0.00058707106545329577 -0.0034162926408646773 0 -2.5082396643047394e-05 -0.0035833729185123378 0 -0.00096696854145328403 -0.003149998674253186 0 -0.00058707106545329577 -0.0034162926408646773 0 -0.00075481143531384224 -0.00319638635403243 0 -0.00011538847291890292 -0.0034142008990212637 0 -0.00058707106545329577 -0.0034162926408646773 0 -0.00075481143531384224 -0.00319638635403243 0 -0.00049595895326086511 -0.0035343990795113859 0 -0.0005400042087581121 -0.0037482210351879358 0 -0.00025505231916290598 -0.0037238995102486221 0 -0.0005400042087581121 -0.0037482210351879358 0 -0.00025505231916290598 -0.0037238995102486221 0 -9.7020162679750695e-05 -0.0040007263833955467 0 -0.00049595895326086511 -0.0035343990795113859 0 -0.00025505231916290598 -0.0037238995102486221 0 -2.5082396643047394e-05 -0.0035833729185123378 0 -0.00025505231916290598 -0.0037238995102486221 0 -9.7020162679750695e-05 -0.0040007263833955467 0 3.0218820256582875e-06 -0.0037814877159516973 0 0.00017177330439657285 -0.00016771373971077887 0 0.00056824091800852447 -0.00048684958319054412 0 0.00084521315363812765 0.0028283463065436869 0 0.00080475364984559851 0.0033067304152033603 0 0.0012432677934450353 0.0030366934940382045 0 0.00084521315363812765 0.0028283463065436869 0 0.00080475364984559851 0.0033067304152033603 0 0.00045951913112693172 0.0030734637720426388 0 0.00043290829659229442 0.0035342283646658513 0 0.00080475364984559851 0.0033067304152033603 0 0.00032933190032555194 0.0033207906146487144 0 0.00080475364984559851 0.0033067304152033603 0 0.00045951913112693172 0.0030734637720426388 0 0.00032933190032555194 0.0033207906146487144 0 0.0001130090382817102 0.0032761345539475575 0 0.00045951913112693172 0.0030734637720426388 0 0.00032933190032555194 0.0033207906146487144 0 0.0028856066036376765 0.010973098141518995 0 0.0020655528080500288 0.0089653570546425372 0 8.7474125406016703e-05 0.0035789251853904831 0 0.00043290829659229442 0.0035342283646658513 0 0.00032933190032555194 0.0033207906146487144 0 -0.0005454607567033843 -0.0004136699217173212 0 0.00017177330439657285 -0.00016771373971077887 0 -0.00097941503026261942 -0.0034730726924784802 0 -0.00049595895326086511 -0.0035343990795113859 0 -0.0005400042087581121 -0.0037482210351879358 0 0.00056140416964576114 -0.0039108701471470839 0 0.00073041359565023754 -0.0037831577912281786 0 0.00081565057786754972 -0.0041279015541726971 0 0.00056140416964576114 -0.0039108701471470839 0 0.00055489285851292001 -0.0041416673722296359 0 0.00081565057786754972 -0.0041279015541726971 0 0.00056140416964576114 -0.0039108701471470839 0 0.00055489285851292001 -0.0041416673722296359 0 0.00025887586810271497 -0.0038835549711698559 0 0.00031339862109622577 -0.0042102147039732489 0 0.00055489285851292001 -0.0041416673722296359 0 0.00025887586810271497 -0.0038835549711698559 0 0.00031339862109622577 -0.0042102147039732489 0 -9.7020162679750695e-05 -0.0040007263833955467 0 0.00025887586810271497 -0.0038835549711698559 0 0.0010859640417269043 -0.00077362337211412183 0 0.00056824091800852447 -0.00048684958319054412 0 -9.7020162679750695e-05 -0.0040007263833955467 0 3.0218820256582875e-06 -0.0037814877159516973 0 0.00025887586810271497 -0.0038835549711698559 0 3.0218820256582875e-06 -0.0037814877159516973 0 0.00013617302637762538 -0.0036647806791115373 0 -2.5082396643047394e-05 -0.0035833729185123378 0 3.0218820256582875e-06 -0.0037814877159516973 0 0.00013617302637762538 -0.0036647806791115373 0 0.00025887586810271497 -0.0038835549711698559 0 -0.00025505231916290598 -0.0037238995102486221 0 3.0218820256582875e-06 -0.0037814877159516973 0 -2.5082396643047394e-05 -0.0035833729185123378 0 0.00056140416964576114 -0.0039108701471470839 0 0.00025887586810271497 -0.0038835549711698559 0 0.00039077356667956083 -0.0036181797445356532 0 0.00013617302637762538 -0.0036647806791115373 0 0.00025887586810271497 -0.0038835549711698559 0 0.00039077356667956083 -0.0036181797445356532 0 -0.00026033755558923193 -0.0033893603920332909 0 0.00025153527431645751 -0.0035996452613076477 0 -0.00039052529230784928 -0.0033726108773130289 0 9.8438827792928247e-05 -0.0035747126771671933 0 -0.00014733502061097813 -0.0031682739522866685 0 -0.00011538847291890292 -0.0034142008990212637 0 0.00013617302637762538 -0.0036647806791115373 0 0.00039077356667956083 -0.0036181797445356532 0 -0.00011538847291890292 -0.0034142008990212637 0 0.00013617302637762538 -0.0036647806791115373 0 -2.5082396643047394e-05 -0.0035833729185123378 0 -0.00039052529230784928 -0.0033726108773130289 0 -0.00037750425115175182 -0.0031287456828564572 0 -0.00014733502061097813 -0.0031682739522866685 0 -0.0003937088243611767 -0.0028501133835699293 0 -0.00037750425115175182 -0.0031287456828564572 0 -0.00014733502061097813 -0.0031682739522866685 0 9.8438827792928247e-05 -0.0035747126771671933 0 -0.00014733502061097813 -0.0031682739522866685 0 0.00028648616679364077 -0.0031686233122090652 0 0.00025153527431645751 -0.0035996452613076477 0 0.00070995975536387325 -0.0037567733632745156 0 0.00056140416964576114 -0.0039108701471470839 0 0.00039077356667956083 -0.0036181797445356532 0 0.00073041359565023754 -0.0037831577912281786 0 9.8438827792928247e-05 -0.0035747126771671933 0 0.00028648616679364077 -0.0031686233122090652 0 0.00073041359565023754 -0.0037831577912281786 0 0.00028648616679364077 -0.0031686233122090652 0 0.00073041359565023754 -0.0037831577912281786 0 0.00077681426152211713 -0.003152981909588543 0 0.00028648616679364077 -0.0031686233122090652 0 0.00050319290293838689 -0.0025520695406315145 0 0.00077681426152211713 -0.003152981909588543 0 0.00028648616679364077 -0.0031686233122090652 0 0.00050319290293838689 -0.0025520695406315145 0 1.9060451910408282e-05 -0.002721893714948713 0 0.00050203909480605929 0.0052751629753957458 0 -7.7765069297785634e-05 0.0050741128213014708 0 0.00010634457654383651 0.0056485211773056468 0 0.0004444370133400882 0.0013173722586116452 0 4.7183901912922905e-05 0.0012570002428740309 0 -0.0003937088243611767 -0.0028501133835699293 0 -0.00014733502061097813 -0.0031682739522866685 0 1.9060451910408282e-05 -0.002721893714948713 0 -0.00082580917478138679 0.0005034082500852508 0 4.7183901912922905e-05 0.0012570002428740309 0 -0.00014733502061097813 -0.0031682739522866685 0 0.00028648616679364077 -0.0031686233122090652 0 1.9060451910408282e-05 -0.002721893714948713 0 -7.7765069297785634e-05 0.0050741128213014708 0 -0.00044969836738037287 0.005379579285957857 0 0.00010634457654383651 0.0056485211773056468 0 -0.00095519646569148554 0.0052961453483404038 0 -0.00076469128197293129 0.0048664424833831845 0 -0.00044969836738037287 0.005379579285957857 0 -0.00076469128197293129 0.0048664424833831845 0 -7.7765069297785634e-05 0.0050741128213014708 0 -0.00044969836738037287 0.005379579285957857 0 -0.00095519646569148554 0.0052961453483404038 0 -0.00044969836738037287 0.005379579285957857 0 -0.00049941777454055587 0.0059619051408760599 0 -0.0014071380120062769 0.01081654295623607 0 -0.00073169961104120823 0.011086413565084127 0 -0.00044969836738037287 0.005379579285957857 0 -0.00049941777454055587 0.0059619051408760599 0 0.00010634457654383651 0.0056485211773056468 0 -0.00073169961104120823 0.011086413565084127 0 -0.00036335953099306977 0.0099444067705369132 0 -2.6218801181561394e-06 0.0060801625137845584 0 -0.00049941777454055587 0.0059619051408760599 0 -0.00012407120930711164 0.00645174261174332 0 -2.6218801181561394e-06 0.0060801625137845584 0 -0.00049941777454055587 0.0059619051408760599 0 0.00010634457654383651 0.0056485211773056468 0 -2.6218801181561394e-06 0.0060801625137845584 0 0.00035448615539063536 0.0063350841370163769 0 -0.00012407120930711164 0.00645174261174332 0 -0.0010254143873060905 0.0159011382129714 0 -0.0010278604039464085 0.016342197541415211 0 -0.0011722722664275363 0.016245555443528396 0 -0.0016605387453515164 0.015559454795348225 0 -0.0010254143873060905 0.0159011382129714 0 -0.0012476930981502538 0.016114557940518637 0 -0.0010254143873060905 0.0159011382129714 0 -0.0012476930981502538 0.016114557940518637 0 -0.0011722722664275363 0.016245555443528396 0 -0.0012476930981502538 0.016114557940518637 0 -0.0012602855140892994 0.016320606832783736 0 -0.0011722722664275363 0.016245555443528396 0 0.00050203909480605929 0.0052751629753957458 0 0.00052156972375222758 0.0056427602126202956 0 0.00068588852980763391 0.0054960716809259709 0 0.00050203909480605929 0.0052751629753957458 0 0.00010634457654383651 0.0056485211773056468 0 0.00052156972375222758 0.0056427602126202956 0 0.00011064484396924457 0.0056275492439176534 0 0.0007473222956123275 0.0058485499898183494 0 -2.6218801181561394e-06 0.0060801625137845584 0 0.00010634457654383651 0.0056485211773056468 0 0.00035448615539063536 0.0063350841370163769 0 0.00010634457654383651 0.0056485211773056468 0 0.00035448615539063536 0.0063350841370163769 0 0.00084889658088026937 0.0059190746328856699 0 0.00035448615539063536 0.0063350841370163769 0 0.00084889658088026937 0.0059190746328856699 0 0.00082891562699829969 0.0064553127334312085 0 0.00084889658088026937 0.0059190746328856699 0 0.00082891562699829969 0.0064553127334312085 0 0.0015452310359231681 0.0061559445257390408 0 -9.0781412925255943e-05 0.0061723239443413304 0 -0.00042987223367642622 0.0068199835106061996 0 0.00048083729560540947 0.0067232363424505684 0 -0.00042987223367642622 0.0068199835106061996 0 -0.00089603460024239266 0.0071386504294898524 0 -0.0012543339910723399 0.0066792325037436755 0 0.00035448615539063536 0.0063350841370163769 0 0.00082891562699829969 0.0064553127334312085 0 5.6426110505176236e-05 0.0067865346471514786 0 -9.0781412925255943e-05 0.0061723239443413304 0 -0.00042987223367642622 0.0068199835106061996 0 -0.0012543339910723399 0.0066792325037436755 0 0.00048458259637359802 0.0060057023264339206 0 -0.00036335953099306977 0.0099444067705369132 0 -0.00083116104105921068 0.016447959106635723 0 -0.00075040668575823851 0.01652242631558002 0 -0.00094208688897060488 0.01650095052538094 0 -0.0002752660053814953 0.01182683098389567 0 -0.00036335953099306977 0.0099444067705369132 0 -0.00042987223367642622 0.0068199835106061996 0 -0.00089603460024239266 0.0071386504294898524 0 -0.00054138800163788521 0.0076043411089711729 0 -0.0002752660053814953 0.01182683098389567 0 -0.0018017112262921243 0.0081884464311413295 0 -0.0015733458353210117 0.0015918444762509502 0 -0.0015661486565622103 0.001533255921957242 0 -0.0015667037785750877 0.0015448535447394863 0 -0.00042987223367642622 0.0068199835106061996 0 -0.00054138800163788521 0.0076043411089711729 0 0.00048083729560540947 0.0067232363424505684 0 -0.0018017112262921243 0.0081884464311413295 0 -0.00022161206883040456 0.0036644468479533608 0 -0.0018017112262921243 0.0081884464311413295 0 -0.0028308539171206415 0.0038742659711731718 0 -0.0015733458353210117 0.0015918444762509502 0 -0.0015682990960287661 0.0015520382855796029 0 -0.0015667037785750877 0.0015448535447394863 0 -0.0018017112262921243 0.0081884464311413295 0 -0.0011314633297518082 0.011990376232237457 0 -0.0029941343143431707 0.0076419594214530368 0 -0.0039279667100220435 0.0062950507227434605 0 -0.0027014989749212658 0.0063343415282679956 0 -0.0029941343143431707 0.0076419594214530368 0 -0.0027014989749212658 0.0063343415282679956 0 -0.0012219024841967482 0.0061985388059049122 0 -0.0039279667100220435 0.0062950507227434605 0 -0.0027014989749212658 0.0063343415282679956 0 -0.0031076010706431057 0.0052419571391020409 0 -0.0027014989749212658 0.0063343415282679956 0 -0.0022000537333534604 0.005656011816356098 0 -0.0031076010706431057 0.0052419571391020409 0 -0.0022000537333534604 0.005656011816356098 0 -0.0031076010706431057 0.0052419571391020409 0 -0.0019480160473905781 0.0048095947934203159 0 -0.0028308539171206415 0.0038742659711731718 0 -0.0028315007676173488 -0.00039959101675161174 0 -0.0039279667100220435 0.0062950507227434605 0 -0.0031076010706431057 0.0052419571391020409 0 -0.0048558523323446465 0.0049257912452410997 0 -0.0011314633297518082 0.011990376232237457 0 -0.0010471229571527576 0.011769628344159497 0 -0.0010315339199014103 0.016797099100404764 0 -0.0013227961069936281 0.016817741321347363 0 -0.0012996240016315548 0.016990387076207685 0 -0.0027014989749212658 0.0063343415282679956 0 -0.0022000537333534604 0.005656011816356098 0 -0.0012219024841967482 0.0061985388059049122 0 -0.0022000537333534604 0.005656011816356098 0 -0.0012219024841967482 0.0061985388059049122 0 -0.0019480160473905781 0.0048095947934203159 0 -0.0010315339199014103 0.016797099100404764 0 -0.0010874190810172572 0.016609421461515811 0 -0.00094208688897060488 0.01650095052538094 0 -0.00075040668575823851 0.01652242631558002 0 -0.0010315339199014103 0.016797099100404764 0 -0.00094208688897060488 0.01650095052538094 0 -0.0010315339199014103 0.016797099100404764 0 -0.0012115004601433012 0.016701468001983202 0 -0.0010874190810172572 0.016609421461515811 0 -0.0010315339199014103 0.016797099100404764 0 -0.0012115004601433012 0.016701468001983202 0 -0.0013227961069936281 0.016817741321347363 0 -0.0012115004601433012 0.016701468001983202 0 -0.0011846409564379894 0.016579860090830161 0 -0.0013297636689840458 0.016634878743793331 0 -0.0011846409564379894 0.016579860090830161 0 -0.0010874190810172572 0.016609421461515811 0 -0.0010732816591769625 0.016484613743885754 0 -0.0012115004601433012 0.016701468001983202 0 -0.0011846409564379894 0.016579860090830161 0 -0.0010874190810172572 0.016609421461515811 0 -0.0011846409564379894 0.016579860090830161 0 -0.0010732816591769625 0.016484613743885754 0 -0.0012132350198498722 0.016444138017992684 0 -0.0011846409564379894 0.016579860090830161 0 -0.0012132350198498722 0.016444138017992684 0 -0.0013297636689840458 0.016634878743793331 0 -0.0010874190810172572 0.016609421461515811 0 -0.0010732816591769625 0.016484613743885754 0 -0.00094208688897060488 0.01650095052538094 0 -0.0010732816591769625 0.016484613743885754 0 -0.00094208688897060488 0.01650095052538094 0 -0.00098962955085393203 0.016426419206168927 0 -0.00094208688897060488 0.01650095052538094 0 -0.00091656916903966117 0.016389774284963687 0 -0.00098962955085393203 0.016426419206168927 0 -0.00083116104105921068 0.016447959106635723 0 -0.00094208688897060488 0.01650095052538094 0 -0.00089255098114934719 0.016368528285209974 0 -0.00049941777454055587 0.0059619051408760599 0 2.606856085276446e-05 0.0067989043443591381 0 -0.00012407120930711164 0.00645174261174332 0 -0.0010254143873060905 0.0159011382129714 0 -0.00086940865731826569 0.016377381372020078 0 -0.0010278604039464085 0.016342197541415211 0 -0.00086940865731826569 0.016377381372020078 0 -0.00091656916903966117 0.016389774284963687 0 -0.0010278604039464085 0.016342197541415211 0 -0.00094208688897060488 0.01650095052538094 0 -0.00089255098114934719 0.016368528285209974 0 -0.00091656916903966117 0.016389774284963687 0 -0.00036335953099306977 0.0099444067705369132 0 -0.0010231324448776366 0.010811342373759487 0 -0.0010732816591769625 0.016484613743885754 0 -0.0010278604039464085 0.016342197541415211 0 -0.00098962955085393203 0.016426419206168927 0 -0.00091656916903966117 0.016389774284963687 0 -0.0010278604039464085 0.016342197541415211 0 -0.00098962955085393203 0.016426419206168927 0 -0.00036335953099306977 0.0099444067705369132 0 -0.00081098480892013048 0.006483222321121326 0 0.00035448615539063536 0.0063350841370163769 0 5.6426110505176236e-05 0.0067865346471514786 0 -0.00012407120930711164 0.00645174261174332 0 -0.0010732816591769625 0.016484613743885754 0 -0.0010278604039464085 0.016342197541415211 0 -0.0012132350198498722 0.016444138017992684 0 -0.0010278604039464085 0.016342197541415211 0 -0.0012132350198498722 0.016444138017992684 0 -0.0011722722664275363 0.016245555443528396 0 -0.0012132350198498722 0.016444138017992684 0 -0.0012602855140892994 0.016320606832783736 0 -0.0011722722664275363 0.016245555443528396 0 -0.0012132350198498722 0.016444138017992684 0 -0.0014087323508209031 0.016454427081752543 0 -0.0013297636689840458 0.016634878743793331 0 -0.0012476930981502538 0.016114557940518637 0 -0.0012602855140892994 0.016320606832783736 0 -0.0014087323508209031 0.016454427081752543 0 -0.0012132350198498722 0.016444138017992684 0 -0.0012602855140892994 0.016320606832783736 0 -0.0014087323508209031 0.016454427081752543 0 -0.00155728123700057 0.016466723354755991 0 -0.0014087323508209031 0.016454427081752543 0 -0.0015968740463077435 0.016708335327522531 0 -0.0015968740463077435 0.016708335327522531 0 -0.0013297636689840458 0.016634878743793331 0 -0.0014940356241646168 0.016770978754736397 0 -0.0014087323508209031 0.016454427081752543 0 -0.0015968740463077435 0.016708335327522531 0 -0.0013297636689840458 0.016634878743793331 0 -0.0018791603849327237 0.017041848555787574 0 -0.0017219102584493018 0.016764262355237609 0 -0.0017456269777746309 0.016927672399138196 0 -0.0017219102584493018 0.016764262355237609 0 -0.0017456269777746309 0.016927672399138196 0 -0.0016737574398939098 0.016749966490582226 0 -0.0017456269777746309 0.016927672399138196 0 -0.0016737574398939098 0.016749966490582226 0 -0.0016994251197882929 0.016815798713393958 0 -0.00155728123700057 0.016466723354755991 0 -0.0015968740463077435 0.016708335327522531 0 -0.0016737574398939098 0.016749966490582226 0 -0.0015968740463077435 0.016708335327522531 0 -0.0016737574398939098 0.016749966490582226 0 -0.0016994251197882929 0.016815798713393958 0 -0.0015968740463077435 0.016708335327522531 0 -0.0016994251197882929 0.016815798713393958 0 -0.0016775511535354875 0.016839863123112524 0 -0.0017456269777746309 0.016927672399138196 0 -0.0016994251197882929 0.016815798713393958 0 -0.0016679740436499075 0.016834096700906197 0 -0.0015032346012373045 0.01776999110735758 0 -0.0012379537532781202 0.01764390529130264 0 -0.0011699820697400514 0.018030669068534202 0 -0.0016994251197882929 0.016815798713393958 0 -0.0016775511535354875 0.016839863123112524 0 -0.0016679740436499075 0.016834096700906197 0 -0.0016466084878496458 0.017211190517797993 0 -0.0013950723724212085 0.017450407584569515 0 -0.0015968740463077435 0.016708335327522531 0 -0.0016775511535354875 0.016839863123112524 0 -0.0014940356241646168 0.016770978754736397 0 -0.0015032346012373045 0.01776999110735758 0 -0.0018229882679683179 0.017498464959703537 0 -0.0014974882133849904 0.017376957175789867 0 -0.0016466084878496458 0.017211190517797993 0 -0.0015150696045610741 0.017863334883002405 0 -0.0012379537532781202 0.01764390529130264 0 -0.0012106377620652261 0.017328614193502952 0 -0.0014974882133849904 0.017376957175789867 0 -0.0015032346012373045 0.01776999110735758 0 -0.0012379537532781202 0.01764390529130264 0 -0.0014974882133849904 0.017376957175789867 0 -0.0013297636689840458 0.016634878743793331 0 -0.0013227961069936281 0.016817741321347363 0 -0.0014940356241646168 0.016770978754736397 0 -0.0012115004601433012 0.016701468001983202 0 -0.0013297636689840458 0.016634878743793331 0 -0.0013227961069936281 0.016817741321347363 0 -0.0016775511535354875 0.016839863123112524 0 -0.0014940356241646168 0.016770978754736397 0 -0.0015093377274686156 0.016905397932911299 0 -0.0013227961069936281 0.016817741321347363 0 -0.0014940356241646168 0.016770978754736397 0 -0.0015093377274686156 0.016905397932911299 0 -0.0013227961069936281 0.016817741321347363 0 -0.0015093377274686156 0.016905397932911299 0 -0.0012996240016315548 0.016990387076207685 0 -0.0015150696045610741 0.017863334883002405 0 -0.0010471229571527576 0.011769628344159497 0 -0.0010471229571527576 0.011769628344159497 0 -0.00031806904739250949 0.0085210885114527582 0 -0.0018229882679683179 0.017498464959703537 0 -0.002143733857204462 0.017224462895250127 0 -0.0017846780543938625 0.016955305377888728 0 -0.0018229882679683179 0.017498464959703537 0 -0.0017846780543938625 0.016955305377888728 0 -0.0014974882133849904 0.017376957175789867 0 -0.00031806904739250949 0.0085210885114527582 0 8.8651097131319669e-06 0.0068469497952493158 0 0.0010059912547353354 -0.0017108998119388661 0 0.00096966938750197088 -0.0018891185102376349 0 0.00080475779655242192 -0.0018588590490726715 0 -0.00031806904739250949 0.0085210885114527582 0 0.00014160372193920744 0.0011564432539631802 0 0.00096966938750197088 -0.0018891185102376349 0 0.00080475779655242192 -0.0018588590490726715 0 0.00060058003032561786 -0.0020866621057428064 0 -0.00074156842219637331 0.0067219722911667397 0 0.00022126176039480568 0.0059397146578788656 0 -0.00092697884186840644 0.0058847046818244226 0 -0.0012106377620652261 0.017328614193502952 0 -0.0014974882133849904 0.017376957175789867 0 -0.0014031524884064129 0.017023330767497544 0 -0.0017846780543938625 0.016955305377888728 0 -0.0014974882133849904 0.017376957175789867 0 -0.0014031524884064129 0.017023330767497544 0 -0.00073408698853644574 0.012365979625034582 0 8.8651097131319669e-06 0.0068469497952493158 0 -0.00031806904739250949 0.0085210885114527582 0 -0.001083043375226369 0.014852887784025479 0 -0.00032382669700483925 0.011437028435283663 0 -0.00050444093184952006 0.011495933584986765 0 -0.00041600040959507593 0.011531959983529641 0 -0.001083043375226369 0.014852887784025479 0 -0.0009152143767802238 0.01426947459405728 0 -0.00050444093184952006 0.011495933584986765 0 -0.00054547322363320981 0.011543092671895714 0 -0.00041600040959507593 0.011531959983529641 0 -0.0012106377620652261 0.017328614193502952 0 -0.0014031524884064129 0.017023330767497544 0 -0.001013085038359008 0.017076572172209488 0 -0.00050444093184952006 0.011495933584986765 0 -0.00054547322363320981 0.011543092671895714 0 -0.0006609667787333285 0.011580691928524263 0 -0.00098913476564143807 0.012896784532291823 0 -0.001036633592941389 0.012860939521948077 0 -0.0010155463938367937 0.012850263922764501 0 -0.00098747182264592812 0.01293055060413208 0 -0.00098913476564143807 0.012896784532291823 0 -0.001036633592941389 0.012860939521948077 0 -0.00098913476564143807 0.012896784532291823 0 -0.0010155463938367937 0.012850263922764501 0 -0.00093520416830202274 0.012886356871060007 0 -0.00098747182264592812 0.01293055060413208 0 -0.00098913476564143807 0.012896784532291823 0 -0.00093363375918449404 0.012937745432959192 0 8.8651097131319669e-06 0.0068469497952493158 0 -0.0010443457667018855 0.01038996455812162 0 0.00024780261669416431 0.0063966150347766213 0 0.00010687800481454034 0.007404898478917718 0 -0.00066543520220312873 0.007204940049754506 0 0.00019260859996855461 0.0043512710487174575 0 0.00025119524596950432 0.0043868713076766642 0 0.00018360255711953437 0.0044083129592441912 0 0.00019260859996855461 0.0043512710487174575 0 0.00010160337763648219 0.0043758079685560251 0 0.00018360255711953437 0.0044083129592441912 0 -0.00060877567382327483 0.007778873119866552 0 -0.00066543520220312873 0.007204940049754506 0 -0.001148705536192013 0.0080725702765589349 0 0.00010687800481454034 0.007404898478917718 0 -0.00060877567382327483 0.007778873119866552 0 -0.00066543520220312873 0.007204940049754506 0 -6.6961758485919144e-05 0.0065645997433184927 0 -4.4807748019891491e-05 0.0065566499272134557 0 -4.4807748019891491e-05 0.0065566499272134557 0 -0.00087869751810577389 0.0076624933514252026 0 0.0020017096467299035 -0.0027353912511826127 0 0.00079264286180834743 -0.0026816804799134931 0 0.00060058003032561786 -0.0020866621057428064 0 0.00097746775640281938 0.0015499825675066123 0 0.00036881136200890427 0.00043477326604590954 0 0.00097746775640281938 0.0015499825675066123 0 0.0011301178123476012 -0.0031255942614206072 0 0.00024780261669416431 0.0063966150347766213 0 0.00010687800481454034 0.007404898478917718 0 0.0014220359654570588 0.0066950665903292659 0 -6.6961758485919144e-05 0.0065645997433184927 0 0.00097746775640281938 0.0015499825675066123 0 8.8651097131319669e-06 0.0068469497952493158 0 0.00097746775640281938 0.0015499825675066123 0 0.0010059912547353354 -0.0017108998119388661 0 0.0010719486563343739 -0.0017227405449573021 0 0.00096966938750197088 -0.0018891185102376349 0 0.00019260859996855461 0.0043512710487174575 0 0.00027535955174333568 0.0043246362415836001 0 0.00025119524596950432 0.0043868713076766642 0 0.00027535955174333568 0.0043246362415836001 0 0.00025975548475504066 0.0043513371582123714 0 0.00028297665566382347 0.0043615183937853099 0 0.00027535955174333568 0.0043246362415836001 0 0.00028297665566382347 0.0043615183937853099 0 0.00025119524596950432 0.0043868713076766642 0 0.00025975548475504066 0.0043513371582123714 0 0.00025076918812173463 0.0043155077014673856 0 0.00028297665566382347 0.0043615183937853099 0 0.0020017096467299035 -0.0027353912511826127 0 0.00046182660761602697 -0.0032628858045388714 0 0.00079264286180834743 -0.0026816804799134931 0 0.00046182660761602697 -0.0032628858045388714 0 0.00079264286180834743 -0.0026816804799134931 0 0.00015119740233983931 -0.0026518690078047979 0 0.00079264286180834743 -0.0026816804799134931 0 0.00015119740233983931 -0.0026518690078047979 0 0.00060058003032561786 -0.0020866621057428064 0 0.00015119740233983931 -0.0026518690078047979 0 -0.00048080858864780389 -0.0029751421860898975 0 -0.00042752037588820432 -0.0019028823586316524 0 0.00046182660761602697 -0.0032628858045388714 0 0.00015119740233983931 -0.0026518690078047979 0 -0.00048080858864780389 -0.0029751421860898975 0 0.00046182660761602697 -0.0032628858045388714 0 -0.00048080858864780389 -0.0029751421860898975 0 -0.0010108173826241977 -0.0039527541344553142 0 0.00036881136200890427 0.00043477326604590954 0 -0.00047083921720731569 0.00019403588020975958 0 0.00025975548475504066 0.0043513371582123714 0 0.0001004451252122394 0.0043253367826532789 0 0.00025076918812173463 0.0043155077014673856 0 -0.0010108173826241977 -0.0039527541344553142 0 -0.001811504527498214 -0.0037688731485083279 0 -0.0012080017497461473 -0.0033283725517810011 0 -0.00048080858864780389 -0.0029751421860898975 0 -0.0010108173826241977 -0.0039527541344553142 0 -0.0012080017497461473 -0.0033283725517810011 0 -0.0010108173826241977 -0.0039527541344553142 0 -0.001811504527498214 -0.0037688731485083279 0 -0.002552518549955988 -0.0046367866115444058 0 -0.001811504527498214 -0.0037688731485083279 0 -0.002552518549955988 -0.0046367866115444058 0 -0.0026240319451378974 -0.0036877162043386434 0 -0.00047083921720731569 0.00019403588020975958 0 -0.0013541083231204489 -0.00022118132523162972 0 -0.0029495758797123284 -0.0022689808452959698 0 -0.0030005476449046632 -0.0044617386059683153 0 -0.0034365416737070324 -0.0049604465818012594 0 -0.0034710106109455646 -0.0049386440049600609 0 -0.0034384766703633649 -0.0049154589025899942 0 -0.0017288914073946427 -0.0032316004871790504 0 -0.0015137720340816117 -0.0026463066242594243 0 -0.0026240319451378974 -0.0036877162043386434 0 -0.001811504527498214 -0.0037688731485083279 0 -0.0017288914073946427 -0.0032316004871790504 0 -0.0026240319451378974 -0.0036877162043386434 0 -0.001811504527498214 -0.0037688731485083279 0 -0.0017288914073946427 -0.0032316004871790504 0 -0.0012080017497461473 -0.0033283725517810011 0 -0.00048080858864780389 -0.0029751421860898975 0 -0.0010143001975062573 -0.0027164136549299952 0 -0.00042752037588820432 -0.0019028823586316524 0 -0.00048080858864780389 -0.0029751421860898975 0 -0.0012080017497461473 -0.0033283725517810011 0 -0.0010143001975062573 -0.0027164136549299952 0 -0.0017288914073946427 -0.0032316004871790504 0 -0.0012080017497461473 -0.0033283725517810011 0 -0.0015137720340816117 -0.0026463066242594243 0 -0.0012080017497461473 -0.0033283725517810011 0 -0.0015137720340816117 -0.0026463066242594243 0 -0.0010143001975062573 -0.0027164136549299952 0 -0.002826160075613109 0.0032263709835551858 0 -0.0040389922214711963 0.0036354737379191136 0 -0.0027744932674929361 0.0040169133828351971 0 -0.0032171153982228826 0.0023140768481608154 0 -0.002826160075613109 0.0032263709835551858 0 -0.0018228218619818072 0.0032128356509227049 0 -0.0015137720340816117 -0.0026463066242594243 0 -0.0010143001975062573 -0.0027164136549299952 0 -0.00042752037588820432 -0.0019028823586316524 0 -0.0029495758797123284 -0.0022689808452959698 0 -0.0013704248948500238 0.002886443310112773 0 -0.002826160075613109 0.0032263709835551858 0 -0.0023842026972338204 0.0036048443150322415 0 -0.0018228218619818072 0.0032128356509227049 0 -0.002826160075613109 0.0032263709835551858 0 -0.0023842026972338204 0.0036048443150322415 0 -0.0027744932674929361 0.0040169133828351971 0 -0.0023842026972338204 0.0036048443150322415 0 -0.0018854976141951718 0.0039655823400445546 0 -0.0020040230998372884 0.0034981714670364468 0 -0.0023842026972338204 0.0036048443150322415 0 -0.0020040230998372884 0.0034981714670364468 0 -0.0018228218619818072 0.0032128356509227049 0 -0.0029495758797123284 -0.0022689808452959698 0 -0.0039555316429059593 -0.00038577131061515781 0 -0.0034365416737070324 -0.0049604465818012594 0 -0.0034710106109455646 -0.0049386440049600609 0 -0.0034369973523904881 -0.0049942808456661016 0 -0.0032171153982228826 0.0023140768481608154 0 -0.002826160075613109 0.0032263709835551858 0 -0.0040389922214711963 0.0036354737379191136 0 -0.0034365416737070324 -0.0049604465818012594 0 -0.0034369973523904881 -0.0049942808456661016 0 -0.0033946109056769884 -0.0049879117321914085 0 -0.0031076010706431057 0.0052419571391020409 0 -0.0040389922214711963 0.0036354737379191136 0 -0.0027744932674929361 0.0040169133828351971 0 -0.0039555316429059593 -0.00038577131061515781 0 -0.0028315007676173488 -0.00039959101675161174 0 -0.0031076010706431057 0.0052419571391020409 0 -0.0040389922214711963 0.0036354737379191136 0 -0.0048558523323446465 0.0049257912452410997 0 -0.0023842026972338204 0.0036048443150322415 0 -0.0027744932674929361 0.0040169133828351971 0 -0.0018854976141951718 0.0039655823400445546 0 -0.0027744932674929361 0.0040169133828351971 0 -0.0019480160473905781 0.0048095947934203159 0 -0.0018854976141951718 0.0039655823400445546 0 -0.0031076010706431057 0.0052419571391020409 0 -0.0027744932674929361 0.0040169133828351971 0 -0.0019480160473905781 0.0048095947934203159 0 -0.0012219024841967482 0.0061985388059049122 0 -0.0019480160473905781 0.0048095947934203159 0 -0.00063514491320109594 0.0040073979873279791 0 -0.0019480160473905781 0.0048095947934203159 0 -0.0018854976141951718 0.0039655823400445546 0 -0.00063514491320109594 0.0040073979873279791 0 -0.00074156842219637331 0.0067219722911667397 0 -0.0014191215860899274 0.0062763142960127879 0 -0.00092697884186840644 0.0058847046818244226 0 -0.0012219024841967482 0.0061985388059049122 0 0.0005425525142532451 0.0047811341117459461 0 -0.00063514491320109594 0.0040073979873279791 0 -0.0010471229571527576 0.011769628344159497 0 -0.001293283446304614 0.0049225138570609108 0 0.00080475779655242192 -0.0018588590490726715 0 0.00060058003032561786 -0.0020866621057428064 0 -0.00042752037588820432 -0.0019028823586316524 0 0.00014160372193920744 0.0011564432539631802 0 -0.0013704248948500238 0.002886443310112773 0 -0.0014191215860899274 0.0062763142960127879 0 -0.00092697884186840644 0.0058847046818244226 0 -0.0021000460058200093 0.0058156719559729151 0 -0.0018854976141951718 0.0039655823400445546 0 -0.00063514491320109594 0.0040073979873279791 0 -0.0018228218619818072 0.0032128356509227049 0 0.00015119740233983931 -0.0026518690078047979 0 0.00060058003032561786 -0.0020866621057428064 0 -0.00042752037588820432 -0.0019028823586316524 0 -0.0018854976141951718 0.0039655823400445546 0 -0.0020040230998372884 0.0034981714670364468 0 -0.0018228218619818072 0.0032128356509227049 0 -0.001293283446304614 0.0049225138570609108 0 -0.0013704248948500238 0.002886443310112773 0 5.8408387922596112e-05 0.019534147971696236 0 3.7057789730445346e-05 0.019456237719774342 0 8.2430793111223447e-05 0.019407619674315996 0 5.8408387922596112e-05 0.019534147971696236 0 3.7057789730445346e-05 0.019456237719774342 0 5.7658980317239511e-05 0.01954613908229063 0 3.7057789730445346e-05 0.019456237719774342 0 -1.0326226716416308e-05 0.019420398811274442 0 -2.519609196316105e-06 0.019322185288255966 0 3.7057789730445346e-05 0.019456237719774342 0 5.7658980317239511e-05 0.01954613908229063 0 -1.0326226716416308e-05 0.019420398811274442 0 5.7658980317239511e-05 0.01954613908229063 0 -9.5155272036932843e-07 0.019514229477155746 0 -1.0326226716416308e-05 0.019420398811274442 0 5.7658980317239511e-05 0.01954613908229063 0 0.00011252011060018342 0.019431230009227904 0 -9.5155272036932843e-07 0.019514229477155746 0 -2.6788010798191451e-05 0.019635771682338501 0 5.8408387922596112e-05 0.019534147971696236 0 5.7658980317239511e-05 0.01954613908229063 0 5.7658980317239511e-05 0.01954613908229063 0 1.1348195940594589e-05 0.019357224475326482 0 0.00011252011060018342 0.019431230009227904 0 -2.6788010798191451e-05 0.019635771682338501 0 5.7658980317239511e-05 0.01954613908229063 0 1.1348195940594589e-05 0.019357224475326482 0 -4.6010345576321555e-05 0.019048263055028755 0 -0.00030101380888568639 0.018833562752267777 0 -0.00030095783886587696 0.018647570311019164 0 1.1348195940594589e-05 0.019357224475326482 0 -4.6010345576321555e-05 0.019048263055028755 0 0.00011252011060018342 0.019431230009227904 0 -0.00019171101385063237 0.019076938808626234 0 -4.6010345576321555e-05 0.019048263055028755 0 -0.00030101380888568639 0.018833562752267777 0 -6.3980191885468432e-05 0.019037924792626754 0 -0.00010847382219307032 0.019034860197974134 0 -0.00030101380888568639 0.018833562752267777 0 -0.00030095783886587696 0.018647570311019164 0 -0.00041696514693031442 0.01863970956958403 0 -0.00038037514854591837 0.018896074637451854 0 -0.00030101380888568639 0.018833562752267777 0 -0.00041696514693031442 0.01863970956958403 0 -0.00010847382219307032 0.019034860197974134 0 -0.00021527504976420563 0.019044838066101855 0 -0.00041696514693031442 0.01863970956958403 0 -0.00040102872396162366 0.018481659194159838 0 -0.0004379318885694658 0.018572045777291647 0 -0.00030095783886587696 0.018647570311019164 0 -0.00041696514693031442 0.01863970956958403 0 -0.0004379318885694658 0.018572045777291647 0 -0.00045795867943960365 0.018572487305594083 0 -0.00038037514854591837 0.018896074637451854 0 -0.00041696514693031442 0.01863970956958403 0 -0.00045795867943960365 0.018572487305594083 0 -0.00046513599803670036 0.018499491744168452 0 -0.00049168534087865024 0.018445431063122911 0 -0.00046513599803670036 0.018499491744168452 0 -0.00048339085255864536 0.0184342207175354 0 -0.00049168534087865024 0.018445431063122911 0 -0.00046513599803670036 0.018499491744168452 0 -0.00045311927849538884 0.018472000228982568 0 -0.00048339085255864536 0.0184342207175354 0 -0.00045795867943960365 0.018572487305594083 0 -0.00041696514693031442 0.01863970956958403 0 -0.00043667291667916675 0.018531960657179523 0 -0.00045795867943960365 0.018572487305594083 0 -0.00046513599803670036 0.018499491744168452 0 -0.00043667291667916675 0.018531960657179523 0 -0.00041696514693031442 0.01863970956958403 0 -0.00043667291667916675 0.018531960657179523 0 -0.00040102872396162366 0.018481659194159838 0 -0.00043667291667916675 0.018531960657179523 0 -0.00045311927849538884 0.018472000228982568 0 -0.00040102872396162366 0.018481659194159838 0 -0.00045311927849538884 0.018472000228982568 0 -0.00040102872396162366 0.018481659194159838 0 -0.00049363093963441281 0.018367219871343574 0 -0.00046513599803670036 0.018499491744168452 0 -0.00043667291667916675 0.018531960657179523 0 -0.00045311927849538884 0.018472000228982568 0 -0.00040102872396162366 0.018481659194159838 0 -0.00037229855735660007 0.018618651329502155 0 -0.0004379318885694658 0.018572045777291647 0 -0.00038142742207330029 0.018457279367183825 0 -0.00034586578780756229 0.01829697742707272 0 -0.00040102872396162366 0.018481659194159838 0 -0.00037229855735660007 0.018618651329502155 0 -0.00021769076243974809 0.018658606440782707 0 -0.00037229855735660007 0.018618651329502155 0 -0.00038629361488119805 0.018814522290899742 0 -0.00021769076243974809 0.018658606440782707 0 -0.00037229855735660007 0.018618651329502155 0 -0.0004379318885694658 0.018572045777291647 0 -0.00038629361488119805 0.018814522290899742 0 -0.00021527504976420563 0.019044838066101855 0 -0.00024479223089436311 0.019099067706095142 0 -1.0326226716416308e-05 0.019420398811274442 0 -0.00014096096037705678 0.019374988049506259 0 -8.067829707205805e-05 0.019296290772787706 0 -9.5155272036932843e-07 0.019514229477155746 0 -1.0326226716416308e-05 0.019420398811274442 0 -0.00014096096037705678 0.019374988049506259 0 -0.00019352314146019184 0.01890723534876634 0 -1.1783558344257496e-06 0.019013895240753326 0 -0.00021769076243974809 0.018658606440782707 0 -0.00038629361488119805 0.018814522290899742 0 -0.00019352314146019184 0.01890723534876634 0 -0.00016590497134100392 0.019157124711369839 0 -0.00027654205204606744 0.018419933622389945 0 -0.00034586578780756229 0.01829697742707272 0 -0.00024479223089436311 0.019099067706095142 0 -0.00016542866414236078 0.019164516948530039 0 -0.00038629361488119805 0.018814522290899742 0 -0.00019352314146019184 0.01890723534876634 0 -0.00021769076243974809 0.018658606440782707 0 -0.00019352314146019184 0.01890723534876634 0 -1.1783558344257496e-06 0.019013895240753326 0 -0.00016590497134100392 0.019157124711369839 0 -0.00057201594615590313 0.017565669867375466 0 -0.00062258194155108003 0.017824136328122939 0 -0.00042145995417599516 0.017983133251531797 0 -0.00062258194155108003 0.017824136328122939 0 -0.00078259084350326832 0.017867757488584893 0 -0.00073502040061486449 0.01767191870346602 0 -0.00057201594615590313 0.017565669867375466 0 -0.00062258194155108003 0.017824136328122939 0 -0.00073502040061486449 0.01767191870346602 0 -0.00062258194155108003 0.017824136328122939 0 -0.00061523646307202909 0.018017841885129744 0 -0.00042145995417599516 0.017983133251531797 0 -0.00062258194155108003 0.017824136328122939 0 -0.00061523646307202909 0.018017841885129744 0 -0.00078259084350326832 0.017867757488584893 0 -0.00061523646307202909 0.018017841885129744 0 -0.00074989782151595533 0.018095061695278788 0 -0.00078259084350326832 0.017867757488584893 0 -0.00061523646307202909 0.018017841885129744 0 -0.00042145995417599516 0.017983133251531797 0 -0.0005171629809497362 0.018207692902975806 0 -0.00040102872396162366 0.018481659194159838 0 -0.00042145995417599516 0.017983133251531797 0 -0.0005171629809497362 0.018207692902975806 0 -0.00040102872396162366 0.018481659194159838 0 -0.0005171629809497362 0.018207692902975806 0 -0.00049363093963441281 0.018367219871343574 0 -0.0005171629809497362 0.018207692902975806 0 -0.00056148300489553644 0.018266985578552278 0 -0.00049363093963441281 0.018367219871343574 0 -0.0005171629809497362 0.018207692902975806 0 -0.00056148300489553644 0.018266985578552278 0 -0.00063101802369290951 0.018185942388090209 0 -0.00074362681456830641 0.018462738730132402 0 -0.0010401543476735887 0.017923220304281562 0 -0.00045795867943960365 0.018572487305594083 0 -0.00051848554408937713 0.018377966888302358 0 -0.00049168534087865024 0.018445431063122911 0 -0.00045795867943960365 0.018572487305594083 0 -0.00051848554408937713 0.018377966888302358 0 -0.00054276162718525751 0.018311780756631167 0 -0.00050819998038039772 0.018384254908507106 0 -0.00049363093963441281 0.018367219871343574 0 -0.00055198706086843734 0.018312519834563678 0 -0.00045311927849538884 0.018472000228982568 0 -0.00048339085255864536 0.0184342207175354 0 -0.00049363093963441281 0.018367219871343574 0 -0.00048339085255864536 0.0184342207175354 0 -0.00050819998038039772 0.018384254908507106 0 -0.00049363093963441281 0.018367219871343574 0 -0.00056148300489553644 0.018266985578552278 0 -0.00049363093963441281 0.018367219871343574 0 -0.00055198706086843734 0.018312519834563678 0 -0.00056148300489553644 0.018266985578552278 0 -0.00055198706086843734 0.018312519834563678 0 -0.00061371082513159386 0.018243752678025901 0 -0.00050819998038039772 0.018384254908507106 0 -0.00055198706086843734 0.018312519834563678 0 -0.00051848554408937713 0.018377966888302358 0 -0.00055198706086843734 0.018312519834563678 0 -0.0005430906663911793 0.018316131470962897 0 -0.00051848554408937713 0.018377966888302358 0 -0.00055198706086843734 0.018312519834563678 0 -0.00056390442609365867 0.018291836574794208 0 -0.0005430906663911793 0.018316131470962897 0 -0.00056390442609365867 0.018291836574794208 0 -0.0005430906663911793 0.018316131470962897 0 -0.00057255323254356779 0.018261267264132311 0 -0.0005430906663911793 0.018316131470962897 0 -0.00051848554408937713 0.018377966888302358 0 -0.00054276162718525751 0.018311780756631167 0 -0.00048339085255864536 0.0184342207175354 0 -0.00050819998038039772 0.018384254908507106 0 -0.00049168534087865024 0.018445431063122911 0 -0.00050819998038039772 0.018384254908507106 0 -0.00051848554408937713 0.018377966888302358 0 -0.00049168534087865024 0.018445431063122911 0 -0.00058955136598991037 0.018214665840415655 0 -0.00062902615125807831 0.01824039931356309 0 -0.0008096999660326716 0.018252438021788851 0 -0.0010401543476735887 0.017923220304281562 0 -0.0015925251165744853 0.017309143611189622 0 -0.00063961866516810246 0.018127813479859041 0 -0.0010621791463354935 0.017704208901311219 0 -0.00062902615125807831 0.01824039931356309 0 -0.00069234862731251147 0.018210964141191974 0 -0.0008096999660326716 0.018252438021788851 0 -0.00094555910466342409 0.017782482991714414 0 -0.00058955136598991037 0.018214665840415655 0 -0.0012731492943944545 0.017125275393020726 0 -0.00094555910466342409 0.017782482991714414 0 -0.00054276162718525751 0.018311780756631167 0 -0.0013814624361934559 0.017468883149104893 0 -0.0016615237064139851 0.017489456287552815 0 -0.0015018375610202405 0.017553657559010893 0 -0.0018706691186834996 0.017114386200792999 0 -0.00094555910466342409 0.017782482991714414 0 -0.00054276162718525751 0.018311780756631167 0 -0.00058955136598991037 0.018214665840415655 0 -0.00056390442609365867 0.018291836574794208 0 -0.00057255323254356779 0.018261267264132311 0 -0.00062902615125807831 0.01824039931356309 0 -0.00057255323254356779 0.018261267264132311 0 -0.00058955136598991037 0.018214665840415655 0 -0.00062902615125807831 0.01824039931356309 0 -0.00054276162718525751 0.018311780756631167 0 -0.00057255323254356779 0.018261267264132311 0 -0.00058955136598991037 0.018214665840415655 0 -0.0005430906663911793 0.018316131470962897 0 -0.00054276162718525751 0.018311780756631167 0 -0.00057255323254356779 0.018261267264132311 0 -0.00061371082513159386 0.018243752678025901 0 -0.00062902615125807831 0.01824039931356309 0 -0.00069234862731251147 0.018210964141191974 0 -0.00055198706086843734 0.018312519834563678 0 -0.00061371082513159386 0.018243752678025901 0 -0.00062902615125807831 0.01824039931356309 0 -0.00055198706086843734 0.018312519834563678 0 -0.00056390442609365867 0.018291836574794208 0 -0.00062902615125807831 0.01824039931356309 0 -0.00069234862731251147 0.018210964141191974 0 -0.00063101802369290951 0.018185942388090209 0 -0.00074989782151595533 0.018095061695278788 0 -0.00056148300489553644 0.018266985578552278 0 -0.00061371082513159386 0.018243752678025901 0 -0.00063101802369290951 0.018185942388090209 0 -0.00061371082513159386 0.018243752678025901 0 -0.00069234862731251147 0.018210964141191974 0 -0.00063101802369290951 0.018185942388090209 0 -0.00061523646307202909 0.018017841885129744 0 -0.0005171629809497362 0.018207692902975806 0 -0.00063101802369290951 0.018185942388090209 0 -0.00061523646307202909 0.018017841885129744 0 -0.00063101802369290951 0.018185942388090209 0 -0.00074989782151595533 0.018095061695278788 0 -0.00074989782151595533 0.018095061695278788 0 -0.0008096999660326716 0.018252438021788851 0 -0.00089860675481316459 0.018009319617135217 0 -0.00069234862731251147 0.018210964141191974 0 -0.00074989782151595533 0.018095061695278788 0 -0.0008096999660326716 0.018252438021788851 0 -0.00094555910466342409 0.017782482991714414 0 -0.0012731492943944545 0.017125275393020726 0 -0.0013814624361934559 0.017468883149104893 0 -0.0012731492943944545 0.017125275393020726 0 -0.0013814624361934559 0.017468883149104893 0 -0.0015634404081850877 0.017061454068857965 0 -0.0018953259089165969 0.017175857051875326 0 -0.0018706691186834996 0.017114386200792999 0 -0.0018809826211331441 0.017098847518733366 0 -0.0017456269777746309 0.016927672399138196 0 -0.0018706691186834996 0.017114386200792999 0 -0.0018809826211331441 0.017098847518733366 0 -0.0017456269777746309 0.016927672399138196 0 -0.0013814624361934559 0.017468883149104893 0 -0.0015634404081850877 0.017061454068857965 0 -0.00174126935172352 0.016988041215499912 0 -0.0015925251165744853 0.017309143611189622 0 -0.0018791603849327237 0.017041848555787574 0 -0.0017456269777746309 0.016927672399138196 0 -0.0018809826211331441 0.017098847518733366 0 -0.0010621791463354935 0.017704208901311219 0 -0.0013950723724212085 0.017450407584569515 0 -0.0008096999660326716 0.018252438021788851 0 -0.0011699820697400514 0.018030669068534202 0 -0.00089860675481316459 0.018009319617135217 0 -0.0012731492943944545 0.017125275393020726 0 -0.0016679740436499075 0.016834096700906197 0 -0.0015634404081850877 0.017061454068857965 0 -0.0017456269777746309 0.016927672399138196 0 -0.0016679740436499075 0.016834096700906197 0 -0.0015634404081850877 0.017061454068857965 0 -0.0011699820697400514 0.018030669068534202 0 -0.0010058935977223604 0.017796616407847216 0 -0.00089860675481316459 0.018009319617135217 0 -0.0012379537532781202 0.01764390529130264 0 -0.0011699820697400514 0.018030669068534202 0 -0.0010058935977223604 0.017796616407847216 0 -0.00074989782151595533 0.018095061695278788 0 -0.00089860675481316459 0.018009319617135217 0 -0.00078259084350326832 0.017867757488584893 0 -0.0010058935977223604 0.017796616407847216 0 -0.00078259084350326832 0.017867757488584893 0 -0.00088127268100341479 0.017681913361243928 0 -0.0010058935977223604 0.017796616407847216 0 -0.00089860675481316459 0.018009319617135217 0 -0.00078259084350326832 0.017867757488584893 0 -0.00057201594615590313 0.017565669867375466 0 -0.00073502040061486449 0.01767191870346602 0 -0.00084186964119575445 0.017506020268636822 0 -0.00078259084350326832 0.017867757488584893 0 -0.00088127268100341479 0.017681913361243928 0 -0.00073502040061486449 0.01767191870346602 0 -0.00088127268100341479 0.017681913361243928 0 -0.00073502040061486449 0.01767191870346602 0 -0.00084186964119575445 0.017506020268636822 0 -0.00088127268100341479 0.017681913361243928 0 -0.00084186964119575445 0.017506020268636822 0 -0.0010429086500086673 0.017562100565419517 0 -0.0012379537532781202 0.01764390529130264 0 -0.0012106377620652261 0.017328614193502952 0 -0.0010429086500086673 0.017562100565419517 0 -0.0012379537532781202 0.01764390529130264 0 -0.0010058935977223604 0.017796616407847216 0 -0.0010429086500086673 0.017562100565419517 0 -0.0010058935977223604 0.017796616407847216 0 -0.00088127268100341479 0.017681913361243928 0 -0.0010429086500086673 0.017562100565419517 0 -0.0012106377620652261 0.017328614193502952 0 -0.00096811999142806121 0.017314660788657402 0 -0.001013085038359008 0.017076572172209488 0 -0.0012106377620652261 0.017328614193502952 0 -0.0010429086500086673 0.017562100565419517 0 -0.00096811999142806121 0.017314660788657402 0 -0.00084186964119575445 0.017506020268636822 0 -0.00096811999142806121 0.017314660788657402 0 -0.00079754719750154345 0.017385546849136062 0 -0.00084186964119575445 0.017506020268636822 0 -0.0010429086500086673 0.017562100565419517 0 -0.00096811999142806121 0.017314660788657402 0 -0.00057201594615590313 0.017565669867375466 0 -0.00084186964119575445 0.017506020268636822 0 -0.00079754719750154345 0.017385546849136062 0 -0.00057201594615590313 0.017565669867375466 0 -0.00079754719750154345 0.017385546849136062 0 -0.00081143567534826689 0.017155600127776751 0 -0.00096811999142806121 0.017314660788657402 0 -0.00079754719750154345 0.017385546849136062 0 -0.00081143567534826689 0.017155600127776751 0 -0.00096811999142806121 0.017314660788657402 0 -0.00081143567534826689 0.017155600127776751 0 -0.001013085038359008 0.017076572172209488 0 -0.00087205121774245817 0.015186528075726071 0 -0.0009152143767802238 0.01426947459405728 0 -0.00017882713367713336 0.01740148453242759 0 -0.0009152143767802238 0.01426947459405728 0 -0.00056184606432558573 0.015532760199060688 0 -0.00038674889550953812 0.015757634798791612 0 -0.0011412327133129118 0.015514551511780245 0 -0.00087205121774245817 0.015186528075726071 0 -0.00017882713367713336 0.01740148453242759 0 -0.00073408698853644574 0.012365979625034582 0 -0.0009152143767802238 0.01426947459405728 0 -0.00086964858777287951 0.012986819584283649 0 -0.00090608978865827107 0.012982716782802176 0 -0.00093363375918449404 0.012937745432959192 0 -0.00098747182264592812 0.01293055060413208 0 -0.00090608978865827107 0.012982716782802176 0 -0.00093363375918449404 0.012937745432959192 0 -0.00098913476564143807 0.012896784532291823 0 -0.00093363375918449404 0.012937745432959192 0 -0.00093520416830202274 0.012886356871060007 0 -0.00093520416830202274 0.012886356871060007 0 -0.0007533095846861211 0.01281085380476165 0 -0.0006267130145646379 0.013010207558793773 0 -0.00063668894021262558 0.013418437410121602 0 -0.00093520416830202274 0.012886356871060007 0 -0.0006267130145646379 0.013010207558793773 0 -0.00087205121774245817 0.015186528075726071 0 -0.0010465786192683899 0.012178810176917734 0 -0.00086964858777287951 0.012986819584283649 0 -0.00093363375918449404 0.012937745432959192 0 -0.00093520416830202274 0.012886356871060007 0 -0.0010443457667018855 0.01038996455812162 0 -0.0012356031271504625 0.010327277511658914 0 -0.0010155463938367937 0.012850263922764501 0 -0.00093520416830202274 0.012886356871060007 0 -0.00083606987033371324 0.012631648157985592 0 -0.00093520416830202274 0.012886356871060007 0 -0.0007533095846861211 0.01281085380476165 0 -0.00083606987033371324 0.012631648157985592 0 -0.00066543520220312873 0.007204940049754506 0 -0.0015021723452314851 0.0079792017814655121 0 -0.001148705536192013 0.0080725702765589349 0 -0.0007533095846861211 0.01281085380476165 0 -0.00083606987033371324 0.012631648157985592 0 -0.00056478594074300362 0.012719788243598835 0 -0.0007533095846861211 0.01281085380476165 0 -0.00056478594074300362 0.012719788243598835 0 -0.0006267130145646379 0.013010207558793773 0 -0.00056478594074300362 0.012719788243598835 0 -0.0006267130145646379 0.013010207558793773 0 -0.00034071039209114106 0.012908027565794056 0 -0.00063668894021262558 0.013418437410121602 0 -0.0006267130145646379 0.013010207558793773 0 -0.00035942690993194634 0.013200406006739896 0 -0.0006267130145646379 0.013010207558793773 0 -0.00035942690993194634 0.013200406006739896 0 -0.00034071039209114106 0.012908027565794056 0 -0.00035942690993194634 0.013200406006739896 0 2.5079365784846855e-05 0.012913195733623968 0 -4.3282598595632815e-05 0.013467012732804736 0 -0.00035942690993194634 0.013200406006739896 0 -0.00034071039209114106 0.012908027565794056 0 2.5079365784846855e-05 0.012913195733623968 0 -0.00034071039209114106 0.012908027565794056 0 2.5079365784846855e-05 0.012913195733623968 0 -0.00029498087634839107 0.012609836950573003 0 -0.00056478594074300362 0.012719788243598835 0 -0.00034071039209114106 0.012908027565794056 0 -0.00029498087634839107 0.012609836950573003 0 2.5079365784846855e-05 0.012913195733623968 0 0.00026115929696244998 0.012508351191828602 0 -8.2978989814674032e-06 0.012546454520366334 0 2.5079365784846855e-05 0.012913195733623968 0 -8.2978989814674032e-06 0.012546454520366334 0 -0.00029498087634839107 0.012609836950573003 0 2.5079365784846855e-05 0.012913195733623968 0 -4.3282598595632815e-05 0.013467012732804736 0 0.00042768508605384371 0.013120933765786878 0 -0.00063668894021262558 0.013418437410121602 0 -0.00035942690993194634 0.013200406006739896 0 -4.3282598595632815e-05 0.013467012732804736 0 -0.00087205121774245817 0.015186528075726071 0 -6.6794518117437135e-05 0.016422962732628818 0 -0.00047901075451302984 0.019035322750890375 0 -0.00022690579641704346 0.019081328130495432 0 -0.00032106647761933721 0.019131460558939099 0 -0.00050565570818054593 0.01899033168568335 0 -0.00047901075451302984 0.019035322750890375 0 -0.00022690579641704346 0.019081328130495432 0 -0.00017882713367713336 0.01740148453242759 0 -8.6786033069025537e-05 0.019195292505789656 0 -1.1783558344257496e-06 0.019013895240753326 0 0.00015427194823045898 0.019252482869646665 0 -2.8569021900677984e-05 0.019209678404481578 0 -0.00027654205204606744 0.018419933622389945 0 -0.00017882713367713336 0.01740148453242759 0 -1.1783558344257496e-06 0.019013895240753326 0 -2.8569021900677984e-05 0.019209678404481578 0 -0.00016590497134100392 0.019157124711369839 0 -8.6786033069025537e-05 0.019195292505789656 0 -0.0002154765773056244 0.019173507357652924 0 -0.00022690579641704346 0.019081328130495432 0 -0.00032106647761933721 0.019131460558939099 0 -0.00018837720534349087 0.019189045829351044 0 -0.00014096096037705678 0.019374988049506259 0 -0.00018837720534349087 0.019189045829351044 0 -0.00016590497134100392 0.019157124711369839 0 -2.8569021900677984e-05 0.019209678404481578 0 -0.00018837720534349087 0.019189045829351044 0 -0.00016590497134100392 0.019157124711369839 0 -0.00018837720534349087 0.019189045829351044 0 -8.067829707205805e-05 0.019296290772787706 0 -7.1553436488771665e-05 0.019194493390026355 0 -0.00014096096037705678 0.019374988049506259 0 -0.00018837720534349087 0.019189045829351044 0 -8.067829707205805e-05 0.019296290772787706 0 -1.0326226716416308e-05 0.019420398811274442 0 -8.067829707205805e-05 0.019296290772787706 0 -2.519609196316105e-06 0.019322185288255966 0 -8.067829707205805e-05 0.019296290772787706 0 -7.1553436488771665e-05 0.019194493390026355 0 -2.519609196316105e-06 0.019322185288255966 0 -6.6794518117437135e-05 0.016422962732628818 0 0.00021841932448195305 0.016333611380222511 0 -4.3282598595632815e-05 0.013467012732804736 0 0.00056263038901198002 0.013517509650811327 0 0.00042768508605384371 0.013120933765786878 0 -0.00022690579641704346 0.019081328130495432 0 -0.00018837720534349087 0.019189045829351044 0 -7.1553436488771665e-05 0.019194493390026355 0 2.5079365784846855e-05 0.012913195733623968 0 0.00042768508605384371 0.013120933765786878 0 0.00046639827038137048 0.012728567295933392 0 2.5079365784846855e-05 0.012913195733623968 0 0.00046639827038137048 0.012728567295933392 0 0.00026115929696244998 0.012508351191828602 0 0.00042768508605384371 0.013120933765786878 0 0.00046639827038137048 0.012728567295933392 0 0.00075764176446107927 0.012865769747110881 0 0.00046639827038137048 0.012728567295933392 0 0.00075764176446107927 0.012865769747110881 0 0.00073559400902915547 0.012504111928047425 0 0.00042768508605384371 0.013120933765786878 0 0.00075764176446107927 0.012865769747110881 0 0.00081331486349016271 0.013240553541205225 0 0.00056263038901198002 0.013517509650811327 0 0.00042768508605384371 0.013120933765786878 0 0.00081331486349016271 0.013240553541205225 0 0.00075764176446107927 0.012865769747110881 0 0.00081331486349016271 0.013240553541205225 0 0.0010179685986960586 0.013014674389795377 0 0.00081331486349016271 0.013240553541205225 0 0.0010179685986960586 0.013014674389795377 0 0.0011882294676599074 0.013191043584166664 0 0.00081331486349016271 0.013240553541205225 0 0.0011882294676599074 0.013191043584166664 0 0.0011967247599244679 0.013559882844060917 0 0.00075764176446107927 0.012865769747110881 0 0.0011659225844710777 0.012578991196763489 0 0.00073559400902915547 0.012504111928047425 0 0.00075764176446107927 0.012865769747110881 0 0.0010179685986960586 0.013014674389795377 0 0.0011659225844710777 0.012578991196763489 0 0.0010179685986960586 0.013014674389795377 0 0.0011882294676599074 0.013191043584166664 0 0.0011659225844710777 0.012578991196763489 0 0.00020901057577379836 0.01483720125947954 0 0.00012209242181498886 0.01496328314734195 0 0.00010808335822389592 0.01472881367689147 0 0.00025636806484612856 0.014737616391335751 0 0.00069006569674434203 0.013552993568273707 0 0.0002701346445023567 0.014833055587537444 0 0.00020901057577379836 0.01483720125947954 0 0.00022969319711975194 0.01474020432048536 0 0.00020901057577379836 0.01483720125947954 0 0.00022969319711975194 0.01474020432048536 0 0.00010808335822389592 0.01472881367689147 0 0.00036843328107350544 0.016781683017043414 0 0.00019389935375782282 0.016825310706179895 0 0.00029234685230347082 0.016901310541911921 0 0.00035051784313268412 0.015861887452903924 0 0.00025636806484612856 0.014737616391335751 0 0.00030096567276191783 0.014905334355103475 0 0.00020901057577379836 0.01483720125947954 0 0.00012209242181498886 0.01496328314734195 0 0.00038529123053730057 0.016986375267502143 0 0.00029234685230347082 0.016901310541911921 0 0.00019890150263877441 0.016968665614137277 0 0.00019389935375782282 0.016825310706179895 0 0.00029234685230347082 0.016901310541911921 0 0.00019890150263877441 0.016968665614137277 0 0.00013890982057417929 0.01929525904042265 0 4.2026765136178185e-05 0.019283824708735315 0 6.5954755809697284e-05 0.019329068571316648 0 0.00014784264471853184 0.018228023892492777 0 0.00065719580829178795 0.016421920253500321 0 0.00025636806484612856 0.014737616391335751 0 0.00065719580829178795 0.016421920253500321 0 0.00056263038901198002 0.013517509650811327 0 0.00081331486349016271 0.013240553541205225 0 0.0011967247599244679 0.013559882844060917 0 -7.1553436488771665e-05 0.019194493390026355 0 4.2026765136178185e-05 0.019283824708735315 0 -2.519609196316105e-06 0.019322185288255966 0 0.00021841932448195305 0.016333611380222511 0 0.00065719580829178795 0.016421920253500321 0 3.7057789730445346e-05 0.019456237719774342 0 -2.519609196316105e-06 0.019322185288255966 0 3.8008739031119178e-05 0.019361905068462797 0 4.2026765136178185e-05 0.019283824708735315 0 -2.519609196316105e-06 0.019322185288255966 0 3.8008739031119178e-05 0.019361905068462797 0 3.7057789730445346e-05 0.019456237719774342 0 3.8008739031119178e-05 0.019361905068462797 0 8.2430793111223447e-05 0.019407619674315996 0 4.2026765136178185e-05 0.019283824708735315 0 3.8008739031119178e-05 0.019361905068462797 0 6.5954755809697284e-05 0.019329068571316648 0 3.8008739031119178e-05 0.019361905068462797 0 8.2430793111223447e-05 0.019407619674315996 0 6.5954755809697284e-05 0.019329068571316648 0 4.0067103055135539e-05 0.012758969504494929 0 4.6112476613871073e-05 0.012768584665604089 0 3.9316801425033752e-05 0.012752926742006815 0 -4.9544106316224188e-05 0.014696205178927916 0 -0.00019006411236130669 0.014845891713296984 0 -0.00023180782106109961 0.01460267090380285 0 4.0067103055135539e-05 0.012758969504494929 0 3.5922422755942977e-05 0.012751010456497158 0 3.8251371937511514e-05 0.012764372620546173 0 0.00014424687696722424 0.013813963126376127 0 -0.00011029368058415474 0.013636344950319011 0 4.0067103055135539e-05 0.012758969504494929 0 3.5922422755942977e-05 0.012751010456497158 0 3.9316801425033752e-05 0.012752926742006815 0 0.00026973171361476466 0.010689129402856148 0 0.00033136828514620322 0.0106381762662301 0 0.00035290168109255337 0.010708122462907583 0 0.00015249344161291623 0.01174062722641513 0 0.00048908329140177442 0.012059021320164049 0 0.00026973171361476466 0.010689129402856148 0 0.00033136828514620322 0.0106381762662301 0 0.00027084072766123162 0.010605499898049956 0 0.00048908329140177442 0.012059021320164049 0 0.00055463064296123793 0.011259271178181023 0 0.00079594584298274594 0.011886781531010243 0 0.00096881806039676244 0.011968636504108919 0 0.00064078874406976955 0.011977710297614191 0 0.0009707893975540253 0.011794827289500199 0 0.00079594584298274594 0.011886781531010243 0 0.00059838752535928876 0.01179506841130276 0 0.00033136828514620322 0.0106381762662301 0 0.00027084072766123162 0.010605499898049956 0 0.00038949166427802473 0.010583268050211786 0 0.00048908329140177442 0.012059021320164049 0 0.00060055051461909965 0.013032677462758957 0 0.0009707893975540253 0.011794827289500199 0 0.00079594584298274594 0.011886781531010243 0 0.00096881806039676244 0.011968636504108919 0 0.00041409991405070098 0.013220093875834667 0 0.00041620287972325199 0.013277167531850291 0 0.00044356266396035804 0.013249473292283964 0 0.00060055051461909965 0.013032677462758957 0 0.00035412681204617999 0.01411890667420502 0 0.00041620287972325199 0.013277167531850291 0 0.00044356266396035804 0.013249473292283964 0 0.00047326608579721614 0.013278912804157144 0 0.00048908329140177442 0.012059021320164049 0 0.00014424687696722424 0.013813963126376127 0 4.0067103055135539e-05 0.012758969504494929 0 3.8251371937511514e-05 0.012764372620546173 0 4.6112476613871073e-05 0.012768584665604089 0 0.00041409991405070098 0.013220093875834667 0 0.00044356266396035804 0.013249473292283964 0 0.00047029287364294697 0.013221819904970582 0 0.00014424687696722424 0.013813963126376127 0 0.00035412681204617999 0.01411890667420502 0 0.00011470890503002958 0.014606885351580176 0 0.0002341420446758092 0.014662362447619825 0 0.00022913417014565687 0.01453498968531227 0 0.00044356266396035804 0.013249473292283964 0 0.00047029287364294697 0.013221819904970582 0 0.00047326608579721614 0.013278912804157144 0 9.4519397148012076e-05 0.014466757647767475 0 0.00021199920989063633 0.014591693985767481 0 0.00010808335822389592 0.01472881367689147 0 0.00035412681204617999 0.01411890667420502 0 0.00025263438935911375 0.014643899522315576 0 0.00026938442315596904 0.014550233246733654 0 0.00020875770084905303 0.014499393249611539 0 0.00021199920989063633 0.014591693985767481 0 9.4519397148012076e-05 0.014466757647767475 0 0.00021197776925634812 0.014464284029294717 0 0.00021199920989063633 0.014591693985767481 0 0.00021199920989063633 0.014591693985767481 0 0.00022969319711975194 0.01474020432048536 0 0.00010808335822389592 0.01472881367689147 0 0.0011659225844710777 0.012578991196763489 0 0.00087553497984940005 0.012232476040707471 0 0.00073559400902915547 0.012504111928047425 0 0.00060055051461909965 0.013032677462758957 0 0.00085778177390028246 0.011792613107474757 0 0.00060055051461909965 0.013032677462758957 0 0.00069006569674434203 0.013552993568273707 0 0.0011447462760077276 0.011977392227250208 0 0.0011659225844710777 0.012578991196763489 0 0.00087553497984940005 0.012232476040707471 0 0.0011447462760077276 0.011977392227250208 0 0.00087553497984940005 0.012232476040707471 0 0.00064078874406976955 0.011977710297614191 0 0.00064078874406976955 0.011977710297614191 0 0.0006048355247560771 0.012242348527270075 0 0.00047510897120082833 0.012082951414456863 0 0.00064078874406976955 0.011977710297614191 0 0.00047510897120082833 0.012082951414456863 0 0.0004726006746549286 0.011842024738583866 0 0.00087553497984940005 0.012232476040707471 0 0.00064078874406976955 0.011977710297614191 0 0.0006048355247560771 0.012242348527270075 0 0.00087553497984940005 0.012232476040707471 0 0.0006048355247560771 0.012242348527270075 0 0.00073559400902915547 0.012504111928047425 0 0.0006048355247560771 0.012242348527270075 0 0.00073559400902915547 0.012504111928047425 0 0.00048266850321595096 0.012449670524733234 0 0.00046639827038137048 0.012728567295933392 0 0.00073559400902915547 0.012504111928047425 0 0.00048266850321595096 0.012449670524733234 0 0.00046639827038137048 0.012728567295933392 0 0.00026115929696244998 0.012508351191828602 0 0.00048266850321595096 0.012449670524733234 0 0.00026115929696244998 0.012508351191828602 0 0.00048266850321595096 0.012449670524733234 0 0.00034870027714386815 0.012266801983553288 0 0.0006048355247560771 0.012242348527270075 0 0.00048266850321595096 0.012449670524733234 0 0.00034870027714386815 0.012266801983553288 0 0.00026115929696244998 0.012508351191828602 0 0.00034870027714386815 0.012266801983553288 0 9.5732377585280246e-05 0.012312748185310453 0 0.00046270774984292302 0.011775081223664923 0 0.00012818446911161288 0.012220206839039684 0 0.00026798594915282956 0.012119106485590805 0 0.0004726006746549286 0.011842024738583866 0 -4.2754605948603893e-05 0.012099222069155048 0 0.00034870027714386815 0.012266801983553288 0 0.00026798594915282956 0.012119106485590805 0 9.5732377585280246e-05 0.012312748185310453 0 0.0006048355247560771 0.012242348527270075 0 0.00034870027714386815 0.012266801983553288 0 0.00047510897120082833 0.012082951414456863 0 0.00034870027714386815 0.012266801983553288 0 0.00047510897120082833 0.012082951414456863 0 0.00026798594915282956 0.012119106485590805 0 0.00047510897120082833 0.012082951414456863 0 0.00026798594915282956 0.012119106485590805 0 0.0004726006746549286 0.011842024738583866 0 0.00055463064296123793 0.011259271178181023 0 0.00022262897730860562 0.0095283205444278377 0 0.00038949166427802473 0.010583268050211786 0 0.00043204190740952938 0.010635369416283815 0 0.00050979354044794608 0.010559649382783854 0 0.0004726006746549286 0.011842024738583866 0 0.00059838752535928876 0.01179506841130276 0 0.0003095948354087056 0.011763341240198812 0 0.00064078874406976955 0.011977710297614191 0 0.0004726006746549286 0.011842024738583866 0 0.00059838752535928876 0.01179506841130276 0 0.00079594584298274594 0.011886781531010243 0 0.00064078874406976955 0.011977710297614191 0 0.00059838752535928876 0.01179506841130276 0 0.00033136828514620322 0.0106381762662301 0 0.00038949166427802473 0.010583268050211786 0 0.00043204190740952938 0.010635369416283815 0 0.00033136828514620322 0.0106381762662301 0 0.00043204190740952938 0.010635369416283815 0 0.00035290168109255337 0.010708122462907583 0 0.00019105085315487708 0.0091060787245435554 0 4.4352841086996869e-05 0.0090929602544274693 0 -5.9321041598505372e-05 0.0076122120255684624 0 6.6420982272522182e-05 0.0076458969512424946 0 4.8165852987203247e-05 0.0076431208464454881 0 0.00019105085315487708 0.0091060787245435554 0 0.00022262897730860562 0.0095283205444278377 0 6.6420982272522182e-05 0.0076458969512424946 0 1.4058194125579948e-05 0.0076348176695731091 0 9.6523681604312539e-05 0.0076613076048419135 0 -5.9321041598505372e-05 0.0076122120255684624 0 6.6420982272522182e-05 0.0076458969512424946 0 9.6523681604312539e-05 0.0076613076048419135 0 6.6420982272522182e-05 0.0076458969512424946 0 1.4058194125579948e-05 0.0076348176695731091 0 4.8069257562670685e-05 0.0077003382357459871 0 1.4058194125579948e-05 0.0076348176695731091 0 4.8508594189769365e-05 0.0074715370333946363 0 9.6523681604312539e-05 0.0076613076048419135 0 1.4058194125579948e-05 0.0076348176695731091 0 -0.00027050681676246642 0.0075472528634638551 0 4.8508594189769365e-05 0.0074715370333946363 0 1.4058194125579948e-05 0.0076348176695731091 0 -3.9985244897838327e-05 0.0077431860286325139 0 4.8069257562670685e-05 0.0077003382357459871 0 1.4058194125579948e-05 0.0076348176695731091 0 -3.9985244897838327e-05 0.0077431860286325139 0 -0.00015267451201295536 0.0077256612288958623 0 -3.9985244897838327e-05 0.0077431860286325139 0 -0.00012611494581397359 0.0078257617680102375 0 -0.00015267451201295536 0.0077256612288958623 0 -3.9985244897838327e-05 0.0077431860286325139 0 4.8069257562670685e-05 0.0077003382357459871 0 -4.229660060398002e-06 0.007834313469381288 0 0.0004726006746549286 0.011842024738583866 0 0.0003095948354087056 0.011763341240198812 0 0.00023294467207693318 0.011846630730917854 0 0.00022262897730860562 0.0095283205444278377 0 0.00019410093007710778 0.0097720456366417515 0 4.8069257562670685e-05 0.0077003382357459871 0 0.00015804211781257532 0.0077044433332117352 0 -4.229660060398002e-06 0.007834313469381288 0 6.6420982272522182e-05 0.0076458969512424946 0 4.8069257562670685e-05 0.0077003382357459871 0 4.8165852987203247e-05 0.0076431208464454881 0 8.0584951945309187e-05 0.0083098604547211415 0 0.00022262897730860562 0.0095283205444278377 0 0.0003095948354087056 0.011763341240198812 0 0.00023294467207693318 0.011846630730917854 0 0.00019383567691287195 0.01182437272379358 0 -4.2754605948603893e-05 0.012099222069155048 0 9.5732377585280246e-05 0.012312748185310453 0 -0.00015386876806400911 0.012381314955610108 0 0.00026798594915282956 0.012119106485590805 0 -4.2754605948603893e-05 0.012099222069155048 0 9.5732377585280246e-05 0.012312748185310453 0 0.00026115929696244998 0.012508351191828602 0 9.5732377585280246e-05 0.012312748185310453 0 -8.2978989814674032e-06 0.012546454520366334 0 9.5732377585280246e-05 0.012312748185310453 0 -8.2978989814674032e-06 0.012546454520366334 0 -0.00015386876806400911 0.012381314955610108 0 -0.00029498087634839107 0.012609836950573003 0 -0.00015386876806400911 0.012381314955610108 0 -0.00051094073199023263 0.012337850369943091 0 -8.2978989814674032e-06 0.012546454520366334 0 -0.00029498087634839107 0.012609836950573003 0 -0.00015386876806400911 0.012381314955610108 0 -4.229660060398002e-06 0.007834313469381288 0 -0.00012611494581397359 0.0078257617680102375 0 -0.00015837551011468412 0.0079246673526793838 0 -4.2754605948603893e-05 0.012099222069155048 0 -0.00015386876806400911 0.012381314955610108 0 -0.00051094073199023263 0.012337850369943091 0 0.00012818446911161288 0.012220206839039684 0 -0.00069584912775235298 0.010179299477845771 0 0.00019410093007710778 0.0097720456366417515 0 -0.00069584912775235298 0.010179299477845771 0 0.00023294467207693318 0.011846630730917854 0 0.00019383567691287195 0.01182437272379358 0 0.00010674869502128098 0.011823047981377312 0 -3.9985244897838327e-05 0.0077431860286325139 0 -4.229660060398002e-06 0.007834313469381288 0 -0.00012611494581397359 0.0078257617680102375 0 -0.00012611494581397359 0.0078257617680102375 0 -0.00024019646718298644 0.0078401941947381544 0 -0.00015267451201295536 0.0077256612288958623 0 -0.00012611494581397359 0.0078257617680102375 0 -0.00015837551011468412 0.0079246673526793838 0 -0.00024019646718298644 0.0078401941947381544 0 -0.00056478594074300362 0.012719788243598835 0 -0.00029498087634839107 0.012609836950573003 0 -0.00051094073199023263 0.012337850369943091 0 -0.0012356031271504625 0.010327277511658914 0 -0.00069584912775235298 0.010179299477845771 0 -0.00083606987033371324 0.012631648157985592 0 -0.00056478594074300362 0.012719788243598835 0 -0.00051094073199023263 0.012337850369943091 0 -0.00031828327143556195 0.0079609370046516779 0 -0.00032950185854968962 0.0078695515700043118 0 -0.00024019646718298644 0.0078401941947381544 0 -0.00015837551011468412 0.0079246673526793838 0 -0.00031828327143556195 0.0079609370046516779 0 -0.00024019646718298644 0.0078401941947381544 0 -0.00069584912775235298 0.010179299477845771 0 -0.00087869751810577389 0.0076624933514252026 0 -0.0015021723452314851 0.0079792017814655121 0 -0.0023093590370531249 0.0087171653786633236 0 -0.001148705536192013 0.0080725702765589349 0 -0.00016200338350469081 0.006131220677653538 0 -0.00022070861584705875 0.0062989966962059985 0 -0.00032950185854968962 0.0078695515700043118 0 -0.00024019646718298644 0.0078401941947381544 0 -0.00029012378691340536 0.0077268146881435658 0 1.3308722005334721e-06 0.004522420164372821 0 -0.000148182611688061 0.0048406249670704497 0 0.00010400927699415443 0.0048596702371507261 0 -0.00024019646718298644 0.0078401941947381544 0 -0.00029012378691340536 0.0077268146881435658 0 -0.00015267451201295536 0.0077256612288958623 0 -0.00029012378691340536 0.0077268146881435658 0 -0.00015267451201295536 0.0077256612288958623 0 -0.00027050681676246642 0.0075472528634638551 0 1.4058194125579948e-05 0.0076348176695731091 0 -0.00015267451201295536 0.0077256612288958623 0 -0.00027050681676246642 0.0075472528634638551 0 -0.000148182611688061 0.0048406249670704497 0 0.00010400927699415443 0.0048596702371507261 0 0.00014453783615744813 0.0053562606651596737 0 -0.00022070861584705875 0.0062989966962059985 0 -0.00024060004037723749 0.0065050633976408128 0 -0.000148182611688061 0.0048406249670704497 0 -0.00029085929704147798 0.0054809242726924076 0 0.00014453783615744813 0.0053562606651596737 0 -0.00029085929704147798 0.0054809242726924076 0 1.4314490053601071e-05 0.0062367227397858533 0 0.00014453783615744813 0.0053562606651596737 0 -0.00029085929704147798 0.0054809242726924076 0 -0.00013136955697643887 0.0069026706345268135 0 1.4314490053601071e-05 0.0062367227397858533 0 -0.00024060004037723749 0.0065050633976408128 0 -0.00016644290131065967 0.0068095460391397467 0 -0.00027050681676246642 0.0075472528634638551 0 -0.00013136955697643887 0.0069026706345268135 0 4.8508594189769365e-05 0.0074715370333946363 0 -0.00013136955697643887 0.0069026706345268135 0 1.4314490053601071e-05 0.0062367227397858533 0 1.6041511810896999e-05 0.0069357774411291746 0 1.4314490053601071e-05 0.0062367227397858533 0 0.00014453783615744813 0.0053562606651596737 0 0.00012848503754820623 0.0059987091680582206 0 1.4314490053601071e-05 0.0062367227397858533 0 1.6041511810896999e-05 0.0069357774411291746 0 0.00012848503754820623 0.0059987091680582206 0 2.6095146630617863e-07 0.006338769721543301 0 1.6041511810896999e-05 0.0069357774411291746 0 0.00012848503754820623 0.0059987091680582206 0 2.6095146630617863e-07 0.006338769721543301 0 1.6041511810896999e-05 0.0069357774411291746 0 3.9235907939344684e-08 0.0078159165735655154 0 -0.00013136955697643887 0.0069026706345268135 0 1.6041511810896999e-05 0.0069357774411291746 0 8.9986047623337323e-05 0.0080378513722690267 0 1.6041511810896999e-05 0.0069357774411291746 0 3.9235907939344684e-08 0.0078159165735655154 0 8.9986047623337323e-05 0.0080378513722690267 0 3.9235907939344684e-08 0.0078159165735655154 0 4.8701343108126728e-07 0.009293125023211557 0 8.9986047623337323e-05 0.0080378513722690267 0 4.8701343108126728e-07 0.009293125023211557 0 8.9986047623337323e-05 0.0080378513722690267 0 4.3781883910260984e-05 0.009191492032468964 0 8.9986047623337323e-05 0.0080378513722690267 0 0.00012044150608960616 0.0077349408586674809 0 5.0632178811514585e-05 0.0084972171766490006 0 -0.00013136955697643887 0.0069026706345268135 0 8.9986047623337323e-05 0.0080378513722690267 0 0.00012044150608960616 0.0077349408586674809 0 -0.00013136955697643887 0.0069026706345268135 0 0.00012044150608960616 0.0077349408586674809 0 4.8508594189769365e-05 0.0074715370333946363 0 0.00012044150608960616 0.0077349408586674809 0 4.8508594189769365e-05 0.0074715370333946363 0 9.6523681604312539e-05 0.0076613076048419135 0 0.00012044150608960616 0.0077349408586674809 0 9.6523681604312539e-05 0.0076613076048419135 0 -2.2376075328018082e-05 0.0079314943615116547 0 -5.9321041598505372e-05 0.0076122120255684624 0 9.6523681604312539e-05 0.0076613076048419135 0 -2.2376075328018082e-05 0.0079314943615116547 0 -2.2376075328018082e-05 0.0079314943615116547 0 -0.00041092618038489321 0.0077823971521410367 0 -0.0003376637907013169 0.0084468214448077603 0 -5.9321041598505372e-05 0.0076122120255684624 0 -2.2376075328018082e-05 0.0079314943615116547 0 -0.00041092618038489321 0.0077823971521410367 0 0.00012044150608960616 0.0077349408586674809 0 -2.2376075328018082e-05 0.0079314943615116547 0 5.0632178811514585e-05 0.0084972171766490006 0 -2.2376075328018082e-05 0.0079314943615116547 0 -0.0003376637907013169 0.0084468214448077603 0 5.0632178811514585e-05 0.0084972171766490006 0 8.9986047623337323e-05 0.0080378513722690267 0 5.0632178811514585e-05 0.0084972171766490006 0 4.3781883910260984e-05 0.009191492032468964 0 5.0632178811514585e-05 0.0084972171766490006 0 4.3781883910260984e-05 0.009191492032468964 0 -0.00011786730986398628 0.0094867368222453143 0 4.8701343108126728e-07 0.009293125023211557 0 4.3781883910260984e-05 0.009191492032468964 0 -9.2668034480446056e-07 0.010770188043030423 0 4.3781883910260984e-05 0.009191492032468964 0 -9.2668034480446056e-07 0.010770188043030423 0 -0.00011786730986398628 0.0094867368222453143 0 -9.2668034480446056e-07 0.010770188043030423 0 -0.00011786730986398628 0.0094867368222453143 0 -0.00023330054375299839 0.010338794719533837 0 -0.0003376637907013169 0.0084468214448077603 0 5.0632178811514585e-05 0.0084972171766490006 0 -0.00011786730986398628 0.0094867368222453143 0 -0.0003376637907013169 0.0084468214448077603 0 -0.00011786730986398628 0.0094867368222453143 0 -0.0010080400925362597 0.0092773741666881508 0 -0.00011786730986398628 0.0094867368222453143 0 -0.0010080400925362597 0.0092773741666881508 0 -0.00023330054375299839 0.010338794719533837 0 -0.0010080400925362597 0.0092773741666881508 0 -0.00023330054375299839 0.010338794719533837 0 -7.9249270032907845e-05 0.011511756746914131 0 -0.00075874774136790819 0.011204890690477129 0 -0.00024928893409279098 0.011491983191339115 0 -9.2668034480446056e-07 0.010770188043030423 0 -7.9249270032907845e-05 0.011511756746914131 0 -7.6863905821326093e-07 0.01224930724961971 0 -9.2668034480446056e-07 0.010770188043030423 0 -0.00023330054375299839 0.010338794719533837 0 -7.9249270032907845e-05 0.011511756746914131 0 -0.00059506280708581326 0.013218840610620107 0 -7.9249270032907845e-05 0.011511756746914131 0 -0.00012109254198620388 0.012824345585132782 0 -7.9249270032907845e-05 0.011511756746914131 0 -7.6863905821326093e-07 0.01224930724961971 0 -0.00012109254198620388 0.012824345585132782 0 5.2490237648625341e-05 0.013194494561288111 0 -7.6863905821326093e-07 0.01224930724961971 0 -0.00012109254198620388 0.012824345585132782 0 -3.1623639983791417e-05 0.013591134639425273 0 -0.00012109254198620388 0.012824345585132782 0 -0.00040204464738325058 0.01418939955218277 0 -0.00014814299607882972 0.013045358078161524 0 -0.00032628516899146101 0.013625906343127067 0 -3.1623639983791417e-05 0.013591134639425273 0 5.2490237648625341e-05 0.013194494561288111 0 -0.00012109254198620388 0.012824345585132782 0 -0.00059506280708581326 0.013218840610620107 0 -0.00012109254198620388 0.012824345585132782 0 -0.00014163728542768654 0.013684521919672782 0 -0.00014017358599624288 0.014012213391368098 0 -3.1623639983791417e-05 0.013591134639425273 0 -0.00040204464738325058 0.01418939955218277 0 -0.00059506280708581326 0.013218840610620107 0 -0.00014163728542768654 0.013684521919672782 0 -0.00053885727191357782 0.013988618831124771 0 -0.00014017358599624288 0.014012213391368098 0 -0.00040204464738325058 0.01418939955218277 0 -0.00019638597869700629 0.014171448891092684 0 -0.00013419369839344774 0.014389779142096026 0 -0.00040204464738325058 0.01418939955218277 0 -0.00019638597869700629 0.014171448891092684 0 -0.00032628516899146101 0.013625906343127067 0 -0.00010088741313755297 0.011273010574056636 0 -0.0003376637907013169 0.0084468214448077603 0 -0.0010080400925362597 0.0092773741666881508 0 -0.0010212718983384538 0.0081987480054951239 0 -0.00075874774136790819 0.011204890690477129 0 -0.00010088741313755297 0.011273010574056636 0 0.00026973171361476466 0.010689129402856148 0 0.00035290168109255337 0.010708122462907583 0 0.00026791027407293546 0.01078383841630077 0 -0.00041092618038489321 0.0077823971521410367 0 -0.0003376637907013169 0.0084468214448077603 0 -0.0010212718983384538 0.0081987480054951239 0 0.00015249344161291623 0.01174062722641513 0 -0.00010088741313755297 0.011273010574056636 0 4.4352841086996869e-05 0.0090929602544274693 0 -0.00010088741313755297 0.011273010574056636 0 3.2245690149071559e-05 0.012752239219985974 0 3.470038673050579e-05 0.012746040033210579 0 3.9316801425033752e-05 0.012752926742006815 0 3.5922422755942977e-05 0.012751010456497158 0 3.470038673050579e-05 0.012746040033210579 0 3.9316801425033752e-05 0.012752926742006815 0 -0.00032628516899146101 0.013625906343127067 0 -0.00011029368058415474 0.013636344950319011 0 -0.00013419369839344774 0.014389779142096026 0 -0.00040204464738325058 0.01418939955218277 0 -0.00023180782106109961 0.01460267090380285 0 0.00025500496670858327 0.0042844331892223884 0 0.00017783595144011511 0.0040797448696004955 0 0.00021426304256379265 0.004226698112846824 0 0.00025500496670858327 0.0042844331892223884 0 0.00032569611991052649 0.0038478276361480538 0 0.00017783595144011511 0.0040797448696004955 0 0.00025500496670858327 0.0042844331892223884 0 0.0002687308850905183 0.004487399981928224 0 0.00022600582977645899 0.0044970164218853135 0 0.00025500496670858327 0.0042844331892223884 0 0.00022600582977645899 0.0044970164218853135 0 0.00013625773349444593 0.0042703873242462111 0 0.00025500496670858327 0.0042844331892223884 0 0.00032569611991052649 0.0038478276361480538 0 0.00013625773349444593 0.0042703873242462111 0 0.00032569611991052649 0.0038478276361480538 0 -0.00037647919694596809 0.0034458049570406189 0 -0.00016161479788954041 0.0039329254780568982 0 0.00032569611991052649 0.0038478276361480538 0 -0.00037647919694596809 0.0034458049570406189 0 -0.00025694609525836443 0.0026823586573539327 0 -0.00037647919694596809 0.0034458049570406189 0 -0.00016161479788954041 0.0039329254780568982 0 -0.0010189815859110388 0.003495547281767996 0 0.00032569611991052649 0.0038478276361480538 0 -0.00016161479788954041 0.0039329254780568982 0 0.00017783595144011511 0.0040797448696004955 0 -0.00016161479788954041 0.0039329254780568982 0 0.00017783595144011511 0.0040797448696004955 0 3.2635351139785416e-05 0.0041546589514984038 0 0.00017783595144011511 0.0040797448696004955 0 3.2635351139785416e-05 0.0041546589514984038 0 0.00021426304256379265 0.004226698112846824 0 -0.00016161479788954041 0.0039329254780568982 0 3.2635351139785416e-05 0.0041546589514984038 0 -0.00016276095417757345 0.00403839997686661 0 3.2635351139785416e-05 0.0041546589514984038 0 -0.00017080761239149004 0.0041915288722854651 0 -0.00016276095417757345 0.00403839997686661 0 0.0001004451252122394 0.0043253367826532789 0 3.2635351139785416e-05 0.0041546589514984038 0 -0.00017080761239149004 0.0041915288722854651 0 0.0001004451252122394 0.0043253367826532789 0 3.2635351139785416e-05 0.0041546589514984038 0 0.00021426304256379265 0.004226698112846824 0 0.0001004451252122394 0.0043253367826532789 0 0.00021426304256379265 0.004226698112846824 0 0.00025076918812173463 0.0043155077014673856 0 0.00025500496670858327 0.0042844331892223884 0 0.00021426304256379265 0.004226698112846824 0 0.00028111296886765508 0.004356094298088314 0 0.00021426304256379265 0.004226698112846824 0 0.00028111296886765508 0.004356094298088314 0 0.00025076918812173463 0.0043155077014673856 0 0.00028111296886765508 0.004356094298088314 0 0.00025076918812173463 0.0043155077014673856 0 0.00028297665566382347 0.0043615183937853099 0 0.00028111296886765508 0.004356094298088314 0 0.00028297665566382347 0.0043615183937853099 0 0.00028378470080245083 0.0044372373069562375 0 0.00025119524596950432 0.0043868713076766642 0 0.00028378470080245083 0.0044372373069562375 0 0.00022502701469352573 0.0044805367264198906 0 0.00028297665566382347 0.0043615183937853099 0 0.00025119524596950432 0.0043868713076766642 0 0.00028378470080245083 0.0044372373069562375 0 0.00028378470080245083 0.0044372373069562375 0 0.00022502701469352573 0.0044805367264198906 0 0.00027229544405456794 0.0045954234550750813 0 0.00028378470080245083 0.0044372373069562375 0 0.00029419658410516353 0.0044759225155226101 0 0.00027229544405456794 0.0045954234550750813 0 0.00028111296886765508 0.004356094298088314 0 0.00028378470080245083 0.0044372373069562375 0 0.00029419658410516353 0.0044759225155226101 0 -0.00036990347076482728 0.0079791827660646072 0 -0.00031828327143556195 0.0079609370046516779 0 -0.00032950185854968962 0.0078695515700043118 0 0.00010160337763648219 0.0043758079685560251 0 1.3308722005334721e-06 0.004522420164372821 0 0.00013836886453134201 0.0044712649684682717 0 -4.4807748019891491e-05 0.0065566499272134557 0 -0.00016200338350469081 0.006131220677653538 0 0.00010160337763648219 0.0043758079685560251 0 0.00013836886453134201 0.0044712649684682717 0 0.00018360255711953437 0.0044083129592441912 0 0.00013836886453134201 0.0044712649684682717 0 0.00018360255711953437 0.0044083129592441912 0 0.00022502701469352573 0.0044805367264198906 0 0.00025119524596950432 0.0043868713076766642 0 0.00018360255711953437 0.0044083129592441912 0 0.00022502701469352573 0.0044805367264198906 0 0.0001793401293442919 0.0046239495685056588 0 0.00022502701469352573 0.0044805367264198906 0 0.00027229544405456794 0.0045954234550750813 0 0.00013836886453134201 0.0044712649684682717 0 0.0001793401293442919 0.0046239495685056588 0 0.00022502701469352573 0.0044805367264198906 0 1.3308722005334721e-06 0.004522420164372821 0 0.00013836886453134201 0.0044712649684682717 0 0.0001793401293442919 0.0046239495685056588 0 1.3308722005334721e-06 0.004522420164372821 0 0.0001793401293442919 0.0046239495685056588 0 0.00010400927699415443 0.0048596702371507261 0 0.0001793401293442919 0.0046239495685056588 0 0.00010400927699415443 0.0048596702371507261 0 0.00025171615616104186 0.0048741211218135778 0 0.0001793401293442919 0.0046239495685056588 0 0.00025171615616104186 0.0048741211218135778 0 0.00027229544405456794 0.0045954234550750813 0 0.00025171615616104186 0.0048741211218135778 0 0.00030026476546992492 0.0046737651352808957 0 0.00029668390020151327 0.005081483838264518 0 0.00010400927699415443 0.0048596702371507261 0 0.00025171615616104186 0.0048741211218135778 0 0.00014453783615744813 0.0053562606651596737 0 0.00025500496670858327 0.0042844331892223884 0 0.00028111296886765508 0.004356094298088314 0 0.00029419658410516353 0.0044759225155226101 0 0.00029419658410516353 0.0044759225155226101 0 0.00030026476546992492 0.0046737651352808957 0 0.0002687308850905183 0.004487399981928224 0 0.00025500496670858327 0.0042844331892223884 0 0.00029419658410516353 0.0044759225155226101 0 0.0002687308850905183 0.004487399981928224 0 0.00025171615616104186 0.0048741211218135778 0 0.00027229544405456794 0.0045954234550750813 0 0.00030026476546992492 0.0046737651352808957 0 0.00029419658410516353 0.0044759225155226101 0 0.00027229544405456794 0.0045954234550750813 0 0.00030026476546992492 0.0046737651352808957 0 0.00030026476546992492 0.0046737651352808957 0 0.0002687308850905183 0.004487399981928224 0 0.00022600582977645899 0.0044970164218853135 0 0.00030026476546992492 0.0046737651352808957 0 0.00022600582977645899 0.0044970164218853135 0 0.00028977286525057284 0.0047320636170804717 0 0.00030026476546992492 0.0046737651352808957 0 0.00028977286525057284 0.0047320636170804717 0 0.00029668390020151327 0.005081483838264518 0 0.00029668390020151327 0.005081483838264518 0 0.00018737034234289328 0.0052259987399634958 0 0.00026132455885315679 0.0044505510218830974 0 0.00028977286525057284 0.0047320636170804717 0 0.00029668390020151327 0.005081483838264518 0 0.00026132455885315679 0.0044505510218830974 0 0.00022600582977645899 0.0044970164218853135 0 0.00026132455885315679 0.0044505510218830974 0 0.00010865398713841462 0.0042443223483215045 0 0.00022600582977645899 0.0044970164218853135 0 0.00028977286525057284 0.0047320636170804717 0 0.00026132455885315679 0.0044505510218830974 0 0.00014453783615744813 0.0053562606651596737 0 0.00029668390020151327 0.005081483838264518 0 0.00012848503754820623 0.0059987091680582206 0 0.00025171615616104186 0.0048741211218135778 0 0.00014453783615744813 0.0053562606651596737 0 0.00029668390020151327 0.005081483838264518 0 0.00029668390020151327 0.005081483838264518 0 0.00012848503754820623 0.0059987091680582206 0 0.00018737034234289328 0.0052259987399634958 0 2.6095146630617863e-07 0.006338769721543301 0 0.00012848503754820623 0.0059987091680582206 0 0.00018737034234289328 0.0052259987399634958 0 2.6095146630617863e-07 0.006338769721543301 0 0.00018737034234289328 0.0052259987399634958 0 2.4155972473855381e-07 0.004861494451886151 0 0.00026132455885315679 0.0044505510218830974 0 8.8241248839242094e-07 0.0033841358212724167 0 0.00011566178213801885 0.0035857464817503066 0 0.00018737034234289328 0.0052259987399634958 0 2.4155972473855381e-07 0.004861494451886151 0 0.00026132455885315679 0.0044505510218830974 0 2.4155972473855381e-07 0.004861494451886151 0 0.00026132455885315679 0.0044505510218830974 0 8.8241248839242094e-07 0.0033841358212724167 0 8.8241248839242094e-07 0.0033841358212724167 0 -1.5920530158812051e-06 0.0019091532561560372 0 0.00011566178213801885 0.0035857464817503066 0 -1.4115240355513834e-08 0.001906662975288 0 3.1888755745729842e-05 0.002532043167354823 0 -1.5920530158812051e-06 0.0019091532561560372 0 -0.0004023158233534478 0.0037430706295745477 0 0.00011566178213801885 0.0035857464817503066 0 -0.0004023158233534478 0.0037430706295745477 0 0.00011566178213801885 0.0035857464817503066 0 0.00010865398713841462 0.0042443223483215045 0 0.00026132455885315679 0.0044505510218830974 0 0.00011566178213801885 0.0035857464817503066 0 0.00010865398713841462 0.0042443223483215045 0 3.1888755745729842e-05 0.002532043167354823 0 0.00030659821447962411 0.003250305232616625 0 -0.0004023158233534478 0.0037430706295745477 0 0.00010865398713841462 0.0042443223483215045 0 -9.1364668938375315e-06 0.004270842127208194 0 0.00032569611991052649 0.0038478276361480538 0 0.00013625773349444593 0.0042703873242462111 0 -9.1364668938375315e-06 0.004270842127208194 0 0.00010865398713841462 0.0042443223483215045 0 0.00013625773349444593 0.0042703873242462111 0 -9.1364668938375315e-06 0.004270842127208194 0 0.00022600582977645899 0.0044970164218853135 0 0.00010865398713841462 0.0042443223483215045 0 0.00013625773349444593 0.0042703873242462111 0 -0.00037647919694596809 0.0034458049570406189 0 -0.00025694609525836443 0.0026823586573539327 0 -0.0010168492398852399 0.0027534520766361098 0 0.00032569611991052649 0.0038478276361480538 0 -0.00025694609525836443 0.0026823586573539327 0 0.0007135911930713861 0.0022644754862516541 0 0.00033082566262132465 0.0037846573879099636 0 0.00030659821447962411 0.003250305232616625 0 0.00038114540511352925 0.0012657713712711839 0 0.0007135911930713861 0.0022644754862516541 0 0.00027859560241163048 0.0015683859618904981 0 0.0007135911930713861 0.0022644754862516541 0 0.00027859560241163048 0.0015683859618904981 0 3.2236359190864587e-05 0.0019566600815525853 0 -0.00025694609525836443 0.0026823586573539327 0 0.0007135911930713861 0.0022644754862516541 0 3.2236359190864587e-05 0.0019566600815525853 0 0.00027859560241163048 0.0015683859618904981 0 3.2236359190864587e-05 0.0019566600815525853 0 -7.2367934751975591e-05 0.0013707460628872548 0 -0.00025694609525836443 0.0026823586573539327 0 3.2236359190864587e-05 0.0019566600815525853 0 -0.0004412736536492118 0.0019891980095304066 0 3.2236359190864587e-05 0.0019566600815525853 0 -7.2367934751975591e-05 0.0013707460628872548 0 -0.0004412736536492118 0.0019891980095304066 0 -7.2367934751975591e-05 0.0013707460628872548 0 0.00024223258885512058 0.0011054875087799973 0 -1.9839411306086033e-05 0.00082613059772074931 0 -7.2367934751975591e-05 0.0013707460628872548 0 -1.9839411306086033e-05 0.00082613059772074931 0 -0.00025716601053458684 0.00099883137615074677 0 0.00027859560241163048 0.0015683859618904981 0 -7.2367934751975591e-05 0.0013707460628872548 0 0.00024223258885512058 0.0011054875087799973 0 0.00038114540511352925 0.0012657713712711839 0 0.00027859560241163048 0.0015683859618904981 0 0.00024223258885512058 0.0011054875087799973 0 -4.0012669979111026e-08 0.0019046047688413585 0 0.00038114540511352925 0.0012657713712711839 0 0.00024223258885512058 0.0011054875087799973 0 -4.0012669979111026e-08 0.0019046047688413585 0 0.00024223258885512058 0.0011054875087799973 0 1.0368554606699721e-06 0.00061138620847893768 0 -1.9839411306086033e-05 0.00082613059772074931 0 1.0368554606699721e-06 0.00061138620847893768 0 -0.00013289944179477434 0.00039690659509740764 0 0.00024223258885512058 0.0011054875087799973 0 -1.9839411306086033e-05 0.00082613059772074931 0 1.0368554606699721e-06 0.00061138620847893768 0 1.0368554606699721e-06 0.00061138620847893768 0 -2.28935410142583e-06 -0.00068266033813302839 0 -0.00013289944179477434 0.00039690659509740764 0 -2.28935410142583e-06 -0.00068266033813302839 0 -0.00013289944179477434 0.00039690659509740764 0 -0.00096082661163018402 0.00062973105840900107 0 -0.0002615264733432603 -0.0020345161952947453 0 6.9441660469322538e-07 -0.0020266183013629879 0 -9.098359810848435e-05 -0.0024957080500279142 0 -1.7472995103704459e-06 -0.00068688459227195914 0 -0.0002615264733432603 -0.0020345161952947453 0 6.9441660469322538e-07 -0.0020266183013629879 0 -3.6270637599170504e-07 -0.00068450849044932483 0 -0.00051713232472845681 -0.00071812222715298042 0 -0.00096082661163018402 0.00062973105840900107 0 -0.00075961780109466963 0.0010802862518189751 0 -0.0013053159329727434 0.0015348273809271695 0 -0.00051713232472845681 -0.00071812222715298042 0 -0.00050419860664710741 -0.00030519884855875258 0 -0.0002615264733432603 -0.0020345161952947453 0 -9.098359810848435e-05 -0.0024957080500279142 0 -0.00028929985867115178 -0.002730028605954928 0 -0.00075961780109466963 0.0010802862518189751 0 -0.00097769374024370874 0.001520774348505487 0 -0.0013053159329727434 0.0015348273809271695 0 -0.00052432074828636169 0.0014943770097198467 0 -0.00075961780109466963 0.0010802862518189751 0 -0.00097769374024370874 0.001520774348505487 0 -0.00052432074828636169 0.0014943770097198467 0 -0.00025716601053458684 0.00099883137615074677 0 -0.00075961780109466963 0.0010802862518189751 0 -7.2367934751975591e-05 0.0013707460628872548 0 -0.00052432074828636169 0.0014943770097198467 0 -0.00025716601053458684 0.00099883137615074677 0 -0.00013289944179477434 0.00039690659509740764 0 -0.00025716601053458684 0.00099883137615074677 0 -0.00075961780109466963 0.0010802862518189751 0 -1.9839411306086033e-05 0.00082613059772074931 0 -0.00013289944179477434 0.00039690659509740764 0 -0.00025716601053458684 0.00099883137615074677 0 -0.00013289944179477434 0.00039690659509740764 0 -0.00096082661163018402 0.00062973105840900107 0 -0.00075961780109466963 0.0010802862518189751 0 7.3460039501447907e-05 -0.003101539434792658 0 6.9441660469322538e-07 -0.0020266183013629879 0 2.4566517493086779e-08 -0.0033692337765769188 0 7.3460039501447907e-05 -0.003101539434792658 0 6.9441660469322538e-07 -0.0020266183013629879 0 3.2246823249444346e-05 -0.0028157205262537345 0 6.9441660469322538e-07 -0.0020266183013629879 0 -9.098359810848435e-05 -0.0024957080500279142 0 3.2246823249444346e-05 -0.0028157205262537345 0 -9.098359810848435e-05 -0.0024957080500279142 0 -2.7412908480106597e-05 -0.0027992207002105014 0 -0.00028929985867115178 -0.002730028605954928 0 -2.7412908480106597e-05 -0.0027992207002105014 0 7.2401060607999197e-05 -0.0030533865265936059 0 -0.00028929985867115178 -0.002730028605954928 0 -9.098359810848435e-05 -0.0024957080500279142 0 -2.7412908480106597e-05 -0.0027992207002105014 0 3.2246823249444346e-05 -0.0028157205262537345 0 -2.7412908480106597e-05 -0.0027992207002105014 0 7.2401060607999197e-05 -0.0030533865265936059 0 3.981076190811944e-05 -0.0029504238538995775 0 3.981076190811944e-05 -0.0029504238538995775 0 3.2246823249444346e-05 -0.0028157205262537345 0 6.2420287062590565e-05 -0.0031056944129748483 0 -2.7412908480106597e-05 -0.0027992207002105014 0 3.981076190811944e-05 -0.0029504238538995775 0 3.2246823249444346e-05 -0.0028157205262537345 0 7.3460039501447907e-05 -0.003101539434792658 0 3.2246823249444346e-05 -0.0028157205262537345 0 6.2420287062590565e-05 -0.0031056944129748483 0 6.2420287062590565e-05 -0.0031056944129748483 0 7.500745546854173e-05 -0.00340501633415122 0 7.1457337083991894e-05 -0.0031234916154176868 0 7.2401060607999197e-05 -0.0030533865265936059 0 3.981076190811944e-05 -0.0029504238538995775 0 6.2420287062590565e-05 -0.0031056944129748483 0 7.2401060607999197e-05 -0.0030533865265936059 0 6.2420287062590565e-05 -0.0031056944129748483 0 7.1457337083991894e-05 -0.0031234916154176868 0 7.500745546854173e-05 -0.00340501633415122 0 7.1457337083991894e-05 -0.0031234916154176868 0 7.1192670121827161e-05 -0.0035216860465550376 0 7.3460039501447907e-05 -0.003101539434792658 0 6.2420287062590565e-05 -0.0031056944129748483 0 7.500745546854173e-05 -0.00340501633415122 0 7.3460039501447907e-05 -0.003101539434792658 0 7.500745546854173e-05 -0.00340501633415122 0 5.6298782092211769e-05 -0.003662572686294299 0 -0.00024694214109676469 -0.0033337095912835653 0 -0.00027751127707297847 -0.0033044407822172871 0 -0.00021236012891387589 -0.0033113402317918976 0 -0.00027451124143911335 -0.0027675291380938652 0 -0.00018758955340539526 -0.0039596727710402143 0 -0.00025201585262600438 -0.0031092453669133461 0 -0.00018758955340539526 -0.0039596727710402143 0 -0.00025201585262600438 -0.0031092453669133461 0 -0.00027451124143911335 -0.0027675291380938652 0 -0.00019015307885396961 -0.0028425926711578629 0 -0.00027451124143911335 -0.0027675291380938652 0 -0.00027451124143911335 -0.0027675291380938652 0 -0.00050419860664710741 -0.00030519884855875258 0 -0.00025201585262600438 -0.0031092453669133461 0 -0.00037253013607708448 0.00083558944472968718 0 -0.00083380393206661403 -0.0008169687147454365 0 -0.0006902264479905669 -0.00094146224186607177 0 -0.00045258730194382932 -0.00074036559004217039 0 -0.0006902264479905669 -0.00094146224186607177 0 -0.00045258730194382932 -0.00074036559004217039 0 -0.00014917001796872735 -0.00094415101702153919 0 -0.00083380393206661403 -0.0008169687147454365 0 -0.00045258730194382932 -0.00074036559004217039 0 -0.00038082194406957327 -0.00045853989219529561 0 7.2401060607999197e-05 -0.0030533865265936059 0 0.0001020211718629473 -0.0031053010502093545 0 -0.00028929985867115178 -0.002730028605954928 0 -0.00037253013607708448 0.00083558944472968718 0 -0.00065872572422418212 0.00016342702585062931 0 5.9748797303391093e-05 0.0010840581498669961 0 -0.0008419983237992764 0.0010900660223273748 0 -0.00025299286558754343 0.001701766777159326 0 -0.00045258730194382932 -0.00074036559004217039 0 -0.00038082194406957327 -0.00045853989219529561 0 -0.00028369402613637911 -0.00045739857541114221 0 -0.00037253013607708448 0.00083558944472968718 0 -0.00056836612577938056 0.0020421790653103473 0 5.9748797303391093e-05 0.0010840581498669961 0 0.00023317893835334461 0.0012101163887888301 0 -0.00025299286558754343 0.001701766777159326 0 -0.00052272384266719958 -0.001248846932527447 0 5.5185561199202968e-05 -0.00080490372593305178 0 -0.00047390000437791391 -0.00081313643580706698 0 -0.00052272384266719958 -0.001248846932527447 0 -0.00047390000437791391 -0.00081313643580706698 0 -0.0010045775917584701 -0.00081475621549317217 0 -0.00077785464240414759 0.0019261746044470906 0 -0.0011074061966142284 0.0020575016337829825 0 -0.00080257748836228503 0.0024944899334443812 0 -0.00077785464240414759 0.0019261746044470906 0 -0.0004412736536492118 0.0019891980095304066 0 -0.00080257748836228503 0.0024944899334443812 0 -7.2367934751975591e-05 0.0013707460628872548 0 -0.00052432074828636169 0.0014943770097198467 0 -0.0004412736536492118 0.0019891980095304066 0 -0.00052432074828636169 0.0014943770097198467 0 -0.00077785464240414759 0.0019261746044470906 0 -0.0004412736536492118 0.0019891980095304066 0 -0.00052432074828636169 0.0014943770097198467 0 -0.00077785464240414759 0.0019261746044470906 0 -0.00097769374024370874 0.001520774348505487 0 -0.00077785464240414759 0.0019261746044470906 0 -0.00097769374024370874 0.001520774348505487 0 -0.0011074061966142284 0.0020575016337829825 0 -0.00050419860664710741 -0.00030519884855875258 0 -0.00080936969967993302 0.0015773027811317667 0 -0.00045258730194382932 -0.00074036559004217039 0 -0.00014917001796872735 -0.00094415101702153919 0 -0.00028369402613637911 -0.00045739857541114221 0 -0.0012553001361371476 0.0015358787887802081 0 -0.0011074061966142284 0.0020575016337829825 0 -0.0015236137601181471 0.0024930730974706064 0 -0.00097769374024370874 0.001520774348505487 0 -0.0012553001361371476 0.0015358787887802081 0 -0.0011074061966142284 0.0020575016337829825 0 -0.00095774003645915774 0.00024386226607625434 0 -0.00050419860664710741 -0.00030519884855875258 0 -0.0018450244419412783 0.0028796113231376735 0 -0.0010168492398852399 0.0027534520766361098 0 -0.0010189815859110388 0.003495547281767996 0 -0.0018102548684315067 0.0027581482477735363 0 -0.0018450244419412783 0.0028796113231376735 0 -0.0010168492398852399 0.0027534520766361098 0 -0.00080936969967993302 0.0015773027811317667 0 -0.0010553454768734839 0.0026532214056872927 0 -0.0011074061966142284 0.0020575016337829825 0 -0.0015236137601181471 0.0024930730974706064 0 -0.00080257748836228503 0.0024944899334443812 0 -0.00037253013607708448 0.00083558944472968718 0 -0.00080936969967993302 0.0015773027811317667 0 -0.00047153386072647295 0.0012470557391922139 0 -0.00065257938121573576 0.0012500328232712265 0 -0.0006213157488277575 0.0011404305832156058 0 -0.00080936969967993302 0.0015773027811317667 0 -0.00056836612577938056 0.0020421790653103473 0 -0.00025694609525836443 0.0026823586573539327 0 -0.0004412736536492118 0.0019891980095304066 0 -0.00080257748836228503 0.0024944899334443812 0 -0.00024835199702370639 0.0026613757202753855 0 -0.0010553454768734839 0.0026532214056872927 0 -0.00037647919694596809 0.0034458049570406189 0 -0.0010168492398852399 0.0027534520766361098 0 -0.0010189815859110388 0.003495547281767996 0 -0.00022095198918233264 0.0038762192535704365 0 -0.00066403325759320877 0.0037311550131303387 0 -0.00016161479788954041 0.0039329254780568982 0 -0.00028212818827485977 0.0037289974177098111 0 -0.00032010947418157086 0.0038173561082101449 0 -0.00016161479788954041 0.0039329254780568982 0 -0.00032010947418157086 0.0038173561082101449 0 -0.00025932645881588285 0.0039170972520221562 0 -0.00032010947418157086 0.0038173561082101449 0 -0.00043553426555249954 0.0037733716073695763 0 -0.00037287670309263079 0.0038427956854034944 0 -0.00032010947418157086 0.0038173561082101449 0 -0.00025932645881588285 0.0039170972520221562 0 -0.00037287670309263079 0.0038427956854034944 0 -0.00032010947418157086 0.0038173561082101449 0 -0.00036635796474815283 0.0037298753691707934 0 -0.00043553426555249954 0.0037733716073695763 0 -0.00040041049379399281 0.0036252424536220712 0 -0.00036635796474815283 0.0037298753691707934 0 -0.00043553426555249954 0.0037733716073695763 0 -0.00056836612577938056 0.0020421790653103473 0 -0.00066403325759320877 0.0037311550131303387 0 -0.00040041049379399281 0.0036252424536220712 0 -0.00028212818827485977 0.0037289974177098111 0 -0.00036635796474815283 0.0037298753691707934 0 -0.00028212818827485977 0.0037289974177098111 0 -0.00032010947418157086 0.0038173561082101449 0 -0.00036635796474815283 0.0037298753691707934 0 -0.00056836612577938056 0.0020421790653103473 0 -0.00022933970538974632 0.0031550815699850441 0 -0.00025299286558754343 0.001701766777159326 0 -8.5975064052237719e-05 0.0023895921715041232 0 -0.0012957393609920789 0.0022340471523823739 0 0.00023317893835334461 0.0012101163887888301 0 -0.00025299286558754343 0.001701766777159326 0 -8.5975064052237719e-05 0.0023895921715041232 0 -0.0008419983237992764 0.0010900660223273748 0 -0.00025299286558754343 0.001701766777159326 0 -0.0012957393609920789 0.0022340471523823739 0 -0.00077703666544466784 0.0028647704216289045 0 -8.5975064052237719e-05 0.0023895921715041232 0 -0.0012957393609920789 0.0022340471523823739 0 -0.00077703666544466784 0.0028647704216289045 0 -8.5975064052237719e-05 0.0023895921715041232 0 -0.00058544571540151687 0.0036955535744451211 0 -0.00022933970538974632 0.0031550815699850441 0 -0.00055559614012771119 0.0036429483211325221 0 -0.00058544571540151687 0.0036955535744451211 0 -0.00035041056343605931 0.0039835383320313954 0 -0.00037287670309263079 0.0038427956854034944 0 -0.00043553426555249954 0.0037733716073695763 0 -0.00058544571540151687 0.0036955535744451211 0 -0.00037287670309263079 0.0038427956854034944 0 -0.00077703666544466784 0.0028647704216289045 0 -0.00058544571540151687 0.0036955535744451211 0 -0.00089089476846023494 0.0036454628498266222 0 -0.0033692512459307642 -0.0049550540907037687 0 -0.0033240495788469902 -0.0050700547506188041 0 -0.0032727434849467471 -0.0051725799346842745 0 -0.0033692512459307642 -0.0049550540907037687 0 -0.0033612989742317846 -0.0049555730431556999 0 -0.0033240495788469902 -0.0050700547506188041 0 -0.0021113347037392716 -0.00062995770246564501 0 -0.001852479303170851 -0.00049401343665681819 0 -0.00058544571540151687 0.0036955535744451211 0 -0.00089089476846023494 0.0036454628498266222 0 -0.00035041056343605931 0.0039835383320313954 0 -0.0033692512459307642 -0.0049550540907037687 0 -0.0033664085342226188 -0.0049786948667524976 0 -0.0033612989742317846 -0.0049555730431556999 0 -0.0033664085342226188 -0.0049786948667524976 0 -0.0033064518521684406 -0.0047336388043307332 0 -0.0033612989742317846 -0.0049555730431556999 0 -0.0033664085342226188 -0.0049786948667524976 0 -0.002552518549955988 -0.0046367866115444058 0 -0.0033064518521684406 -0.0047336388043307332 0 -0.00035041056343605931 0.0039835383320313954 0 -0.00017080761239149004 0.0041915288722854651 0 -0.00026169815787591762 0.0039977812240911846 0 -0.00017080761239149004 0.0041915288722854651 0 -0.00026169815787591762 0.0039977812240911846 0 -0.00016276095417757345 0.00403839997686661 0 -0.001852479303170851 -0.00049401343665681819 0 -0.0013541083231204489 -0.00022118132523162972 0 -0.00026169815787591762 0.0039977812240911846 0 -0.00016276095417757345 0.00403839997686661 0 -0.00025932645881588285 0.0039170972520221562 0 -0.00016161479788954041 0.0039329254780568982 0 -0.00016276095417757345 0.00403839997686661 0 -0.00025932645881588285 0.0039170972520221562 0 -0.00026169815787591762 0.0039977812240911846 0 -0.00025932645881588285 0.0039170972520221562 0 -0.00037287670309263079 0.0038427956854034944 0 -0.00035041056343605931 0.0039835383320313954 0 -0.00026169815787591762 0.0039977812240911846 0 -0.00037287670309263079 0.0038427956854034944 0 -0.0031675687199228448 -0.0047588294553062068 0 -0.0023543257544943737 -0.0043872572755616068 0 -0.0029774441445295781 -0.0054462775393817843 0 -0.0017131143511991897 -0.0053982735022174841 0 -0.0023543257544943737 -0.0043872572755616068 0 -0.0029774441445295781 -0.0054462775393817843 0 -0.0017131143511991897 -0.0053982735022174841 0 -0.0023543257544943737 -0.0043872572755616068 0 -0.0011563676427947317 -0.0039856682202751769 0 -0.0026711674392465626 -0.00096431742471877872 0 -0.0026310602340265158 0.00011321089796188071 0 -0.0031675687199228448 -0.0047588294553062068 0 -0.0032727434849467471 -0.0051725799346842745 0 -0.0029774441445295781 -0.0054462775393817843 0 -0.0033692512459307642 -0.0049550540907037687 0 -0.0031675687199228448 -0.0047588294553062068 0 -0.0032727434849467471 -0.0051725799346842745 0 -0.00077703666544466784 0.0028647704216289045 0 -0.00089089476846023494 0.0036454628498266222 0 -0.0021034869063147215 0.0030944222855981032 0 -0.0021113347037392716 -0.00062995770246564501 0 -0.0026711674392465626 -0.00096431742471877872 0 -0.0021034869063147215 0.0030944222855981032 0 -0.0023090657292643675 0.0023573385563651775 0 -0.0032241925909696424 0.0026224456015443379 0 -0.0023090657292643675 0.0023573385563651775 0 -0.0023545781377751918 0.0016881873039077684 0 -0.0029648293323872783 0.0021180792452729792 0 -0.00077703666544466784 0.0028647704216289045 0 -0.0021034869063147215 0.0030944222855981032 0 -0.0012957393609920789 0.0022340471523823739 0 -0.0021034869063147215 0.0030944222855981032 0 -0.0023090657292643675 0.0023573385563651775 0 -0.0012957393609920789 0.0022340471523823739 0 -0.0008419983237992764 0.0010900660223273748 0 -0.0012957393609920789 0.0022340471523823739 0 -0.0017179472264117646 0.0017105186610284963 0 -0.0023090657292643675 0.0023573385563651775 0 -0.0012957393609920789 0.0022340471523823739 0 -0.0017179472264117646 0.0017105186610284963 0 -0.0017179472264117646 0.0017105186610284963 0 -0.0023545781377751918 0.0016881873039077684 0 -0.0017131979412342989 0.00110175671406006 0 -0.0023090657292643675 0.0023573385563651775 0 -0.0017179472264117646 0.0017105186610284963 0 -0.0023545781377751918 0.0016881873039077684 0 -0.0018350185130337454 0.0011634720104206286 0 -0.0027482573940081534 0.0011868966990506321 0 -0.0024683868439309142 0.00020567066795338786 0 -0.0027482573940081534 0.0011868966990506321 0 -0.003677908134573945 0.0012611700084647322 0 -0.0024683868439309142 0.00020567066795338786 0 -0.0027482573940081534 0.0011868966990506321 0 -0.0029648293323872783 0.0021180792452729792 0 -0.003677908134573945 0.0012611700084647322 0 -0.0018350185130337454 0.0011634720104206286 0 -0.0027482573940081534 0.0011868966990506321 0 -0.0029648293323872783 0.0021180792452729792 0 -0.0022897349077098937 0.0016659921095294925 0 -0.0028059887693309259 0.0019919282029341066 0 -0.0023090657292643675 0.0023573385563651775 0 -0.0032241925909696424 0.0026224456015443379 0 -0.0029648293323872783 0.0021180792452729792 0 -0.0032241925909696424 0.0026224456015443379 0 -0.0038628625779379682 0.0020737984859677855 0 -0.0046680922876587115 0.0020394812969226745 0 -0.0026310602340265158 0.00011321089796188071 0 -0.0024790320624000018 -0.0084906596971290795 0 -0.0032241925909696424 0.0026224456015443379 0 -0.0029648293323872783 0.0021180792452729792 0 -0.0038628625779379682 0.0020737984859677855 0 -0.0038628625779379682 0.0020737984859677855 0 -0.003677908134573945 0.0012611700084647322 0 -0.0046680922876587115 0.0020394812969226745 0 -0.0029648293323872783 0.0021180792452729792 0 -0.0038628625779379682 0.0020737984859677855 0 -0.003677908134573945 0.0012611700084647322 0 -0.001039422228821721 -0.0055358890450392289 0 -0.0011473845016001035 -0.0056807977029639913 0 -0.001393521485826746 -0.0053107053270029392 0 -0.0029090462894556936 -0.0010076255215597288 0 -0.0024790320624000018 -0.0084906596971290795 0 -0.001039422228821721 -0.0055358890450392289 0 -0.0011473845016001035 -0.0056807977029639913 0 -0.00095817811478050591 -0.0057082054443862466 0 -0.00066013566756609567 -0.0058422597528025796 0 -0.00081774036461219456 -0.0062041634129258319 0 -0.0011473845016001035 -0.0056807977029639913 0 -0.00095817811478050591 -0.0057082054443862466 0 -0.00081051284026256709 -0.0060700942705655689 0 -0.00041397576599237155 -0.006758206495219082 0 -0.00041606451947151589 -0.0063662582302444108 0 -0.00081051284026256709 -0.0060700942705655689 0 -0.00041397576599237155 -0.006758206495219082 0 -0.00041606451947151589 -0.0063662582302444108 0 -0.00028512275824866244 -0.0065591681308798094 0 -0.0029090462894556936 -0.0010076255215597288 0 -0.0014525385738736805 -0.0042214421669895981 0 -0.00095817811478050591 -0.0057082054443862466 0 -0.00068227859731117418 -0.0058068699013873069 0 -0.00080779203690855748 -0.0058110978440709072 0 -0.00095817811478050591 -0.0057082054443862466 0 -0.00080779203690855748 -0.0058110978440709072 0 -0.00081051284026256709 -0.0060700942705655689 0 -0.001039422228821721 -0.0055358890450392289 0 -0.00095817811478050591 -0.0057082054443862466 0 -0.00068227859731117418 -0.0058068699013873069 0 -0.00075404287146261942 -0.0058367827032643291 0 -0.00074970805946859159 -0.0058950202388354262 0 -0.00077027454338651216 -0.0059196360166863448 0 -0.00075404287146261942 -0.0058367827032643291 0 -0.00080779203690855748 -0.0058110978440709072 0 -0.00077027454338651216 -0.0059196360166863448 0 -0.0014525385738736805 -0.0042214421669895981 0 -0.0008899388597153878 -0.004790313251323927 0 -0.00080779203690855748 -0.0058110978440709072 0 -0.00078847130528901814 -0.0059515855706233096 0 -0.00077027454338651216 -0.0059196360166863448 0 -0.00032186906599551495 -0.0056276106631854275 0 -0.00024775715875134988 -0.0052547315279169761 0 -0.00081051284026256709 -0.0060700942705655689 0 -0.00078847130528901814 -0.0059515855706233096 0 -0.00078952517685467708 -0.0059636570074848797 0 6.9545226644368948e-05 -0.0052786928434623518 0 7.9834613468785016e-05 -0.0044134737436614087 0 7.0189350288372502e-05 -0.004819344406619042 0 -0.00078952517685467708 -0.0059636570074848797 0 -0.00082724891388294473 -0.0059647201458708915 0 -0.00071395759739845534 -0.0059615481418855186 0 -0.00080779203690855748 -0.0058110978440709072 0 -0.00081051284026256709 -0.0060700942705655689 0 -0.00078847130528901814 -0.0059515855706233096 0 -0.00074970805946859159 -0.0058950202388354262 0 -0.00077027454338651216 -0.0059196360166863448 0 -0.00075201536452454822 -0.0059285774367879287 0 -0.00078847130528901814 -0.0059515855706233096 0 -0.00077027454338651216 -0.0059196360166863448 0 -0.00078952517685467708 -0.0059636570074848797 0 -0.00077027454338651216 -0.0059196360166863448 0 -0.00078952517685467708 -0.0059636570074848797 0 -0.00075201536452454822 -0.0059285774367879287 0 -0.00081051284026256709 -0.0060700942705655689 0 -0.00078952517685467708 -0.0059636570074848797 0 -0.00082724891388294473 -0.0059647201458708915 0 -0.00041606451947151589 -0.0063662582302444108 0 -0.00081051284026256709 -0.0060700942705655689 0 -7.3926921932120079e-05 -0.0060772812600856322 0 -0.00032186906599551495 -0.0056276106631854275 0 -5.9599913275653192e-05 -0.0059759509351356953 0 -0.00081051284026256709 -0.0060700942705655689 0 -0.00082724891388294473 -0.0059647201458708915 0 -7.3926921932120079e-05 -0.0060772812600856322 0 6.9545226644368948e-05 -0.0052786928434623518 0 3.6988221095154526e-05 -0.0056123308489900046 0 -7.3926921932120079e-05 -0.0060772812600856322 0 -0.00065872572422418212 0.00016342702585062931 0 -0.00092040665830176545 -0.0011557994832404582 0 -0.0008419983237992764 0.0010900660223273748 0 -0.0017179472264117646 0.0017105186610284963 0 -0.0017131979412342989 0.00110175671406006 0 -0.00051755733352589861 -0.0052973679627345404 0 -0.00089438681276466519 -0.0055781942681815064 0 -0.00050251447323432013 -0.0056424709243979325 0 -0.0014525385738736805 -0.0042214421669895981 0 -0.00092040665830176545 -0.0011557994832404582 0 -0.001285283484426619 -0.0052581604195268529 0 -0.00051755733352589861 -0.0052973679627345404 0 -0.00089438681276466519 -0.0055781942681815064 0 -0.0018350185130337454 0.0011634720104206286 0 -0.0024683868439309142 0.00020567066795338786 0 -0.00073921959434529525 0.00016158700182554385 0 -0.0022897349077098937 0.0016659921095294925 0 -0.00092040665830176545 -0.0011557994832404582 0 -0.0014525385738736805 -0.0042214421669895981 0 -0.00061373051011548462 -0.0058125855909315662 0 -0.00075404287146261942 -0.0058367827032643291 0 -0.00074970805946859159 -0.0058950202388354262 0 -0.00069369973423862442 -0.0058769418497950088 0 -0.00075201536452454822 -0.0059285774367879287 0 -0.00071395759739845534 -0.0059615481418855186 0 -0.00069369973423862442 -0.0058769418497950088 0 -0.00074970805946859159 -0.0058950202388354262 0 -0.00075201536452454822 -0.0059285774367879287 0 -0.00069369973423862442 -0.0058769418497950088 0 -0.00078952517685467708 -0.0059636570074848797 0 -0.00075201536452454822 -0.0059285774367879287 0 -0.00071395759739845534 -0.0059615481418855186 0 -0.00071395759739845534 -0.0059615481418855186 0 -0.00069369973423862442 -0.0058769418497950088 0 -0.00049091870009311403 -0.0058770996915625644 0 -0.00061373051011548462 -0.0058125855909315662 0 -0.00057660206452557949 -0.0058393821770312895 0 -0.00025201585262600438 -0.0031092453669133461 0 -0.00092040665830176545 -0.0011557994832404582 0 -0.00024775715875134988 -0.0052547315279169761 0 -0.00018758955340539526 -0.0039596727710402143 0 -7.3525570891640058e-05 -0.005757897339237426 0 -0.00050251447323432013 -0.0056424709243979325 0 -0.00028690331721432629 -0.0059086729111720556 0 7.9834613468785016e-05 -0.0044134737436614087 0 3.2880078647856447e-05 -0.0036266855608114534 0 4.5754790953893957e-05 -0.003717087040627314 0 -7.3525570891640058e-05 -0.005757897339237426 0 -0.00051755733352589861 -0.0052973679627345404 0 -0.00050251447323432013 -0.0056424709243979325 0 -0.00071395759739845534 -0.0059615481418855186 0 -0.00049091870009311403 -0.0058770996915625644 0 -0.00028690331721432629 -0.0059086729111720556 0 -0.00089438681276466519 -0.0055781942681815064 0 -0.00050251447323432013 -0.0056424709243979325 0 -0.00049091870009311403 -0.0058770996915625644 0 -0.00050251447323432013 -0.0056424709243979325 0 -0.00049091870009311403 -0.0058770996915625644 0 -0.00028690331721432629 -0.0059086729111720556 0 -0.00018758955340539526 -0.0039596727710402143 0 -1.978455549333329e-05 -0.0038129935661677457 0 7.9834613468785016e-05 -0.0044134737436614087 0 4.5754790953893957e-05 -0.003717087040627314 0 6.9591471983963162e-05 -0.0040871094943168334 0 7.500745546854173e-05 -0.00340501633415122 0 5.6298782092211769e-05 -0.003662572686294299 0 4.5754790953893957e-05 -0.003717087040627314 0 7.500745546854173e-05 -0.00340501633415122 0 7.1192670121827161e-05 -0.0035216860465550376 0 4.5754790953893957e-05 -0.003717087040627314 0 5.6298782092211769e-05 -0.003662572686294299 0 4.5754790953893957e-05 -0.003717087040627314 0 6.9591471983963162e-05 -0.0040871094943168334 0 5.6298782092211769e-05 -0.003662572686294299 0 6.9591471983963162e-05 -0.0040871094943168334 0 6.448445496782134e-05 -0.0041890649684649308 0 6.9591471983963162e-05 -0.0040871094943168334 0 7.1817132907639477e-05 -0.004462183598354064 0 6.448445496782134e-05 -0.0041890649684649308 0 7.9834613468785016e-05 -0.0044134737436614087 0 6.9591471983963162e-05 -0.0040871094943168334 0 7.1817132907639477e-05 -0.004462183598354064 0 7.9834613468785016e-05 -0.0044134737436614087 0 7.1817132907639477e-05 -0.004462183598354064 0 7.0189350288372502e-05 -0.004819344406619042 0 7.1817132907639477e-05 -0.004462183598354064 0 7.0189350288372502e-05 -0.004819344406619042 0 5.3991279428046387e-05 -0.004813591943411172 0 7.1817132907639477e-05 -0.004462183598354064 0 6.448445496782134e-05 -0.0041890649684649308 0 5.3991279428046387e-05 -0.004813591943411172 0 6.448445496782134e-05 -0.0041890649684649308 0 2.4566517493086779e-08 -0.0033692337765769188 0 2.0915217905200833e-07 -0.0047111505560613783 0 6.448445496782134e-05 -0.0041890649684649308 0 5.3991279428046387e-05 -0.004813591943411172 0 2.0915217905200833e-07 -0.0047111505560613783 0 5.6298782092211769e-05 -0.003662572686294299 0 6.448445496782134e-05 -0.0041890649684649308 0 2.4566517493086779e-08 -0.0033692337765769188 0 7.3460039501447907e-05 -0.003101539434792658 0 5.6298782092211769e-05 -0.003662572686294299 0 2.4566517493086779e-08 -0.0033692337765769188 0 4.8433170065926384e-05 -0.0055812676478387939 0 2.0472755245341208e-05 -0.0058893560838161043 0 6.318119029288112e-05 -0.0062239664029041051 0 4.8433170065926384e-05 -0.0055812676478387939 0 3.6988221095154526e-05 -0.0056123308489900046 0 6.2946209942169027e-05 -0.0051963102060639671 0 4.8433170065926384e-05 -0.0055812676478387939 0 2.0472755245341208e-05 -0.0058893560838161043 0 3.6988221095154526e-05 -0.0056123308489900046 0 2.0472755245341208e-05 -0.0058893560838161043 0 3.6988221095154526e-05 -0.0056123308489900046 0 -7.3926921932120079e-05 -0.0060772812600856322 0 6.9545226644368948e-05 -0.0052786928434623518 0 3.6988221095154526e-05 -0.0056123308489900046 0 6.2946209942169027e-05 -0.0051963102060639671 0 6.9545226644368948e-05 -0.0052786928434623518 0 6.2946209942169027e-05 -0.0051963102060639671 0 7.0189350288372502e-05 -0.004819344406619042 0 4.8433170065926384e-05 -0.0055812676478387939 0 6.2946209942169027e-05 -0.0051963102060639671 0 5.3991279428046387e-05 -0.004813591943411172 0 6.2946209942169027e-05 -0.0051963102060639671 0 7.0189350288372502e-05 -0.004819344406619042 0 5.3991279428046387e-05 -0.004813591943411172 0 4.8433170065926384e-05 -0.0055812676478387939 0 5.3991279428046387e-05 -0.004813591943411172 0 2.0915217905200833e-07 -0.0047111505560613783 0 4.8433170065926384e-05 -0.0055812676478387939 0 2.0915217905200833e-07 -0.0047111505560613783 0 5.5254762915540037e-08 -0.0060531302227694725 0 4.8433170065926384e-05 -0.0055812676478387939 0 5.5254762915540037e-08 -0.0060531302227694725 0 6.318119029288112e-05 -0.0062239664029041051 0 5.5254762915540037e-08 -0.0060531302227694725 0 6.318119029288112e-05 -0.0062239664029041051 0 4.5809218247638072e-07 -0.0073952151462868048 0 2.0472755245341208e-05 -0.0058893560838161043 0 6.318119029288112e-05 -0.0062239664029041051 0 -7.3926921932120079e-05 -0.0060772812600856322 0 6.318119029288112e-05 -0.0062239664029041051 0 5.2310440494401445e-05 -0.0064072310281994525 0 -7.3926921932120079e-05 -0.0060772812600856322 0 -5.5666971144398683e-06 -0.0064949911950555102 0 5.2310440494401445e-05 -0.0064072310281994525 0 5.1044356684141832e-05 -0.0063777158520979486 0 6.318119029288112e-05 -0.0062239664029041051 0 5.2310440494401445e-05 -0.0064072310281994525 0 3.0892746395996172e-05 -0.0068139034053608565 0 -5.5666971144398683e-06 -0.0064949911950555102 0 5.2310440494401445e-05 -0.0064072310281994525 0 -2.1918738332707411e-05 -0.0068678324454723881 0 5.2310440494401445e-05 -0.0064072310281994525 0 -2.1918738332707411e-05 -0.0068678324454723881 0 3.0892746395996172e-05 -0.0068139034053608565 0 -2.1918738332707411e-05 -0.0068678324454723881 0 3.0892746395996172e-05 -0.0068139034053608565 0 -3.2310391102078594e-05 -0.0074245927030748725 0 6.318119029288112e-05 -0.0062239664029041051 0 3.0892746395996172e-05 -0.0068139034053608565 0 4.5809218247638072e-07 -0.0073952151462868048 0 3.0892746395996172e-05 -0.0068139034053608565 0 4.5809218247638072e-07 -0.0073952151462868048 0 -3.2310391102078594e-05 -0.0074245927030748725 0 4.5809218247638072e-07 -0.0073952151462868048 0 -3.2310391102078594e-05 -0.0074245927030748725 0 -1.3911654565886658e-06 -0.0087360844603394834 0 -0.00018105216794919395 -0.0073484034963814454 0 -3.2310391102078594e-05 -0.0074245927030748725 0 -1.3911654565886658e-06 -0.0087360844603394834 0 -0.00037097674769342651 -0.0073922752633111995 0 -0.00018105216794919395 -0.0073484034963814454 0 -1.3911654565886658e-06 -0.0087360844603394834 0 -0.00041127648601539278 -0.0089057943996164648 0 -0.00049814916261805523 -0.0083259690441726871 0 -0.00073781505367188861 -0.0072039138629012966 0 -0.00018105216794919395 -0.0073484034963814454 0 -0.00024356334033839153 -0.0069468762626201603 0 -2.1918738332707411e-05 -0.0068678324454723881 0 -0.00018105216794919395 -0.0073484034963814454 0 -3.2310391102078594e-05 -0.0074245927030748725 0 -0.00043279288412704608 -0.0096752706953401064 0 3.7027141615784417e-05 -0.0097052167914779223 0 0.0001071363015981966 -0.01032875811919865 0 -0.00043279288412704608 -0.0096752706953401064 0 -1.2692460292457842e-06 -0.0087398763980713022 0 3.7027141615784417e-05 -0.0097052167914779223 0 -1.2692460292457842e-06 -0.0087398763980713022 0 3.7027141615784417e-05 -0.0097052167914779223 0 5.8374054282201828e-07 -0.010012165073283471 0 -0.00041127648601539278 -0.0089057943996164648 0 -9.3695388793105838e-08 -0.0087372571131071643 0 -0.00041127648601539278 -0.0089057943996164648 0 6.7876427289064913e-06 -0.010806174548468873 0 -0.00046566731748465598 -0.010781810554237372 0 -0.00048655471854228182 -0.010835071938840615 0 -0.00021448082388870974 -0.010965907068752487 0 -0.00046566731748465598 -0.010781810554237372 0 -0.00018983444682030303 -0.010905695097259875 0 -0.00021448082388870974 -0.010965907068752487 0 -0.00097230936151039321 -0.010431075135829948 0 -0.00082977215220093317 -0.010619511722952914 0 -0.00061158890108058031 -0.010592664884276631 0 -0.00058691527464826033 -0.0092140480402933787 0 -0.00039964793424528486 -0.010965733119213127 0 -5.5666971144398683e-06 -0.0064949911950555102 0 -0.00024356334033839153 -0.0069468762626201603 0 -0.00047100072382688136 -0.0068565714935088897 0 -2.1918738332707411e-05 -0.0068678324454723881 0 -0.00018105216794919395 -0.0073484034963814454 0 -0.00024356334033839153 -0.0069468762626201603 0 -5.5666971144398683e-06 -0.0064949911950555102 0 -2.1918738332707411e-05 -0.0068678324454723881 0 -0.00024356334033839153 -0.0069468762626201603 0 -0.00072606712601154544 -0.0086015869586305808 0 -0.00058691527464826033 -0.0092140480402933787 0 -0.00073781505367188861 -0.0072039138629012966 0 -0.00024356334033839153 -0.0069468762626201603 0 -0.00060682463624543975 -0.0068353756096237468 0 -0.00041127648601539278 -0.0089057943996164648 0 -0.00058691527464826033 -0.0092140480402933787 0 -0.00097230936151039321 -0.010431075135829948 0 -0.0010507329176962699 -0.010637768293991632 0 -0.00082977215220093317 -0.010619511722952914 0 -0.00058691527464826033 -0.0092140480402933787 0 -1.3644142094209913e-05 -0.0077570401349578398 0 -5.5666971144398683e-06 -0.0064949911950555102 0 -0.00047100072382688136 -0.0068565714935088897 0 -0.00027586322077193681 -0.0062210228811133165 0 -0.00035283164902920409 -0.0066219106746266809 0 -1.3644142094209913e-05 -0.0077570401349578398 0 -1.3644142094209913e-05 -0.0077570401349578398 0 0.00026944270994396554 -0.0061169540459951764 0 0.00022918116322460702 -0.0063310891319871086 0 0.00047981134585720303 -0.006610832763297503 0 0.00013197955608159617 -0.0065597791205908645 0 -1.3644142094209913e-05 -0.0077570401349578398 0 -0.00031084074247085877 -0.0083162418684183722 0 -0.0010507329176962699 -0.010637768293991632 0 -0.00082977215220093317 -0.010619511722952914 0 -0.0008288890362308165 -0.010894791354101674 0 -0.00082977215220093317 -0.010619511722952914 0 -0.00069048019621688707 -0.010768239191280737 0 -0.0008288890362308165 -0.010894791354101674 0 -0.0006895179678488338 -0.01067101596334331 0 -0.00082977215220093317 -0.010619511722952914 0 -0.00061158890108058031 -0.010592664884276631 0 -0.0006895179678488338 -0.01067101596334331 0 -0.00082977215220093317 -0.010619511722952914 0 -0.00069048019621688707 -0.010768239191280737 0 -0.00031084074247085877 -0.0083162418684183722 0 -0.00072162629355019376 -0.012959164459036108 0 0.00047981134585720303 -0.006610832763297503 0 0.00013197955608159617 -0.0065597791205908645 0 0.00025787068409314834 -0.0068284997479437833 0 0.00013197955608159617 -0.0065597791205908645 0 0.00011411162302666626 -0.0068900748629097909 0 0.00025787068409314834 -0.0068284997479437833 0 0.00013197955608159617 -0.0065597791205908645 0 -2.0067998923978263e-05 -0.0066550809474305653 0 0.00011411162302666626 -0.0068900748629097909 0 -2.0067998923978263e-05 -0.0066550809474305653 0 -0.00012254939905010777 -0.006445705177657573 0 5.1044356684141832e-05 -0.0063777158520979486 0 0.00013197955608159617 -0.0065597791205908645 0 -2.0067998923978263e-05 -0.0066550809474305653 0 5.1044356684141832e-05 -0.0063777158520979486 0 -2.0067998923978263e-05 -0.0066550809474305653 0 -0.00019769907701848595 -0.0066580739056017113 0 -0.00012254939905010777 -0.006445705177657573 0 -2.0067998923978263e-05 -0.0066550809474305653 0 -0.00019769907701848595 -0.0066580739056017113 0 -0.00015433752878630958 -0.0068634997334965416 0 -0.00041397576599237155 -0.006758206495219082 0 -0.00019769907701848595 -0.0066580739056017113 0 -0.00028512275824866244 -0.0065591681308798094 0 -0.00019769907701848595 -0.0066580739056017113 0 -0.00028512275824866244 -0.0065591681308798094 0 -0.00012254939905010777 -0.006445705177657573 0 -0.00041606451947151589 -0.0063662582302444108 0 -0.00028512275824866244 -0.0065591681308798094 0 -0.00012254939905010777 -0.006445705177657573 0 -0.00012254939905010777 -0.006445705177657573 0 -7.3926921932120079e-05 -0.0060772812600856322 0 5.1044356684141832e-05 -0.0063777158520979486 0 -0.00041606451947151589 -0.0063662582302444108 0 -0.00012254939905010777 -0.006445705177657573 0 -7.3926921932120079e-05 -0.0060772812600856322 0 5.2310440494401445e-05 -0.0064072310281994525 0 -7.3926921932120079e-05 -0.0060772812600856322 0 5.1044356684141832e-05 -0.0063777158520979486 0 3.8791534747558756e-05 -0.0064203694869902263 0 0.00013197955608159617 -0.0065597791205908645 0 5.1044356684141832e-05 -0.0063777158520979486 0 -5.5666971144398683e-06 -0.0064949911950555102 0 3.8791534747558756e-05 -0.0064203694869902263 0 5.1044356684141832e-05 -0.0063777158520979486 0 -2.4743883159257826e-05 -0.011232014660787637 0 7.8560958308289189e-05 -0.011518943117036082 0 -0.00031083105266648014 -0.011482397326715653 0 -2.4743883159257826e-05 -0.011232014660787637 0 0.00019064365354902346 -0.011029082667041988 0 -0.00017798013621601668 -0.011109355256070331 0 -2.4743883159257826e-05 -0.011232014660787637 0 -0.00017798013621601668 -0.011109355256070331 0 -0.00031083105266648014 -0.011482397326715653 0 -2.4743883159257826e-05 -0.011232014660787637 0 7.8560958308289189e-05 -0.011518943117036082 0 0.00010222338847079682 -0.011215506221458992 0 7.8560958308289189e-05 -0.011518943117036082 0 5.6076128752564796e-07 -0.011287566499758175 0 -1.0220288815354855e-06 -0.012559274496164698 0 7.8560958308289189e-05 -0.011518943117036082 0 -1.0220288815354855e-06 -0.012559274496164698 0 -0.00031083105266648014 -0.011482397326715653 0 5.6076128752564796e-07 -0.011287566499758175 0 0.00011393906307400704 -0.011115279505142184 0 0.00012636931498439112 -0.010777364537188939 0 7.8560958308289189e-05 -0.011518943117036082 0 5.6076128752564796e-07 -0.011287566499758175 0 0.00011393906307400704 -0.011115279505142184 0 -2.4743883159257826e-05 -0.011232014660787637 0 0.00010222338847079682 -0.011215506221458992 0 0.00019064365354902346 -0.011029082667041988 0 0.00011393906307400704 -0.011115279505142184 0 0.00010222338847079682 -0.011215506221458992 0 0.00019064365354902346 -0.011029082667041988 0 0.00011393906307400704 -0.011115279505142184 0 0.00019064365354902346 -0.011029082667041988 0 0.00012636931498439112 -0.010777364537188939 0 7.8560958308289189e-05 -0.011518943117036082 0 0.00011393906307400704 -0.011115279505142184 0 0.00010222338847079682 -0.011215506221458992 0 0.00019064365354902346 -0.011029082667041988 0 0.00012255786744313081 -0.01048491591734239 0 0.0001071363015981966 -0.01032875811919865 0 0.00019064365354902346 -0.011029082667041988 0 0.00012636931498439112 -0.010777364537188939 0 0.00012255786744313081 -0.01048491591734239 0 -2.7519855320474096e-05 -0.011019587120200769 0 -0.00018983444682030303 -0.010905695097259875 0 -3.3908937808242231e-05 -0.011047484103352975 0 7.6778229486672492e-05 -0.010984710562562523 0 6.7876427289064913e-06 -0.010806174548468873 0 5.6076128752564796e-07 -0.011287566499758175 0 0.00012636931498439112 -0.010777364537188939 0 5.8374054282201828e-07 -0.010012165073283471 0 0.00012636931498439112 -0.010777364537188939 0 0.00012255786744313081 -0.01048491591734239 0 5.8374054282201828e-07 -0.010012165073283471 0 0.00012255786744313081 -0.01048491591734239 0 6.001867493120433e-05 -0.010052141044421046 0 5.8374054282201828e-07 -0.010012165073283471 0 3.7027141615784417e-05 -0.0097052167914779223 0 6.001867493120433e-05 -0.010052141044421046 0 5.8374054282201828e-07 -0.010012165073283471 0 3.7027141615784417e-05 -0.0097052167914779223 0 6.001867493120433e-05 -0.010052141044421046 0 0.0001071363015981966 -0.01032875811919865 0 -0.00018983444682030303 -0.010905695097259875 0 -0.00021448082388870974 -0.010965907068752487 0 -3.3908937808242231e-05 -0.011047484103352975 0 0.00012255786744313081 -0.01048491591734239 0 6.001867493120433e-05 -0.010052141044421046 0 0.0001071363015981966 -0.01032875811919865 0 -0.0006895179678488338 -0.01067101596334331 0 -0.00061158890108058031 -0.010592664884276631 0 -0.00059033040640443649 -0.010738955752371626 0 -0.0006895179678488338 -0.01067101596334331 0 -0.00069048019621688707 -0.010768239191280737 0 -0.00059033040640443649 -0.010738955752371626 0 -0.00061158890108058031 -0.010592664884276631 0 -0.00059033040640443649 -0.010738955752371626 0 -0.00046396503652421106 -0.010782389600737952 0 -0.00059033040640443649 -0.010738955752371626 0 -0.00052614280970741598 -0.010895620480365527 0 -0.00046396503652421106 -0.010782389600737952 0 -0.00069048019621688707 -0.010768239191280737 0 -0.00059033040640443649 -0.010738955752371626 0 -0.00052614280970741598 -0.010895620480365527 0 -0.00069048019621688707 -0.010768239191280737 0 -0.0008288890362308165 -0.010894791354101674 0 -0.00052614280970741598 -0.010895620480365527 0 -0.0008288890362308165 -0.010894791354101674 0 -0.00052614280970741598 -0.010895620480365527 0 -0.00061281729039377227 -0.011139907507581179 0 -0.00052614280970741598 -0.010895620480365527 0 -0.00030641346345788211 -0.011036647888378416 0 -0.00035438114577675337 -0.010880262278749303 0 -0.00052614280970741598 -0.010895620480365527 0 -0.00030641346345788211 -0.011036647888378416 0 -0.00061281729039377227 -0.011139907507581179 0 -0.00061158890108058031 -0.010592664884276631 0 -0.00046396503652421106 -0.010782389600737952 0 -0.00028095613523623195 -0.010771950518766695 0 -0.00039964793424528486 -0.010965733119213127 0 -0.00017828555759766927 -0.010880671069978925 0 -0.00035438114577675337 -0.010880262278749303 0 -0.00046396503652421106 -0.010782389600737952 0 -0.00028095613523623195 -0.010771950518766695 0 -0.00052614280970741598 -0.010895620480365527 0 -0.00035438114577675337 -0.010880262278749303 0 -0.00046396503652421106 -0.010782389600737952 0 -0.00028095613523623195 -0.010771950518766695 0 -0.00019258251021781226 -0.01089887501942898 0 -0.00014460785465592721 -0.010956732739964141 0 -3.3908937808242231e-05 -0.011047484103352975 0 -8.8647388567339105e-05 -0.011034950839466696 0 -0.00014460785465592721 -0.010956732739964141 0 -2.7519855320474096e-05 -0.011019587120200769 0 -8.8647388567339105e-05 -0.011034950839466696 0 -0.00017798013621601668 -0.011109355256070331 0 -0.00017828555759766927 -0.010880671069978925 0 -0.00014469935956453001 -0.010954725496440802 0 -2.7519855320474096e-05 -0.011019587120200769 0 -3.3908937808242231e-05 -0.011047484103352975 0 -8.8647388567339105e-05 -0.011034950839466696 0 -0.00035438114577675337 -0.010880262278749303 0 -0.00028095613523623195 -0.010771950518766695 0 -0.00023238742255333729 -0.010911041628980454 0 -0.00028095613523623195 -0.010771950518766695 0 -0.00019258251021781226 -0.01089887501942898 0 -0.00023238742255333729 -0.010911041628980454 0 -0.00030641346345788211 -0.011036647888378416 0 -0.00035438114577675337 -0.010880262278749303 0 -0.00023238742255333729 -0.010911041628980454 0 -0.00044712028392227996 -0.014528780333214763 0 -0.00038892542543890636 -0.014370672789171021 0 -0.00030641346345788211 -0.011036647888378416 0 -0.00023238742255333729 -0.010911041628980454 0 -0.00011863176943040698 -0.010905520828938994 0 -0.00056130305276129498 -0.017700880144669875 0 -0.00057552584064854569 -0.017806104181792737 0 -0.00056894884480019605 -0.017704566349073806 0 -0.00019258251021781226 -0.01089887501942898 0 -0.00023238742255333729 -0.010911041628980454 0 -0.00011863176943040698 -0.010905520828938994 0 -0.00057552584064854569 -0.017806104181792737 0 -0.00057260069410721033 -0.017814251628847342 0 -0.00034980533150809416 -0.017949561445406079 0 -0.00057552584064854569 -0.017806104181792737 0 -0.00057260069410721033 -0.017814251628847342 0 -0.00056894884480019605 -0.017704566349073806 0 -0.00019258251021781226 -0.01089887501942898 0 -0.00011863176943040698 -0.010905520828938994 0 -0.00014460785465592721 -0.010956732739964141 0 -0.0011294617344080795 -0.018435373462514792 0 -0.00058105177891570154 -0.018355489720765807 0 -0.00082534385447899481 -0.01859839766223478 0 7.6778229486672492e-05 -0.010984710562562523 0 -0.00015406816706567148 -0.011099043387616364 0 -8.8647388567339105e-05 -0.011034950839466696 0 -0.00014460785465592721 -0.010956732739964141 0 -0.00017798013621601668 -0.011109355256070331 0 -0.0013150170253332222 -0.019561227529327114 0 -0.0010356606921435177 -0.019148770050947939 0 -0.00084270826206616853 -0.019707874061018517 0 -0.0013150170253332222 -0.019561227529327114 0 -0.0013557064073048055 -0.019230658025259528 0 -0.0010356606921435177 -0.019148770050947939 0 -0.0010356606921435177 -0.019148770050947939 0 -0.0010627673001251661 -0.018758839135699298 0 -0.00081756119601932627 -0.018846482767223404 0 -0.0010627673001251661 -0.018758839135699298 0 -0.00082534385447899481 -0.01859839766223478 0 -0.00081756119601932627 -0.018846482767223404 0 -0.0011294617344080795 -0.018435373462514792 0 -0.0010627673001251661 -0.018758839135699298 0 -0.00082534385447899481 -0.01859839766223478 0 -0.0011294617344080795 -0.018435373462514792 0 -0.0010627673001251661 -0.018758839135699298 0 -0.0013327554065465943 -0.018888092643109849 0 -0.0010356606921435177 -0.019148770050947939 0 -0.0010627673001251661 -0.018758839135699298 0 -0.0013327554065465943 -0.018888092643109849 0 -0.0013557064073048055 -0.019230658025259528 0 -0.0010356606921435177 -0.019148770050947939 0 -0.0013327554065465943 -0.018888092643109849 0 -0.0011294617344080795 -0.018435373462514792 0 -0.0013327554065465943 -0.018888092643109849 0 -0.0017536385091956985 -0.018854103076922136 0 -0.0013557064073048055 -0.019230658025259528 0 -0.0013327554065465943 -0.018888092643109849 0 -0.0015730195992862551 -0.019113600415875918 0 -0.0013327554065465943 -0.018888092643109849 0 -0.0015730195992862551 -0.019113600415875918 0 -0.0017536385091956985 -0.018854103076922136 0 -0.00082421552488702793 -0.018124086965063069 0 -0.0011394280210303977 -0.018233865572239504 0 -0.0015730195992862551 -0.019113600415875918 0 -0.0017536385091956985 -0.018854103076922136 0 -0.0018589951264247619 -0.019242070864954903 0 -0.0015730195992862551 -0.019113600415875918 0 -0.0015729192037823166 -0.019405435525432276 0 -0.0018589951264247619 -0.019242070864954903 0 -0.0015729192037823166 -0.019405435525432276 0 -0.0018667116034741509 -0.019487147796042884 0 -0.0018589951264247619 -0.019242070864954903 0 -0.0013150170253332222 -0.019561227529327114 0 -0.0013557064073048055 -0.019230658025259528 0 -0.0015729192037823166 -0.019405435525432276 0 -0.0013557064073048055 -0.019230658025259528 0 -0.0015730195992862551 -0.019113600415875918 0 -0.0015729192037823166 -0.019405435525432276 0 -0.0013150170253332222 -0.019561227529327114 0 -0.0015729192037823166 -0.019405435525432276 0 -0.0016130835650883892 -0.019713178040008446 0 -0.0015729192037823166 -0.019405435525432276 0 -0.0018667116034741509 -0.019487147796042884 0 -0.0016130835650883892 -0.019713178040008446 0 -0.0018667116034741509 -0.019487147796042884 0 -0.0018347343853518034 -0.019750103528744664 0 -0.0016130835650883892 -0.019713178040008446 0 -0.0020684385216340321 -0.019425908797486395 0 -0.0018589951264247619 -0.019242070864954903 0 -0.0023009295859033993 -0.019184933147254273 0 -0.0018667116034741509 -0.019487147796042884 0 -0.002106488736693321 -0.01962722090192336 0 -0.0018347343853518034 -0.019750103528744664 0 -0.0018667116034741509 -0.019487147796042884 0 -0.002106488736693321 -0.01962722090192336 0 -0.0020684385216340321 -0.019425908797486395 0 -0.002106488736693321 -0.01962722090192336 0 -0.0021879353255635438 -0.019453682620713179 0 -0.0020684385216340321 -0.019425908797486395 0 -0.0019411539529333153 -0.019139097780229455 0 -0.0013785723001976933 -0.018896206519880946 0 -0.0021879353255635438 -0.019453682620713179 0 -0.0020684385216340321 -0.019425908797486395 0 -0.0022027593292758742 -0.019247385830430883 0 -0.0018667116034741509 -0.019487147796042884 0 -0.0020684385216340321 -0.019425908797486395 0 -0.0018589951264247619 -0.019242070864954903 0 -0.0017536385091956985 -0.018854103076922136 0 -0.0018589951264247619 -0.019242070864954903 0 -0.0023009295859033993 -0.019184933147254273 0 -0.00056130305276129498 -0.017700880144669875 0 -0.00056894884480019605 -0.017704566349073806 0 -0.00056133317563117769 -0.017662113247644919 0 -0.0011394280210303977 -0.018233865572239504 0 -0.0013785723001976933 -0.018896206519880946 0 -0.00044712028392227996 -0.014528780333214763 0 -0.00072162629355019376 -0.012959164459036108 0 -0.00056130305276129498 -0.017700880144669875 0 -0.00056133317563117769 -0.017662113247644919 0 -0.00055610278943097268 -0.017644776032379135 0 -0.0013785723001976933 -0.018896206519880946 0 -0.00072162629355019376 -0.012959164459036108 0 -0.0014327480190753615 -0.018755278563628765 0 -0.0020311365353761325 -0.018118816983512566 0 -0.0022056946180944829 -0.018745787146468119 0 -0.0020311365353761325 -0.018118816983512566 0 -0.0022056946180944829 -0.018745787146468119 0 -0.0026810482255062106 -0.018784892931692627 0 -0.0014327480190753615 -0.018755278563628765 0 -0.0022056946180944829 -0.018745787146468119 0 -0.0026695206715679994 -0.019323417963625147 0 -0.0022027593292758742 -0.019247385830430883 0 -0.0023402214606795492 -0.019511034761802423 0 -0.0026695206715679994 -0.019323417963625147 0 -0.0013785723001976933 -0.018896206519880946 0 -0.0027759614958487908 -0.01937663538894174 0 -0.0021879353255635438 -0.019453682620713179 0 -0.0022027593292758742 -0.019247385830430883 0 -0.0023402214606795492 -0.019511034761802423 0 -0.002106488736693321 -0.01962722090192336 0 -0.0021879353255635438 -0.019453682620713179 0 -0.0023402214606795492 -0.019511034761802423 0 -0.0020386335928121975 -0.019487182408253451 0 -0.0028543133441978476 -0.019515926431131873 0 -0.0018980040440303033 -0.019215111693100612 0 -0.0025312202112141883 -0.018399199763899959 0 -0.0023518765692625908 -0.019006721482537105 0 -0.0021413695635523625 -0.01940072618308698 0 -0.0018980040440303033 -0.019215111693100612 0 -0.0023518765692625908 -0.019006721482537105 0 -0.0023402214606795492 -0.019511034761802423 0 -0.0021525650026550853 -0.019917607268066479 0 -0.0027801249005230538 -0.019503902356363505 0 -0.002106488736693321 -0.01962722090192336 0 -0.0023402214606795492 -0.019511034761802423 0 -0.0021525650026550853 -0.019917607268066479 0 -0.0021413695635523625 -0.01940072618308698 0 -0.0026526850460629869 -0.019263800515394558 0 -0.0021461112928130282 -0.01977808956862135 0 -0.0021413695635523625 -0.01940072618308698 0 -0.0018584075621097872 -0.019818209397079244 0 -0.0021461112928130282 -0.01977808956862135 0 -0.0021413695635523625 -0.01940072618308698 0 -0.0018584075621097872 -0.019818209397079244 0 -0.0018980040440303033 -0.019215111693100612 0 -0.0020386335928121975 -0.019487182408253451 0 -0.0016764671373360215 -0.020064373161941797 0 -0.0018584075621097872 -0.019818209397079244 0 -0.0018980040440303033 -0.019215111693100612 0 -0.0016442187475082734 -0.020122738966828976 0 -0.0021525650026550853 -0.019917607268066479 0 -0.0018347343853518034 -0.019750103528744664 0 -0.0016173446052856276 -0.020104363339115146 0 -0.002106488736693321 -0.01962722090192336 0 -0.0021525650026550853 -0.019917607268066479 0 -0.0018347343853518034 -0.019750103528744664 0 -0.0021525650026550853 -0.019917607268066479 0 -0.0016173446052856276 -0.020104363339115146 0 -0.0016442187475082734 -0.020122738966828976 0 -0.0018347343853518034 -0.019750103528744664 0 -0.0016130835650883892 -0.019713178040008446 0 -0.0016173446052856276 -0.020104363339115146 0 -0.0013150170253332222 -0.019561227529327114 0 -0.0016130835650883892 -0.019713178040008446 0 -0.0016173446052856276 -0.020104363339115146 0 -0.0018584075621097872 -0.019818209397079244 0 -0.0016442187475082734 -0.020122738966828976 0 -0.0017221252224120657 -0.02008891989837153 0 -0.0016442187475082734 -0.020122738966828976 0 -0.0016835728038304045 -0.020235055052898826 0 -0.0017221252224120657 -0.02008891989837153 0 -0.0016173446052856276 -0.020104363339115146 0 -0.0016442187475082734 -0.020122738966828976 0 -0.00170277693612596 -0.020408613306989919 0 -0.0016442187475082734 -0.020122738966828976 0 -0.00170277693612596 -0.020408613306989919 0 -0.0016835728038304045 -0.020235055052898826 0 -0.0013150170253332222 -0.019561227529327114 0 -0.0016173446052856276 -0.020104363339115146 0 -0.00084270826206616853 -0.019707874061018517 0 -0.0016173446052856276 -0.020104363339115146 0 -0.00170277693612596 -0.020408613306989919 0 -0.0017240096704973441 -0.020596999496949164 0 -0.001589467595810743 -0.02014425431373117 0 -0.0013269026771549877 -0.020150902426138668 0 0.00014091019780537384 -0.0070761203748057827 0 -0.00021246730606324743 -0.0071452427447501266 0 7.3316648710700745e-05 -0.0070266318201599115 0 -0.0034212182221817775 -0.018137917263897289 0 -0.0040850134525619777 -0.017870828987398741 0 -0.0033988384608321471 -0.018495047064044829 0 -0.00021246730606324743 -0.0071452427447501266 0 -8.7366352959448402e-05 -0.0070214059009946032 0 7.3316648710700745e-05 -0.0070266318201599115 0 -0.001966065677089342 -0.013931321748047187 0 -0.0024790320624000018 -0.0084906596971290795 0 -0.0024790320624000018 -0.0084906596971290795 0 -0.0033275977039503705 -0.021096813867417186 0 -0.0033643188499283554 -0.017740886678298054 0 -0.0034212182221817775 -0.018137917263897289 0 -0.0040850134525619777 -0.017870828987398741 0 -0.00021246730606324743 -0.0071452427447501266 0 -0.00015433752878630958 -0.0068634997334965416 0 -8.7366352959448402e-05 -0.0070214059009946032 0 -0.00041397576599237155 -0.006758206495219082 0 -0.00021246730606324743 -0.0071452427447501266 0 -0.00015433752878630958 -0.0068634997334965416 0 -0.00066013566756609567 -0.0058422597528025796 0 -0.0024790320624000018 -0.0084906596971290795 0 -0.00041397576599237155 -0.006758206495219082 0 -0.00019769907701848595 -0.0066580739056017113 0 -0.00015433752878630958 -0.0068634997334965416 0 -2.0067998923978263e-05 -0.0066550809474305653 0 -2.04517386889614e-05 -0.0068834252510722779 0 0.00011411162302666626 -0.0068900748629097909 0 -2.0067998923978263e-05 -0.0066550809474305653 0 -0.00015433752878630958 -0.0068634997334965416 0 -2.04517386889614e-05 -0.0068834252510722779 0 -0.00015433752878630958 -0.0068634997334965416 0 -2.04517386889614e-05 -0.0068834252510722779 0 -8.7366352959448402e-05 -0.0070214059009946032 0 2.0852141248508112e-05 -0.0069547412352194407 0 -8.7366352959448402e-05 -0.0070214059009946032 0 7.3316648710700745e-05 -0.0070266318201599115 0 -2.04517386889614e-05 -0.0068834252510722779 0 2.0852141248508112e-05 -0.0069547412352194407 0 -8.7366352959448402e-05 -0.0070214059009946032 0 0.00013627703763333812 -0.0070724008520268635 0 7.3316648710700745e-05 -0.0070266318201599115 0 0.00011411162302666626 -0.0068900748629097909 0 -0.001966065677089342 -0.013931321748047187 0 -0.0020148154507920566 -0.012222317798535142 0 2.0852141248508112e-05 -0.0069547412352194407 0 7.3316648710700745e-05 -0.0070266318201599115 0 0.00011411162302666626 -0.0068900748629097909 0 -2.04517386889614e-05 -0.0068834252510722779 0 2.0852141248508112e-05 -0.0069547412352194407 0 0.00011411162302666626 -0.0068900748629097909 0 0.00013627703763333812 -0.0070724008520268635 0 0.00025787068409314834 -0.0068284997479437833 0 0.00042427610886717267 -0.0070054296895146004 0 -0.001966065677089342 -0.013931321748047187 0 -0.0012536318449602711 -0.012663280258364842 0 0.00013627703763333812 -0.0070724008520268635 0 0.00011411162302666626 -0.0068900748629097909 0 0.00025787068409314834 -0.0068284997479437833 0 0.00047981134585720303 -0.006610832763297503 0 0.00025787068409314834 -0.0068284997479437833 0 0.00042427610886717267 -0.0070054296895146004 0 -0.00072162629355019376 -0.012959164459036108 0 -0.0012536318449602711 -0.012663280258364842 0 -0.0020311365353761325 -0.018118816983512566 0 -0.0030835635115989703 -0.018475004803515244 0 -0.0026810482255062106 -0.018784892931692627 0 0.00047981134585720303 -0.006610832763297503 0 0.0007341798641843344 -0.0069514576987786359 0 0.00042427610886717267 -0.0070054296895146004 0 -0.0030835635115989703 -0.018475004803515244 0 -0.0026810482255062106 -0.018784892931692627 0 -0.0027801249005230538 -0.019503902356363505 0 -0.0023402214606795492 -0.019511034761802423 0 -0.0027801249005230538 -0.019503902356363505 0 -0.0026695206715679994 -0.019323417963625147 0 -0.0022056946180944829 -0.018745787146468119 0 -0.0026810482255062106 -0.018784892931692627 0 -0.0026695206715679994 -0.019323417963625147 0 -0.0026810482255062106 -0.018784892931692627 0 -0.0027801249005230538 -0.019503902356363505 0 -0.0026695206715679994 -0.019323417963625147 0 -0.001966065677089342 -0.013931321748047187 0 -0.0028543133441978476 -0.019515926431131873 0 -0.0033643188499283554 -0.017740886678298054 0 -0.0025312202112141883 -0.018399199763899959 0 -0.003113142287696791 -0.018302539754562249 0 -0.0040538756389559595 -0.018728100678766093 0 -0.0030835635115989703 -0.018475004803515244 0 -0.0027801249005230538 -0.019503902356363505 0 -0.0033643188499283554 -0.017740886678298054 0 -0.0034212182221817775 -0.018137917263897289 0 -0.003113142287696791 -0.018302539754562249 0 -0.0034212182221817775 -0.018137917263897289 0 -0.003113142287696791 -0.018302539754562249 0 -0.0033988384608321471 -0.018495047064044829 0 -0.0025312202112141883 -0.018399199763899959 0 -0.003113142287696791 -0.018302539754562249 0 -0.0028535032625680839 -0.01872311933028626 0 -0.003113142287696791 -0.018302539754562249 0 -0.0028535032625680839 -0.01872311933028626 0 -0.0033988384608321471 -0.018495047064044829 0 -0.0028535032625680839 -0.01872311933028626 0 -0.0031061971774185466 -0.019105127919803032 0 -0.0033988384608321471 -0.018495047064044829 0 -0.0025312202112141883 -0.018399199763899959 0 -0.0025896951678938194 -0.018821971895160515 0 -0.0023518765692625908 -0.019006721482537105 0 -0.0025312202112141883 -0.018399199763899959 0 -0.0028535032625680839 -0.01872311933028626 0 -0.0025896951678938194 -0.018821971895160515 0 -0.0028535032625680839 -0.01872311933028626 0 -0.0025896951678938194 -0.018821971895160515 0 -0.0026526850460629869 -0.019263800515394558 0 -0.0025896951678938194 -0.018821971895160515 0 -0.0023518765692625908 -0.019006721482537105 0 -0.0026526850460629869 -0.019263800515394558 0 -0.0021413695635523625 -0.01940072618308698 0 -0.0023518765692625908 -0.019006721482537105 0 -0.0026526850460629869 -0.019263800515394558 0 -0.0026526850460629869 -0.019263800515394558 0 -0.0031061971774185466 -0.019105127919803032 0 -0.0029575407464026062 -0.019838051498222795 0 -0.002019742493246472 -0.012537841106375843 0 -0.0012300308295845703 -0.013122425504188115 0 -0.0031061971774185466 -0.019105127919803032 0 -0.0037169905201989012 -0.019005173437619653 0 -0.0029575407464026062 -0.019838051498222795 0 -0.0028535032625680839 -0.01872311933028626 0 -0.0026526850460629869 -0.019263800515394558 0 -0.0031061971774185466 -0.019105127919803032 0 -0.0017131143511991897 -0.0053982735022174841 0 -0.0011563676427947317 -0.0039856682202751769 0 -0.00033011862997478215 -0.0052038799697609042 0 -0.0031061971774185466 -0.019105127919803032 0 -0.0037169905201989012 -0.019005173437619653 0 -0.0033988384608321471 -0.018495047064044829 0 -0.0024790320624000018 -0.0084906596971290795 0 -0.002019742493246472 -0.012537841106375843 0 -0.0047071169544573412 -0.017236284486583729 0 -0.0037169905201989012 -0.019005173437619653 0 -0.0033988384608321471 -0.018495047064044829 0 -0.0017131143511991897 -0.0053982735022174841 0 -0.00033011862997478215 -0.0052038799697609042 0 -0.00093709007200716446 -0.0067045678721190391 0 -0.00093709007200716446 -0.0067045678721190391 0 -0.0014091934869008471 -0.0081179641283203458 0 -2.4855279186954014e-05 -0.0079700418284351267 0 -0.00093709007200716446 -0.0067045678721190391 0 -0.0014091934869008471 -0.0081179641283203458 0 -0.0022613676128050574 -0.0068434975312443415 0 -0.00093709007200716446 -0.0067045678721190391 0 0.00054238323589441589 -0.00661657758114414 0 -2.4855279186954014e-05 -0.0079700418284351267 0 -0.00033011862997478215 -0.0052038799697609042 0 -0.00093709007200716446 -0.0067045678721190391 0 0.00054238323589441589 -0.00661657758114414 0 -0.0026526850460629869 -0.019263800515394558 0 -0.0024465002491545272 -0.01990829359101862 0 -0.0021461112928130282 -0.01977808956862135 0 -0.0026526850460629869 -0.019263800515394558 0 -0.0029575407464026062 -0.019838051498222795 0 -0.0024465002491545272 -0.01990829359101862 0 -0.0029575407464026062 -0.019838051498222795 0 -0.0024465002491545272 -0.01990829359101862 0 -0.0023499897265148173 -0.020298144165475544 0 -0.0024465002491545272 -0.01990829359101862 0 -0.0023499897265148173 -0.020298144165475544 0 -0.0021627284738183548 -0.020104447312512836 0 -0.0012300308295845703 -0.013122425504188115 0 -0.00051031737988083657 -0.014220091227297029 0 0.00054238323589441589 -0.00661657758114414 0 0.0013764966866438662 -0.0081116557827874483 0 -2.4855279186954014e-05 -0.0079700418284351267 0 0.0013764966866438662 -0.0081116557827874483 0 0.00092957112329002404 -0.0093854297742249262 0 -2.4855279186954014e-05 -0.0079700418284351267 0 0.0013764966866438662 -0.0081116557827874483 0 0.00092957112329002404 -0.0093854297742249262 0 0.0021877588791594234 -0.0096492690481270824 0 -0.00051031737988083657 -0.014220091227297029 0 0.00022937208598334321 -0.014823293843548111 0 0.00092957112329002404 -0.0093854297742249262 0 -0.00047399545290524033 -0.0093329775907963798 0 -2.4855279186954014e-05 -0.0079700418284351267 0 -0.00068184808584739645 -0.0081946665046866464 0 -0.0015935983712561225 -0.0071080959433551111 0 -0.00088924821300658907 -0.006963314832287011 0 -0.0019269646585687175 -0.0069701319489506742 0 -0.0017964341131984443 -0.0060852353719343848 0 -0.00047399545290524033 -0.0093329775907963798 0 -0.0014091934869008471 -0.0081179641283203458 0 -2.4855279186954014e-05 -0.0079700418284351267 0 -0.0017095285502217164 -0.020250620337831999 0 -0.0017111334203933392 -0.020374981700751287 0 -0.0017416903220617687 -0.020234926198958818 0 -0.0017095285502217164 -0.020250620337831999 0 -0.0017111334203933392 -0.020374981700751287 0 -0.0017093358916406602 -0.020197670247321144 0 -0.0017095285502217164 -0.020250620337831999 0 -0.0017262982043606922 -0.020247773229257492 0 -0.0017416903220617687 -0.020234926198958818 0 -0.0017095285502217164 -0.020250620337831999 0 -0.0017417425140908108 -0.020231980132061286 0 -0.0017262982043606922 -0.020247773229257492 0 -0.0017095285502217164 -0.020250620337831999 0 -0.0017093358916406602 -0.020197670247321144 0 -0.0017417425140908108 -0.020231980132061286 0 -0.00170277693612596 -0.020408613306989919 0 -0.0017111334203933392 -0.020374981700751287 0 -0.0016835728038304045 -0.020235055052898826 0 -0.0017111334203933392 -0.020374981700751287 0 -0.0016835728038304045 -0.020235055052898826 0 -0.0017093358916406602 -0.020197670247321144 0 -0.0017221252224120657 -0.02008891989837153 0 -0.0017093358916406602 -0.020197670247321144 0 -0.001871899350966436 -0.02008824581319359 0 -0.0016835728038304045 -0.020235055052898826 0 -0.0017221252224120657 -0.02008891989837153 0 -0.0017093358916406602 -0.020197670247321144 0 -0.0017093358916406602 -0.020197670247321144 0 -0.0018171855110516247 -0.020217621647327336 0 -0.001871899350966436 -0.02008824581319359 0 -0.0017093358916406602 -0.020197670247321144 0 -0.0017417425140908108 -0.020231980132061286 0 -0.0018171855110516247 -0.020217621647327336 0 -0.0018171855110516247 -0.020217621647327336 0 -0.001871899350966436 -0.02008824581319359 0 -0.0019727509105057816 -0.02023665036278624 0 -0.001871899350966436 -0.02008824581319359 0 -0.0021627284738183548 -0.020104447312512836 0 -0.0019727509105057816 -0.02023665036278624 0 -0.0018584075621097872 -0.019818209397079244 0 -0.001871899350966436 -0.02008824581319359 0 -0.0021461112928130282 -0.01977808956862135 0 -0.0018584075621097872 -0.019818209397079244 0 -0.0017221252224120657 -0.02008891989837153 0 -0.001871899350966436 -0.02008824581319359 0 -0.0024465002491545272 -0.01990829359101862 0 -0.0021461112928130282 -0.01977808956862135 0 -0.0021627284738183548 -0.020104447312512836 0 -0.001871899350966436 -0.02008824581319359 0 -0.0021461112928130282 -0.01977808956862135 0 -0.0021627284738183548 -0.020104447312512836 0 -0.0021627284738183548 -0.020104447312512836 0 -0.0021354757851175586 -0.020305144471944214 0 -0.0019727509105057816 -0.02023665036278624 0 -0.0023499897265148173 -0.020298144165475544 0 -0.0021354757851175586 -0.020305144471944214 0 -0.0019920609382288209 -0.020223776871810189 0 -0.0023499897265148173 -0.020298144165475544 0 -0.0021627284738183548 -0.020104447312512836 0 -0.0021354757851175586 -0.020305144471944214 0 -0.0021354757851175586 -0.020305144471944214 0 -0.0019920609382288209 -0.020223776871810189 0 -0.0020901592508669751 -0.020331080017773097 0 -0.0019920609382288209 -0.020223776871810189 0 -0.0020901592508669751 -0.020331080017773097 0 -0.002255647509637494 -0.020083083795118185 0 -0.0021354757851175586 -0.020305144471944214 0 -0.0020901592508669751 -0.020331080017773097 0 -0.0019880437751191235 -0.020320349263659644 0 -0.0020957567110079984 -0.020375854710058778 0 -0.0022186021707822478 -0.020090073130867036 0 -0.0019574263958461726 -0.020401869582744557 0 -0.001873428004998959 -0.020319506478223857 0 -0.0018794282298068706 -0.020516979122533769 0 -0.0020901592508669751 -0.020331080017773097 0 -0.0026142359815782674 -0.020030945643746783 0 -0.002255647509637494 -0.020083083795118185 0 -0.0020901592508669751 -0.020331080017773097 0 -0.0019574263958461726 -0.020401869582744557 0 -0.0018794282298068706 -0.020516979122533769 0 -0.0020901592508669751 -0.020331080017773097 0 -0.0019880437751191235 -0.020320349263659644 0 -0.0019574263958461726 -0.020401869582744557 0 -0.0019880437751191235 -0.020320349263659644 0 -0.0019574263958461726 -0.020401869582744557 0 -0.001873428004998959 -0.020319506478223857 0 -0.0018171855110516247 -0.020217621647327336 0 -0.0019727509105057816 -0.02023665036278624 0 -0.001873428004998959 -0.020319506478223857 0 -0.0019880437751191235 -0.020320349263659644 0 -0.0019727509105057816 -0.02023665036278624 0 -0.001873428004998959 -0.020319506478223857 0 -0.0021354757851175586 -0.020305144471944214 0 -0.0019880437751191235 -0.020320349263659644 0 -0.0019727509105057816 -0.02023665036278624 0 -0.0018171855110516247 -0.020217621647327336 0 -0.0017808570038978884 -0.020260766686283002 0 -0.001873428004998959 -0.020319506478223857 0 -0.0017417425140908108 -0.020231980132061286 0 -0.0018171855110516247 -0.020217621647327336 0 -0.0017808570038978884 -0.020260766686283002 0 -0.0017808570038978884 -0.020260766686283002 0 -0.0017613781214488944 -0.020308142305034464 0 -0.0017262982043606922 -0.020247773229257492 0 -0.0017417425140908108 -0.020231980132061286 0 -0.0017808570038978884 -0.020260766686283002 0 -0.0017262982043606922 -0.020247773229257492 0 -0.0017808570038978884 -0.020260766686283002 0 -0.0017613781214488944 -0.020308142305034464 0 -0.001873428004998959 -0.020319506478223857 0 -0.001873428004998959 -0.020319506478223857 0 -0.0017689771609537583 -0.020393680431239711 0 -0.0018700478942803988 -0.020499905919709356 0 -0.001835174197931488 -0.020494396283278322 0 -0.0022186021707822478 -0.020090073130867036 0 -0.0019919625048589501 -0.020225707307298179 0 -0.0020149453767304574 -0.020192287690703279 0 -0.0019463609108553829 -0.020175848676723944 0 -0.0018675093251890528 -0.020288011241019692 0 -0.0022186021707822478 -0.020090073130867036 0 -0.0017613781214488944 -0.020308142305034464 0 -0.001873428004998959 -0.020319506478223857 0 -0.0017689771609537583 -0.020393680431239711 0 -0.0017613781214488944 -0.020308142305034464 0 -0.0017689771609537583 -0.020393680431239711 0 -0.0016821964145584726 -0.020298357580349979 0 -0.0018675093251890528 -0.020288011241019692 0 -0.0018450037619277401 -0.020469436239171662 0 -0.0019919625048589501 -0.020225707307298179 0 -0.002030936067685357 -0.020223436312737222 0 -0.0020295914462332264 -0.020266140563089539 0 -0.002030936067685357 -0.020223436312737222 0 -0.0020295914462332264 -0.020266140563089539 0 -0.002083655892572272 -0.020201543331765548 0 -0.002030936067685357 -0.020223436312737222 0 -0.0020149453767304574 -0.020192287690703279 0 -0.002083655892572272 -0.020201543331765548 0 -0.0019919625048589501 -0.020225707307298179 0 -0.002030936067685357 -0.020223436312737222 0 -0.0020149453767304574 -0.020192287690703279 0 -0.0017316809433507714 -0.020240467539206667 0 -0.0017262982043606922 -0.020247773229257492 0 -0.0017416903220617687 -0.020234926198958818 0 -0.0017613781214488944 -0.020308142305034464 0 -0.0016821964145584726 -0.020298357580349979 0 -0.0017262982043606922 -0.020247773229257492 0 -0.0018450037619277401 -0.020469436239171662 0 -0.0018014329398792787 -0.020318262434592702 0 -0.0018450037619277401 -0.020469436239171662 0 -0.0017171359772032717 -0.020465481724109919 0 -0.0026563256855074943 -0.01904698474124867 0 -0.0025797753868549173 -0.018972883683860256 0 -0.0026879459142963476 -0.01883498426952598 0 -0.0020336190532188065 -0.020104098038909907 0 -0.0020665035741455379 -0.020150783136258562 0 -0.0021082267249678092 -0.020106868116435774 0 -0.0026563256855074943 -0.01904698474124867 0 -0.0025362903159527835 -0.019069594558307208 0 -0.0025797753868549173 -0.018972883683860256 0 -0.0020665035741455379 -0.020150783136258562 0 -0.0020149453767304574 -0.020192287690703279 0 -0.0021122940075754661 -0.020195435315488945 0 -0.0020336190532188065 -0.020104098038909907 0 -0.0020665035741455379 -0.020150783136258562 0 -0.0020149453767304574 -0.020192287690703279 0 -0.0021178895402696463 -0.020149811720417674 0 -0.001844179044490115 -0.020493714536415172 0 -0.0020336190532188065 -0.020104098038909907 0 -0.0020149453767304574 -0.020192287690703279 0 -0.0019463609108553829 -0.020175848676723944 0 -0.0027089968671825271 -0.020145335513608489 0 -0.0027643523724414825 -0.019381587385113901 0 -0.0025410463788758512 -0.019782973990551393 0 -0.0026563256855074943 -0.01904698474124867 0 -0.0024396250774954813 -0.019230064997535275 0 -0.0025362903159527835 -0.019069594558307208 0 -0.0023318129842440677 -0.019539725245642493 0 -0.0022186021707822478 -0.020090073130867036 0 -0.0022186021707822478 -0.020090073130867036 0 -0.0027152782207419059 -0.018550029655745662 0 -0.0024396250774954813 -0.019230064997535275 0 -0.0024427687226544078 -0.019038500848727238 0 -0.0025362903159527835 -0.019069594558307208 0 -0.0027152782207419059 -0.018550029655745662 0 -0.002588703773820528 -0.018809033125190451 0 -0.0024541544107063991 -0.01903577386582923 0 -0.0025797753868549173 -0.018972883683860256 0 -0.0025631620856769737 -0.018880371623101595 0 -0.0024541544107063991 -0.01903577386582923 0 -0.0025362903159527835 -0.019069594558307208 0 -0.0025797753868549173 -0.018972883683860256 0 -0.0021762534596894796 -0.017091605472053267 0 -0.0021229784442061755 -0.017072081444570283 0 -0.0021786745092576575 -0.016998504051578631 0 -0.002240880579139206 -0.01937568570607285 0 -0.0023726710645713086 -0.019729887081307136 0 -0.0025410463788758512 -0.019782973990551393 0 -0.0027152782207419059 -0.018550029655745662 0 -0.00081062498043972054 -0.015910477357195009 0 -0.0027643523724414825 -0.019381587385113901 0 -0.0021197082381895372 -0.019144047211667337 0 -0.0025410463788758512 -0.019782973990551393 0 -0.00081062498043972054 -0.015910477357195009 0 -0.0030944994284791863 -0.020528384204032819 0 -0.0019920609382288209 -0.020223776871810189 0 -0.002240880579139206 -0.01937568570607285 0 -0.0023726710645713086 -0.019729887081307136 0 -0.0019920609382288209 -0.020223776871810189 0 -0.0023726710645713086 -0.019729887081307136 0 -0.002255647509637494 -0.020083083795118185 0 -0.0022186021707822478 -0.020090073130867036 0 -0.0024187432824113496 -0.019891469382668132 0 -0.0027089968671825271 -0.020145335513608489 0 -0.0023726710645713086 -0.019729887081307136 0 -0.0025410463788758512 -0.019782973990551393 0 -0.0026142359815782674 -0.020030945643746783 0 -0.0023726710645713086 -0.019729887081307136 0 -0.002255647509637494 -0.020083083795118185 0 0.0021877588791594234 -0.0096492690481270824 0 0.0029604294930976544 -0.011182128698914461 0 0.0020039001634781371 -0.010721544060308492 0 0.00022937208598334321 -0.014823293843548111 0 -0.00081062498043972054 -0.015910477357195009 0 -0.00081062498043972054 -0.015910477357195009 0 -0.00025682948281515448 -0.012402542296892381 0 0.0029604294930976544 -0.011182128698914461 0 0.0020039001634781371 -0.010721544060308492 0 0.0014499762523252086 -0.011642134658308493 0 -0.00081062498043972054 -0.015910477357195009 0 -0.0026330249402357004 -0.01648215628111363 0 -0.0012364060034606959 -0.014941155731223373 0 -0.0012526468053935939 -0.014954658796041936 0 -0.0012548213016290004 -0.014932121075357414 0 -0.0026330249402357004 -0.01648215628111363 0 -0.0031989657001747665 -0.016868896214075203 0 -0.003867894275912667 -0.016921066678856889 0 -0.0037661441641143765 -0.016755523333890857 0 -0.004027221847050109 -0.016755382505902697 0 -0.0026330249402357004 -0.01648215628111363 0 -0.0037525325433491385 -0.01673880436357662 0 -0.0022970682478657095 -0.016982346749122246 0 -0.0022350897959838127 -0.016993867832676465 0 -0.0022414895339244387 -0.017045436386499004 0 -0.0022350897959838127 -0.016993867832676465 0 -0.0021812612162929045 -0.016986888090441316 0 -0.0022414895339244387 -0.017045436386499004 0 -0.0022350897959838127 -0.016993867832676465 0 -0.0022010555992066395 -0.016982561993421907 0 -0.0021812612162929045 -0.016986888090441316 0 -0.0022010555992066395 -0.016982561993421907 0 -0.0022095829606761917 -0.016938914683547125 0 -0.0021786745092576575 -0.016998504051578631 0 -0.00081062498043972054 -0.015910477357195009 0 -0.0024346768104488983 -0.017249961021171375 0 -0.0022216297970654888 -0.016870682879687095 0 -0.0022095829606761917 -0.016938914683547125 0 -0.0021786745092576575 -0.016998504051578631 0 -0.0022216297970654888 -0.016870682879687095 0 -0.0022970682478657095 -0.016982346749122246 0 -0.0022095829606761917 -0.016938914683547125 0 -0.0022350897959838127 -0.016993867832676465 0 -0.0022010555992066395 -0.016982561993421907 0 -0.0022095829606761917 -0.016938914683547125 0 -0.0022970682478657095 -0.016982346749122246 0 -0.0022350897959838127 -0.016993867832676465 0 -0.0022095829606761917 -0.016938914683547125 0 -0.0027152782207419059 -0.018550029655745662 0 -0.0021660550515464759 -0.017862913775178988 0 -0.0024541544107063991 -0.01903577386582923 0 -0.0025631620856769737 -0.018880371623101595 0 -0.0024670199351575703 -0.018749829009095234 0 -0.0021762534596894796 -0.017091605472053267 0 -0.0021786745092576575 -0.016998504051578631 0 -0.0021812612162929045 -0.016986888090441316 0 -0.0025631620856769737 -0.018880371623101595 0 -0.0024670199351575703 -0.018749829009095234 0 -0.0025864105818566869 -0.01877073222968044 0 -0.0024670199351575703 -0.018749829009095234 0 -0.0025752280635398567 -0.01867466556788511 0 -0.0025172597406342579 -0.018557253845116282 0 -0.0022010555992066395 -0.016982561993421907 0 -0.0021786745092576575 -0.016998504051578631 0 -0.0021812612162929045 -0.016986888090441316 0 -0.0024670199351575703 -0.018749829009095234 0 -0.0025752280635398567 -0.01867466556788511 0 -0.0025864105818566869 -0.01877073222968044 0 -0.0026531863661907497 -0.018696954776881301 0 -0.0026879459142963476 -0.01883498426952598 0 -0.0027559374891456792 -0.018657654772584145 0 -0.0025864105818566869 -0.01877073222968044 0 -0.0026531863661907497 -0.018696954776881301 0 -0.0026879459142963476 -0.01883498426952598 0 -0.0025752280635398567 -0.01867466556788511 0 -0.0025864105818566869 -0.01877073222968044 0 -0.0026531863661907497 -0.018696954776881301 0 -0.0025752280635398567 -0.01867466556788511 0 -0.0026531863661907497 -0.018696954776881301 0 -0.0026481320548354201 -0.018595695847404989 0 -0.0026531863661907497 -0.018696954776881301 0 -0.0027559374891456792 -0.018657654772584145 0 -0.0026481320548354201 -0.018595695847404989 0 -0.0026563256855074943 -0.01904698474124867 0 -0.0026879459142963476 -0.01883498426952598 0 -0.0028455238529501397 -0.018892190819793611 0 -0.0025631620856769737 -0.018880371623101595 0 -0.0025864105818566869 -0.01877073222968044 0 -0.0026879459142963476 -0.01883498426952598 0 -0.0025797753868549173 -0.018972883683860256 0 -0.0025631620856769737 -0.018880371623101595 0 -0.0026879459142963476 -0.01883498426952598 0 -0.0018380049933882287 -0.0083235494257982816 0 -0.001030693340891979 -0.0079024374815338857 0 -0.00054397749145807537 -0.0095146073211292929 0 -0.001030693340891979 -0.0079024374815338857 0 5.4398009941039769e-05 -0.0079601069406234452 0 -0.00054397749145807537 -0.0095146073211292929 0 -0.0018380049933882287 -0.0083235494257982816 0 -0.001030693340891979 -0.0079024374815338857 0 -0.0020919123184691114 -0.007643443569032007 0 -0.00088924821300658907 -0.006963314832287011 0 -0.0019269646585687175 -0.0069701319489506742 0 -0.001030693340891979 -0.0079024374815338857 0 -0.0019269646585687175 -0.0069701319489506742 0 -0.001030693340891979 -0.0079024374815338857 0 -0.0020919123184691114 -0.007643443569032007 0 -0.00068184808584739645 -0.0081946665046866464 0 0.00039811582993947852 -0.0089599783804794799 0 -0.00088924821300658907 -0.006963314832287011 0 -0.001030693340891979 -0.0079024374815338857 0 5.4398009941039769e-05 -0.0079601069406234452 0 0.00092957112329002404 -0.0093854297742249262 0 -0.00047399545290524033 -0.0093329775907963798 0 0.00048800354026093558 -0.010505992978713201 0 0.00092957112329002404 -0.0093854297742249262 0 0.0020039001634781371 -0.010721544060308492 0 0.00048800354026093558 -0.010505992978713201 0 0.00092957112329002404 -0.0093854297742249262 0 0.0021877588791594234 -0.0096492690481270824 0 0.0020039001634781371 -0.010721544060308492 0 0.0020039001634781371 -0.010721544060308492 0 0.00048800354026093558 -0.010505992978713201 0 0.0014499762523252086 -0.011642134658308493 0 0.00039811582993947852 -0.0089599783804794799 0 -0.00025682948281515448 -0.012402542296892381 0 5.4398009941039769e-05 -0.0079601069406234452 0 0.0009783400908799022 -0.009033093420100901 0 -0.00054397749145807537 -0.0095146073211292929 0 -0.00025682948281515448 -0.012402542296892381 0 -0.0022353458951423575 -0.013071610076534403 0 -0.0035074338857313679 -0.016473363686237998 0 -0.0035291956860072069 -0.016503908208126996 0 -0.003498337774502622 -0.016536138044348111 0 -0.0035004094317221796 -0.016495268707131087 0 -0.0035074338857313679 -0.016473363686237998 0 -0.0035291956860072069 -0.016503908208126996 0 -0.0026330249402357004 -0.01648215628111363 0 -0.00025682948281515448 -0.012402542296892381 0 -0.0035291956860072069 -0.016503908208126996 0 -0.0035536306706176746 -0.016507253253536046 0 -0.0035386195492526891 -0.016514303127312172 0 -0.0035004094317221796 -0.016495268707131087 0 -0.0035291956860072069 -0.016503908208126996 0 -0.0035386195492526891 -0.016514303127312172 0 -0.0035291956860072069 -0.016503908208126996 0 -0.003498337774502622 -0.016536138044348111 0 -0.0035536306706176746 -0.016507253253536046 0 -0.003498337774502622 -0.016536138044348111 0 -0.0034598717770413113 -0.016455480728014744 0 -0.0035536306706176746 -0.016507253253536046 0 -0.00054397749145807537 -0.0095146073211292929 0 -0.0019597754594115548 -0.0092442202502955994 0 -0.0021291130160861638 -0.010094878272490136 0 -0.0018380049933882287 -0.0083235494257982816 0 -0.00054397749145807537 -0.0095146073211292929 0 -0.0019597754594115548 -0.0092442202502955994 0 -0.0022353458951423575 -0.013071610076534403 0 -0.0027044726869512956 -0.01351488927474109 0 -0.003498337774502622 -0.016536138044348111 0 -0.0032859426648356887 -0.016526288248493622 0 -0.0034598717770413113 -0.016455480728014744 0 -0.0032859426648356887 -0.016526288248493622 0 -0.0030310655447500345 -0.016423419018326182 0 -0.0031549470662267614 -0.016390879374671784 0 -0.0021291130160861638 -0.010094878272490136 0 -0.0038865399775510978 -0.010718659619455732 0 -0.0028729005327618649 -0.0094848978713960932 0 -0.0027044726869512956 -0.01351488927474109 0 -0.0034268093229034005 -0.01212708859832278 0 -0.0034268093229034005 -0.01212708859832278 0 -0.0026022054255588727 -0.0089378515580100168 0 -0.0031912768877175885 -0.0098313932372672622 0 -0.0025433211831358479 -0.0090601928699306205 0 -0.0033857730583285038 -0.0093932023950090357 0 -0.0032180602550983739 -0.0089462978977484231 0 -0.0026417693101870483 -0.008742725530381688 0 -0.0025433211831358479 -0.0090601928699306205 0 -0.0032180602550983739 -0.0089462978977484231 0 -0.0025433211831358479 -0.0090601928699306205 0 -0.0033857730583285038 -0.0093932023950090357 0 -0.0033482339793196913 -0.0089378378714750975 0 -0.0026996004034028141 -0.0087571506061175225 0 -0.0032859150732773919 -0.0089476192582603788 0 -0.0030493017785882081 -0.0085443173040399938 0 -0.0034365574879535524 -0.008452987404813839 0 -0.0032859150732773919 -0.0089476192582603788 0 -0.0026417693101870483 -0.008742725530381688 0 -0.0030493017785882081 -0.0085443173040399938 0 -0.0018380049933882287 -0.0083235494257982816 0 -0.0019597754594115548 -0.0092442202502955994 0 -0.0028729005327618649 -0.0094848978713960932 0 -0.0018380049933882287 -0.0083235494257982816 0 -0.0026417693101870483 -0.008742725530381688 0 -0.0025433211831358479 -0.0090601928699306205 0 -0.0019549918546013139 -0.0084922657350262384 0 -0.0026022054255588727 -0.0089378515580100168 0 -0.0019597754594115548 -0.0092442202502955994 0 -0.0021291130160861638 -0.010094878272490136 0 -0.0028729005327618649 -0.0094848978713960932 0 -0.0018380049933882287 -0.0083235494257982816 0 -0.0026417693101870483 -0.008742725530381688 0 -0.002454415127025648 -0.0081486905113653651 0 -0.0018380049933882287 -0.0083235494257982816 0 -0.002454415127025648 -0.0081486905113653651 0 -0.0020919123184691114 -0.007643443569032007 0 -0.0026417693101870483 -0.008742725530381688 0 -0.002454415127025648 -0.0081486905113653651 0 -0.0028141336606408909 -0.008327315133530435 0 -0.0026417693101870483 -0.008742725530381688 0 -0.0028141336606408909 -0.008327315133530435 0 -0.0030493017785882081 -0.0085443173040399938 0 -0.0030493017785882081 -0.0085443173040399938 0 -0.0031450924966331673 -0.0082010740073392048 0 -0.0034365574879535524 -0.008452987404813839 0 -0.0028141336606408909 -0.008327315133530435 0 -0.0030493017785882081 -0.0085443173040399938 0 -0.0031450924966331673 -0.0082010740073392048 0 -0.0031450924966331673 -0.0082010740073392048 0 -0.0029355072733502131 -0.0078953473883232109 0 -0.0033892485296982142 -0.0078158578236864895 0 -0.0031450924966331673 -0.0082010740073392048 0 -0.0033892485296982142 -0.0078158578236864895 0 -0.0034365574879535524 -0.008452987404813839 0 -0.002454415127025648 -0.0081486905113653651 0 -0.0028141336606408909 -0.008327315133530435 0 -0.0029355072733502131 -0.0078953473883232109 0 -0.0028141336606408909 -0.008327315133530435 0 -0.0031450924966331673 -0.0082010740073392048 0 -0.0029355072733502131 -0.0078953473883232109 0 -0.002454415127025648 -0.0081486905113653651 0 -0.0029355072733502131 -0.0078953473883232109 0 -0.0027293685007518278 -0.0074428739973323556 0 -0.0029355072733502131 -0.0078953473883232109 0 -0.0031545802115412001 -0.0073745299800141717 0 -0.0027293685007518278 -0.0074428739973323556 0 -0.0029355072733502131 -0.0078953473883232109 0 -0.0031545802115412001 -0.0073745299800141717 0 -0.0033892485296982142 -0.0078158578236864895 0 -0.0031545802115412001 -0.0073745299800141717 0 -0.0027293685007518278 -0.0074428739973323556 0 -0.002992146493681686 -0.0068787891553394225 0 -0.0027293685007518278 -0.0074428739973323556 0 -0.0020919123184691114 -0.007643443569032007 0 -0.0024884516799295753 -0.0070664119531504525 0 -0.0019269646585687175 -0.0069701319489506742 0 -0.0020919123184691114 -0.007643443569032007 0 -0.0024884516799295753 -0.0070664119531504525 0 -0.002454415127025648 -0.0081486905113653651 0 -0.0027293685007518278 -0.0074428739973323556 0 -0.0020919123184691114 -0.007643443569032007 0 -0.003344227458300575 -0.0051038147871596534 0 -0.0033191396967676102 -0.0050866639795443978 0 -0.0033175825822716115 -0.0051167533165678587 0 -0.0033191396967676102 -0.0050866639795443978 0 -0.0033045372666588241 -0.0051141948350935029 0 -0.0033034076152242075 -0.0050911990354270166 0 -0.0033191396967676102 -0.0050866639795443978 0 -0.0033045372666588241 -0.0051141948350935029 0 -0.0033175825822716115 -0.0051167533165678587 0 -0.0033045372666588241 -0.0051141948350935029 0 -0.0033030546416027129 -0.0051432196491410587 0 -0.0033175825822716115 -0.0051167533165678587 0 -0.0033045372666588241 -0.0051141948350935029 0 -0.0033030546416027129 -0.0051432196491410587 0 -0.0032903511933616543 -0.0051388339273718987 0 -0.003344227458300575 -0.0051038147871596534 0 -0.0033171009743714073 -0.0051443971417629662 0 -0.0033239904451240494 -0.0051744315917095877 0 -0.0033030546416027129 -0.0051432196491410587 0 -0.0033171009743714073 -0.0051443971417629662 0 -0.0033175825822716115 -0.0051167533165678587 0 -0.003344227458300575 -0.0051038147871596534 0 -0.0033171009743714073 -0.0051443971417629662 0 -0.0033175825822716115 -0.0051167533165678587 0 -0.003487272401663031 -0.0073605248322988065 0 -0.0038139028216025443 -0.007978112677342308 0 -0.0036578303250464237 -0.0067087692730758118 0 -0.0034873842241782654 -0.0055305445788523273 0 -0.003387061931617663 -0.0056946241582350836 0 -0.0033610848123696684 -0.0052367068199520618 0 -0.0036155764442772384 -0.0067827471176919868 0 -0.0034851135831889925 -0.0059949610378547914 0 -0.0031545802115412001 -0.0073745299800141717 0 -0.003487272401663031 -0.0073605248322988065 0 -0.0033226174759943099 -0.0069842564394338507 0 -0.0031545802115412001 -0.0073745299800141717 0 -0.003487272401663031 -0.0073605248322988065 0 -0.0033892485296982142 -0.0078158578236864895 0 -0.003487272401663031 -0.0073605248322988065 0 -0.0033892485296982142 -0.0078158578236864895 0 -0.0038139028216025443 -0.007978112677342308 0 -0.0038139028216025443 -0.007978112677342308 0 -0.0034365574879535524 -0.008452987404813839 0 -0.0039255884084588881 -0.0091617012806704742 0 -0.0033892485296982142 -0.0078158578236864895 0 -0.0038139028216025443 -0.007978112677342308 0 -0.0034365574879535524 -0.008452987404813839 0 -0.0034873842241782654 -0.0055305445788523273 0 -0.003387061931617663 -0.0056946241582350836 0 -0.003664983538388789 -0.0059693034371976579 0 -0.003387061931617663 -0.0056946241582350836 0 -0.003664983538388789 -0.0059693034371976579 0 -0.0034376063082977044 -0.0063123014268370893 0 -0.0034159544613556695 -0.0053318652355457902 0 -0.0035052698069260716 -0.0054481279832520636 0 -0.003344227458300575 -0.0051038147871596534 0 -0.0033191396967676102 -0.0050866639795443978 0 -0.0033352464222406631 -0.0050431576346419635 0 -0.0033191396967676102 -0.0050866639795443978 0 -0.0033352464222406631 -0.0050431576346419635 0 -0.0033117736226677256 -0.0050635594355580085 0 -0.0033352464222406631 -0.0050431576346419635 0 -0.0033245143144933209 -0.0050311276292131406 0 -0.0033117736226677256 -0.0050635594355580085 0 -0.0035052698069260716 -0.0054481279832520636 0 -0.0033226465062847692 -0.0061128136452047116 0 -0.0033352464222406631 -0.0050431576346419635 0 -0.0033270355150757532 -0.0050280963025147131 0 -0.0033245143144933209 -0.0050311276292131406 0 -0.003664983538388789 -0.0059693034371976579 0 -0.0034376063082977044 -0.0063123014268370893 0 -0.0038354646821970035 -0.0064470575272079127 0 -0.0036155764442772384 -0.0067827471176919868 0 -0.003553009985353552 -0.0079860978756091851 0 -0.0032859150732773919 -0.0089476192582603788 0 -0.0034365574879535524 -0.008452987404813839 0 -0.0039255884084588881 -0.0091617012806704742 0 -0.0032180602550983739 -0.0089462978977484231 0 -0.0037886012344689373 -0.0091424702382435739 0 -0.0033857730583285038 -0.0093932023950090357 0 -0.0033482339793196913 -0.0089378378714750975 0 -0.003553009985353552 -0.0079860978756091851 0 -0.0037886012344689373 -0.0091424702382435739 0 -0.0033857730583285038 -0.0093932023950090357 0 -0.0038823767020693097 -0.010052774697517482 0 -0.003553009985353552 -0.0079860978756091851 0 -0.0031389366582987169 -0.0097130980055788671 0 -0.0031912768877175885 -0.0098313932372672622 0 -0.0033857730583285038 -0.0093932023950090357 0 -0.0038823767020693097 -0.010052774697517482 0 -0.0033531798958265709 -0.0079660310297124236 0 -0.0028934076911063937 -0.0078031174897955531 0 -0.0032858411097147675 -0.0073656341121550372 0 -0.003553009985353552 -0.0079860978756091851 0 -0.0033226465062847692 -0.0061128136452047116 0 -0.0030329344685609684 -0.005520305108740747 0 -0.0027347399265610487 -0.0054148832999192428 0 -0.0027465589629534289 -0.0048067637317782443 0 -0.0033226465062847692 -0.0061128136452047116 0 -0.0031883405286924761 -0.0046624720686016157 0 -0.0031883405286924761 -0.0046624720686016157 0 -0.0019713360505877789 -0.0015360682245216394 0 -0.0026260058872955368 -0.0033695757822761884 0 -0.0020331190760184605 -0.003160721144739918 0 -0.0023732729369878602 -0.0026242410843317827 0 -0.0031883405286924761 -0.0046624720686016157 0 -0.0020569912357984096 -0.002999506620991679 0 -0.0033162491965667302 -0.0049373460419323938 0 -0.0032705720239709405 -0.0049151712743093863 0 -0.0032911123089012654 -0.0049919038782644297 0 -0.0019713360505877789 -0.0015360682245216394 0 -0.0024696030302036221 -0.0017046542917627983 0 -0.0032911123089012654 -0.0049919038782644297 0 -0.0032558572694265184 -0.0049996004500947348 0 -0.003294744274700891 -0.0050483659209921731 0 -0.0032705720239709405 -0.0049151712743093863 0 -0.0032911123089012654 -0.0049919038782644297 0 -0.0032558572694265184 -0.0049996004500947348 0 -0.0033162491965667302 -0.0049373460419323938 0 -0.0032911123089012654 -0.0049919038782644297 0 -0.0033245143144933209 -0.0050311276292131406 0 -0.0033270355150757532 -0.0050280963025147131 0 -0.0033238957536298411 -0.0050264921921648895 0 -0.0033245143144933209 -0.0050311276292131406 0 -0.0032911123089012654 -0.0049919038782644297 0 -0.0033245143144933209 -0.0050311276292131406 0 -0.003294744274700891 -0.0050483659209921731 0 -0.0031883405286924761 -0.0046624720686016157 0 -0.0033689303655402379 -0.0051467829999348354 0 0.00048083729560540947 0.0067232363424505684 0 0.0014855017647420242 0.0058464938761030316 0 0.0010165996929056027 0.0056970498591289651 0 -0.00022161206883040456 0.0036644468479533608 0 -0.00039139219261401193 0.0028144423873920823 0 -9.0781412925255943e-05 0.0061723239443413304 0 0.00048083729560540947 0.0067232363424505684 0 0.0010165996929056027 0.0056970498591289651 0 -0.0015661486565622103 0.001533255921957242 0 -0.0015387032545806146 0.0015062633140095791 0 -0.0015401279591101154 0.0014851063316740735 0 -0.0015181558162637467 0.001467402162724844 0 -0.0015387032545806146 0.0015062633140095791 0 -0.0015401279591101154 0.0014851063316740735 0 -0.0019713360505877789 -0.0015360682245216394 0 -0.00039139219261401193 0.0028144423873920823 0 -0.0015661486565622103 0.001533255921957242 0 -0.0015387032545806146 0.0015062633140095791 0 -0.0015667037785750877 0.0015448535447394863 0 -0.0015682990960287661 0.0015520382855796029 0 -0.0015667037785750877 0.0015448535447394863 0 -0.001567001163495916 0.0015276143131535407 0 -0.0032558572694265184 -0.0049996004500947348 0 -0.0032811115469770767 -0.0050487666976776141 0 -0.0032814167040409801 -0.005061653417868967 0 -0.0015387032545806146 0.0015062633140095791 0 -0.0015667037785750877 0.0015448535447394863 0 -0.001567001163495916 0.0015276143131535407 0 -0.0024696030302036221 -0.0017046542917627983 0 -0.0022994984977936137 -0.0020181714286479097 0 -0.0032811115469770767 -0.0050487666976776141 0 -0.0032894332517288557 -0.0050665387322253045 0 -0.0032814167040409801 -0.005061653417868967 0 -0.0032811115469770767 -0.0050487666976776141 0 -0.0032894332517288557 -0.0050665387322253045 0 -0.0033110083488184835 -0.0050586698389469874 0 -0.0032894332517288557 -0.0050665387322253045 0 -0.0032932081228676095 -0.0050804010941086055 0 -0.0033110083488184835 -0.0050586698389469874 0 -0.0032811115469770767 -0.0050487666976776141 0 -0.0033110083488184835 -0.0050586698389469874 0 -0.0033373865347479715 -0.0050370353199532978 0 -0.0015682990960287661 0.0015520382855796029 0 -0.001567001163495916 0.0015276143131535407 0 -0.0015793369108591129 0.0015115350366839057 0 -0.0022994984977936137 -0.0020181714286479097 0 -0.0028315007676173488 -0.00039959101675161174 0 -0.0033117736226677256 -0.0050635594355580085 0 -0.003294744274700891 -0.0050483659209921731 0 -0.0032909084717312066 -0.0050834718194566362 0 -0.0033117736226677256 -0.0050635594355580085 0 -0.0032909084717312066 -0.0050834718194566362 0 -0.0033034076152242075 -0.0050911990354270166 0 -0.0033191396967676102 -0.0050866639795443978 0 -0.0033117736226677256 -0.0050635594355580085 0 -0.0033034076152242075 -0.0050911990354270166 0 -0.0033245143144933209 -0.0050311276292131406 0 -0.0033117736226677256 -0.0050635594355580085 0 -0.003294744274700891 -0.0050483659209921731 0 -0.0032558572694265184 -0.0049996004500947348 0 -0.003294744274700891 -0.0050483659209921731 0 -0.0032814167040409801 -0.005061653417868967 0 -0.003294744274700891 -0.0050483659209921731 0 -0.0032814167040409801 -0.005061653417868967 0 -0.0032909084717312066 -0.0050834718194566362 0 -0.0032814167040409801 -0.005061653417868967 0 -0.0032852737355941338 -0.0050849820572090743 0 -0.0032909084717312066 -0.0050834718194566362 0 -0.0032894332517288557 -0.0050665387322253045 0 -0.0032814167040409801 -0.005061653417868967 0 -0.0032852737355941338 -0.0050849820572090743 0 -0.0032894332517288557 -0.0050665387322253045 0 -0.0032932081228676095 -0.0050804010941086055 0 -0.0032852737355941338 -0.0050849820572090743 0 -0.0032932081228676095 -0.0050804010941086055 0 -0.0032852737355941338 -0.0050849820572090743 0 -0.0032863785645415766 -0.0050997164578900729 0 -0.0032852737355941338 -0.0050849820572090743 0 -0.0032852707430280374 -0.005105986157523586 0 -0.0032863785645415766 -0.0050997164578900729 0 -0.0032852737355941338 -0.0050849820572090743 0 -0.0032852707430280374 -0.005105986157523586 0 -0.0032909084717312066 -0.0050834718194566362 0 -0.0032852707430280374 -0.005105986157523586 0 -0.0032917435312292556 -0.0051096285584095388 0 -0.0032850570091245137 -0.0051264312940896015 0 -0.0032852707430280374 -0.005105986157523586 0 -0.0032909084717312066 -0.0050834718194566362 0 -0.0032917435312292556 -0.0051096285584095388 0 -0.0033045372666588241 -0.0051141948350935029 0 -0.0033034076152242075 -0.0050911990354270166 0 -0.0032917435312292556 -0.0051096285584095388 0 -0.0032909084717312066 -0.0050834718194566362 0 -0.0033034076152242075 -0.0050911990354270166 0 -0.0032917435312292556 -0.0051096285584095388 0 -0.0033045372666588241 -0.0051141948350935029 0 -0.0032917435312292556 -0.0051096285584095388 0 -0.0032903511933616543 -0.0051388339273718987 0 -0.0032917435312292556 -0.0051096285584095388 0 -0.0032903511933616543 -0.0051388339273718987 0 -0.0032850570091245137 -0.0051264312940896015 0 -0.0032903511933616543 -0.0051388339273718987 0 -0.0032792218234070883 -0.0051565838081276934 0 -0.0032850570091245137 -0.0051264312940896015 0 -0.0032903511933616543 -0.0051388339273718987 0 -0.0032792218234070883 -0.0051565838081276934 0 -0.0032900324416084183 -0.0051718267881559025 0 -0.0032792218234070883 -0.0051565838081276934 0 -0.003273116700104251 -0.0051961322075303471 0 -0.0032802510206184411 -0.0051893812779462778 0 -0.0032792218234070883 -0.0051565838081276934 0 -0.003273116700104251 -0.0051961322075303471 0 -0.0032764992508244055 -0.0051618089486811158 0 -0.0032792218234070883 -0.0051565838081276934 0 -0.0032801520563374197 -0.0051347826670838283 0 -0.0032764992508244055 -0.0051618089486811158 0 -0.0032792218234070883 -0.0051565838081276934 0 -0.0032801520563374197 -0.0051347826670838283 0 -0.0032822433510262114 -0.0051223811661584738 0 -0.0032792218234070883 -0.0051565838081276934 0 -0.0032822433510262114 -0.0051223811661584738 0 -0.0032850570091245137 -0.0051264312940896015 0 -0.0032852707430280374 -0.005105986157523586 0 -0.0032822433510262114 -0.0051223811661584738 0 -0.0032850570091245137 -0.0051264312940896015 0 -0.0032822433510262114 -0.0051223811661584738 0 -0.0032863785645415766 -0.0050997164578900729 0 -0.0032869146306694894 -0.0051088488062170263 0 -0.0032852707430280374 -0.005105986157523586 0 -0.0032822433510262114 -0.0051223811661584738 0 -0.0032863785645415766 -0.0050997164578900729 0 -0.0032863785645415766 -0.0050997164578900729 0 -0.003296102798966995 -0.0050871786450956743 0 -0.0032869146306694894 -0.0051088488062170263 0 -0.0032932081228676095 -0.0050804010941086055 0 -0.0032863785645415766 -0.0050997164578900729 0 -0.003296102798966995 -0.0050871786450956743 0 -0.0033019104649829379 -0.0050824270267227209 0 -0.0032869146306694894 -0.0051088488062170263 0 -0.0032870617716234192 -0.0051132096414282374 0 -0.003296102798966995 -0.0050871786450956743 0 -0.0033019104649829379 -0.0050824270267227209 0 -0.0032869146306694894 -0.0051088488062170263 0 -0.0032801520563374197 -0.0051347826670838283 0 -0.0032869146306694894 -0.0051088488062170263 0 -0.0032870617716234192 -0.0051132096414282374 0 -0.0032801520563374197 -0.0051347826670838283 0 -0.0032822433510262114 -0.0051223811661584738 0 -0.0032869146306694894 -0.0051088488062170263 0 -0.0032870617716234192 -0.0051132096414282374 0 -0.0032898361635334307 -0.0051066265679783852 0 -0.0032773498653275229 -0.0051542443744725906 0 -0.0032870617716234192 -0.0051132096414282374 0 -0.0033033810574370137 -0.0050741919550690131 0 -0.0032898361635334307 -0.0051066265679783852 0 -0.0033019104649829379 -0.0050824270267227209 0 -0.0032870617716234192 -0.0051132096414282374 0 -0.0033033810574370137 -0.0050741919550690131 0 -0.0033033810574370137 -0.0050741919550690131 0 -0.0032898361635334307 -0.0051066265679783852 0 -0.0033034605893281963 -0.0050603595669072386 0 -0.0033033810574370137 -0.0050741919550690131 0 -0.0033212492856973261 -0.0050325118768268584 0 -0.0033034605893281963 -0.0050603595669072386 0 -0.0032709397225373139 -0.0052135805580921834 0 -0.0032773498653275229 -0.0051542443744725906 0 -0.0032866671863690309 -0.0051314411305296891 0 -0.0032898361635334307 -0.0051066265679783852 0 -0.0032773498653275229 -0.0051542443744725906 0 -0.0032866671863690309 -0.0051314411305296891 0 -0.0032709397225373139 -0.0052135805580921834 0 -0.003273116700104251 -0.0051961322075303471 0 -0.0032773498653275229 -0.0051542443744725906 0 -0.003273116700104251 -0.0051961322075303471 0 -0.0032773498653275229 -0.0051542443744725906 0 -0.0032764992508244055 -0.0051618089486811158 0 -0.0032801520563374197 -0.0051347826670838283 0 -0.0032773498653275229 -0.0051542443744725906 0 -0.0032764992508244055 -0.0051618089486811158 0 -0.0032801520563374197 -0.0051347826670838283 0 -0.0032870617716234192 -0.0051132096414282374 0 -0.0032773498653275229 -0.0051542443744725906 0 -0.0034369973523904881 -0.0049942808456661016 0 -0.0033518331017205784 -0.0050383933073374952 0 -0.0033779187852991926 -0.0050151537971764269 0 -0.0034369973523904881 -0.0049942808456661016 0 -0.0033751652940835508 -0.0050421989537017421 0 -0.0033518331017205784 -0.0050383933073374952 0 -0.0028315007676173488 -0.00039959101675161174 0 -0.0042961116825314368 -0.0050693089411086864 0 -0.0033110083488184835 -0.0050586698389469874 0 -0.0033373865347479715 -0.0050370353199532978 0 -0.0033518331017205784 -0.0050383933073374952 0 -0.0033518331017205784 -0.0050383933073374952 0 -0.003312593744541821 -0.0050675081350931572 0 -0.0033361120192230594 -0.0050410352848577894 0 -0.0033110083488184835 -0.0050586698389469874 0 -0.0033518331017205784 -0.0050383933073374952 0 -0.003312593744541821 -0.0050675081350931572 0 -0.0032932081228676095 -0.0050804010941086055 0 -0.0033110083488184835 -0.0050586698389469874 0 -0.003312593744541821 -0.0050675081350931572 0 -0.0032932081228676095 -0.0050804010941086055 0 -0.003296102798966995 -0.0050871786450956743 0 -0.003312593744541821 -0.0050675081350931572 0 -0.0033019104649829379 -0.0050824270267227209 0 -0.003312593744541821 -0.0050675081350931572 0 -0.0033361120192230594 -0.0050410352848577894 0 -0.003296102798966995 -0.0050871786450956743 0 -0.0033019104649829379 -0.0050824270267227209 0 -0.003312593744541821 -0.0050675081350931572 0 -0.0033019104649829379 -0.0050824270267227209 0 -0.0033033810574370137 -0.0050741919550690131 0 -0.0033361120192230594 -0.0050410352848577894 0 -0.0033033810574370137 -0.0050741919550690131 0 -0.0033212492856973261 -0.0050325118768268584 0 -0.0033361120192230594 -0.0050410352848577894 0 -0.0033212492856973261 -0.0050325118768268584 0 -0.0033361120192230594 -0.0050410352848577894 0 -0.0033561953983015096 -0.0049914337515171003 0 -0.0033518331017205784 -0.0050383933073374952 0 -0.0033361120192230594 -0.0050410352848577894 0 -0.0033779187852991926 -0.0050151537971764269 0 -0.0033361120192230594 -0.0050410352848577894 0 -0.0033946109056769884 -0.0049879117321914085 0 -0.0033779187852991926 -0.0050151537971764269 0 -0.0033361120192230594 -0.0050410352848577894 0 -0.0033946109056769884 -0.0049879117321914085 0 -0.0033561953983015096 -0.0049914337515171003 0 -0.0034369973523904881 -0.0049942808456661016 0 -0.0033946109056769884 -0.0049879117321914085 0 -0.0033779187852991926 -0.0050151537971764269 0 -0.0034365416737070324 -0.0049604465818012594 0 -0.0033946109056769884 -0.0049879117321914085 0 -0.0034384766703633649 -0.0049154589025899942 0 -0.0033946109056769884 -0.0049879117321914085 0 -0.0034384766703633649 -0.0049154589025899942 0 -0.0033561953983015096 -0.0049914337515171003 0 -0.0034384766703633649 -0.0049154589025899942 0 -0.0033555144679166381 -0.004917924625929884 0 -0.0033561953983015096 -0.0049914337515171003 0 -0.0033555144679166381 -0.004917924625929884 0 -0.0033561953983015096 -0.0049914337515171003 0 -0.0033152911243948553 -0.0049858849572673881 0 -0.0033212492856973261 -0.0050325118768268584 0 -0.0033561953983015096 -0.0049914337515171003 0 -0.0033152911243948553 -0.0049858849572673881 0 -0.0033212492856973261 -0.0050325118768268584 0 -0.0033152911243948553 -0.0049858849572673881 0 -0.0033034605893281963 -0.0050603595669072386 0 -0.0033555144679166381 -0.004917924625929884 0 -0.0033152911243948553 -0.0049858849572673881 0 -0.0033064518521684406 -0.0047336388043307332 0 -0.0033152911243948553 -0.0049858849572673881 0 -0.0033064518521684406 -0.0047336388043307332 0 -0.0033140669954657559 -0.0050262663697846688 0 -0.002552518549955988 -0.0046367866115444058 0 -0.0026240319451378974 -0.0036877162043386434 0 -0.0033064518521684406 -0.0047336388043307332 0 -0.0034384766703633649 -0.0049154589025899942 0 -0.0033555144679166381 -0.004917924625929884 0 -0.0033064518521684406 -0.0047336388043307332 0 -0.0030005476449046632 -0.0044617386059683153 0 -0.0032610519207890345 -0.0046173481537486434 0 -0.0032905816644179177 -0.0051686631487461079 0 -0.0032866671863690309 -0.0051314411305296891 0 -0.0033140669954657559 -0.0050262663697846688 0 -0.0032709397225373139 -0.0052135805580921834 0 -0.0032905816644179177 -0.0051686631487461079 0 -0.0032866671863690309 -0.0051314411305296891 0 -0.0032866671863690309 -0.0051314411305296891 0 -0.0033034605893281963 -0.0050603595669072386 0 -0.0033140669954657559 -0.0050262663697846688 0 -0.0032898361635334307 -0.0051066265679783852 0 -0.0032866671863690309 -0.0051314411305296891 0 -0.0033034605893281963 -0.0050603595669072386 0 -0.0033152911243948553 -0.0049858849572673881 0 -0.0033034605893281963 -0.0050603595669072386 0 -0.0033140669954657559 -0.0050262663697846688 0 -0.0033064518521684406 -0.0047336388043307332 0 -0.0033140669954657559 -0.0050262663697846688 0 -0.0033612989742317846 -0.0049555730431556999 0 -0.0033140669954657559 -0.0050262663697846688 0 -0.0033612989742317846 -0.0049555730431556999 0 -0.0033240495788469902 -0.0050700547506188041 0 -0.0032905816644179177 -0.0051686631487461079 0 -0.0033140669954657559 -0.0050262663697846688 0 -0.0033240495788469902 -0.0050700547506188041 0 -0.0032905816644179177 -0.0051686631487461079 0 -0.0033240495788469902 -0.0050700547506188041 0 -0.0032727434849467471 -0.0051725799346842745 0 -0.0032905816644179177 -0.0051686631487461079 0 -0.0032727434849467471 -0.0051725799346842745 0 -0.0032460642351331338 -0.0053251301626811428 0 -0.0032709397225373139 -0.0052135805580921834 0 -0.0032460642351331338 -0.0053251301626811428 0 -0.0032645416992990992 -0.0052817025130626211 0 -0.0032709397225373139 -0.0052135805580921834 0 -0.0032905816644179177 -0.0051686631487461079 0 -0.0032460642351331338 -0.0053251301626811428 0 -0.0032460642351331338 -0.0053251301626811428 0 -0.0032370748935812849 -0.0054669780490244711 0 -0.0029774441445295781 -0.0054462775393817843 0 -0.0032460642351331338 -0.0053251301626811428 0 -0.0032370748935812849 -0.0054669780490244711 0 -0.0032645416992990992 -0.0052817025130626211 0 -0.0032727434849467471 -0.0051725799346842745 0 -0.0032460642351331338 -0.0053251301626811428 0 -0.0029774441445295781 -0.0054462775393817843 0 -0.0029351293431560434 -0.005515830799044206 0 -0.0024264710218546812 -0.0061566726431714668 0 -0.0017131143511991897 -0.0053982735022174841 0 -0.0029774441445295781 -0.0054462775393817843 0 -0.0022613676128050574 -0.0068434975312443415 0 -0.0017131143511991897 -0.0053982735022174841 0 -0.00093709007200716446 -0.0067045678721190391 0 -0.0022613676128050574 -0.0068434975312443415 0 -0.0017964341131984443 -0.0060852353719343848 0 -0.0026408134663443257 -0.0054358036877897821 0 -0.0029013314212874459 -0.0058035860605810197 0 -0.0015935983712561225 -0.0071080959433551111 0 -0.0024264710218546812 -0.0061566726431714668 0 -0.0032370748935812849 -0.0054669780490244711 0 -0.0029774441445295781 -0.0054462775393817843 0 -0.0026408134663443257 -0.0054358036877897821 0 -0.0032370748935812849 -0.0054669780490244711 0 -0.0026408134663443257 -0.0054358036877897821 0 -0.0029013314212874459 -0.0058035860605810197 0 -0.0032370748935812849 -0.0054669780490244711 0 -0.0029013314212874459 -0.0058035860605810197 0 -0.0031377743571557653 -0.0063273547472721464 0 -0.0029013314212874459 -0.0058035860605810197 0 -0.0031377743571557653 -0.0063273547472721464 0 -0.0026268038710308321 -0.0064507699030400207 0 -0.0017964341131984443 -0.0060852353719343848 0 -0.0029013314212874459 -0.0058035860605810197 0 -0.0026268038710308321 -0.0064507699030400207 0 -0.0019269646585687175 -0.0069701319489506742 0 -0.0024884516799295753 -0.0070664119531504525 0 -0.0026268038710308321 -0.0064507699030400207 0 -0.0019269646585687175 -0.0069701319489506742 0 -0.0017964341131984443 -0.0060852353719343848 0 -0.0026268038710308321 -0.0064507699030400207 0 -0.0031377743571557653 -0.0063273547472721464 0 -0.0032744222044502449 -0.0067258282107282002 0 -0.002992146493681686 -0.0068787891553394225 0 -0.0031377743571557653 -0.0063273547472721464 0 -0.0026268038710308321 -0.0064507699030400207 0 -0.002992146493681686 -0.0068787891553394225 0 -0.0027293685007518278 -0.0074428739973323556 0 -0.0024884516799295753 -0.0070664119531504525 0 -0.002992146493681686 -0.0068787891553394225 0 -0.0024884516799295753 -0.0070664119531504525 0 -0.0026268038710308321 -0.0064507699030400207 0 -0.002992146493681686 -0.0068787891553394225 0 -0.0031545802115412001 -0.0073745299800141717 0 -0.002992146493681686 -0.0068787891553394225 0 -0.0033226174759943099 -0.0069842564394338507 0 -0.0032744222044502449 -0.0067258282107282002 0 -0.002992146493681686 -0.0068787891553394225 0 -0.0033226174759943099 -0.0069842564394338507 0 -0.0034159544613556695 -0.0053318652355457902 0 -0.0033588276081019412 -0.0052373127654167994 0 -0.0034873842241782654 -0.0055305445788523273 0 -0.0033610848123696684 -0.0052367068199520618 0 -0.0033502634037904308 -0.0052400470738387566 0 -0.003344227458300575 -0.0051038147871596534 0 -0.0033502634037904308 -0.0052400470738387566 0 -0.0033239904451240494 -0.0051744315917095877 0 -0.0032744222044502449 -0.0067258282107282002 0 -0.0033226174759943099 -0.0069842564394338507 0 -0.0036578303250464237 -0.0067087692730758118 0 -0.003487272401663031 -0.0073605248322988065 0 -0.0033226174759943099 -0.0069842564394338507 0 -0.0036578303250464237 -0.0067087692730758118 0 -0.0031377743571557653 -0.0063273547472721464 0 -0.0032744222044502449 -0.0067258282107282002 0 -0.0036578303250464237 -0.0067087692730758118 0 -0.0033502634037904308 -0.0052400470738387566 0 -0.0033150649528985985 -0.005227885225456883 0 -0.0032870004945461848 -0.0052796457159741518 0 -0.0033502634037904308 -0.0052400470738387566 0 -0.0033150649528985985 -0.005227885225456883 0 -0.0033239904451240494 -0.0051744315917095877 0 -0.0033150649528985985 -0.005227885225456883 0 -0.0033239904451240494 -0.0051744315917095877 0 -0.003305639233554493 -0.0052019994665143919 0 -0.0033171009743714073 -0.0051443971417629662 0 -0.0033239904451240494 -0.0051744315917095877 0 -0.0033036236508608525 -0.0051746456574232559 0 -0.0033030546416027129 -0.0051432196491410587 0 -0.0033171009743714073 -0.0051443971417629662 0 -0.0033036236508608525 -0.0051746456574232559 0 -0.0033036236508608525 -0.0051746456574232559 0 -0.003305639233554493 -0.0052019994665143919 0 -0.0032919630132791067 -0.0052002577333342204 0 -0.0033239904451240494 -0.0051744315917095877 0 -0.0033036236508608525 -0.0051746456574232559 0 -0.003305639233554493 -0.0052019994665143919 0 -0.0033030546416027129 -0.0051432196491410587 0 -0.0032903511933616543 -0.0051388339273718987 0 -0.0032900324416084183 -0.0051718267881559025 0 -0.0033030546416027129 -0.0051432196491410587 0 -0.0033036236508608525 -0.0051746456574232559 0 -0.0032900324416084183 -0.0051718267881559025 0 -0.0033036236508608525 -0.0051746456574232559 0 -0.0032900324416084183 -0.0051718267881559025 0 -0.0032919630132791067 -0.0052002577333342204 0 -0.0032792218234070883 -0.0051565838081276934 0 -0.0032900324416084183 -0.0051718267881559025 0 -0.0032802510206184411 -0.0051893812779462778 0 -0.0032900324416084183 -0.0051718267881559025 0 -0.0032802510206184411 -0.0051893812779462778 0 -0.0032919630132791067 -0.0052002577333342204 0 -0.0032802510206184411 -0.0051893812779462778 0 -0.0032919630132791067 -0.0052002577333342204 0 -0.0032803144245068393 -0.0052282395451739719 0 -0.0033150649528985985 -0.005227885225456883 0 -0.003305639233554493 -0.0052019994665143919 0 -0.0032949934049199595 -0.005229155477570282 0 -0.003305639233554493 -0.0052019994665143919 0 -0.0032919630132791067 -0.0052002577333342204 0 -0.0032949934049199595 -0.005229155477570282 0 -0.0032919630132791067 -0.0052002577333342204 0 -0.0032949934049199595 -0.005229155477570282 0 -0.0032803144245068393 -0.0052282395451739719 0 -0.0033150649528985985 -0.005227885225456883 0 -0.0032949934049199595 -0.005229155477570282 0 -0.0032870004945461848 -0.0052796457159741518 0 -0.0032803144245068393 -0.0052282395451739719 0 -0.0032645416992990992 -0.0052817025130626211 0 -0.0032870004945461848 -0.0052796457159741518 0 -0.0032949934049199595 -0.005229155477570282 0 -0.0032803144245068393 -0.0052282395451739719 0 -0.0032870004945461848 -0.0052796457159741518 0 -0.003273116700104251 -0.0051961322075303471 0 -0.0032803144245068393 -0.0052282395451739719 0 -0.0032645416992990992 -0.0052817025130626211 0 -0.003273116700104251 -0.0051961322075303471 0 -0.0032802510206184411 -0.0051893812779462778 0 -0.0032803144245068393 -0.0052282395451739719 0 -0.0032709397225373139 -0.0052135805580921834 0 -0.003273116700104251 -0.0051961322075303471 0 -0.0032645416992990992 -0.0052817025130626211 0 -0.0032370748935812849 -0.0054669780490244711 0 -0.0033610848123696684 -0.0052367068199520618 0 -0.0033502634037904308 -0.0052400470738387566 0 -0.0032370748935812849 -0.0054669780490244711 0 -0.0033502634037904308 -0.0052400470738387566 0 -0.0032870004945461848 -0.0052796457159741518 0 -0.0032833447613745165 -0.0054891282143876164 0 -0.0034851135831889925 -0.0059949610378547914 0 -0.0032370748935812849 -0.0054669780490244711 0 -0.0031377743571557653 -0.0063273547472721464 0 -0.0036578303250464237 -0.0067087692730758118 0 -0.0032370748935812849 -0.0054669780490244711 0 -0.0032645416992990992 -0.0052817025130626211 0 -0.0032870004945461848 -0.0052796457159741518 0 -3.1521423049147754e-05 -0.024978029907052279 0 -0.00015102116035096714 -0.024943951679044701 0 -4.780569132195144e-05 -0.024901426518630754 0 -3.1521423049147754e-05 -0.024978029907052279 0 -1.2554140527362796e-05 -0.024924490943283674 0 -4.780569132195144e-05 -0.024901426518630754 0 5.2392005825550758e-08 -0.024999767610266913 0 0.00021301144702220358 -0.024419622717852443 0 0.00063290783484691625 -0.024317835178145467 0 -1.0859478871626425e-08 -0.024997927980647823 0 -1.3196366783309781e-07 -0.025001790388140731 0 0.00028385135970837567 -0.024778950626300721 0 2.8213726244607993e-08 -0.02499984660841106 0 -3.1521423049147754e-05 -0.024978029907052279 0 1.2223753409646e-08 -0.025000052145453804 0 -1.2554140527362796e-05 -0.024924490943283674 0 0.00063290783484691625 -0.024317835178145467 0 -1.0859478871626425e-08 -0.024997927980647823 0 0.00034771124969179817 -0.023855765174236071 0 1.0922525127316023e-09 -0.025000003167333217 0 6.3193759786553561e-06 -0.024998661525231215 0 6.8459265431106694e-09 -0.024999994117219211 0 0.00034771124969179817 -0.023855765174236071 0 0.00094061917263559664 -0.023620643436848096 0 0.0010488232162944385 -0.022949434383270174 0 0.00021301144702220358 -0.024419622717852443 0 0.00052371399817503577 -0.024001562793331432 0 0.00063290783484691625 -0.024317835178145467 0 0.00034771124969179817 -0.023855765174236071 0 0.00094061917263559664 -0.023620643436848096 0 0.00094061917263559664 -0.023620643436848096 0 0.0011640112920027618 -0.023277189480310916 0 0.0010488232162944385 -0.022949434383270174 0 0.0011504100158133853 -0.022080039352632981 0 0.00084620944250992085 -0.022572229465439624 0 0.0011745062045786874 -0.022908671126351608 0 0.00045595776734355247 -0.023308033004756208 0 0.0012595389279699608 -0.02280688081792917 0 0.0011640112920027618 -0.023277189480310916 0 0.0015218439758030756 -0.0237308280126537 0 0.0011745062045786874 -0.022908671126351608 0 0.00063290783484691625 -0.024317835178145467 0 0.00094061917263559664 -0.023620643436848096 0 0.0015218439758030756 -0.0237308280126537 0 0.00094061917263559664 -0.023620643436848096 0 0.0011640112920027618 -0.023277189480310916 0 0.0015218439758030756 -0.0237308280126537 0 0.00045595776734355247 -0.023308033004756208 0 2.4168649473173917e-05 -0.022188728203074378 0 0.0011504100158133853 -0.022080039352632981 0 0.00084620944250992085 -0.022572229465439624 0 0.00044114554018214011 -0.022308660361159159 0 -0.00062182714387489142 -0.022164106758334055 0 -0.00045484923428870162 -0.022344184746901551 0 -0.00037857484872438229 -0.022227367475041677 0 -0.00062182714387489142 -0.022164106758334055 0 -0.00045484923428870162 -0.022344184746901551 0 -0.00056726226233177134 -0.022728828127849689 0 -0.00019392183682617056 -0.025056763442600324 0 -0.00015102116035096714 -0.024943951679044701 0 -0.00029347506917376054 -0.024850933862353639 0 0.00045595776734355247 -0.023308033004756208 0 -0.00056767774623710644 -0.023912231430661759 0 -0.00062182714387489142 -0.022164106758334055 0 -0.00064264516338866312 -0.022849696741402668 0 -0.00056726226233177134 -0.022728828127849689 0 0.00028385135970837567 -0.024778950626300721 0 0.00045595776734355247 -0.023308033004756208 0 -3.1521423049147754e-05 -0.024978029907052279 0 -0.00019392183682617056 -0.025056763442600324 0 -0.00015102116035096714 -0.024943951679044701 0 -0.00015102116035096714 -0.024943951679044701 0 -0.00010305501043284415 -0.024847087441365021 0 -4.780569132195144e-05 -0.024901426518630754 0 -0.00015102116035096714 -0.024943951679044701 0 -0.00010305501043284415 -0.024847087441365021 0 -0.00017443891279373248 -0.024853882635705205 0 -0.00015102116035096714 -0.024943951679044701 0 -0.00029347506917376054 -0.024850933862353639 0 -0.00017443891279373248 -0.024853882635705205 0 -0.00029347506917376054 -0.024850933862353639 0 -0.00017443891279373248 -0.024853882635705205 0 -0.00015195474755300741 -0.024731886693830054 0 -0.00010305501043284415 -0.024847087441365021 0 -0.00017443891279373248 -0.024853882635705205 0 -0.00015195474755300741 -0.024731886693830054 0 -0.00044282403842233836 -0.022397862217766198 0 -0.00056726226233177134 -0.022728828127849689 0 -0.000414997052845738 -0.022125836807865777 0 -0.00060009964786339454 -0.022709886741697324 0 -0.00035191740654147641 -0.022795408112655499 0 -0.00045484923428870162 -0.022344184746901551 0 -0.00044282403842233836 -0.022397862217766198 0 -0.00056726226233177134 -0.022728828127849689 0 -0.00064264516338866312 -0.022849696741402668 0 -0.00056726226233177134 -0.022728828127849689 0 -0.00029387911240002899 -0.023473558340628389 0 -0.00056726226233177134 -0.022728828127849689 0 -0.00029387911240002899 -0.023473558340628389 0 -0.0001721058674955393 -0.023515909740655896 0 -0.00064264516338866312 -0.022849696741402668 0 -0.00029387911240002899 -0.023473558340628389 0 -0.00031038355816795387 -0.024053523957966477 0 -0.00056767774623710644 -0.023912231430661759 0 -0.00030713187442192374 -0.024008878022239777 0 -0.00015195474755300741 -0.024731886693830054 0 -0.00013926592108782522 -0.024515339798483159 0 2.5965522869704646e-05 -0.024791252220382538 0 -0.00029347506917376054 -0.024850933862353639 0 -0.00013926592108782522 -0.024515339798483159 0 -0.00031038355816795387 -0.024053523957966477 0 -0.00029347506917376054 -0.024850933862353639 0 -0.00015195474755300741 -0.024731886693830054 0 -0.00013926592108782522 -0.024515339798483159 0 -0.00013926592108782522 -0.024515339798483159 0 2.5965522869704646e-05 -0.024791252220382538 0 1.4623918105971677e-05 -0.024422558970812396 0 1.2223753409646e-08 -0.025000052145453804 0 2.5965522869704646e-05 -0.024791252220382538 0 2.8206350424799746e-07 -0.024998491199112294 0 -0.00010305501043284415 -0.024847087441365021 0 2.5965522869704646e-05 -0.024791252220382538 0 -4.780569132195144e-05 -0.024901426518630754 0 -0.00010305501043284415 -0.024847087441365021 0 -0.00015195474755300741 -0.024731886693830054 0 2.5965522869704646e-05 -0.024791252220382538 0 2.5965522869704646e-05 -0.024791252220382538 0 -1.2554140527362796e-05 -0.024924490943283674 0 -4.780569132195144e-05 -0.024901426518630754 0 1.2223753409646e-08 -0.025000052145453804 0 2.5965522869704646e-05 -0.024791252220382538 0 -1.2554140527362796e-05 -0.024924490943283674 0 2.5965522869704646e-05 -0.024791252220382538 0 1.4623918105971677e-05 -0.024422558970812396 0 2.8206350424799746e-07 -0.024998491199112294 0 1.4623918105971677e-05 -0.024422558970812396 0 2.8206350424799746e-07 -0.024998491199112294 0 9.4808208974754132e-05 -0.024188846332827273 0 2.8206350424799746e-07 -0.024998491199112294 0 -5.488281229745241e-08 -0.024999134620028091 0 9.4808208974754132e-05 -0.024188846332827273 0 -5.488281229745241e-08 -0.024999134620028091 0 9.4808208974754132e-05 -0.024188846332827273 0 8.7899104099685092e-07 -0.022695065565826834 0 8.7899104099685092e-07 -0.022695065565826834 0 -5.2518804475038012e-05 -0.023679437442985538 0 -7.5171349935404671e-05 -0.022693761352043731 0 9.4808208974754132e-05 -0.024188846332827273 0 8.7899104099685092e-07 -0.022695065565826834 0 -5.2518804475038012e-05 -0.023679437442985538 0 -5.2518804475038012e-05 -0.023679437442985538 0 -0.00024695129708812594 -0.023510939349401731 0 -7.5171349935404671e-05 -0.022693761352043731 0 -5.2518804475038012e-05 -0.023679437442985538 0 -0.00031038355816795387 -0.024053523957966477 0 -0.00024695129708812594 -0.023510939349401731 0 1.4623918105971677e-05 -0.024422558970812396 0 9.4808208974754132e-05 -0.024188846332827273 0 -5.2518804475038012e-05 -0.023679437442985538 0 1.4623918105971677e-05 -0.024422558970812396 0 -5.2518804475038012e-05 -0.023679437442985538 0 -0.00031038355816795387 -0.024053523957966477 0 -0.00013926592108782522 -0.024515339798483159 0 1.4623918105971677e-05 -0.024422558970812396 0 -0.00031038355816795387 -0.024053523957966477 0 -0.00029387911240002899 -0.023473558340628389 0 -0.00031038355816795387 -0.024053523957966477 0 -0.0002910069226024563 -0.023659641483754108 0 -0.00031038355816795387 -0.024053523957966477 0 -0.0002910069226024563 -0.023659641483754108 0 -0.00024695129708812594 -0.023510939349401731 0 -0.0002910069226024563 -0.023659641483754108 0 -0.00052576881806367173 -0.023535188146050205 0 -0.00048741828521820191 -0.02366596224710097 0 -0.0002910069226024563 -0.023659641483754108 0 -0.00052576881806367173 -0.023535188146050205 0 -0.00060753014549998088 -0.023428479019164811 0 -0.00060753014549998088 -0.023428479019164811 0 -0.00024695129708812594 -0.023510939349401731 0 -0.00047083837964392882 -0.022955621926703754 0 -0.00052576881806367173 -0.023535188146050205 0 -0.00060753014549998088 -0.023428479019164811 0 -0.00059781474235980016 -0.023441312847236991 0 -0.0002910069226024563 -0.023659641483754108 0 -0.00060753014549998088 -0.023428479019164811 0 -0.00024695129708812594 -0.023510939349401731 0 -7.5171349935404671e-05 -0.022693761352043731 0 -0.00047083837964392882 -0.022955621926703754 0 -0.00058226249254505471 -0.02219843163035198 0 8.7899104099685092e-07 -0.022695065565826834 0 -7.5171349935404671e-05 -0.022693761352043731 0 -2.1506272667686055e-06 -0.021027209312939665 0 -0.00024695129708812594 -0.023510939349401731 0 -7.5171349935404671e-05 -0.022693761352043731 0 -0.00047083837964392882 -0.022955621926703754 0 -0.00056190789283241645 -0.023506495127246663 0 -0.00088277075737280841 -0.022316338750015173 0 -0.00060753014549998088 -0.023428479019164811 0 -0.0013971019795901202 -0.022828458004650113 0 -0.0012032295883309112 -0.022692949451701215 0 -0.00060753014549998088 -0.023428479019164811 0 -0.00047083837964392882 -0.022955621926703754 0 -0.0012032295883309112 -0.022692949451701215 0 -0.00047083837964392882 -0.022955621926703754 0 -0.00058226249254505471 -0.02219843163035198 0 -0.0012032295883309112 -0.022692949451701215 0 -1.9096616168478608e-07 -0.021024099571412165 0 -8.336418952566713e-06 -0.020144175077133723 0 1.8556894983541294e-07 -0.020062290676318425 0 -0.00058226249254505471 -0.02219843163035198 0 -0.0013061214447003522 -0.021558092832081953 0 -0.0012032295883309112 -0.022692949451701215 0 -0.00058226249254505471 -0.02219843163035198 0 -2.1506272667686055e-06 -0.021027209312939665 0 -0.0013061214447003522 -0.021558092832081953 0 -7.0914964191714731e-09 -0.021024116343397178 0 -0.0006458215749124244 -0.0208656186573862 0 -7.5171349935404671e-05 -0.022693761352043731 0 -0.00058226249254505471 -0.02219843163035198 0 -2.1506272667686055e-06 -0.021027209312939665 0 -0.00062106127632915065 -0.020973840873796872 0 -0.00066824373113630688 -0.021064381687593028 0 -0.00075677933667949392 -0.021008085745799061 0 -0.00071301105369678936 -0.020536745965961528 0 -0.00064449394008140085 -0.020226975405798486 0 -1.9590878358230899e-07 -0.019101861161978116 0 9.3804615018963754e-06 -0.019566242542843729 0 1.8556894983541294e-07 -0.020062290676318425 0 -0.00078953732658339627 -0.0195196177919847 0 -0.00075066172783972253 -0.019564602563232003 0 -0.00045087471902445275 -0.01940501244733386 0 -0.00075066172783972253 -0.019564602563232003 0 -0.00040753642321048636 -0.019462238513047129 0 -0.00045087471902445275 -0.01940501244733386 0 -5.9772956546062298e-07 -0.019099780567664416 0 -0.00021292576250257897 -0.018859184625678441 0 8.4731091000077915e-05 -0.018342963031877633 0 -0.0005201915684119664 -0.019621467838599221 0 -8.750152527139325e-05 -0.018895529884132713 0 -0.00071301105369678936 -0.020536745965961528 0 -0.0005201915684119664 -0.019621467838599221 0 -4.4111695933080718e-07 -0.019101416586578174 0 -0.0005201915684119664 -0.019621467838599221 0 -0.0023512623237862459 -0.021873653746066864 0 -0.0013061214447003522 -0.021558092832081953 0 -0.0012032295883309112 -0.022692949451701215 0 5.7671104976736068e-06 -0.019610192504993927 0 9.3804615018963754e-06 -0.019566242542843729 0 1.8556894983541294e-07 -0.020062290676318425 0 -0.00071301105369678936 -0.020536745965961528 0 -0.0006458215749124244 -0.0208656186573862 0 5.7671104976736068e-06 -0.019610192504993927 0 -8.336418952566713e-06 -0.020144175077133723 0 1.8556894983541294e-07 -0.020062290676318425 0 -0.00062106127632915065 -0.020973840873796872 0 -0.00052979956452083184 -0.021090076105381963 0 -0.00066824373113630688 -0.021064381687593028 0 -0.0023512623237862459 -0.021873653746066864 0 -0.0014755664586701717 -0.022879977806554121 0 -0.0012032295883309112 -0.022692949451701215 0 -0.00071301105369678936 -0.020536745965961528 0 -0.00088277075737280841 -0.022316338750015173 0 -0.00088277075737280841 -0.022316338750015173 0 -0.0011203850134825957 -0.022508330050632866 0 -0.00059759098595859781 -0.023400366959347982 0 -0.00066262993979615472 -0.023415896475448318 0 -0.00059781474235980016 -0.023441312847236991 0 -0.00088277075737280841 -0.022316338750015173 0 -0.00063985545090291716 -0.022294611307701797 0 -0.00052979956452083184 -0.021090076105381963 0 -0.00066824373113630688 -0.021064381687593028 0 -0.00064734315353236443 -0.021168884484272062 0 -0.00066824373113630688 -0.021064381687593028 0 -0.00074685335683273438 -0.021106597714005939 0 -0.00075677933667949392 -0.021008085745799061 0 -0.00066824373113630688 -0.021064381687593028 0 -0.00064734315353236443 -0.021168884484272062 0 -0.00074685335683273438 -0.021106597714005939 0 -0.00063985545090291716 -0.022294611307701797 0 -0.00075719187381967715 -0.022005152127660559 0 -0.00064734315353236443 -0.021168884484272062 0 -0.00076785266933158264 -0.021253222821658122 0 -0.00074685335683273438 -0.021106597714005939 0 -0.00066262993979615472 -0.023415896475448318 0 -0.00069517399380237134 -0.023492189956596327 0 -0.00060222024975387664 -0.023519827331073877 0 -0.00066262993979615472 -0.023415896475448318 0 -0.00069517399380237134 -0.023492189956596327 0 -0.00078196420460190411 -0.023477439617853375 0 -0.00060753014549998088 -0.023428479019164811 0 -0.00059759098595859781 -0.023400366959347982 0 -0.00059781474235980016 -0.023441312847236991 0 -0.00066262993979615472 -0.023415896475448318 0 -0.00059781474235980016 -0.023441312847236991 0 -0.00060222024975387664 -0.023519827331073877 0 -0.00052576881806367173 -0.023535188146050205 0 -0.00059781474235980016 -0.023441312847236991 0 -0.00060222024975387664 -0.023519827331073877 0 -0.00060222024975387664 -0.023519827331073877 0 -0.00073379059987334252 -0.023567821764567707 0 -0.00048741828521820191 -0.02366596224710097 0 -0.00052576881806367173 -0.023535188146050205 0 -0.00060222024975387664 -0.023519827331073877 0 -0.00048741828521820191 -0.02366596224710097 0 -0.00069517399380237134 -0.023492189956596327 0 -0.00060222024975387664 -0.023519827331073877 0 -0.00073379059987334252 -0.023567821764567707 0 -0.00068102375846607695 -0.022225336221361174 0 -0.00057385563284401912 -0.02277455659830669 0 -0.00069517399380237134 -0.023492189956596327 0 -0.00073379059987334252 -0.023567821764567707 0 -0.00078196420460190411 -0.023477439617853375 0 -0.00068102375846607695 -0.022225336221361174 0 -0.00089138857514652558 -0.021626011393425779 0 -0.00084703361202539431 -0.021671355869473444 0 -0.00077941984297737394 -0.021774226925483579 0 -0.00086889344118656583 -0.021748162540713142 0 -0.00077941984297737394 -0.021774226925483579 0 -0.00082916908175620265 -0.02185090026131685 0 -0.00086889344118656583 -0.021748162540713142 0 -0.00085252803803557292 -0.021657737477991042 0 -0.00077941984297737394 -0.021774226925483579 0 -0.00063927565205445667 -0.021798084530600635 0 -0.00077941984297737394 -0.021774226925483579 0 -0.00082916908175620265 -0.02185090026131685 0 -0.00070351860484525373 -0.021925267781314314 0 -0.00082916908175620265 -0.02185090026131685 0 -0.00070351860484525373 -0.021925267781314314 0 -0.00077428943920924715 -0.021952119902458867 0 -0.00070351860484525373 -0.021925267781314314 0 -0.00053386979571221169 -0.022080382520665198 0 -0.00063004560590653217 -0.022048130278715446 0 -0.00070351860484525373 -0.021925267781314314 0 -0.00063927565205445667 -0.021798084530600635 0 -0.00053386979571221169 -0.022080382520665198 0 -0.00070351860484525373 -0.021925267781314314 0 -0.00077428943920924715 -0.021952119902458867 0 -0.00063004560590653217 -0.022048130278715446 0 -0.00077941984297737394 -0.021774226925483579 0 -0.00070351860484525373 -0.021925267781314314 0 -0.00063927565205445667 -0.021798084530600635 0 -0.0002910069226024563 -0.023659641483754108 0 -0.00048741828521820191 -0.02366596224710097 0 -0.0001721058674955393 -0.023515909740655896 0 -0.00057385563284401912 -0.02277455659830669 0 -0.00035191740654147641 -0.022795408112655499 0 -0.00063927565205445667 -0.021798084530600635 0 -0.000414997052845738 -0.022125836807865777 0 -0.00053386979571221169 -0.022080382520665198 0 -0.00029387911240002899 -0.023473558340628389 0 -0.0002910069226024563 -0.023659641483754108 0 -0.0001721058674955393 -0.023515909740655896 0 -0.000414997052845738 -0.022125836807865777 0 -0.00053386979571221169 -0.022080382520665198 0 -0.00042033796679110248 -0.022285973054734409 0 -0.00044282403842233836 -0.022397862217766198 0 -0.000414997052845738 -0.022125836807865777 0 -0.00042033796679110248 -0.022285973054734409 0 -0.00053386979571221169 -0.022080382520665198 0 -0.00044537513708478891 -0.022194360095477237 0 -0.00063004560590653217 -0.022048130278715446 0 -0.00044537513708478891 -0.022194360095477237 0 -0.00061861162335499146 -0.022161293724895378 0 -0.00063004560590653217 -0.022048130278715446 0 -0.00053386979571221169 -0.022080382520665198 0 -0.00044537513708478891 -0.022194360095477237 0 -0.00042033796679110248 -0.022285973054734409 0 -0.00044537513708478891 -0.022194360095477237 0 -0.00042033796679110248 -0.022285973054734409 0 -0.00037857484872438229 -0.022227367475041677 0 -0.00045484923428870162 -0.022344184746901551 0 -0.00042033796679110248 -0.022285973054734409 0 -0.00037857484872438229 -0.022227367475041677 0 -0.00045484923428870162 -0.022344184746901551 0 -0.00044282403842233836 -0.022397862217766198 0 -0.00042033796679110248 -0.022285973054734409 0 -0.00044537513708478891 -0.022194360095477237 0 -0.00037857484872438229 -0.022227367475041677 0 -0.00034100982469400571 -0.022377657081096021 0 2.4168649473173917e-05 -0.022188728203074378 0 -0.00034293899026450423 -0.022398034749773494 0 -0.00044537513708478891 -0.022194360095477237 0 -0.00061861162335499146 -0.022161293724895378 0 -0.00034100982469400571 -0.022377657081096021 0 -0.00061861162335499146 -0.022161293724895378 0 -0.00076472371525079601 -0.022276304801970969 0 -0.00034100982469400571 -0.022377657081096021 0 -0.00061861162335499146 -0.022161293724895378 0 -0.00078783451715073636 -0.022051607228073873 0 -0.00076472371525079601 -0.022276304801970969 0 -0.00078783451715073636 -0.022051607228073873 0 -0.00089485364908308462 -0.021861737584098928 0 -0.00089868505144510727 -0.021951059923950904 0 -0.00078783451715073636 -0.022051607228073873 0 -0.00088746596851640449 -0.022117158110311598 0 -0.00076472371525079601 -0.022276304801970969 0 -0.00078783451715073636 -0.022051607228073873 0 -0.00089868505144510727 -0.021951059923950904 0 -0.00088746596851640449 -0.022117158110311598 0 -0.00082916908175620265 -0.02185090026131685 0 -0.00077428943920924715 -0.021952119902458867 0 -0.00089485364908308462 -0.021861737584098928 0 -0.00078783451715073636 -0.022051607228073873 0 -0.00077428943920924715 -0.021952119902458867 0 -0.00089485364908308462 -0.021861737584098928 0 -0.00061861162335499146 -0.022161293724895378 0 -0.00078783451715073636 -0.022051607228073873 0 -0.00063004560590653217 -0.022048130278715446 0 -0.00078783451715073636 -0.022051607228073873 0 -0.00077428943920924715 -0.021952119902458867 0 -0.00063004560590653217 -0.022048130278715446 0 -0.00096838790689600667 -0.021747072024314376 0 -0.0010058487500579655 -0.021390433846953927 0 -0.00097220964040419834 -0.021687803670635532 0 -0.00089485364908308462 -0.021861737584098928 0 -0.00096838790689600667 -0.021747072024314376 0 -0.00097220964040419834 -0.021687803670635532 0 -0.00089485364908308462 -0.021861737584098928 0 -0.00097220964040419834 -0.021687803670635532 0 -0.00091005488532584897 -0.021784189799974513 0 -0.00089868505144510727 -0.021951059923950904 0 -0.00094624776665800043 -0.021954104940754206 0 -0.00088746596851640449 -0.022117158110311598 0 -0.00089485364908308462 -0.021861737584098928 0 -0.00089868505144510727 -0.021951059923950904 0 -0.00096838790689600667 -0.021747072024314376 0 -0.00089868505144510727 -0.021951059923950904 0 -0.00096838790689600667 -0.021747072024314376 0 -0.00094624776665800043 -0.021954104940754206 0 -0.00096838790689600667 -0.021747072024314376 0 -0.0010880924723631826 -0.021593677919313652 0 -0.00099632024928146459 -0.021880152891581271 0 -0.00096838790689600667 -0.021747072024314376 0 -0.0010880924723631826 -0.021593677919313652 0 -0.0010058487500579655 -0.021390433846953927 0 -0.0010880924723631826 -0.021593677919313652 0 -0.0012648878035226535 -0.021319401728111854 0 -0.0010058487500579655 -0.021390433846953927 0 -0.0010880924723631826 -0.021593677919313652 0 -0.0012648878035226535 -0.021319401728111854 0 -0.001330636149947469 -0.02143494710546184 0 -0.0010058487500579655 -0.021390433846953927 0 -0.0010697604033827915 -0.02095630431419411 0 -0.0013913574916429108 -0.021040655171107248 0 -0.0012648878035226535 -0.021319401728111854 0 -0.0010058487500579655 -0.021390433846953927 0 -0.0013913574916429108 -0.021040655171107248 0 -0.0010058487500579655 -0.021390433846953927 0 -0.00095148495641058305 -0.021674382513109516 0 -0.00097220964040419834 -0.021687803670635532 0 -0.0010058487500579655 -0.021390433846953927 0 -0.00072666647969801856 -0.020778893171644774 0 -0.0010697604033827915 -0.02095630431419411 0 -0.00097571792431127517 -0.02138329975139586 0 -0.00086171497014507698 -0.021248799512696117 0 -0.00072666647969801856 -0.020778893171644774 0 -0.0010697604033827915 -0.02095630431419411 0 -0.00098111121185067611 -0.020681374577691189 0 -0.0010697604033827915 -0.02095630431419411 0 -0.0012229093159860773 -0.020678753646759945 0 -0.0013913574916429108 -0.021040655171107248 0 -0.0010697604033827915 -0.02095630431419411 0 -0.0012229093159860773 -0.020678753646759945 0 -0.00098111121185067611 -0.020681374577691189 0 -0.0012229093159860773 -0.020678753646759945 0 -0.0010093406252899265 -0.020485962094691553 0 -0.00098111121185067611 -0.020681374577691189 0 -0.0010093406252899265 -0.020485962094691553 0 -0.0011627492414215332 -0.020394407219764387 0 -0.0010282268711203722 -0.020256186165525943 0 -0.0012229093159860773 -0.020678753646759945 0 -0.0010093406252899265 -0.020485962094691553 0 -0.0011627492414215332 -0.020394407219764387 0 -0.0012229093159860773 -0.020678753646759945 0 -0.0011627492414215332 -0.020394407219764387 0 -0.0013466637155327391 -0.020429234885597943 0 -0.00072666647969801856 -0.020778893171644774 0 -0.00067250344743299134 -0.020407111207763621 0 -0.00056915533966708505 -0.020333387103174887 0 -0.00072666647969801856 -0.020778893171644774 0 -0.00085317423545066835 -0.020532736381764918 0 -0.00067250344743299134 -0.020407111207763621 0 -0.00086171497014507698 -0.021248799512696117 0 -0.00074875304622446274 -0.0209057365448014 0 -0.0010093406252899265 -0.020485962094691553 0 -0.00098111121185067611 -0.020681374577691189 0 -0.00085317423545066835 -0.020532736381764918 0 -0.00072666647969801856 -0.020778893171644774 0 -0.00098111121185067611 -0.020681374577691189 0 -0.00085317423545066835 -0.020532736381764918 0 -0.0010093406252899265 -0.020485962094691553 0 -0.00085317423545066835 -0.020532736381764918 0 -0.00084929189225468426 -0.020343543866529458 0 -0.00085317423545066835 -0.020532736381764918 0 -0.00067250344743299134 -0.020407111207763621 0 -0.00084929189225468426 -0.020343543866529458 0 -0.00095148495641058305 -0.021674382513109516 0 -0.0009526302262727733 -0.021706145894055732 0 -0.00095741407990285513 -0.02169369667453129 0 -0.0009526302262727733 -0.021706145894055732 0 -0.00092670292494297817 -0.021702317986819243 0 -0.00095741407990285513 -0.02169369667453129 0 -0.0009526302262727733 -0.021706145894055732 0 -0.00097220964040419834 -0.021687803670635532 0 -0.00092781883410888457 -0.021742398293567711 0 -0.00095148495641058305 -0.021674382513109516 0 -0.0009526302262727733 -0.021706145894055732 0 -0.00097220964040419834 -0.021687803670635532 0 -0.00082916908175620265 -0.02185090026131685 0 -0.00091005488532584897 -0.021784189799974513 0 -0.00092781883410888457 -0.021742398293567711 0 -0.00082916908175620265 -0.02185090026131685 0 -0.00089485364908308462 -0.021861737584098928 0 -0.00091005488532584897 -0.021784189799974513 0 -0.00082916908175620265 -0.02185090026131685 0 -0.00092781883410888457 -0.021742398293567711 0 -0.00086889344118656583 -0.021748162540713142 0 -0.00097220964040419834 -0.021687803670635532 0 -0.00091005488532584897 -0.021784189799974513 0 -0.00092781883410888457 -0.021742398293567711 0 -0.00084703361202539431 -0.021671355869473444 0 -0.00086889344118656583 -0.021748162540713142 0 -0.00092670292494297817 -0.021702317986819243 0 -0.00092781883410888457 -0.021742398293567711 0 -0.00086889344118656583 -0.021748162540713142 0 -0.00092670292494297817 -0.021702317986819243 0 -0.0009526302262727733 -0.021706145894055732 0 -0.00092781883410888457 -0.021742398293567711 0 -0.00092670292494297817 -0.021702317986819243 0 -0.00084703361202539431 -0.021671355869473444 0 -0.00092670292494297817 -0.021702317986819243 0 -0.00091452630839361005 -0.021648121897715068 0 -0.00068102375846607695 -0.022225336221361174 0 -0.00075719187381967715 -0.022005152127660559 0 -0.00068102375846607695 -0.022225336221361174 0 -0.00075712523983814 -0.021411251791775495 0 -0.00060745551257511572 -0.021954778399499691 0 -0.00084108668628108904 -0.021850677785952618 0 -0.00072716365632532998 -0.021773318336212825 0 -0.00074875304622446274 -0.0209057365448014 0 -0.00056572544266473581 -0.020356874767631462 0 -0.00066202102519967259 -0.02092891127249473 0 -0.00067547977329544329 -0.020937136989962128 0 -0.00067013486813644995 -0.020923334818528577 0 -0.00075712523983814 -0.021411251791775495 0 -0.00074875304622446274 -0.0209057365448014 0 -0.00092670292494297817 -0.021702317986819243 0 -0.00091452630839361005 -0.021648121897715068 0 -0.00095741407990285513 -0.02169369667453129 0 -0.00056900241265071718 -0.020335300174767867 0 -0.00043073787191324597 -0.019984339718588012 0 -0.00069819889744085852 -0.020168970858636552 0 -0.00057946052142027605 -0.020666591132437347 0 -0.00074875304622446274 -0.0209057365448014 0 -0.00041470647151801407 -0.019614468423624423 0 -0.00046279016608708769 -0.019492559392262396 0 -0.00034904672537075808 -0.019459574061019367 0 -0.00043073787191324597 -0.019984339718588012 0 -0.00079327750842164322 -0.019822206932206328 0 -0.00069819889744085852 -0.020168970858636552 0 -0.00041470647151801407 -0.019614468423624423 0 -0.00046279016608708769 -0.019492559392262396 0 -0.00057259339353537056 -0.019536693831812925 0 -0.00056572544266473581 -0.020356874767631462 0 -0.00067552510776355986 -0.019697617261684595 0 -0.00056572544266473581 -0.020356874767631462 0 -0.00060855057054825655 -0.020246071029279694 0 -0.00075712523983814 -0.021411251791775495 0 -0.00056572544266473581 -0.020356874767631462 0 -0.00088172459946036 -0.02102544851567769 0 -0.00047150907210163494 -0.0210226903842765 0 -0.00071885240824310747 -0.02064357351738693 0 -0.00076785266933158264 -0.021253222821658122 0 -0.00074685335683273438 -0.021106597714005939 0 -0.00085124432363424161 -0.021115857946071272 0 -0.00075719187381967715 -0.022005152127660559 0 -0.00060855057054825655 -0.020246071029279694 0 -0.00063705373012039226 -0.021135245315009866 0 -0.00088172459946036 -0.02102544851567769 0 -0.00047150907210163494 -0.0210226903842765 0 -0.00075712523983814 -0.021411251791775495 0 -0.00075719187381967715 -0.022005152127660559 0 -0.00037690085803905777 -0.019369999709449585 0 -0.00064449394008140085 -0.020226975405798486 0 -0.00074685335683273438 -0.021106597714005939 0 -0.00089535077380297726 -0.021039775255717381 0 -0.00075677933667949392 -0.021008085745799061 0 -0.00074685335683273438 -0.021106597714005939 0 -0.00085124432363424161 -0.021115857946071272 0 -0.00089535077380297726 -0.021039775255717381 0 -0.00052252369396692234 -0.017999550861434871 0 -0.00050128282106011142 -0.018029251346445695 0 -0.00037508149211536596 -0.017942781678892513 0 -0.00046279016608708769 -0.019492559392262396 0 -0.00034904672537075808 -0.019459574061019367 0 -0.0004034532282193402 -0.01937513884715961 0 -0.00060855057054825655 -0.020246071029279694 0 -0.00037690085803905777 -0.019369999709449585 0 -0.00046279016608708769 -0.019492559392262396 0 -0.0004034532282193402 -0.01937513884715961 0 -0.00056642271522749444 -0.019418050494337449 0 -0.00037690085803905777 -0.019369999709449585 0 -0.00046093960182979623 -0.018673547320601162 0 -0.00037690085803905777 -0.019369999709449585 0 -0.00036605433969065157 -0.017987321775780673 0 -0.00036605433969065157 -0.017987321775780673 0 -3.7986870416355432e-07 -0.017084889972913971 0 -1.9962540538875117e-05 -0.017991219446248055 0 5.9383170959864273e-07 -0.018092966683247984 0 -5.9941089941793111e-07 -0.017086699904093866 0 -0.00011470374232186746 -0.019290964191549746 0 -6.7323249011526818e-05 -0.019360117370888209 0 -0.00040753642321048636 -0.019462238513047129 0 -1.9962540538875117e-05 -0.017991219446248055 0 5.9383170959864273e-07 -0.018092966683247984 0 8.4731091000077915e-05 -0.018342963031877633 0 -0.00011470374232186746 -0.019290964191549746 0 -0.00040753642321048636 -0.019462238513047129 0 -0.00045087471902445275 -0.01940501244733386 0 -5.9772956546062298e-07 -0.019099780567664416 0 5.9383170959864273e-07 -0.018092966683247984 0 8.4731091000077915e-05 -0.018342963031877633 0 -0.00036605433969065157 -0.017987321775780673 0 -8.750152527139325e-05 -0.018895529884132713 0 -0.00055460414945521187 -0.016383307983628137 0 -1.1112040746484571e-06 -0.017083314274428048 0 0.00011373529450555861 -0.016078898670530833 0 1.120970206454493e-06 -0.015774334745069979 0 -1.1112040746484571e-06 -0.017083314274428048 0 0.00011373529450555861 -0.016078898670530833 0 -0.00046093960182979623 -0.018673547320601162 0 -0.00055592688164933101 -0.018254499477186815 0 -0.00036605433969065157 -0.017987321775780673 0 -9.212394862955166e-05 -0.016949009326963551 0 -0.00032967089614428736 -0.017969620419551583 0 -0.00037508149211536596 -0.017942781678892513 0 -0.00023351879046923675 -0.017891446720585853 0 -0.00056642271522749444 -0.019418050494337449 0 -0.0007279897865134741 -0.019456573012271806 0 -0.00057259339353537056 -0.019536693831812925 0 -0.00050128282106011142 -0.018029251346445695 0 -0.00032967089614428736 -0.017969620419551583 0 -0.00037508149211536596 -0.017942781678892513 0 -0.00032967089614428736 -0.017969620419551583 0 -0.00023351879046923675 -0.017891446720585853 0 -0.00016578841978182011 -0.017915586305804247 0 -9.212394862955166e-05 -0.016949009326963551 0 -0.00015616028481239946 -0.016990573076270023 0 1.120970206454493e-06 -0.015774334745069979 0 0.00011373529450555861 -0.016078898670530833 0 1.8283941999057314e-05 -0.015742164357320138 0 -0.00055592688164933101 -0.018254499477186815 0 -0.00015616028481239946 -0.016990573076270023 0 -0.0011489296274318724 -0.01965923029836078 0 -0.001050911422384371 -0.01999147607453395 0 -0.00079327750842164322 -0.019822206932206328 0 -0.0011489296274318724 -0.01965923029836078 0 -0.001050911422384371 -0.01999147607453395 0 -0.0013104745482968494 -0.019966456951049306 0 -0.00055592688164933101 -0.018254499477186815 0 -0.00067552510776355986 -0.019697617261684595 0 -0.00046279016608708769 -0.019492559392262396 0 -0.00056642271522749444 -0.019418050494337449 0 -0.00057259339353537056 -0.019536693831812925 0 -0.001050911422384371 -0.01999147607453395 0 -0.00079327750842164322 -0.019822206932206328 0 -0.00087584559097675201 -0.020125991803738249 0 -0.00079327750842164322 -0.019822206932206328 0 -0.00069819889744085852 -0.020168970858636552 0 -0.00087584559097675201 -0.020125991803738249 0 -0.00087584559097675201 -0.020125991803738249 0 -0.00084929189225468426 -0.020343543866529458 0 -0.0010282268711203722 -0.020256186165525943 0 -0.0010093406252899265 -0.020485962094691553 0 -0.00084929189225468426 -0.020343543866529458 0 -0.0010282268711203722 -0.020256186165525943 0 -0.00069819889744085852 -0.020168970858636552 0 -0.00087584559097675201 -0.020125991803738249 0 -0.00084929189225468426 -0.020343543866529458 0 -0.00067250344743299134 -0.020407111207763621 0 -0.00056900241265071718 -0.020335300174767867 0 -0.00069819889744085852 -0.020168970858636552 0 -0.00067250344743299134 -0.020407111207763621 0 -0.00069819889744085852 -0.020168970858636552 0 -0.00084929189225468426 -0.020343543866529458 0 -0.001050911422384371 -0.01999147607453395 0 -0.0012187609770579776 -0.020199822120412981 0 -0.0013104745482968494 -0.019966456951049306 0 -0.001050911422384371 -0.01999147607453395 0 -0.00087584559097675201 -0.020125991803738249 0 -0.0010282268711203722 -0.020256186165525943 0 -0.001050911422384371 -0.01999147607453395 0 -0.0012187609770579776 -0.020199822120412981 0 -0.0010282268711203722 -0.020256186165525943 0 -0.0011627492414215332 -0.020394407219764387 0 -0.0012187609770579776 -0.020199822120412981 0 -0.0010282268711203722 -0.020256186165525943 0 -0.0011627492414215332 -0.020394407219764387 0 -0.0012187609770579776 -0.020199822120412981 0 -0.0013466637155327391 -0.020429234885597943 0 -0.0014656961041237455 -0.020211288128402324 0 -0.0013466637155327391 -0.020429234885597943 0 -0.0015836315878913628 -0.020487564636241105 0 -0.0012187609770579776 -0.020199822120412981 0 -0.0014656961041237455 -0.020211288128402324 0 -0.0013466637155327391 -0.020429234885597943 0 -0.0014656961041237455 -0.020211288128402324 0 -0.0017859970780762563 -0.02021249038431935 0 -0.0015836315878913628 -0.020487564636241105 0 -0.0014656961041237455 -0.020211288128402324 0 -0.0017859970780762563 -0.02021249038431935 0 -0.0015678156597240583 -0.019983076360452424 0 -0.0014656961041237455 -0.020211288128402324 0 -0.0013104745482968494 -0.019966456951049306 0 -0.0015678156597240583 -0.019983076360452424 0 -0.0012187609770579776 -0.020199822120412981 0 -0.0014656961041237455 -0.020211288128402324 0 -0.0013104745482968494 -0.019966456951049306 0 0.00063284993357403134 -0.018245453626818248 0 4.2201775866466503e-05 -0.018134847874488057 0 0.00041683580475499458 -0.01856377074115801 0 0.00063284993357403134 -0.018245453626818248 0 0.00062160005633565233 -0.017584737541100365 0 0.00024813370006388028 -0.017965467187565292 0 0.00063284993357403134 -0.018245453626818248 0 0.00024813370006388028 -0.017965467187565292 0 4.2201775866466503e-05 -0.018134847874488057 0 -0.00057744028324620137 -0.01962174046154553 0 -0.00064191436332739339 -0.016086031595878836 0 -0.0017859970780762563 -0.02021249038431935 0 -0.0017881018568987434 -0.01983181281733417 0 -0.0015678156597240583 -0.019983076360452424 0 -0.0013104745482968494 -0.019966456951049306 0 -0.0015678156597240583 -0.019983076360452424 0 -0.001467457284785121 -0.019749911071793982 0 -0.0017881018568987434 -0.01983181281733417 0 -0.0015678156597240583 -0.019983076360452424 0 -0.001467457284785121 -0.019749911071793982 0 -0.00064191436332739339 -0.016086031595878836 0 -0.001260920258512059 -0.018106018016714492 0 -0.0011489296274318724 -0.01965923029836078 0 -0.0013104745482968494 -0.019966456951049306 0 -0.001467457284785121 -0.019749911071793982 0 -0.00055592688164933101 -0.018254499477186815 0 -0.001260920258512059 -0.018106018016714492 0 -0.00015616028481239946 -0.016990573076270023 0 -0.00076360250684110852 -0.01382810832398995 0 -0.00062383700382054048 -0.01643923596714246 0 -0.00039884009412091584 -0.016172759924754573 0 -0.0011342288958762672 -0.015828584822491311 0 -0.00012467386704849475 -0.016301992841818196 0 -0.00062383700382054048 -0.01643923596714246 0 -0.00039884009412091584 -0.016172759924754573 0 -0.00064191436332739339 -0.016086031595878836 0 -0.00076360250684110852 -0.01382810832398995 0 -0.0013598477055616011 -0.011099273583092342 0 -0.0013816075150416256 -0.011762376282245477 0 -0.00086419231734990683 -0.011376955291620828 0 -0.0011260462819366087 -0.016580758570885156 0 -0.00062383700382054048 -0.01643923596714246 0 -0.0011342288958762672 -0.015828584822491311 0 -0.00076360250684110852 -0.01382810832398995 0 -6.0066561639077902e-08 -0.014464223500916243 0 -9.4243924399358084e-05 -0.013989423444233439 0 -3.1307765874988321e-07 -0.01446192920851137 0 4.2432067043276614e-05 -0.013712095945605242 0 1.120970206454493e-06 -0.015774334745069979 0 1.8283941999057314e-05 -0.015742164357320138 0 -1.2852994032429995e-05 -0.015219086306643752 0 1.120970206454493e-06 -0.015774334745069979 0 -1.2852994032429995e-05 -0.015219086306643752 0 -1.1463946329387143e-06 -0.014465718152655673 0 -1.0220288815354855e-06 -0.012559274496164698 0 -0.00084610688480781394 -0.012033647442676505 0 -0.00031083105266648014 -0.011482397326715653 0 1.3066317002529292e-07 -0.012562023150829405 0 -0.00037235860187218332 -0.012786866163129853 0 -2.9675185866966528e-07 -0.012561997562093722 0 2.9708365397222661e-07 -0.013513309603932247 0 4.2432067043276614e-05 -0.013712095945605242 0 -0.00076360250684110852 -0.01382810832398995 0 -0.00037235860187218332 -0.012786866163129853 0 -3.1307765874988321e-07 -0.01446192920851137 0 2.9708365397222661e-07 -0.013513309603932247 0 4.2432067043276614e-05 -0.013712095945605242 0 -0.00084610688480781394 -0.012033647442676505 0 -0.00086419231734990683 -0.011376955291620828 0 -0.00031083105266648014 -0.011482397326715653 0 -0.0013816075150416256 -0.011762376282245477 0 -0.00084610688480781394 -0.012033647442676505 0 -0.00086419231734990683 -0.011376955291620828 0 -0.00086419231734990683 -0.011376955291620828 0 -0.00031083105266648014 -0.011482397326715653 0 -0.00049404530363119422 -0.011215772299503284 0 -0.00017798013621601668 -0.011109355256070331 0 -0.00031083105266648014 -0.011482397326715653 0 -0.00049404530363119422 -0.011215772299503284 0 -0.00017798013621601668 -0.011109355256070331 0 -0.00049404530363119422 -0.011215772299503284 0 -0.00059927152294420353 -0.010890744860604536 0 -0.00014460785465592721 -0.010956732739964141 0 -0.00017798013621601668 -0.011109355256070331 0 -0.00059927152294420353 -0.010890744860604536 0 -0.0013598477055616011 -0.011099273583092342 0 -0.00086419231734990683 -0.011376955291620828 0 -0.00059927152294420353 -0.010890744860604536 0 -0.00086419231734990683 -0.011376955291620828 0 -0.00049404530363119422 -0.011215772299503284 0 -0.00059927152294420353 -0.010890744860604536 0 -0.00064191436332739339 -0.016086031595878836 0 -0.00034348189673198839 -0.014183398308629622 0 0.00062160005633565233 -0.017584737541100365 0 -0.00029968577719147562 -0.017901835389127933 0 0.00024813370006388028 -0.017965467187565292 0 -0.00029968577719147562 -0.017901835389127933 0 4.2201775866466503e-05 -0.018134847874488057 0 -0.00022450048377147477 -0.018107482211685268 0 -0.00029968577719147562 -0.017901835389127933 0 0.00024813370006388028 -0.017965467187565292 0 4.2201775866466503e-05 -0.018134847874488057 0 4.2201775866466503e-05 -0.018134847874488057 0 -0.00022450048377147477 -0.018107482211685268 0 -0.00026029549294944381 -0.018383583968698654 0 4.2201775866466503e-05 -0.018134847874488057 0 -0.00026029549294944381 -0.018383583968698654 0 7.9938190648838289e-05 -0.018664224682199079 0 4.2201775866466503e-05 -0.018134847874488057 0 7.9938190648838289e-05 -0.018664224682199079 0 0.00041683580475499458 -0.01856377074115801 0 -0.00057552584064854569 -0.017806104181792737 0 -0.00029968577719147562 -0.017901835389127933 0 -0.00034980533150809416 -0.017949561445406079 0 -0.0011294617344080795 -0.018435373462514792 0 -0.00034980533150809416 -0.017949561445406079 0 -0.00058105177891570154 -0.018355489720765807 0 -0.00038892542543890636 -0.014370672789171021 0 -0.00034348189673198839 -0.014183398308629622 0 -0.00011863176943040698 -0.010905520828938994 0 -0.00014460785465592721 -0.010956732739964141 0 -0.00059927152294420353 -0.010890744860604536 0 -0.00082421552488702793 -0.018124086965063069 0 -0.00037601652712002581 -0.01794579930590862 0 -0.00034980533150809416 -0.017949561445406079 0 -0.00033771000430917944 -0.018202155129626228 0 -0.00058105177891570154 -0.018355489720765807 0 -0.00029968577719147562 -0.017901835389127933 0 -0.00022450048377147477 -0.018107482211685268 0 -0.00034980533150809416 -0.017949561445406079 0 -0.00022450048377147477 -0.018107482211685268 0 -0.00034980533150809416 -0.017949561445406079 0 -0.00033771000430917944 -0.018202155129626228 0 -0.00026029549294944381 -0.018383583968698654 0 -0.00058105177891570154 -0.018355489720765807 0 -0.0005481858753355423 -0.01864259394356077 0 -0.00033771000430917944 -0.018202155129626228 0 -0.00026029549294944381 -0.018383583968698654 0 -0.00058105177891570154 -0.018355489720765807 0 -0.00022450048377147477 -0.018107482211685268 0 -0.00033771000430917944 -0.018202155129626228 0 -0.00026029549294944381 -0.018383583968698654 0 -0.00058105177891570154 -0.018355489720765807 0 -0.00082534385447899481 -0.01859839766223478 0 -0.0005481858753355423 -0.01864259394356077 0 -0.00082534385447899481 -0.01859839766223478 0 -0.0005481858753355423 -0.01864259394356077 0 -0.00081756119601932627 -0.018846482767223404 0 -0.00026029549294944381 -0.018383583968698654 0 -0.0005481858753355423 -0.01864259394356077 0 -0.00028147234679829153 -0.018831439024606531 0 -0.0005481858753355423 -0.01864259394356077 0 -0.00028147234679829153 -0.018831439024606531 0 -0.00060392040548963436 -0.019073748658312802 0 -0.00028147234679829153 -0.018831439024606531 0 -0.00060392040548963436 -0.019073748658312802 0 -0.00010690145793696122 -0.019296804102771851 0 -0.0005481858753355423 -0.01864259394356077 0 -0.00060392040548963436 -0.019073748658312802 0 -0.00081756119601932627 -0.018846482767223404 0 -0.0010356606921435177 -0.019148770050947939 0 -0.00060392040548963436 -0.019073748658312802 0 -0.00081756119601932627 -0.018846482767223404 0 -0.0010356606921435177 -0.019148770050947939 0 -0.00084270826206616853 -0.019707874061018517 0 -0.00060392040548963436 -0.019073748658312802 0 -0.0013269026771549877 -0.020150902426138668 0 -0.00083629128969119732 -0.019970119939761919 0 -0.00084270826206616853 -0.019707874061018517 0 -0.00060392040548963436 -0.019073748658312802 0 -0.00010690145793696122 -0.019296804102771851 0 -0.00028147234679829153 -0.018831439024606531 0 -0.00010690145793696122 -0.019296804102771851 0 7.9938190648838289e-05 -0.018664224682199079 0 -0.00010690145793696122 -0.019296804102771851 0 7.9938190648838289e-05 -0.018664224682199079 0 0.00064021753140028142 -0.01887877369117659 0 -0.00083629128969119732 -0.019970119939761919 0 -0.0010235240161156137 -0.019916967091199767 0 -0.00026029549294944381 -0.018383583968698654 0 -0.00028147234679829153 -0.018831439024606531 0 7.9938190648838289e-05 -0.018664224682199079 0 -0.00057744028324620137 -0.01962174046154553 0 -0.0010235240161156137 -0.019916967091199767 0 7.9938190648838289e-05 -0.018664224682199079 0 0.00041683580475499458 -0.01856377074115801 0 0.00064021753140028142 -0.01887877369117659 0 0.00063284993357403134 -0.018245453626818248 0 0.00041683580475499458 -0.01856377074115801 0 0.00064021753140028142 -0.01887877369117659 0 -0.0017859970780762563 -0.02021249038431935 0 -0.00177667527911753 -0.020590151684150869 0 -0.0015836315878913628 -0.020487564636241105 0 -0.0010235240161156137 -0.019916967091199767 0 -0.0017430598121460884 -0.020471038443440906 0 -0.0017007791317766373 -0.020588254688064633 0 -0.0015836315878913628 -0.020487564636241105 0 -0.001586339368634322 -0.020660707740976648 0 -0.0013466637155327391 -0.020429234885597943 0 -0.0015836315878913628 -0.020487564636241105 0 -0.0014428653999103318 -0.020596973277576751 0 -0.0015836315878913628 -0.020487564636241105 0 -0.001586339368634322 -0.020660707740976648 0 -0.0014428653999103318 -0.020596973277576751 0 -0.001586339368634322 -0.020660707740976648 0 -0.0014428653999103318 -0.020596973277576751 0 -0.0014955282950476279 -0.020784599347396328 0 -0.0012229093159860773 -0.020678753646759945 0 -0.0014428653999103318 -0.020596973277576751 0 -0.0014955282950476279 -0.020784599347396328 0 -0.0012229093159860773 -0.020678753646759945 0 -0.0013466637155327391 -0.020429234885597943 0 -0.0014428653999103318 -0.020596973277576751 0 -0.0012229093159860773 -0.020678753646759945 0 -0.0014955282950476279 -0.020784599347396328 0 -0.0013913574916429108 -0.021040655171107248 0 -0.001586339368634322 -0.020660707740976648 0 -0.0014955282950476279 -0.020784599347396328 0 -0.0016653686779936597 -0.020796920346926234 0 -0.0014955282950476279 -0.020784599347396328 0 -0.0015894512381809391 -0.020909093128489226 0 -0.0013913574916429108 -0.021040655171107248 0 -0.0017651127419401537 -0.020732838177377817 0 -0.0016578909044480841 -0.020694933170346746 0 -0.0016653686779936597 -0.020796920346926234 0 -0.0017651127419401537 -0.020732838177377817 0 -0.0016653686779936597 -0.020796920346926234 0 -0.0017110374120854544 -0.020831980642685363 0 -0.0010235240161156137 -0.019916967091199767 0 -0.0016131925622989301 -0.020981799072019639 0 -0.0017007791317766373 -0.020588254688064633 0 -0.001586339368634322 -0.020660707740976648 0 -0.0016653686779936597 -0.020796920346926234 0 -0.0014955282950476279 -0.020784599347396328 0 -0.0016653686779936597 -0.020796920346926234 0 -0.0015894512381809391 -0.020909093128489226 0 -0.0017110374120854544 -0.020831980642685363 0 -0.0016120906346674417 -0.021033644477924336 0 -0.0017938495627005011 -0.020726576731662692 0 -0.0016653686779936597 -0.020796920346926234 0 -0.0017110374120854544 -0.020831980642685363 0 -0.0015894512381809391 -0.020909093128489226 0 -0.0017110374120854544 -0.020831980642685363 0 -0.0015894512381809391 -0.020909093128489226 0 -0.0016120906346674417 -0.021033644477924336 0 -0.0012648878035226535 -0.021319401728111854 0 -0.0013913574916429108 -0.021040655171107248 0 -0.0016120906346674417 -0.021033644477924336 0 -0.0015894512381809391 -0.020909093128489226 0 -0.0013913574916429108 -0.021040655171107248 0 -0.0016120906346674417 -0.021033644477924336 0 -0.0016120906346674417 -0.021033644477924336 0 -0.0015690407631592895 -0.021230582118119283 0 -0.001330636149947469 -0.02143494710546184 0 -0.0012648878035226535 -0.021319401728111854 0 -0.0016120906346674417 -0.021033644477924336 0 -0.001330636149947469 -0.02143494710546184 0 -0.0016120906346674417 -0.021033644477924336 0 -0.0018229140590198746 -0.020946861465451303 0 -0.0015690407631592895 -0.021230582118119283 0 -0.0016120906346674417 -0.021033644477924336 0 -0.0017938495627005011 -0.020726576731662692 0 -0.0018229140590198746 -0.020946861465451303 0 -0.0017678533919465254 -0.020622767053896353 0 -0.0017938495627005011 -0.020726576731662692 0 -0.0018229140590198746 -0.020946861465451303 0 -0.00170277693612596 -0.020408613306989919 0 -0.0017678533919465254 -0.020622767053896353 0 -0.0017938495627005011 -0.020726576731662692 0 -0.00170277693612596 -0.020408613306989919 0 -0.0017111334203933392 -0.020374981700751287 0 -0.0017678533919465254 -0.020622767053896353 0 -0.0017240096704973441 -0.020596999496949164 0 -0.0017651127419401537 -0.020732838177377817 0 -0.0017938495627005011 -0.020726576731662692 0 -0.00170277693612596 -0.020408613306989919 0 -0.0017240096704973441 -0.020596999496949164 0 -0.0017938495627005011 -0.020726576731662692 0 -0.0017651127419401537 -0.020732838177377817 0 -0.0017110374120854544 -0.020831980642685363 0 -0.0017938495627005011 -0.020726576731662692 0 -0.0016781685403155029 -0.020671139246153068 0 -0.0015441489224990537 -0.020767710350225742 0 -0.0016652869509223265 -0.020777379216169629 0 -0.0018292431114698684 -0.020801291196343611 0 -0.0016910022301764654 -0.021321205637383305 0 -0.0023129100533828355 -0.021513108720520459 0 -0.0017602892082311584 -0.021619259750949457 0 -0.0017923714780139497 -0.021842498839032536 0 -0.0017171359772032717 -0.020465481724109919 0 -0.0018292431114698684 -0.020801291196343611 0 -0.0017111334203933392 -0.020374981700751287 0 -0.0017416903220617687 -0.020234926198958818 0 -0.0018063050700592624 -0.02031437082407599 0 -0.0017490582459030743 -0.020749316470674153 0 -0.0016781685403155029 -0.020671139246153068 0 -0.0016652869509223265 -0.020777379216169629 0 -0.0017111334203933392 -0.020374981700751287 0 -0.0017678533919465254 -0.020622767053896353 0 -0.0017816209324345851 -0.020454474945489163 0 -0.001786227768569488 -0.020369188615940229 0 -0.0018292431114698684 -0.020801291196343611 0 -0.0018292431114698684 -0.020801291196343611 0 -0.0019190585159128842 -0.020997892407724442 0 -0.0023129100533828355 -0.021513108720520459 0 -0.0018229140590198746 -0.020946861465451303 0 -0.0017602892082311584 -0.021619259750949457 0 -0.0017678533919465254 -0.020622767053896353 0 -0.0017816209324345851 -0.020454474945489163 0 -0.0018229140590198746 -0.020946861465451303 0 -0.0018229140590198746 -0.020946861465451303 0 -0.0015690407631592895 -0.021230582118119283 0 -0.001642252043976927 -0.021322651319775395 0 -0.0018229140590198746 -0.020946861465451303 0 -0.001642252043976927 -0.021322651319775395 0 -0.0017602892082311584 -0.021619259750949457 0 -0.0015690407631592895 -0.021230582118119283 0 -0.001642252043976927 -0.021322651319775395 0 -0.0014680108825622241 -0.021525306455732886 0 -0.001330636149947469 -0.02143494710546184 0 -0.0014680108825622241 -0.021525306455732886 0 -0.0013184943539084801 -0.021662104619436049 0 -0.0015690407631592895 -0.021230582118119283 0 -0.001330636149947469 -0.02143494710546184 0 -0.0014680108825622241 -0.021525306455732886 0 -0.0014680108825622241 -0.021525306455732886 0 -0.0017602892082311584 -0.021619259750949457 0 -0.0013571539147247235 -0.021866804150952077 0 -0.0014680108825622241 -0.021525306455732886 0 -0.0013184943539084801 -0.021662104619436049 0 -0.0013571539147247235 -0.021866804150952077 0 -0.0017387312870525307 -0.021642576391697328 0 -0.0013829370189243518 -0.021841007598223505 0 -0.0017602892082311584 -0.021619259750949457 0 -0.0015814647180926438 -0.021861805669191853 0 -0.0013947721645321096 -0.021828718173277754 0 -0.001642252043976927 -0.021322651319775395 0 -0.0014680108825622241 -0.021525306455732886 0 -0.0017602892082311584 -0.021619259750949457 0 -0.0017602892082311584 -0.021619259750949457 0 -0.0017923714780139497 -0.021842498839032536 0 -0.0015814647180926438 -0.021861805669191853 0 -0.0015441489224990537 -0.020767710350225742 0 -0.0014069086076464916 -0.020866054581063016 0 -0.0015088305984378623 -0.020887378682286142 0 -0.0017923714780139497 -0.021842498839032536 0 -0.0015814647180926438 -0.021861805669191853 0 -0.0014795683492488663 -0.022014180882405709 0 -0.0016910022301764654 -0.021321205637383305 0 -0.0014260621999108247 -0.021492593854998344 0 -0.0015814647180926438 -0.021861805669191853 0 -0.0013947721645321096 -0.021828718173277754 0 -0.0014795683492488663 -0.022014180882405709 0 -0.0013947721645321096 -0.021828718173277754 0 -0.0014795683492488663 -0.022014180882405709 0 -0.0013185159487202587 -0.021988826244212594 0 -0.0014069086076464916 -0.020866054581063016 0 -0.0014153728826128639 -0.020968181947224804 0 -0.0012691438993583952 -0.020965786278896448 0 -0.0013957848453247568 -0.020789703556950971 0 -0.0012329627003998796 -0.021107322115349453 0 -0.0014795683492488663 -0.022014180882405709 0 -0.0012638914539895485 -0.022138633436063784 0 -0.0013185159487202587 -0.021988826244212594 0 -0.0014260621999108247 -0.021492593854998344 0 -0.0012329627003998796 -0.021107322115349453 0 -0.0014153728826128639 -0.020968181947224804 0 -0.0015088305984378623 -0.020887378682286142 0 -0.0015599815867450041 -0.020968610793740922 0 -0.0013957848453247568 -0.020789703556950971 0 -0.0014464044972906111 -0.020817006372518609 0 -0.0014069086076464916 -0.020866054581063016 0 -0.0014153728826128639 -0.020968181947224804 0 -0.0015088305984378623 -0.020887378682286142 0 -0.0014464044972906111 -0.020817006372518609 0 -0.001844179044490115 -0.020493714536415172 0 -0.0015599815867450041 -0.020968610793740922 0 -0.0016163830265404418 -0.020867064164029777 0 -0.0017031617682846294 -0.020968931078733134 0 -0.0015088305984378623 -0.020887378682286142 0 -0.0015599815867450041 -0.020968610793740922 0 -0.0016163830265404418 -0.020867064164029777 0 -0.0015441489224990537 -0.020767710350225742 0 -0.0016163830265404418 -0.020867064164029777 0 -0.0016652869509223265 -0.020777379216169629 0 -0.0015441489224990537 -0.020767710350225742 0 -0.0015088305984378623 -0.020887378682286142 0 -0.0016163830265404418 -0.020867064164029777 0 -0.0018212588911966795 -0.02082713162943084 0 -0.0017490582459030743 -0.020749316470674153 0 -0.0017111790565049311 -0.020837884516216702 0 -0.0017490582459030743 -0.020749316470674153 0 -0.0016652869509223265 -0.020777379216169629 0 -0.0017111790565049311 -0.020837884516216702 0 -0.0016163830265404418 -0.020867064164029777 0 -0.0016652869509223265 -0.020777379216169629 0 -0.0017111790565049311 -0.020837884516216702 0 -0.0018212588911966795 -0.02082713162943084 0 -0.0017111790565049311 -0.020837884516216702 0 -0.0017031617682846294 -0.020968931078733134 0 -0.0018450037619277401 -0.020469436239171662 0 -0.001844179044490115 -0.020493714536415172 0 -0.0016163830265404418 -0.020867064164029777 0 -0.0017111790565049311 -0.020837884516216702 0 -0.0017031617682846294 -0.020968931078733134 0 -0.0020665035741455379 -0.020150783136258562 0 -0.0021122940075754661 -0.020195435315488945 0 -0.0021082267249678092 -0.020106868116435774 0 -0.0021122940075754661 -0.020195435315488945 0 -0.0021577208921242409 -0.020140006323701089 0 -0.0021082267249678092 -0.020106868116435774 0 -0.001844179044490115 -0.020493714536415172 0 -0.0018403656186559388 -0.020378879613758165 0 -0.0013878829663470621 -0.02071824709878109 0 -0.0016007539324069408 -0.020547213913066732 0 -0.0014218448641145653 -0.020636445403149749 0 -0.0015121728817643891 -0.020633834473239888 0 -0.0014635528771637044 -0.020686859981495019 0 -0.001419687883957304 -0.020649188626249107 0 -0.0014635528771637044 -0.020686859981495019 0 -0.0014249283369215475 -0.020731928138015231 0 -0.0014218448641145653 -0.020636445403149749 0 -0.001419687883957304 -0.020649188626249107 0 -0.0014635528771637044 -0.020686859981495019 0 -0.0022027596147877974 -0.020085385337789297 0 -0.0021082267249678092 -0.020106868116435774 0 -0.0021224382979232945 -0.020037782522994999 0 -0.0021577208921242409 -0.020140006323701089 0 -0.0022027596147877974 -0.020085385337789297 0 -0.0021082267249678092 -0.020106868116435774 0 -0.0018403656186559388 -0.020378879613758165 0 -0.0016007539324069408 -0.020547213913066732 0 -0.0023318129842440677 -0.019539725245642493 0 -0.0025973013687259003 -0.019359976073230947 0 -0.0020336190532188065 -0.020104098038909907 0 -0.0021082267249678092 -0.020106868116435774 0 -0.0021224382979232945 -0.020037782522994999 0 -0.0026879459142963476 -0.01883498426952598 0 -0.0028455238529501397 -0.018892190819793611 0 -0.002844011895360508 -0.018753720770395083 0 -0.0022027596147877974 -0.020085385337789297 0 -0.0021224382979232945 -0.020037782522994999 0 -0.0022063592882806422 -0.0199745760305883 0 -0.0025973013687259003 -0.019359976073230947 0 -0.0021246738747427735 -0.019963529178323711 0 -0.0028455238529501397 -0.018892190819793611 0 -0.002844011895360508 -0.018753720770395083 0 -0.0030203808699328298 -0.018754061963609917 0 -0.0016007539324069408 -0.020547213913066732 0 -0.0021246738747427735 -0.019963529178323711 0 -0.0030203808699328298 -0.018754061963609917 0 -0.0030225050182303812 -0.01858969628598596 0 -0.0028987760781187442 -0.018633080113839261 0 -0.002844011895360508 -0.018753720770395083 0 -0.0030203808699328298 -0.018754061963609917 0 -0.0028987760781187442 -0.018633080113839261 0 -0.0026879459142963476 -0.01883498426952598 0 -0.002844011895360508 -0.018753720770395083 0 -0.0027559374891456792 -0.018657654772584145 0 -0.002844011895360508 -0.018753720770395083 0 -0.0027559374891456792 -0.018657654772584145 0 -0.0028987760781187442 -0.018633080113839261 0 -0.0013446501060505971 -0.020734374775262479 0 -0.0013846656378400193 -0.020792318658710812 0 -0.0012992469854570391 -0.020828428481312285 0 -0.0013446501060505971 -0.020734374775262479 0 -0.0012574803849714708 -0.020727357850593906 0 -0.0012992469854570391 -0.020828428481312285 0 -0.0013446501060505971 -0.020734374775262479 0 -0.0013846656378400193 -0.020792318658710812 0 -0.0014351954977165318 -0.020749344162626502 0 -0.0013846656378400193 -0.020792318658710812 0 -0.001483327263812778 -0.020709034453546792 0 -0.0014710372740578852 -0.020835954048322041 0 -0.0021246738747427735 -0.019963529178323711 0 -0.0022575491586295346 -0.019619592270742808 0 -0.0011346534500562043 -0.020968992945737092 0 -0.0021246738747427735 -0.019963529178323711 0 -0.0014373299202626096 -0.020639823496735158 0 -0.0014351954977165318 -0.020749344162626502 0 -0.0013899097978024768 -0.020694536729457685 0 -0.0013446501060505971 -0.020734374775262479 0 -0.0014351954977165318 -0.020749344162626502 0 -0.0013899097978024768 -0.020694536729457685 0 -0.0013446501060505971 -0.020734374775262479 0 -0.0013124776147641886 -0.020640871020900703 0 -0.0012574803849714708 -0.020727357850593906 0 -0.0013446501060505971 -0.020734374775262479 0 -0.0013899097978024768 -0.020694536729457685 0 -0.0013124776147641886 -0.020640871020900703 0 -0.0013006140627695093 -0.020706194193581506 0 -0.0013955952516938031 -0.020681060628526603 0 -0.0013041634435120002 -0.020764755718964779 0 -0.0014042100335493021 -0.020679634102640856 0 -0.0013332707230831571 -0.020691112087948622 0 -0.0013041634435120002 -0.020764755718964779 0 -0.0013332707230831571 -0.020691112087948622 0 -0.0012691012047626258 -0.02071079395831784 0 -0.0013899097978024768 -0.020694536729457685 0 -0.0013124776147641886 -0.020640871020900703 0 -0.0014042100335493021 -0.020679634102640856 0 -0.001406702062295675 -0.020689424421747829 0 -0.0013899097978024768 -0.020694536729457685 0 -0.0014042100335493021 -0.020679634102640856 0 -0.0016007539324069408 -0.020547213913066732 0 -0.0013601745562617936 -0.020739979431462677 0 -0.001406702062295675 -0.020689424421747829 0 -0.0014042100335493021 -0.020679634102640856 0 -0.0014064873872902614 -0.020670321665925931 0 -0.0014042100335493021 -0.020679634102640856 0 -0.0013907054749381811 -0.020661116248002549 0 -0.0013332707230831571 -0.020691112087948622 0 -0.001419687883957304 -0.020649188626249107 0 -0.001406702062295675 -0.020689424421747829 0 -0.0014064873872902614 -0.020670321665925931 0 -0.0013502144240009023 -0.020640289762985906 0 -0.0014218448641145653 -0.020636445403149749 0 -0.0013907054749381811 -0.020661116248002549 0 -0.0014042100335493021 -0.020679634102640856 0 -0.0014064873872902614 -0.020670321665925931 0 -0.0013907054749381811 -0.020661116248002549 0 -0.0014218448641145653 -0.020636445403149749 0 -0.001419687883957304 -0.020649188626249107 0 -0.0013907054749381811 -0.020661116248002549 0 -0.001419687883957304 -0.020649188626249107 0 -0.0014064873872902614 -0.020670321665925931 0 -0.0013907054749381811 -0.020661116248002549 0 -0.0013502144240009023 -0.020640289762985906 0 -0.0013332707230831571 -0.020691112087948622 0 -0.001262254060344884 -0.020650409580340767 0 -0.0013502144240009023 -0.020640289762985906 0 -0.0013907054749381811 -0.020661116248002549 0 -0.0013332707230831571 -0.020691112087948622 0 -0.0013332707230831571 -0.020691112087948622 0 -0.0012691012047626258 -0.02071079395831784 0 -0.001262254060344884 -0.020650409580340767 0 -0.0012691012047626258 -0.02071079395831784 0 -0.0012172717598780811 -0.020693179912114688 0 -0.001262254060344884 -0.020650409580340767 0 -0.0013239387193084073 -0.020735598636292926 0 -0.0012329627003998796 -0.021107322115349453 0 -0.0012691012047626258 -0.02071079395831784 0 -0.0012172717598780811 -0.020693179912114688 0 -0.0012085723799968679 -0.020747543106959965 0 -0.0012172717598780811 -0.020693179912114688 0 -0.0011826861302786848 -0.020714518447472935 0 -0.0011723098099736338 -0.020675951154327851 0 -0.0011826861302786848 -0.020714518447472935 0 -0.0011410209204198842 -0.020715269720874379 0 -0.0011723098099736338 -0.020675951154327851 0 -0.0012172717598780811 -0.020693179912114688 0 -0.0011826861302786848 -0.020714518447472935 0 -0.0012085723799968679 -0.020747543106959965 0 -0.0011826861302786848 -0.020714518447472935 0 -0.0012085723799968679 -0.020747543106959965 0 -0.0011580129797327851 -0.02074487087330568 0 -0.0012085723799968679 -0.020747543106959965 0 -0.0011533669003119646 -0.020780104181603583 0 -0.0011580129797327851 -0.02074487087330568 0 -0.0012085723799968679 -0.020747543106959965 0 -0.0011873357931579563 -0.020818214500826101 0 -0.0011533669003119646 -0.020780104181603583 0 -0.0013041634435120002 -0.020764755718964779 0 -0.0012691012047626258 -0.02071079395831784 0 -0.0012085723799968679 -0.020747543106959965 0 -0.0013041634435120002 -0.020764755718964779 0 -0.0012085723799968679 -0.020747543106959965 0 -0.0011873357931579563 -0.020818214500826101 0 -0.0013006140627695093 -0.020706194193581506 0 -0.0011784907523910394 -0.020718543665037947 0 -0.0013124776147641886 -0.020640871020900703 0 -0.0012574803849714708 -0.020727357850593906 0 -0.0011450862168466604 -0.020649354521690123 0 -0.0012574803849714708 -0.020727357850593906 0 -0.0011450862168466604 -0.020649354521690123 0 -0.0011718724288920495 -0.020787362915743492 0 -0.0011718724288920495 -0.020787362915743492 0 -0.0010567162901222254 -0.020759215771396094 0 -0.0010724979690174103 -0.020864679280742163 0 -0.0011450862168466604 -0.020649354521690123 0 -0.0011718724288920495 -0.020787362915743492 0 -0.0010567162901222254 -0.020759215771396094 0 -0.0012574803849714708 -0.020727357850593906 0 -0.0011718724288920495 -0.020787362915743492 0 -0.0012992469854570391 -0.020828428481312285 0 -0.00082185619221153904 -0.02081510897115171 0 -0.00092277420815187433 -0.020647886017760179 0 -0.00074053829724538445 -0.020703051258087767 0 -0.00082185619221153904 -0.02081510897115171 0 -0.00092277420815187433 -0.020647886017760179 0 -0.00096812779844506684 -0.020848606034040065 0 -0.00096838723201580026 -0.020881535067650465 0 -0.00095365864365966585 -0.020752585757552997 0 -0.0010567162901222254 -0.020759215771396094 0 -0.00095710873801172576 -0.020687701025024777 0 -0.00096812779844506684 -0.020848606034040065 0 -0.0010567162901222254 -0.020759215771396094 0 -0.0010724979690174103 -0.020864679280742163 0 -0.00096812779844506684 -0.020848606034040065 0 -0.0011784907523910394 -0.020718543665037947 0 -0.00096838723201580026 -0.020881535067650465 0 -0.0011873357931579563 -0.020818214500826101 0 -0.0010806581873756794 -0.020855538866885584 0 -0.001112350853741021 -0.020801630040948777 0 -0.0011450862168466604 -0.020649354521690123 0 -0.0010567162901222254 -0.020759215771396094 0 -0.00095710873801172576 -0.020687701025024777 0 -0.00096838723201580026 -0.020881535067650465 0 -0.00074059976588387378 -0.022037634282470943 0 -0.00096838723201580026 -0.020881535067650465 0 -0.00095933552217039597 -0.021520857176873843 0 -0.00095933552217039597 -0.021520857176873843 0 -0.00074059976588387378 -0.022037634282470943 0 -0.0010806581873756794 -0.020855538866885584 0 -0.0010716834726191464 -0.020796136661847642 0 -0.001112350853741021 -0.020801630040948777 0 -0.0010108505717782671 -0.021560611753099319 0 -0.00097172526343597561 -0.021341139598554097 0 -0.00071951932937173958 -0.021649293527237122 0 -0.0011612943588437921 -0.022627271832508882 0 -0.001086944075569689 -0.022208578618536218 0 -0.00073113925672454907 -0.022705567719603283 0 -0.00095933552217039597 -0.021520857176873843 0 -0.001145547092548056 -0.022329452720638333 0 -0.0010716834726191464 -0.020796136661847642 0 -0.0010886322889827904 -0.020776885057021775 0 -0.001112350853741021 -0.020801630040948777 0 -0.0010886322889827904 -0.020776885057021775 0 -0.0011193840233098592 -0.020757426535273724 0 -0.0010850829489430481 -0.020751488015270853 0 -0.0010714343326384916 -0.020799721481843978 0 -0.0010886322889827904 -0.020776885057021775 0 -0.0010850829489430481 -0.020751488015270853 0 -0.00095933552217039597 -0.021520857176873843 0 -0.0011971303062272111 -0.021026344445079042 0 -0.0011873357931579563 -0.020818214500826101 0 -0.0011533669003119646 -0.020780104181603583 0 -0.001112350853741021 -0.020801630040948777 0 -0.0011533669003119646 -0.020780104181603583 0 -0.001112350853741021 -0.020801630040948777 0 -0.0011193840233098592 -0.020757426535273724 0 -0.0010886322889827904 -0.020776885057021775 0 -0.001112350853741021 -0.020801630040948777 0 -0.0011193840233098592 -0.020757426535273724 0 -0.0011533669003119646 -0.020780104181603583 0 -0.0011193840233098592 -0.020757426535273724 0 -0.0011580129797327851 -0.02074487087330568 0 -0.0011826861302786848 -0.020714518447472935 0 -0.0011580129797327851 -0.02074487087330568 0 -0.0011410209204198842 -0.020715269720874379 0 -0.0011193840233098592 -0.020757426535273724 0 -0.0011580129797327851 -0.02074487087330568 0 -0.0011410209204198842 -0.020715269720874379 0 -0.0011193840233098592 -0.020757426535273724 0 -0.0011030263116863553 -0.020725432529983705 0 -0.0011410209204198842 -0.020715269720874379 0 -0.0011193840233098592 -0.020757426535273724 0 -0.0011030263116863553 -0.020725432529983705 0 -0.0010850829489430481 -0.020751488015270853 0 -0.0011030263116863553 -0.020725432529983705 0 -0.0011410209204198842 -0.020715269720874379 0 -0.0010854242777175319 -0.020686965031936216 0 -0.0010714343326384916 -0.020799721481843978 0 -0.0010850829489430481 -0.020751488015270853 0 -0.0010594922202127256 -0.020724935174670261 0 -0.0011030263116863553 -0.020725432529983705 0 -0.0010850829489430481 -0.020751488015270853 0 -0.0010594922202127256 -0.020724935174670261 0 -0.001145547092548056 -0.022329452720638333 0 -0.001133913373918199 -0.021935795893503602 0 -0.0011030263116863553 -0.020725432529983705 0 -0.0010594922202127256 -0.020724935174670261 0 -0.0010854242777175319 -0.020686965031936216 0 -0.001145547092548056 -0.022329452720638333 0 -0.001240239192347901 -0.022872477448991031 0 -0.0015395564698950849 -0.023969198473609683 0 -0.0014844159446354859 -0.023632323308792197 0 -0.0012072992938591382 -0.023851738658729128 0 -0.001240239192347901 -0.022872477448991031 0 -0.0011522610727084384 -0.022476873798738611 0 -0.0011120142988589276 -0.022366320177269885 0 -0.0011080160740665574 -0.022342308156531231 0 -0.0011295328160530914 -0.022341656813226279 0 -0.00099102050131874369 -0.022035397140662043 0 -0.00098305393948883743 -0.022040980284552252 0 -0.001001261040035233 -0.022050409061572664 0 -0.001240239192347901 -0.022872477448991031 0 -0.001133913373918199 -0.021935795893503602 0 -0.00099102050131874369 -0.022035397140662043 0 -0.00098416268190041375 -0.022036087800122613 0 -0.00098305393948883743 -0.022040980284552252 0 -0.00098416268190041375 -0.022036087800122613 0 -0.00098305393948883743 -0.022040980284552252 0 -0.00098188579916596414 -0.022042616640410236 0 -0.00098305393948883743 -0.022040980284552252 0 -0.001001261040035233 -0.022050409061572664 0 -0.00097077654416971723 -0.02204179160420151 0 -0.001001261040035233 -0.022050409061572664 0 -0.00097077654416971723 -0.02204179160420151 0 -0.00096043648489106085 -0.022066375925008399 0 -0.00098188579916596414 -0.022042616640410236 0 -0.00096524172075575839 -0.02207398612239481 0 -0.0011001233913306371 -0.022025888392342052 0 -0.00098188579916596414 -0.022042616640410236 0 -0.0011001233913306371 -0.022025888392342052 0 -0.0010012846956006236 -0.021983588794420434 0 -0.00097077654416971723 -0.02204179160420151 0 -0.00098188579916596414 -0.022042616640410236 0 -0.0010012846956006236 -0.021983588794420434 0 -0.00097077654416971723 -0.02204179160420151 0 -0.00096043648489106085 -0.022066375925008399 0 -0.0010012846956006236 -0.021983588794420434 0 -0.00098305393948883743 -0.022040980284552252 0 -0.00097077654416971723 -0.02204179160420151 0 -0.00098188579916596414 -0.022042616640410236 0 -0.00092025108776368279 -0.022114753664034301 0 -0.00096524172075575839 -0.02207398612239481 0 -0.0010671109281393772 -0.022127339893027825 0 -0.001133913373918199 -0.021935795893503602 0 -0.0010997968092131857 -0.021385775216659571 0 -0.0011410209204198842 -0.020715269720874379 0 -0.0010854242777175319 -0.020686965031936216 0 -0.0011723098099736338 -0.020675951154327851 0 -0.00092025108776368279 -0.022114753664034301 0 -0.00098188579916596414 -0.022042616640410236 0 -0.00096524172075575839 -0.02207398612239481 0 -0.001133913373918199 -0.021935795893503602 0 -0.00093412980360448505 -0.022105716497275302 0 -0.0012172717598780811 -0.020693179912114688 0 -0.0011723098099736338 -0.020675951154327851 0 -0.0012489044397587272 -0.020672699193978697 0 -0.0010671109281393772 -0.022127339893027825 0 -0.0012638914539895485 -0.022138633436063784 0 -0.0011510721966081125 -0.021963914038758407 0 -0.0010997968092131857 -0.021385775216659571 0 -0.0012329627003998796 -0.021107322115349453 0 -0.00096524172075575839 -0.02207398612239481 0 -0.0010671109281393772 -0.022127339893027825 0 -0.0011510721966081125 -0.021963914038758407 0 -0.0012638914539895485 -0.022138633436063784 0 -0.0013185159487202587 -0.021988826244212594 0 -0.0011510721966081125 -0.021963914038758407 0 -0.0013829370189243518 -0.021841007598223505 0 -0.0011239995484751237 -0.021993293986412372 0 -0.0013947721645321096 -0.021828718173277754 0 -0.0013185159487202587 -0.021988826244212594 0 -0.0011510721966081125 -0.021963914038758407 0 -0.00097604817433101943 -0.022067391067705475 0 -0.0011239995484751237 -0.021993293986412372 0 -0.0011406255761732755 -0.021784304920052143 0 -0.00099632024928146459 -0.021880152891581271 0 -0.0010012846956006236 -0.021983588794420434 0 -0.0011001233913306371 -0.022025888392342052 0 -0.0011406255761732755 -0.021784304920052143 0 -0.0010012846956006236 -0.021983588794420434 0 -0.0013184943539084801 -0.021662104619436049 0 -0.0013571539147247235 -0.021866804150952077 0 -0.0011406255761732755 -0.021784304920052143 0 -0.0013571539147247235 -0.021866804150952077 0 -0.0011001233913306371 -0.022025888392342052 0 -0.0011406255761732755 -0.021784304920052143 0 -0.001330636149947469 -0.02143494710546184 0 -0.0013184943539084801 -0.021662104619436049 0 -0.0011406255761732755 -0.021784304920052143 0 -0.0010880924723631826 -0.021593677919313652 0 -0.001330636149947469 -0.02143494710546184 0 -0.0011406255761732755 -0.021784304920052143 0 -0.0010880924723631826 -0.021593677919313652 0 -0.0011406255761732755 -0.021784304920052143 0 -0.00099632024928146459 -0.021880152891581271 0 -0.00096838790689600667 -0.021747072024314376 0 -0.00099632024928146459 -0.021880152891581271 0 -0.00094624776665800043 -0.021954104940754206 0 -0.00094624776665800043 -0.021954104940754206 0 -0.00096399421489215585 -0.022066016926734964 0 -0.00088746596851640449 -0.022117158110311598 0 -0.00099632024928146459 -0.021880152891581271 0 -0.00094624776665800043 -0.021954104940754206 0 -0.00096399421489215585 -0.022066016926734964 0 -0.00096399421489215585 -0.022066016926734964 0 -0.00096043648489106085 -0.022066375925008399 0 -0.0010152664556491108 -0.022233416001405923 0 -0.001001261040035233 -0.022050409061572664 0 -0.00096043648489106085 -0.022066375925008399 0 -0.0010152664556491108 -0.022233416001405923 0 -0.00099632024928146459 -0.021880152891581271 0 -0.00096043648489106085 -0.022066375925008399 0 -0.0010012846956006236 -0.021983588794420434 0 -0.00099632024928146459 -0.021880152891581271 0 -0.00096399421489215585 -0.022066016926734964 0 -0.00096043648489106085 -0.022066375925008399 0 -0.00057487365637638006 -0.023047082040610463 0 -0.00075393221725650187 -0.022347163120260298 0 -0.00042508739894176113 -0.022566799454858098 0 -0.00079410693108380732 -0.022320518590063957 0 -0.00087046540918948878 -0.022702532642578436 0 -0.00042508739894176113 -0.022566799454858098 0 -0.00079410693108380732 -0.022320518590063957 0 -0.00076472371525079601 -0.022276304801970969 0 -0.00075392025237747031 -0.023508591830177186 0 -0.00076472371525079601 -0.022276304801970969 0 -0.00040415252791276463 -0.022922094136497831 0 -0.0010152664556491108 -0.022233416001405923 0 -0.00079410693108380732 -0.022320518590063957 0 -0.00088746596851640449 -0.022117158110311598 0 -0.0010152664556491108 -0.022233416001405923 0 -0.00079410693108380732 -0.022320518590063957 0 -0.00087046540918948878 -0.022702532642578436 0 -0.00096399421489215585 -0.022066016926734964 0 -0.0010152664556491108 -0.022233416001405923 0 -0.00088746596851640449 -0.022117158110311598 0 -0.00079410693108380732 -0.022320518590063957 0 -0.00088746596851640449 -0.022117158110311598 0 -0.00076472371525079601 -0.022276304801970969 0 -0.00034100982469400571 -0.022377657081096021 0 0.00018966028286583646 -0.022894011778892522 0 -0.00040415252791276463 -0.022922094136497831 0 -0.00076472371525079601 -0.022276304801970969 0 -0.00034100982469400571 -0.022377657081096021 0 -0.00040415252791276463 -0.022922094136497831 0 0.00044114554018214011 -0.022308660361159159 0 0.00018966028286583646 -0.022894011778892522 0 0.00072700001411962365 -0.022885370035898026 0 0.00044114554018214011 -0.022308660361159159 0 -0.00034100982469400571 -0.022377657081096021 0 0.00018966028286583646 -0.022894011778892522 0 0.00018966028286583646 -0.022894011778892522 0 0.00051163654500725557 -0.023391259326360769 0 0.00072700001411962365 -0.022885370035898026 0 0.00018966028286583646 -0.022894011778892522 0 6.3869060637185832e-05 -0.023364152972164699 0 -0.00040415252791276463 -0.022922094136497831 0 0.00018966028286583646 -0.022894011778892522 0 6.3869060637185832e-05 -0.023364152972164699 0 0.00051163654500725557 -0.023391259326360769 0 6.3869060637185832e-05 -0.023364152972164699 0 0.00051163654500725557 -0.023391259326360769 0 0.00024912020747756949 -0.023829328769468375 0 6.3869060637185832e-05 -0.023364152972164699 0 -0.00040415252791276463 -0.022922094136497831 0 -0.00027408975511745694 -0.023826571397925846 0 -0.00075392025237747031 -0.023508591830177186 0 -0.00040415252791276463 -0.022922094136497831 0 -0.00027408975511745694 -0.023826571397925846 0 -0.00027408975511745694 -0.023826571397925846 0 -3.6703691532994663e-05 -0.024142834871719473 0 -0.00033399705766476537 -0.024558731763655778 0 -0.00057487365637638006 -0.023047082040610463 0 -0.0002516284515255774 -0.024042359539420285 0 -0.00075392025237747031 -0.023508591830177186 0 -0.00027408975511745694 -0.023826571397925846 0 -0.00033399705766476537 -0.024558731763655778 0 0.00051163654500725557 -0.023391259326360769 0 0.00024912020747756949 -0.023829328769468375 0 0.0005211559810084916 -0.023905756160797244 0 6.3869060637185832e-05 -0.023364152972164699 0 -0.00027408975511745694 -0.023826571397925846 0 0.00024912020747756949 -0.023829328769468375 0 -0.00027408975511745694 -0.023826571397925846 0 0.00024912020747756949 -0.023829328769468375 0 -3.6703691532994663e-05 -0.024142834871719473 0 -3.6703691532994663e-05 -0.024142834871719473 0 -3.7976496940793274e-05 -0.024498380679474054 0 0.00055590933787586156 -0.023936759401397424 0 3.5432579696400206e-05 -0.024448678061624943 0 0.00021777478257013877 -0.024411705113068494 0 0.00024912020747756949 -0.023829328769468375 0 -3.6703691532994663e-05 -0.024142834871719473 0 0.00055590933787586156 -0.023936759401397424 0 0.00024297453780457401 -0.024187670566753059 0 0.00021777478257013877 -0.024411705113068494 0 -3.7976496940793274e-05 -0.024498380679474054 0 -7.7711065366671279e-05 -0.024639664649044823 0 -3.3569163985229391e-05 -0.024640668700403663 0 -3.7976496940793274e-05 -0.024498380679474054 0 -3.3569163985229391e-05 -0.024640668700403663 0 -3.6816571281859331e-05 -0.024595687050654316 0 -3.7976496940793274e-05 -0.024498380679474054 0 -0.00033399705766476537 -0.024558731763655778 0 -7.7711065366671279e-05 -0.024639664649044823 0 -3.6703691532994663e-05 -0.024142834871719473 0 -3.7976496940793274e-05 -0.024498380679474054 0 -0.00033399705766476537 -0.024558731763655778 0 -0.00013199189228911031 -0.023567375840787708 0 -0.00061057592954266314 -0.023126905817849382 0 -0.00087419638517693781 -0.02358783391634137 0 -0.00042508739894176113 -0.022566799454858098 0 -0.00061057592954266314 -0.023126905817849382 0 -0.00087046540918948878 -0.022702532642578436 0 -0.00042508739894176113 -0.022566799454858098 0 -0.00013199189228911031 -0.023567375840787708 0 -0.00061057592954266314 -0.023126905817849382 0 -0.0013369273628458529 -0.022914419065616854 0 -0.0010152664556491108 -0.022233416001405923 0 -0.00087046540918948878 -0.022702532642578436 0 -0.00061057592954266314 -0.023126905817849382 0 -0.00087046540918948878 -0.022702532642578436 0 -0.0011326747053941992 -0.023267869183410249 0 -0.0011522610727084384 -0.022476873798738611 0 -0.001056658508084167 -0.022273333980244163 0 -0.0013369273628458529 -0.022914419065616854 0 -0.00087046540918948878 -0.022702532642578436 0 -0.0011326747053941992 -0.023267869183410249 0 -0.00061057592954266314 -0.023126905817849382 0 -0.00087419638517693781 -0.02358783391634137 0 -0.0011326747053941992 -0.023267869183410249 0 -0.0014844159446354859 -0.023632323308792197 0 -0.00087419638517693781 -0.02358783391634137 0 -0.0012072992938591382 -0.023851738658729128 0 -0.0014798629538634236 -0.023564613720903606 0 -0.00087419638517693781 -0.02358783391634137 0 -0.0011326747053941992 -0.023267869183410249 0 -0.001240239192347901 -0.022872477448991031 0 -0.0010214283413644896 -0.023618514403174432 0 -0.0014798629538634236 -0.023564613720903606 0 -0.0013369273628458529 -0.022914419065616854 0 -0.0011326747053941992 -0.023267869183410249 0 -0.0015395564698950849 -0.023969198473609683 0 -0.0012072992938591382 -0.023851738658729128 0 -0.0010101016413841253 -0.024166600845038053 0 -0.00087419638517693781 -0.02358783391634137 0 -0.0012072992938591382 -0.023851738658729128 0 -0.0010101016413841253 -0.024166600845038053 0 -0.0015395564698950849 -0.023969198473609683 0 -0.0010101016413841253 -0.024166600845038053 0 -0.00091589482077370247 -0.024701285971285313 0 -0.00087419638517693781 -0.02358783391634137 0 -0.0010101016413841253 -0.024166600845038053 0 -0.00056720563949944059 -0.024273347122230539 0 -0.00013199189228911031 -0.023567375840787708 0 -0.00087419638517693781 -0.02358783391634137 0 -0.00056720563949944059 -0.024273347122230539 0 -0.0010101016413841253 -0.024166600845038053 0 -0.00056720563949944059 -0.024273347122230539 0 -0.00091589482077370247 -0.024701285971285313 0 -0.00056720563949944059 -0.024273347122230539 0 -0.00091589482077370247 -0.024701285971285313 0 -0.00045743056538688557 -0.024804944033601953 0 -0.001145547092548056 -0.022329452720638333 0 -0.00081391224148357367 -0.023891473297616012 0 -0.0011612943588437921 -0.022627271832508882 0 -0.00073113925672454907 -0.022705567719603283 0 -0.00079010512874318358 -0.023083903844645103 0 -0.00081391224148357367 -0.023891473297616012 0 -0.00044781013771008388 -0.023808399000377914 0 -0.00091589482077370247 -0.024701285971285313 0 -0.00045743056538688557 -0.024804944033601953 0 -0.00048094779483194138 -0.025053772482174986 0 -0.00073113925672454907 -0.022705567719603283 0 -0.00038520047547017125 -0.02320918272065662 0 -0.00079010512874318358 -0.023083903844645103 0 -0.00050144078173868618 -0.022482438171771899 0 -0.00056352328074453398 -0.022541175890601128 0 -0.00065362716287585586 -0.022432949958035287 0 -0.00044781013771008388 -0.023808399000377914 0 -0.00074059976588387378 -0.022037634282470943 0 -0.00063785268677981407 -0.020823144225382013 0 -0.00073071528233345268 -0.020830435142532709 0 -0.00074053829724538445 -0.020703051258087767 0 -0.00082185619221153904 -0.02081510897115171 0 -0.00073071528233345268 -0.020830435142532709 0 -0.00074053829724538445 -0.020703051258087767 0 -0.00060603255088777577 -0.021675547279586715 0 -0.00074059976588387378 -0.022037634282470943 0 -8.0346012080434776e-05 -0.024935251749260479 0 -0.00017308826155277345 -0.024950123265141282 0 -7.9894892264504406e-05 -0.024983936178936305 0 -0.00035216766193056837 -0.025063084954525191 0 -0.00033509859527563861 -0.025005181458993945 0 -0.0002923143454888398 -0.025075850190962486 0 -0.00028058813094335443 -0.024951426820491261 0 -0.00013701397694653922 -0.025110142324771999 0 -0.00048094779483194138 -0.025053772482174986 0 -0.00035216766193056837 -0.025063084954525191 0 -0.00033509859527563861 -0.025005181458993945 0 -0.00045743056538688557 -0.024804944033601953 0 -0.00017308826155277345 -0.024950123265141282 0 -0.00016440790422747993 -0.024790427497309066 0 -0.00045743056538688557 -0.024804944033601953 0 -0.00048094779483194138 -0.025053772482174986 0 -0.00033509859527563861 -0.025005181458993945 0 -0.00043866574979194644 -0.0248171805418562 0 -0.00028058813094335443 -0.024951426820491261 0 -0.00017308826155277345 -0.024950123265141282 0 -0.00016440790422747993 -0.024790427497309066 0 -7.3455875581459178e-05 -0.024847398581789554 0 -8.0346012080434776e-05 -0.024935251749260479 0 -0.00017308826155277345 -0.024950123265141282 0 -7.3455875581459178e-05 -0.024847398581789554 0 -5.8759485593320346e-05 -0.024730454938237934 0 -0.00012731240097901299 -0.024603708974320487 0 -7.7711065366671279e-05 -0.024639664649044823 0 -0.00016440790422747993 -0.024790427497309066 0 -7.3455875581459178e-05 -0.024847398581789554 0 -5.8759485593320346e-05 -0.024730454938237934 0 -0.00016440790422747993 -0.024790427497309066 0 -5.8759485593320346e-05 -0.024730454938237934 0 -0.00012731240097901299 -0.024603708974320487 0 -0.00056720563949944059 -0.024273347122230539 0 -0.00045743056538688557 -0.024804944033601953 0 -0.00012731240097901299 -0.024603708974320487 0 -0.00045743056538688557 -0.024804944033601953 0 -0.00016440790422747993 -0.024790427497309066 0 -0.00012731240097901299 -0.024603708974320487 0 -0.0002516284515255774 -0.024042359539420285 0 -0.00013009628444250122 -0.024555466385448421 0 -0.00013199189228911031 -0.023567375840787708 0 -0.00056720563949944059 -0.024273347122230539 0 -0.00012731240097901299 -0.024603708974320487 0 -0.00033399705766476537 -0.024558731763655778 0 -0.00012731240097901299 -0.024603708974320487 0 -7.7711065366671279e-05 -0.024639664649044823 0 -5.8759485593320346e-05 -0.024730454938237934 0 -7.7711065366671279e-05 -0.024639664649044823 0 -2.5727653145721301e-05 -0.024742223341362047 0 -2.5727653145721301e-05 -0.024742223341362047 0 -5.8232280656842578e-06 -0.024752493718521066 0 -3.3569163985229391e-05 -0.024640668700403663 0 -7.7711065366671279e-05 -0.024639664649044823 0 -2.5727653145721301e-05 -0.024742223341362047 0 -3.3569163985229391e-05 -0.024640668700403663 0 -2.5727653145721301e-05 -0.024742223341362047 0 8.3937840403529414e-06 -0.024848151059179636 0 -5.8232280656842578e-06 -0.024752493718521066 0 -2.5727653145721301e-05 -0.024742223341362047 0 -4.2909166656210188e-06 -0.024857730611381461 0 8.3937840403529414e-06 -0.024848151059179636 0 -7.3455875581459178e-05 -0.024847398581789554 0 -5.8759485593320346e-05 -0.024730454938237934 0 -4.2909166656210188e-06 -0.024857730611381461 0 -5.8759485593320346e-05 -0.024730454938237934 0 -2.5727653145721301e-05 -0.024742223341362047 0 -4.2909166656210188e-06 -0.024857730611381461 0 -7.3455875581459178e-05 -0.024847398581789554 0 -4.2909166656210188e-06 -0.024857730611381461 0 -2.9015921500401226e-05 -0.024920650967981409 0 -8.0346012080434776e-05 -0.024935251749260479 0 -7.3455875581459178e-05 -0.024847398581789554 0 -2.9015921500401226e-05 -0.024920650967981409 0 -4.2909166656210188e-06 -0.024857730611381461 0 -3.6809890656432474e-06 -0.024924802434795151 0 1.3717969528403569e-05 -0.024947157024177349 0 -4.2909166656210188e-06 -0.024857730611381461 0 -3.6809890656432474e-06 -0.024924802434795151 0 -2.9015921500401226e-05 -0.024920650967981409 0 -3.6809890656432474e-06 -0.024924802434795151 0 -4.3024012129674e-06 -0.024963303521809491 0 -2.9015921500401226e-05 -0.024920650967981409 0 -4.3024012129674e-06 -0.024963303521809491 0 -4.1462356637219997e-05 -0.024970553545632757 0 -2.9015921500401226e-05 -0.024920650967981409 0 -3.6809890656432474e-06 -0.024924802434795151 0 -4.3024012129674e-06 -0.024963303521809491 0 1.3717969528403569e-05 -0.024947157024177349 0 -8.0346012080434776e-05 -0.024935251749260479 0 -4.1462356637219997e-05 -0.024970553545632757 0 -7.9894892264504406e-05 -0.024983936178936305 0 -8.0346012080434776e-05 -0.024935251749260479 0 -4.1462356637219997e-05 -0.024970553545632757 0 -2.9015921500401226e-05 -0.024920650967981409 0 1.554348212962855e-08 -0.024999957860534015 0 6.7277514719223215e-06 -0.024978693765106297 0 1.3717969528403569e-05 -0.024947157024177349 0 1.554348212962855e-08 -0.024999957860534015 0 6.7277514719223215e-06 -0.024978693765106297 0 4.2788184022720908e-06 -0.024991268785396696 0 -4.3024012129674e-06 -0.024963303521809491 0 6.7277514719223215e-06 -0.024978693765106297 0 1.3717969528403569e-05 -0.024947157024177349 0 -4.2909166656210188e-06 -0.024857730611381461 0 1.3717969528403569e-05 -0.024947157024177349 0 1.4254583557838898e-05 -0.024926722438888275 0 1.554348212962855e-08 -0.024999957860534015 0 1.3717969528403569e-05 -0.024947157024177349 0 2.1294080450348943e-08 -0.024999908430846096 0 1.3717969528403569e-05 -0.024947157024177349 0 2.1294080450348943e-08 -0.024999908430846096 0 1.4254583557838898e-05 -0.024926722438888275 0 2.1294080450348943e-08 -0.024999908430846096 0 1.4254583557838898e-05 -0.024926722438888275 0 1.7512253310908119e-05 -0.024926165194326545 0 -4.2909166656210188e-06 -0.024857730611381461 0 1.4254583557838898e-05 -0.024926722438888275 0 8.3937840403529414e-06 -0.024848151059179636 0 8.3937840403529414e-06 -0.024848151059179636 0 2.2662830762687918e-05 -0.024831101646685439 0 -5.8232280656842578e-06 -0.024752493718521066 0 8.3937840403529414e-06 -0.024848151059179636 0 1.7512253310908119e-05 -0.024926165194326545 0 2.2662830762687918e-05 -0.024831101646685439 0 1.4254583557838898e-05 -0.024926722438888275 0 8.3937840403529414e-06 -0.024848151059179636 0 1.7512253310908119e-05 -0.024926165194326545 0 2.1294080450348943e-08 -0.024999908430846096 0 1.7512253310908119e-05 -0.024926165194326545 0 5.3486514914156019e-08 -0.024999756137117513 0 1.7512253310908119e-05 -0.024926165194326545 0 5.3486514914156019e-08 -0.024999756137117513 0 2.2662830762687918e-05 -0.024831101646685439 0 4.0991970016630259e-09 -0.024999979714386993 0 8.0710908138054717e-06 -0.024988210494697412 0 5.0833960331094802e-09 -0.02499998901873475 0 -1.8632517182143914e-08 -0.024999950334748743 0 8.8215454517348104e-06 -0.024907418817863892 0 8.0710908138054717e-06 -0.024988210494697412 0 5.0833960331094802e-09 -0.02499998901873475 0 1.1731658576724405e-05 -0.024990336627292654 0 8.0710908138054717e-06 -0.024988210494697412 0 2.1393912813501056e-05 -0.024978564602564469 0 1.1731658576724405e-05 -0.024990336627292654 0 8.8215454517348104e-06 -0.024907418817863892 0 -2.7199897796874375e-05 -0.024855832350032196 0 2.2662830762687918e-05 -0.024831101646685439 0 -1.0728935887624254e-05 -0.024683805752703826 0 -5.8232280656842578e-06 -0.024752493718521066 0 -1.0728935887624254e-05 -0.024683805752703826 0 -5.8232280656842578e-06 -0.024752493718521066 0 -3.3569163985229391e-05 -0.024640668700403663 0 -1.0728935887624254e-05 -0.024683805752703826 0 -3.3569163985229391e-05 -0.024640668700403663 0 -3.6816571281859331e-05 -0.024595687050654316 0 -2.7199897796874375e-05 -0.024855832350032196 0 0.00021777478257013877 -0.024411705113068494 0 2.1393912813501056e-05 -0.024978564602564469 0 3.7971733424835153e-05 -0.024974281860765786 0 2.7243032637272137e-05 -0.024986228085969252 0 0.00021777478257013877 -0.024411705113068494 0 0.0005422381729661837 -0.024101512311982095 0 2.1393912813501056e-05 -0.024978564602564469 0 2.7243032637272137e-05 -0.024986228085969252 0 1.1731658576724405e-05 -0.024990336627292654 0 2.7243032637272137e-05 -0.024986228085969252 0 1.7073855948732534e-05 -0.024993186787137564 0 1.1731658576724405e-05 -0.024990336627292654 0 0.00051163654500725557 -0.023391259326360769 0 0.0005211559810084916 -0.023905756160797244 0 0.0010763099490769218 -0.023204192814931888 0 0.00051163654500725557 -0.023391259326360769 0 0.0010763099490769218 -0.023204192814931888 0 0.00072700001411962365 -0.022885370035898026 0 0.00084620944250992085 -0.022572229465439624 0 0.00044114554018214011 -0.022308660361159159 0 0.00072700001411962365 -0.022885370035898026 0 0.0010763099490769218 -0.023204192814931888 0 0.00072700001411962365 -0.022885370035898026 0 0.0011745062045786874 -0.022908671126351608 0 0.00084620944250992085 -0.022572229465439624 0 0.00072700001411962365 -0.022885370035898026 0 0.0011745062045786874 -0.022908671126351608 0 0.0010763099490769218 -0.023204192814931888 0 0.0011745062045786874 -0.022908671126351608 0 0.0010488232162944385 -0.022949434383270174 0 0.0005422381729661837 -0.024101512311982095 0 0.00052371399817503577 -0.024001562793331432 0 0.0011640112920027618 -0.023277189480310916 0 0.0011745062045786874 -0.022908671126351608 0 0.0010488232162944385 -0.022949434383270174 0 6.3193759786553561e-06 -0.024998661525231215 0 1.7073855948732534e-05 -0.024993186787137564 0 6.2343603679604455e-06 -0.024996002467163391 0 6.2343603679604455e-06 -0.024996002467163391 0 6.8459265431106694e-09 -0.024999994117219211 0 5.0833960331094802e-09 -0.02499998901873475 0 6.3193759786553561e-06 -0.024998661525231215 0 6.2343603679604455e-06 -0.024996002467163391 0 6.8459265431106694e-09 -0.024999994117219211 0 6.2343603679604455e-06 -0.024996002467163391 0 5.0833960331094802e-09 -0.02499998901873475 0 1.1731658576724405e-05 -0.024990336627292654 0 1.7073855948732534e-05 -0.024993186787137564 0 6.2343603679604455e-06 -0.024996002467163391 0 1.1731658576724405e-05 -0.024990336627292654 0 6.3036036109837181e-06 -0.024952448170500054 0 -1.0432061656827259e-07 -0.024962921159438729 0 1.0890325112448395e-06 -0.024979465437382553 0 6.3036036109837181e-06 -0.024952448170500054 0 -1.0432061656827259e-07 -0.024962921159438729 0 7.1083961284736303e-06 -0.024923412451861585 0 6.3036036109837181e-06 -0.024952448170500054 0 7.1083961284736303e-06 -0.024923412451861585 0 1.465954485984244e-05 -0.024900393815620304 0 6.3036036109837181e-06 -0.024952448170500054 0 1.465954485984244e-05 -0.024900393815620304 0 3.1307185367293743e-05 -0.024939366873924809 0 -1.0047754682458678e-08 -0.024999948317253731 0 -1.0432061656827259e-07 -0.024962921159438729 0 1.0890325112448395e-06 -0.024979465437382553 0 -1.0047754682458678e-08 -0.024999948317253731 0 -1.0432061656827259e-07 -0.024962921159438729 0 -1.4791220391018361e-09 -0.024999945670511448 0 -1.4791220391018361e-09 -0.024999945670511448 0 9.3370348506703373e-06 -0.02492862467696105 0 1.6604161425678233e-05 -0.0249386965217172 0 -1.0432061656827259e-07 -0.024962921159438729 0 -1.4791220391018361e-09 -0.024999945670511448 0 9.3370348506703373e-06 -0.02492862467696105 0 -1.0432061656827259e-07 -0.024962921159438729 0 9.3370348506703373e-06 -0.02492862467696105 0 7.1083961284736303e-06 -0.024923412451861585 0 9.3370348506703373e-06 -0.02492862467696105 0 7.1083961284736303e-06 -0.024923412451861585 0 1.5659740180831408e-05 -0.024879368923456928 0 7.1083961284736303e-06 -0.024923412451861585 0 1.5659740180831408e-05 -0.024879368923456928 0 1.465954485984244e-05 -0.024900393815620304 0 9.3370348506703373e-06 -0.02492862467696105 0 1.5659740180831408e-05 -0.024879368923456928 0 2.8764708136327874e-05 -0.024884015394251471 0 1.8102409221438518e-05 -0.024753715577759388 0 1.8651150018819261e-05 -0.024829162325899719 0 3.5986790552646191e-05 -0.024812902555500227 0 1.5659740180831408e-05 -0.024879368923456928 0 1.8651150018819261e-05 -0.024829162325899719 0 3.5986790552646191e-05 -0.024812902555500227 0 1.8102409221438518e-05 -0.024753715577759388 0 2.1174631766130147e-05 -0.024788464447637684 0 -1.9756819584629986e-05 -0.024612462467818164 0 1.8102409221438518e-05 -0.024753715577759388 0 2.1174631766130147e-05 -0.024788464447637684 0 1.8651150018819261e-05 -0.024829162325899719 0 2.1174631766130147e-05 -0.024788464447637684 0 1.8651150018819261e-05 -0.024829162325899719 0 2.7435979045574861e-05 -0.024867280162926893 0 1.8651150018819261e-05 -0.024829162325899719 0 1.465954485984244e-05 -0.024900393815620304 0 2.7435979045574861e-05 -0.024867280162926893 0 1.5659740180831408e-05 -0.024879368923456928 0 1.8651150018819261e-05 -0.024829162325899719 0 1.465954485984244e-05 -0.024900393815620304 0 2.1174631766130147e-05 -0.024788464447637684 0 8.2127138946428698e-05 -0.024916491768317825 0 -1.9756819584629986e-05 -0.024612462467818164 0 0.00016058215216783591 -0.02357847273727659 0 -1.5052674515041712e-06 -0.024552980921984744 0 -2.6049599069733017e-05 -0.021817000214754044 0 -6.0307724816105692e-05 -0.021846716107299696 0 -2.3834543341413334e-05 -0.021912560455312032 0 -0.00024115081305324678 -0.02431851904773287 0 0.00029850387979295321 -0.022166835567767683 0 -1.9756819584629986e-05 -0.024612462467818164 0 -9.635009628237061e-05 -0.023026626392608239 0 -3.3867965523173511e-05 -0.022000048587924686 0 -8.2180829915122426e-05 -0.021826941433814688 0 -2.6049599069733017e-05 -0.021817000214754044 0 -0.00011418660179695025 -0.021845388452401412 0 -8.2180829915122426e-05 -0.021826941433814688 0 -8.1102848562293291e-05 -0.021824214847931338 0 -0.00014051674966724775 -0.021810431087040973 0 -8.2180829915122426e-05 -0.021826941433814688 0 -2.6049599069733017e-05 -0.021817000214754044 0 -8.1102848562293291e-05 -0.021824214847931338 0 -2.6049599069733017e-05 -0.021817000214754044 0 -8.1102848562293291e-05 -0.021824214847931338 0 -6.0307724816105692e-05 -0.021846716107299696 0 -8.1102848562293291e-05 -0.021824214847931338 0 -6.0307724816105692e-05 -0.021846716107299696 0 -0.00014277598532476594 -0.021797370206019941 0 -0.00024115081305324678 -0.02431851904773287 0 -2.3834543341413334e-05 -0.021912560455312032 0 0.00029850387979295321 -0.022166835567767683 0 -6.0307724816105692e-05 -0.021846716107299696 0 -8.3763397608584774e-05 -0.021833694229339388 0 -2.3834543341413334e-05 -0.021912560455312032 0 -0.00011362148243950668 -0.021808873467009906 0 -0.00014214476652724275 -0.021761214520102493 0 -0.00017830072413350283 -0.021758698697188297 0 -0.00011362148243950668 -0.021808873467009906 0 -8.3763397608584774e-05 -0.021833694229339388 0 -0.00014214476652724275 -0.021761214520102493 0 -0.00011362148243950668 -0.021808873467009906 0 -6.0307724816105692e-05 -0.021846716107299696 0 -0.00014277598532476594 -0.021797370206019941 0 -0.00011362148243950668 -0.021808873467009906 0 -6.0307724816105692e-05 -0.021846716107299696 0 -8.3763397608584774e-05 -0.021833694229339388 0 -2.3834543341413334e-05 -0.021912560455312032 0 -0.00010045208690869935 -0.021764807280424358 0 -8.1225628090582971e-05 -0.021605100214157142 0 -8.3763397608584774e-05 -0.021833694229339388 0 -0.00010045208690869935 -0.021764807280424358 0 -0.00014214476652724275 -0.021761214520102493 0 -8.3763397608584774e-05 -0.021833694229339388 0 -2.3834543341413334e-05 -0.021912560455312032 0 -0.00010045208690869935 -0.021764807280424358 0 -0.00010045208690869935 -0.021764807280424358 0 -0.00014214476652724275 -0.021761214520102493 0 -0.00015974087664295775 -0.021658162347544786 0 -2.3834543341413334e-05 -0.021912560455312032 0 0.00029850387979295321 -0.022166835567767683 0 0.00013162543867625075 -0.021417014055768437 0 3.4177053177214512e-05 -0.024906586530832931 0 1.465954485984244e-05 -0.024900393815620304 0 3.1307185367293743e-05 -0.024939366873924809 0 3.4177053177214512e-05 -0.024906586530832931 0 1.465954485984244e-05 -0.024900393815620304 0 2.7435979045574861e-05 -0.024867280162926893 0 2.1174631766130147e-05 -0.024788464447637684 0 2.7435979045574861e-05 -0.024867280162926893 0 8.2127138946428698e-05 -0.024916491768317825 0 3.4177053177214512e-05 -0.024906586530832931 0 2.7435979045574861e-05 -0.024867280162926893 0 8.2127138946428698e-05 -0.024916491768317825 0 3.4177053177214512e-05 -0.024906586530832931 0 8.2127138946428698e-05 -0.024916491768317825 0 3.1307185367293743e-05 -0.024939366873924809 0 3.1307185367293743e-05 -0.024939366873924809 0 3.0421446688772829e-05 -0.024964168776089705 0 1.7177856883190199e-05 -0.024963708280254054 0 0.00016058215216783591 -0.02357847273727659 0 0.0001012684214486919 -0.023261471569100928 0 8.2127138946428698e-05 -0.024916491768317825 0 3.1307185367293743e-05 -0.024939366873924809 0 3.0421446688772829e-05 -0.024964168776089705 0 3.0421446688772829e-05 -0.024964168776089705 0 1.5342382789737946e-05 -0.024970613749617575 0 1.7177856883190199e-05 -0.024963708280254054 0 -2.3834543341413334e-05 -0.021912560455312032 0 0.00013162543867625075 -0.021417014055768437 0 -8.1225628090582971e-05 -0.021605100214157142 0 0.00013162543867625075 -0.021417014055768437 0 -8.1225628090582971e-05 -0.021605100214157142 0 -0.00010482850868844683 -0.021436823453694645 0 -8.1225628090582971e-05 -0.021605100214157142 0 -0.00015974087664295775 -0.021658162347544786 0 -0.00020988504391591345 -0.021527405755238441 0 -0.00010045208690869935 -0.021764807280424358 0 -8.1225628090582971e-05 -0.021605100214157142 0 -0.00015974087664295775 -0.021658162347544786 0 -8.1225628090582971e-05 -0.021605100214157142 0 -0.00010482850868844683 -0.021436823453694645 0 -0.00020988504391591345 -0.021527405755238441 0 0.00013162543867625075 -0.021417014055768437 0 -4.7127138489556307e-05 -0.021328026016793358 0 2.3004826459856228e-05 -0.021278466914487509 0 0.00013162543867625075 -0.021417014055768437 0 -0.00010482850868844683 -0.021436823453694645 0 -4.7127138489556307e-05 -0.021328026016793358 0 -0.00010482850868844683 -0.021436823453694645 0 -4.7127138489556307e-05 -0.021328026016793358 0 -0.00016933246845170393 -0.021347484550374742 0 -4.7127138489556307e-05 -0.021328026016793358 0 -0.0001201583854736758 -0.021257763290618931 0 -0.00016933246845170393 -0.021347484550374742 0 3.0421446688772829e-05 -0.024964168776089705 0 1.5843072601793881e-05 -0.024967834125792454 0 1.3916946132555467e-05 -0.024961034680112869 0 0.00013162543867625075 -0.021417014055768437 0 9.1784446740186267e-05 -0.021240556591464774 0 2.3004826459856228e-05 -0.021278466914487509 0 0.0001012684214486919 -0.023261471569100928 0 -7.4724032245198724e-05 -0.022799612074253277 0 3.0421446688772829e-05 -0.024964168776089705 0 1.5843072601793881e-05 -0.024967834125792454 0 1.5342382789737946e-05 -0.024970613749617575 0 1.5843072601793881e-05 -0.024967834125792454 0 1.1424704790372093e-05 -0.024972427978620714 0 1.5342382789737946e-05 -0.024970613749617575 0 1.1424704790372093e-05 -0.024972427978620714 0 6.5496686614435631e-06 -0.02497993879932283 0 8.9881099875008805e-06 -0.024978400070403174 0 1.1424704790372093e-05 -0.024972427978620714 0 6.5496686614435631e-06 -0.02497993879932283 0 1.5342382789737946e-05 -0.024970613749617575 0 6.5496686614435631e-06 -0.02497993879932283 0 1.5342382789737946e-05 -0.024970613749617575 0 1.7177856883190199e-05 -0.024963708280254054 0 6.3036036109837181e-06 -0.024952448170500054 0 6.5496686614435631e-06 -0.02497993879932283 0 1.7177856883190199e-05 -0.024963708280254054 0 6.3036036109837181e-06 -0.024952448170500054 0 6.5496686614435631e-06 -0.02497993879932283 0 1.0890325112448395e-06 -0.024979465437382553 0 6.3036036109837181e-06 -0.024952448170500054 0 3.1307185367293743e-05 -0.024939366873924809 0 1.7177856883190199e-05 -0.024963708280254054 0 6.5496686614435631e-06 -0.02497993879932283 0 1.0890325112448395e-06 -0.024979465437382553 0 2.2616903525175173e-08 -0.024999949399647083 0 -1.0047754682458678e-08 -0.024999948317253731 0 1.0890325112448395e-06 -0.024979465437382553 0 2.2616903525175173e-08 -0.024999949399647083 0 6.5496686614435631e-06 -0.02497993879932283 0 2.2616903525175173e-08 -0.024999949399647083 0 8.9881099875008805e-06 -0.024978400070403174 0 2.5343714569587697e-09 -0.02500001226866095 0 -2.6675472404749072e-09 -0.024999985296715561 0 -3.9295885416619659e-06 -0.024996760221397869 0 -9.5124758108080433e-09 -0.024999974939420695 0 1.6932760762373426e-05 -0.025006466722916641 0 -3.4629285583907003e-11 -0.025000001791070755 0 4.7379146033841088e-08 -0.024999513953989246 0 -2.1403937913859092e-07 -0.024998037270506097 0 8.1497584345619611e-08 -0.02500018310294418 0 2.696582538186394e-05 -0.024773123391178126 0 -2.6675472404749072e-09 -0.024999985296715561 0 -3.9295885416619659e-06 -0.024996760221397869 0 -7.3478713278922826e-06 -0.024984544045234366 0 -3.4629285583907003e-11 -0.025000001791070755 0 2.371776610540024e-10 -0.024999995100565484 0 4.7379146033841088e-08 -0.024999513953989246 0 1.6932760762373426e-05 -0.025006466722916641 0 2.696582538186394e-05 -0.024773123391178126 0 -5.7211885222935698e-06 -0.024977336010307435 0 2.696582538186394e-05 -0.024773123391178126 0 8.9881099875008805e-06 -0.024978400070403174 0 1.2915554908604366e-05 -0.024966479942508078 0 1.160187491280808e-05 -0.024969596627701394 0 1.5843072601793881e-05 -0.024967834125792454 0 1.1424704790372093e-05 -0.024972427978620714 0 1.2882765482769873e-05 -0.024967089920610201 0 1.1424704790372093e-05 -0.024972427978620714 0 1.2882765482769873e-05 -0.024967089920610201 0 1.160187491280808e-05 -0.024969596627701394 0 1.1424704790372093e-05 -0.024972427978620714 0 8.9881099875008805e-06 -0.024978400070403174 0 1.160187491280808e-05 -0.024969596627701394 0 1.2915554908604366e-05 -0.024966479942508078 0 1.160187491280808e-05 -0.024969596627701394 0 1.1620875086925873e-05 -0.024965596020051849 0 2.696582538186394e-05 -0.024773123391178126 0 -0.00016933876764460538 -0.024210964396764685 0 1.2882765482769873e-05 -0.024967089920610201 0 1.160187491280808e-05 -0.024969596627701394 0 1.1620875086925873e-05 -0.024965596020051849 0 -0.00016933876764460538 -0.024210964396764685 0 -7.4724032245198724e-05 -0.022799612074253277 0 1.2882765482769873e-05 -0.024967089920610201 0 1.1620875086925873e-05 -0.024965596020051849 0 1.3916946132555467e-05 -0.024961034680112869 0 5.8595116968792966e-05 -0.024362097666595726 0 -0.00023741854584834293 -0.023859072482803608 0 -0.00031194718097644192 -0.023999460935415381 0 -6.9726212912354146e-05 -0.024500434075704357 0 -0.00017914332529193262 -0.024508637828804598 0 -0.00022170609129611591 -0.023689972646623269 0 -0.00031282966288388991 -0.023542757003783856 0 -0.00033809628972148543 -0.023683670512011749 0 -0.00016933876764460538 -0.024210964396764685 0 -0.00023484694565938127 -0.02270714130202978 0 -0.00022170609129611591 -0.023689972646623269 0 -0.0001854834306280642 -0.023668792557057845 0 -0.00031282966288388991 -0.023542757003783856 0 -8.2608737429335605e-05 -0.024481711534914019 0 -0.0001090649725882121 -0.024479958044078785 0 -9.3379011907105281e-05 -0.024471089649370701 0 -0.00016933876764460538 -0.024210964396764685 0 -6.9726212912354146e-05 -0.024500434075704357 0 2.696582538186394e-05 -0.024773123391178126 0 -6.9726212912354146e-05 -0.024500434075704357 0 -6.9726212912354146e-05 -0.024500434075704357 0 -0.00038383903097685815 -0.02353764272342581 0 2.371776610540024e-10 -0.024999995100565484 0 4.7379146033841088e-08 -0.024999513953989246 0 -5.663506142778467e-11 -0.025000000366223584 0 4.7379146033841088e-08 -0.024999513953989246 0 7.514539316911973e-07 -0.024996328651779597 0 8.4274264635485758e-07 -0.024996004766181478 0 -6.9726212912354146e-05 -0.024500434075704357 0 -1.43717444860552e-07 -0.025000289348527341 0 4.7379146033841088e-08 -0.024999513953989246 0 8.4274264635485758e-07 -0.024996004766181478 0 -5.663506142778467e-11 -0.025000000366223584 0 -9.1795913472775359e-07 -0.02499093701373863 0 -4.8581982902900733e-09 -0.024999984622736508 0 -7.2696448072723019e-07 -0.024996869918091819 0 -4.8581982902900733e-09 -0.024999984622736508 0 -7.2696448072723019e-07 -0.024996869918091819 0 2.0081111439144181e-09 -0.025000003698525928 0 -3.7976917287885095e-06 -0.024989127207817822 0 2.2188771799678942e-09 -0.024999996069343375 0 -3.7976917287885095e-06 -0.024989127207817822 0 -0.00017914332529193262 -0.024508637828804598 0 -9.1795913472775359e-07 -0.02499093701373863 0 -7.2696448072723019e-07 -0.024996869918091819 0 -3.0867181998166794e-07 -0.024992215649316557 0 3.4958217201654248e-06 -0.024993274849805881 0 -3.9576649166081328e-06 -0.024995996276511404 0 -1.5125016097023021e-06 -0.024993008948206104 0 3.4958217201654248e-06 -0.024993274849805881 0 -1.5125016097023021e-06 -0.024993008948206104 0 1.4425890567181072e-06 -0.024990084231718557 0 3.4958217201654248e-06 -0.024993274849805881 0 1.4425890567181072e-06 -0.024990084231718557 0 4.2788184022720908e-06 -0.024991268785396696 0 -3.7550264693538677e-06 -0.02499103196730363 0 1.4425890567181072e-06 -0.024990084231718557 0 -4.5251249148631796e-06 -0.02498563876391258 0 -1.5125016097023021e-06 -0.024993008948206104 0 -3.7550264693538677e-06 -0.02499103196730363 0 1.4425890567181072e-06 -0.024990084231718557 0 -4.3024012129674e-06 -0.024963303521809491 0 6.7277514719223215e-06 -0.024978693765106297 0 -4.5251249148631796e-06 -0.02498563876391258 0 6.7277514719223215e-06 -0.024978693765106297 0 1.4425890567181072e-06 -0.024990084231718557 0 -4.5251249148631796e-06 -0.02498563876391258 0 6.7277514719223215e-06 -0.024978693765106297 0 1.4425890567181072e-06 -0.024990084231718557 0 4.2788184022720908e-06 -0.024991268785396696 0 1.554348212962855e-08 -0.024999957860534015 0 4.2788184022720908e-06 -0.024991268785396696 0 3.8329692968823534e-09 -0.024999984257116512 0 3.4958217201654248e-06 -0.024993274849805881 0 4.2788184022720908e-06 -0.024991268785396696 0 3.8329692968823534e-09 -0.024999984257116512 0 -4.1462356637219997e-05 -0.024970553545632757 0 -3.4358308666239438e-05 -0.025009641485760639 0 -7.9894892264504406e-05 -0.024983936178936305 0 -4.1462356637219997e-05 -0.024970553545632757 0 -2.226346289027855e-05 -0.024985552195813505 0 -3.4358308666239438e-05 -0.025009641485760639 0 -0.00025822759285929977 -0.025105496295822531 0 -0.0002923143454888398 -0.025075850190962486 0 -0.00029491633503031734 -0.025107158622304421 0 -0.00023622081161709087 -0.024499807813100547 0 -0.00013701397694653922 -0.025110142324771999 0 -4.3024012129674e-06 -0.024963303521809491 0 -4.1462356637219997e-05 -0.024970553545632757 0 -2.226346289027855e-05 -0.024985552195813505 0 -4.3024012129674e-06 -0.024963303521809491 0 -2.226346289027855e-05 -0.024985552195813505 0 -4.5251249148631796e-06 -0.02498563876391258 0 -3.7550264693538677e-06 -0.02499103196730363 0 -4.5251249148631796e-06 -0.02498563876391258 0 -8.0151483722452612e-06 -0.024994284977733199 0 -2.226346289027855e-05 -0.024985552195813505 0 -4.5251249148631796e-06 -0.02498563876391258 0 -8.0151483722452612e-06 -0.024994284977733199 0 1.37601171500673e-05 -0.025032940094917775 0 -0.00010990634067368895 -0.024806998035215438 0 -2.226346289027855e-05 -0.024985552195813505 0 -7.0185341479696936e-06 -0.025010750847851006 0 -3.4358308666239438e-05 -0.025009641485760639 0 -0.00032589151313001599 -0.023656602903358834 0 -0.00023622081161709087 -0.024499807813100547 0 -0.00010990634067368895 -0.024806998035215438 0 -0.00023622081161709087 -0.024499807813100547 0 -0.00026457596724197046 -0.024437182956267737 0 -0.00026276515600770419 -0.024358052231209373 0 -0.00017200604237810116 -0.024448401333782826 0 -1.5125016097023021e-06 -0.024993008948206104 0 -3.7550264693538677e-06 -0.02499103196730363 0 -8.0151483722452612e-06 -0.024994284977733199 0 -3.9576649166081328e-06 -0.024995996276511404 0 -1.5125016097023021e-06 -0.024993008948206104 0 -8.0151483722452612e-06 -0.024994284977733199 0 -0.00017914332529193262 -0.024508637828804598 0 -0.00010990634067368895 -0.024806998035215438 0 -0.00030406692760606382 -0.024375145482748977 0 -0.00026457596724197046 -0.024437182956267737 0 -0.00026276515600770419 -0.024358052231209373 0 -0.00017914332529193262 -0.024508637828804598 0 -0.00032589151313001599 -0.023656602903358834 0 -0.00023741854584834293 -0.023859072482803608 0 -0.00039269346413539093 -0.023919711092128006 0 -0.00029746360457580666 -0.023920613319394622 0 -0.00023741854584834293 -0.023859072482803608 0 -0.00029746360457580666 -0.023920613319394622 0 -0.00031194718097644192 -0.023999460935415381 0 -0.00039269346413539093 -0.023919711092128006 0 -0.00029746360457580666 -0.023920613319394622 0 -0.00031191284651798545 -0.023997391083196123 0 -0.00032589151313001599 -0.023656602903358834 0 -0.00038383903097685815 -0.02353764272342581 0 -0.00039076025264915255 -0.023640678603060194 0 -0.00038383903097685815 -0.02353764272342581 0 -0.00038100171384295838 -0.023116762286204909 0 -0.00026211366549476635 -0.02313367927113958 0 -0.00022995439107692542 -0.02304616981865111 0 -0.00038100171384295838 -0.023116762286204909 0 -0.00030828582485242534 -0.023186748842847993 0 -0.00026211366549476635 -0.02313367927113958 0 -0.00030828582485242534 -0.023186748842847993 0 -0.00026211366549476635 -0.02313367927113958 0 -0.00021613630983502674 -0.023192961897463785 0 -0.00023622081161709087 -0.024499807813100547 0 -0.00024027999535765077 -0.024130944673001527 0 -0.0004019048680281181 -0.02285856235109315 0 5.5328106823400362e-05 -0.022667367697868476 0 -0.00027222158863869465 -0.022687507149382644 0 -0.00032589151313001599 -0.023656602903358834 0 -0.00012361997369173043 -0.022053902321256556 0 5.5328106823400362e-05 -0.022667367697868476 0 -3.8148545351395025e-05 -0.022537291096986361 0 -0.00027222158863869465 -0.022687507149382644 0 -0.00012361997369173043 -0.022053902321256556 0 -3.7772854605913296e-05 -0.021598604572734961 0 -3.8148545351395025e-05 -0.022537291096986361 0 -0.00027222158863869465 -0.022687507149382644 0 -0.00040495232470719693 -0.022535598662224869 0 -3.7772854605913296e-05 -0.021598604572734961 0 -0.00023484694565938127 -0.02270714130202978 0 -0.0004019048680281181 -0.02285856235109315 0 -0.00045450269727329755 -0.022807451216116163 0 -0.00027222158863869465 -0.022687507149382644 0 -0.00045450269727329755 -0.022807451216116163 0 -0.00027222158863869465 -0.022687507149382644 0 -0.00040495232470719693 -0.022535598662224869 0 -0.00038383903097685815 -0.02353764272342581 0 -0.00023484694565938127 -0.02270714130202978 0 0.00011841471899481835 -0.021151407597872318 0 3.3355139245761597e-05 -0.021208769382861824 0 -5.1747273293760118e-05 -0.021160027244014248 0 -0.00023484694565938127 -0.02270714130202978 0 -7.4724032245198724e-05 -0.022799612074253277 0 -0.00035131197128452811 -0.023411786446111957 0 7.6117809462512383e-06 -0.023414533712310892 0 5.5018319334732303e-05 -0.023154632151506389 0 0.00011841471899481835 -0.021151407597872318 0 3.3355139245761597e-05 -0.021208769382861824 0 0.00010285489534580574 -0.021227938099057164 0 -7.4724032245198724e-05 -0.022799612074253277 0 0.00037211701679517331 -0.021496351871289926 0 3.3355139245761597e-05 -0.021208769382861824 0 0.00010285489534580574 -0.021227938099057164 0 2.3004826459856228e-05 -0.021278466914487509 0 1.5843072601793881e-05 -0.024967834125792454 0 1.2882765482769873e-05 -0.024967089920610201 0 1.3916946132555467e-05 -0.024961034680112869 0 -7.3801052770898579e-05 -0.021129367331061334 0 0.00011841471899481835 -0.021151407597872318 0 -5.1747273293760118e-05 -0.021160027244014248 0 -8.1233211298507472e-05 -0.021118423191380076 0 -8.9114486823191189e-05 -0.021196830167829857 0 -0.00015756478754371068 -0.021204355647801747 0 -8.9114486823191189e-05 -0.021196830167829857 0 -5.1747273293760118e-05 -0.021160027244014248 0 -3.7614840820399982e-05 -0.021235235599836689 0 -8.1233211298507472e-05 -0.021118423191380076 0 -8.9114486823191189e-05 -0.021196830167829857 0 -5.1747273293760118e-05 -0.021160027244014248 0 -3.7772854605913296e-05 -0.021598604572734961 0 -0.00010854433066583344 -0.021438863958139081 0 3.3355139245761597e-05 -0.021208769382861824 0 -5.1747273293760118e-05 -0.021160027244014248 0 -3.7614840820399982e-05 -0.021235235599836689 0 -4.7127138489556307e-05 -0.021328026016793358 0 -3.7614840820399982e-05 -0.021235235599836689 0 2.3004826459856228e-05 -0.021278466914487509 0 3.3355139245761597e-05 -0.021208769382861824 0 -3.7614840820399982e-05 -0.021235235599836689 0 2.3004826459856228e-05 -0.021278466914487509 0 -4.7127138489556307e-05 -0.021328026016793358 0 -3.7614840820399982e-05 -0.021235235599836689 0 -0.0001201583854736758 -0.021257763290618931 0 -8.9114486823191189e-05 -0.021196830167829857 0 -3.7614840820399982e-05 -0.021235235599836689 0 -0.0001201583854736758 -0.021257763290618931 0 -8.9114486823191189e-05 -0.021196830167829857 0 -0.0001201583854736758 -0.021257763290618931 0 -0.00015756478754371068 -0.021204355647801747 0 -0.0001201583854736758 -0.021257763290618931 0 -0.00022964418421191424 -0.021272293829651276 0 -0.00015756478754371068 -0.021204355647801747 0 -0.0001201583854736758 -0.021257763290618931 0 -0.00022964418421191424 -0.021272293829651276 0 -0.00016933246845170393 -0.021347484550374742 0 -0.00022964418421191424 -0.021272293829651276 0 -0.00024034319237043269 -0.021182855047987535 0 -0.00015756478754371068 -0.021204355647801747 0 -8.1233211298507472e-05 -0.021118423191380076 0 -0.00024034319237043269 -0.021182855047987535 0 -0.00034553821854677291 -0.021115525213539921 0 -0.00022964418421191424 -0.021272293829651276 0 -0.00033201578925397339 -0.021237048169543672 0 -0.0003056194121006227 -0.021303287275287245 0 -0.00033201578925397339 -0.021237048169543672 0 -0.00038177379823626297 -0.021338658627580633 0 -0.0003056194121006227 -0.021303287275287245 0 -0.00022964418421191424 -0.021272293829651276 0 -0.00033201578925397339 -0.021237048169543672 0 -0.00024034319237043269 -0.021182855047987535 0 -0.00033201578925397339 -0.021237048169543672 0 -0.00024034319237043269 -0.021182855047987535 0 -0.00034553821854677291 -0.021115525213539921 0 -8.1233211298507472e-05 -0.021118423191380076 0 -0.00024034319237043269 -0.021182855047987535 0 -0.00015756478754371068 -0.021204355647801747 0 -0.00043689375941970127 -0.02126205580825017 0 -0.00050899039755466287 -0.021195821057080552 0 -0.00055352852760405036 -0.021305548300348996 0 -0.00033201578925397339 -0.021237048169543672 0 -0.00043689375941970127 -0.02126205580825017 0 -0.00038177379823626297 -0.021338658627580633 0 -0.0005471684830648428 -0.021259139179652716 0 -0.00045271992099737654 -0.021221055954409471 0 -0.00042867843610559466 -0.021223030869751702 0 -0.00033201578925397339 -0.021237048169543672 0 -0.00043689375941970127 -0.02126205580825017 0 -0.00034553821854677291 -0.021115525213539921 0 -0.00052474729140526081 -0.021231761923432717 0 -0.00033964655132935574 -0.021295411436789528 0 -0.00043689375941970127 -0.02126205580825017 0 -0.00050899039755466287 -0.021195821057080552 0 -0.00034553821854677291 -0.021115525213539921 0 -0.0005471684830648428 -0.021259139179652716 0 -0.00052269077364514483 -0.021194383605814191 0 -0.00045271992099737654 -0.021221055954409471 0 -0.00046278572379834641 -0.021172929080602212 0 -0.00042891838077113779 -0.021223043000541977 0 -0.00040065483621049821 -0.02115244850235997 0 -0.00052269077364514483 -0.021194383605814191 0 -0.00046278572379834641 -0.021172929080602212 0 -0.00045271992099737654 -0.021221055954409471 0 -0.00046278572379834641 -0.021172929080602212 0 -0.00045271992099737654 -0.021221055954409471 0 -0.00042891838077113779 -0.021223043000541977 0 -0.00037074854437045513 -0.021288643468717797 0 -0.00033964655132935574 -0.021295411436789528 0 -0.00046278572379834641 -0.021172929080602212 0 -0.00040065483621049821 -0.02115244850235997 0 -0.00045115475342333706 -0.021110685570400103 0 -0.00046278572379834641 -0.021172929080602212 0 -0.00054331294024920977 -0.021129008391950293 0 -0.00045115475342333706 -0.021110685570400103 0 -0.00052269077364514483 -0.021194383605814191 0 -0.00046278572379834641 -0.021172929080602212 0 -0.00054331294024920977 -0.021129008391950293 0 -0.00012361997369173043 -0.022053902321256556 0 -0.00033964655132935574 -0.021295411436789528 0 -3.7772854605913296e-05 -0.021598604572734961 0 -0.00033964655132935574 -0.021295411436789528 0 -0.00029422125742542337 -0.021178562040537734 0 -0.00042891838077113779 -0.021223043000541977 0 -0.00040065483621049821 -0.02115244850235997 0 -0.0001218547982720065 -0.021539842118523334 0 -7.5680693793339518e-05 -0.021603865991566058 0 -0.00027515265806775418 -0.021597002439234406 0 -0.00012361997369173043 -0.022053902321256556 0 -0.00035715504214386214 -0.022007795646954757 0 -0.00029422125742542337 -0.021178562040537734 0 -0.00040065483621049821 -0.02115244850235997 0 -0.00036580930369887804 -0.021077642920798178 0 -0.00017756236673850508 -0.023124571881849919 0 -0.00012626801479526331 -0.023200743466589256 0 -0.00021613630983502674 -0.023192961897463785 0 -0.00026211366549476635 -0.02313367927113958 0 -0.00022995439107692542 -0.02304616981865111 0 -0.00017756236673850508 -0.023124571881849919 0 -0.00026211366549476635 -0.02313367927113958 0 -0.00017756236673850508 -0.023124571881849919 0 -0.00021613630983502674 -0.023192961897463785 0 -0.00035715504214386214 -0.022007795646954757 0 -0.00029248986340353204 -0.023082892778810302 0 -0.00036580930369887804 -0.021077642920798178 0 -0.00045216480501134579 -0.021050544476158273 0 -0.00043678805966613138 -0.02098403141686489 0 -0.00040065483621049821 -0.02115244850235997 0 -0.00036580930369887804 -0.021077642920798178 0 -0.00045115475342333706 -0.021110685570400103 0 -0.00045115475342333706 -0.021110685570400103 0 -0.00051806869444813203 -0.021058846295446465 0 -0.00045216480501134579 -0.021050544476158273 0 -0.00036580930369887804 -0.021077642920798178 0 -0.00045115475342333706 -0.021110685570400103 0 -0.00045216480501134579 -0.021050544476158273 0 -0.00054331294024920977 -0.021129008391950293 0 -0.00045115475342333706 -0.021110685570400103 0 -0.00051806869444813203 -0.021058846295446465 0 -0.00050148611169916998 -0.021007946570362705 0 -0.00054265224534681591 -0.020948729588830137 0 -0.00057614278847329813 -0.020996755681865546 0 -0.00051806869444813203 -0.021058846295446465 0 -0.00050148611169916998 -0.021007946570362705 0 -0.00045216480501134579 -0.021050544476158273 0 -0.00051806869444813203 -0.021058846295446465 0 -0.00050148611169916998 -0.021007946570362705 0 -0.00057614278847329813 -0.020996755681865546 0 -0.00050148611169916998 -0.021007946570362705 0 -0.00045216480501134579 -0.021050544476158273 0 -0.00043678805966613138 -0.02098403141686489 0 -0.00044781013771008388 -0.023808399000377914 0 -0.00029248986340353204 -0.023082892778810302 0 -0.00050144078173868618 -0.022482438171771899 0 -0.0003666612968496937 -0.022661396552173575 0 -0.00047570434951758867 -0.022645276187111828 0 -0.00048094779483194138 -0.025053772482174986 0 -0.00035216766193056837 -0.025063084954525191 0 -0.00034406825631955673 -0.025112349294653863 0 -0.00050148611169916998 -0.021007946570362705 0 -0.00043678805966613138 -0.02098403141686489 0 -0.00053411235573224542 -0.020971467525631171 0 -0.00029248986340353204 -0.023082892778810302 0 -0.00047850016384369765 -0.021406053146532454 0 -0.00060226306440575462 -0.021094103710913931 0 -0.00047850016384369765 -0.021406053146532454 0 -0.00035216766193056837 -0.025063084954525191 0 -0.00034406825631955673 -0.025112349294653863 0 -0.0002923143454888398 -0.025075850190962486 0 -0.00029248986340353204 -0.023082892778810302 0 -0.00024027999535765077 -0.024130944673001527 0 -0.00034406825631955673 -0.025112349294653863 0 -0.0002923143454888398 -0.025075850190962486 0 -0.00029491633503031734 -0.025107158622304421 0 -0.00071333761348576618 -0.020919435275586325 0 -0.00071408913482275626 -0.021042418868600955 0 -0.00085462605731710716 -0.02094369528986503 0 -0.00082185619221153904 -0.02081510897115171 0 -0.00073071528233345268 -0.020830435142532709 0 -0.00071333761348576618 -0.020919435275586325 0 -0.00082185619221153904 -0.02081510897115171 0 -0.00071333761348576618 -0.020919435275586325 0 -0.00085462605731710716 -0.02094369528986503 0 -0.00063785268677981407 -0.020823144225382013 0 -0.00073071528233345268 -0.020830435142532709 0 -0.00071333761348576618 -0.020919435275586325 0 -0.00050144078173868618 -0.022482438171771899 0 -0.00056352328074453398 -0.022541175890601128 0 -0.00047570434951758867 -0.022645276187111828 0 -0.00063785268677981407 -0.020823144225382013 0 -0.00071333761348576618 -0.020919435275586325 0 -0.00053532774386953969 -0.020948869793947479 0 -0.00073563814538031862 -0.020882175343932718 0 -0.00047850016384369765 -0.021406053146532454 0 -0.00071333761348576618 -0.020919435275586325 0 -0.00054265224534681591 -0.020948729588830137 0 -0.00057614278847329813 -0.020996755681865546 0 -0.00060603255088777577 -0.021675547279586715 0 -0.00047850016384369765 -0.021406053146532454 0 -0.00071333761348576618 -0.020919435275586325 0 -0.00057614278847329813 -0.020996755681865546 0 -0.00061006021876571295 -0.021046777162609685 0 -0.00051806869444813203 -0.021058846295446465 0 -0.00057614278847329813 -0.020996755681865546 0 -0.00061006021876571295 -0.021046777162609685 0 -0.00054331294024920977 -0.021129008391950293 0 -0.00051806869444813203 -0.021058846295446465 0 -0.00061006021876571295 -0.021046777162609685 0 -0.00054331294024920977 -0.021129008391950293 0 -0.00061006021876571295 -0.021046777162609685 0 -0.00062598531867428067 -0.021111198160838996 0 -0.00061006021876571295 -0.021046777162609685 0 -0.00071408913482275626 -0.021042418868600955 0 -0.00062598531867428067 -0.021111198160838996 0 -0.00071408913482275626 -0.021042418868600955 0 -0.00080521027922393889 -0.021091096975086567 0 -0.00067994809855234444 -0.021161321383864295 0 -0.00071408913482275626 -0.021042418868600955 0 -0.00080521027922393889 -0.021091096975086567 0 -0.00085462605731710716 -0.02094369528986503 0 -0.00071333761348576618 -0.020919435275586325 0 -0.00061006021876571295 -0.021046777162609685 0 -0.00071408913482275626 -0.021042418868600955 0 -0.0008188564668211904 -0.020988607097024117 0 -0.00070394972970484466 -0.02156931427063729 0 -0.00080521027922393889 -0.021091096975086567 0 -0.00067994809855234444 -0.021161321383864295 0 -0.00073015206395328405 -0.021213730435622136 0 -0.00080521027922393889 -0.021091096975086567 0 -0.00073015206395328405 -0.021213730435622136 0 -0.00077476250732258836 -0.021274835713270945 0 -0.00071408913482275626 -0.021042418868600955 0 -0.00067994809855234444 -0.021161321383864295 0 -0.00062598531867428067 -0.021111198160838996 0 -0.00067994809855234444 -0.021161321383864295 0 -0.00073015206395328405 -0.021213730435622136 0 -0.00068037105329555171 -0.02123693440948856 0 -0.00054331294024920977 -0.021129008391950293 0 -0.00062598531867428067 -0.021111198160838996 0 -0.00058914055358882532 -0.021182236225714243 0 -0.00067994809855234444 -0.021161321383864295 0 -0.00062598531867428067 -0.021111198160838996 0 -0.00058914055358882532 -0.021182236225714243 0 -0.00067994809855234444 -0.021161321383864295 0 -0.00062610670070483365 -0.021230180751630676 0 -0.00068037105329555171 -0.02123693440948856 0 -0.00067994809855234444 -0.021161321383864295 0 -0.00058914055358882532 -0.021182236225714243 0 -0.00062610670070483365 -0.021230180751630676 0 -0.0005471684830648428 -0.021259139179652716 0 -0.00052269077364514483 -0.021194383605814191 0 -0.00058914055358882532 -0.021182236225714243 0 -0.00052269077364514483 -0.021194383605814191 0 -0.00054331294024920977 -0.021129008391950293 0 -0.00058914055358882532 -0.021182236225714243 0 -0.0005471684830648428 -0.021259139179652716 0 -0.00058914055358882532 -0.021182236225714243 0 -0.00062610670070483365 -0.021230180751630676 0 -0.00052474729140526081 -0.021231761923432717 0 -0.00063307922039446379 -0.021275903470901712 0 -0.00062610670070483365 -0.021230180751630676 0 -0.00065216847771160081 -0.021287058140250864 0 -0.00068037105329555171 -0.02123693440948856 0 -0.0005471684830648428 -0.021259139179652716 0 -0.00062610670070483365 -0.021230180751630676 0 -0.00065216847771160081 -0.021287058140250864 0 -0.00065216847771160081 -0.021287058140250864 0 -0.00055352852760405036 -0.021305548300348996 0 -0.00060438366092923496 -0.021362638850084166 0 -0.00050899039755466287 -0.021195821057080552 0 -0.00065216847771160081 -0.021287058140250864 0 -0.00055352852760405036 -0.021305548300348996 0 -0.00073015206395328405 -0.021213730435622136 0 -0.00077476250732258836 -0.021274835713270945 0 -0.00071645417762897202 -0.021284918161556001 0 -0.00073015206395328405 -0.021213730435622136 0 -0.00068037105329555171 -0.02123693440948856 0 -0.00071645417762897202 -0.021284918161556001 0 -0.00065216847771160081 -0.021287058140250864 0 -0.00068037105329555171 -0.02123693440948856 0 -0.00071645417762897202 -0.021284918161556001 0 -0.00065216847771160081 -0.021287058140250864 0 -0.00071645417762897202 -0.021284918161556001 0 -0.00068894717516073897 -0.021368234891169673 0 -0.00077314551825317815 -0.021268226415459193 0 -0.00071645417762897202 -0.021284918161556001 0 -0.00068894717516073897 -0.021368234891169673 0 -0.00070394972970484466 -0.02156931427063729 0 -0.00077052222111355937 -0.021434027840236774 0 -0.00068894717516073897 -0.021368234891169673 0 -0.00075190824545323155 -0.021502559862423654 0 -0.00060462153754291476 -0.021471931539852586 0 -0.00077314551825317815 -0.021268226415459193 0 -0.00068894717516073897 -0.021368234891169673 0 -0.00075190824545323155 -0.021502559862423654 0 -0.00070394972970484466 -0.02156931427063729 0 -0.00071638322911967117 -0.021769487893671963 0 -0.00075190824545323155 -0.021502559862423654 0 -0.00060462153754291476 -0.021471931539852586 0 -0.00065138342565521264 -0.021599092260628068 0 -0.00060462153754291476 -0.021471931539852586 0 -0.00049649312407015029 -0.021573986124172446 0 -0.00065138342565521264 -0.021599092260628068 0 -0.00060462153754291476 -0.021471931539852586 0 -0.00044842470796211179 -0.021471409384607919 0 -0.00049649312407015029 -0.021573986124172446 0 -0.00060462153754291476 -0.021471931539852586 0 -0.00051398287165819545 -0.021380555905870905 0 -0.00044842470796211179 -0.021471409384607919 0 -0.00060462153754291476 -0.021471931539852586 0 -0.00060438366092923496 -0.021362638850084166 0 -0.00051398287165819545 -0.021380555905870905 0 -0.00068894717516073897 -0.021368234891169673 0 -0.00060462153754291476 -0.021471931539852586 0 -0.00060438366092923496 -0.021362638850084166 0 -0.00065216847771160081 -0.021287058140250864 0 -0.00068894717516073897 -0.021368234891169673 0 -0.00060438366092923496 -0.021362638850084166 0 -0.00055352852760405036 -0.021305548300348996 0 -0.00060438366092923496 -0.021362638850084166 0 -0.00051398287165819545 -0.021380555905870905 0 -0.00043689375941970127 -0.02126205580825017 0 -0.00055352852760405036 -0.021305548300348996 0 -0.00051398287165819545 -0.021380555905870905 0 -0.00043689375941970127 -0.02126205580825017 0 -0.00051398287165819545 -0.021380555905870905 0 -0.00038177379823626297 -0.021338658627580633 0 -0.00038177379823626297 -0.021338658627580633 0 -0.00031788812577343681 -0.021466851243572855 0 -0.00044842470796211179 -0.021471409384607919 0 -0.00051398287165819545 -0.021380555905870905 0 -0.00038177379823626297 -0.021338658627580633 0 -0.00044842470796211179 -0.021471409384607919 0 -0.00022964418421191424 -0.021272293829651276 0 -0.00016933246845170393 -0.021347484550374742 0 -0.00027798664524760131 -0.021364299669896576 0 -0.00038177379823626297 -0.021338658627580633 0 -0.00027798664524760131 -0.021364299669896576 0 -0.0003056194121006227 -0.021303287275287245 0 -0.00022964418421191424 -0.021272293829651276 0 -0.00027798664524760131 -0.021364299669896576 0 -0.0003056194121006227 -0.021303287275287245 0 -0.00038177379823626297 -0.021338658627580633 0 -0.00027798664524760131 -0.021364299669896576 0 -0.00031788812577343681 -0.021466851243572855 0 -0.00027798664524760131 -0.021364299669896576 0 -0.0002217881271277587 -0.021429461338152454 0 -0.00031788812577343681 -0.021466851243572855 0 -0.00016933246845170393 -0.021347484550374742 0 -0.00027798664524760131 -0.021364299669896576 0 -0.0002217881271277587 -0.021429461338152454 0 -0.00010482850868844683 -0.021436823453694645 0 -0.0002217881271277587 -0.021429461338152454 0 -0.00020988504391591345 -0.021527405755238441 0 -0.00010482850868844683 -0.021436823453694645 0 -0.00016933246845170393 -0.021347484550374742 0 -0.0002217881271277587 -0.021429461338152454 0 -0.0002217881271277587 -0.021429461338152454 0 -0.00020988504391591345 -0.021527405755238441 0 -0.00031788812577343681 -0.021466851243572855 0 -0.00020988504391591345 -0.021527405755238441 0 -0.00031788812577343681 -0.021466851243572855 0 -0.00035000363781164859 -0.021563675527559872 0 -0.00020988504391591345 -0.021527405755238441 0 -0.00035000363781164859 -0.021563675527559872 0 -0.00023963898447054618 -0.021674012045569235 0 -0.00015974087664295775 -0.021658162347544786 0 -0.00020988504391591345 -0.021527405755238441 0 -0.00023963898447054618 -0.021674012045569235 0 -0.00031788812577343681 -0.021466851243572855 0 -0.00035000363781164859 -0.021563675527559872 0 -0.00044842470796211179 -0.021471409384607919 0 -0.00035000363781164859 -0.021563675527559872 0 -0.00044842470796211179 -0.021471409384607919 0 -0.00049649312407015029 -0.021573986124172446 0 -0.00035000363781164859 -0.021563675527559872 0 -0.00049649312407015029 -0.021573986124172446 0 -0.00038598943057997743 -0.021653060283264625 0 -0.00049649312407015029 -0.021573986124172446 0 -0.00038598943057997743 -0.021653060283264625 0 -0.00057622972496536979 -0.021670419669590251 0 -0.00038598943057997743 -0.021653060283264625 0 -0.00038866333509631406 -0.021711658476741821 0 -0.00057622972496536979 -0.021670419669590251 0 -0.00023963898447054618 -0.021674012045569235 0 -0.00026171630647991496 -0.021734700371608663 0 -0.00017830072413350283 -0.021758698697188297 0 -0.00014214476652724275 -0.021761214520102493 0 -0.00023963898447054618 -0.021674012045569235 0 -0.00017830072413350283 -0.021758698697188297 0 -0.00014214476652724275 -0.021761214520102493 0 -0.00015974087664295775 -0.021658162347544786 0 -0.00023963898447054618 -0.021674012045569235 0 -0.00035000363781164859 -0.021563675527559872 0 -0.00038598943057997743 -0.021653060283264625 0 -0.00023963898447054618 -0.021674012045569235 0 -0.00038598943057997743 -0.021653060283264625 0 -0.00023963898447054618 -0.021674012045569235 0 -0.00026171630647991496 -0.021734700371608663 0 -0.00038598943057997743 -0.021653060283264625 0 -0.00038866333509631406 -0.021711658476741821 0 -0.00026171630647991496 -0.021734700371608663 0 -0.00026171630647991496 -0.021734700371608663 0 -0.00017830072413350283 -0.021758698697188297 0 -0.00014277598532476594 -0.021797370206019941 0 -0.00011362148243950668 -0.021808873467009906 0 -0.00017830072413350283 -0.021758698697188297 0 -0.00014277598532476594 -0.021797370206019941 0 -0.00026171630647991496 -0.021734700371608663 0 -0.00014277598532476594 -0.021797370206019941 0 -0.00025840067853413626 -0.021780030661431721 0 -0.00014051674966724775 -0.021810431087040973 0 -0.00014277598532476594 -0.021797370206019941 0 -0.00025840067853413626 -0.021780030661431721 0 -8.1102848562293291e-05 -0.021824214847931338 0 -0.00014051674966724775 -0.021810431087040973 0 -0.00014277598532476594 -0.021797370206019941 0 -0.00038866333509631406 -0.021711658476741821 0 -0.00026171630647991496 -0.021734700371608663 0 -0.00025840067853413626 -0.021780030661431721 0 -0.00025840067853413626 -0.021780030661431721 0 -0.00046576576218727763 -0.021752540083551066 0 -0.00028569157860858777 -0.021843265601405419 0 -0.00025840067853413626 -0.021780030661431721 0 -0.00011418660179695025 -0.021845388452401412 0 -0.00028569157860858777 -0.021843265601405419 0 -0.00014051674966724775 -0.021810431087040973 0 -0.00025840067853413626 -0.021780030661431721 0 -0.00011418660179695025 -0.021845388452401412 0 -8.2180829915122426e-05 -0.021826941433814688 0 -0.00014051674966724775 -0.021810431087040973 0 -0.00011418660179695025 -0.021845388452401412 0 -0.00038866333509631406 -0.021711658476741821 0 -0.00046576576218727763 -0.021752540083551066 0 -0.00057622972496536979 -0.021670419669590251 0 -0.00038866333509631406 -0.021711658476741821 0 -0.00025840067853413626 -0.021780030661431721 0 -0.00046576576218727763 -0.021752540083551066 0 -0.00072260644004216025 -0.021680517393791326 0 -0.00057622972496536979 -0.021670419669590251 0 -0.00069027212013860135 -0.021716754770933683 0 -0.00046576576218727763 -0.021752540083551066 0 -0.00057622972496536979 -0.021670419669590251 0 -0.00069027212013860135 -0.021716754770933683 0 -0.00072260644004216025 -0.021680517393791326 0 -0.00077322899342368212 -0.021639677570434539 0 -0.00069027212013860135 -0.021716754770933683 0 -0.00071638322911967117 -0.021769487893671963 0 -0.00072111542964047547 -0.021659729607915294 0 -0.00075190824545323155 -0.021502559862423654 0 -0.00072260644004216025 -0.021680517393791326 0 -0.00065138342565521264 -0.021599092260628068 0 -0.00072260644004216025 -0.021680517393791326 0 -0.00065138342565521264 -0.021599092260628068 0 -0.00057622972496536979 -0.021670419669590251 0 -0.00049649312407015029 -0.021573986124172446 0 -0.00065138342565521264 -0.021599092260628068 0 -0.00057622972496536979 -0.021670419669590251 0 -0.00050966129408554716 -0.021789186632806583 0 -0.00040433763894874298 -0.021570365747479898 0 -0.00028876306713827865 -0.021816279274273948 0 -0.00067604281717601182 -0.021949917064397476 0 -0.00072260644004216025 -0.021680517393791326 0 -0.00050966129408554716 -0.021789186632806583 0 -0.00072260644004216025 -0.021680517393791326 0 -0.00050966129408554716 -0.021789186632806583 0 -0.00040433763894874298 -0.021570365747479898 0 -0.00072260644004216025 -0.021680517393791326 0 -0.00040433763894874298 -0.021570365747479898 0 -0.00058084718730054368 -0.02138522846213434 0 -0.00040433763894874298 -0.021570365747479898 0 -0.00012740469135649952 -0.021609090902012434 0 -0.00028818137958788769 -0.02131925821242352 0 -0.00012740469135649952 -0.021609090902012434 0 9.6775540536388294e-05 -0.021518889241986323 0 3.825288798474197e-05 -0.021737184785874504 0 -0.00012740469135649952 -0.021609090902012434 0 9.6775540536388294e-05 -0.021518889241986323 0 -9.3601693508291552e-06 -0.021288189582204867 0 -0.00012740469135649952 -0.021609090902012434 0 3.825288798474197e-05 -0.021737184785874504 0 -0.00012118177659822106 -0.021808251439940113 0 -0.00040433763894874298 -0.021570365747479898 0 -0.00012740469135649952 -0.021609090902012434 0 -0.00028876306713827865 -0.021816279274273948 0 -0.00012740469135649952 -0.021609090902012434 0 -0.00012118177659822106 -0.021808251439940113 0 -0.00028876306713827865 -0.021816279274273948 0 -0.00028876306713827865 -0.021816279274273948 0 -0.00015588580352625031 -0.021973627020706234 0 -0.00038176451661615208 -0.022005215496189428 0 -0.00012118177659822106 -0.021808251439940113 0 -0.00028876306713827865 -0.021816279274273948 0 -0.00015588580352625031 -0.021973627020706234 0 3.825288798474197e-05 -0.021737184785874504 0 -0.00012118177659822106 -0.021808251439940113 0 7.6717364357693787e-05 -0.02194409873838921 0 -0.00012118177659822106 -0.021808251439940113 0 -0.00015588580352625031 -0.021973627020706234 0 7.6717364357693787e-05 -0.02194409873838921 0 -0.00015588580352625031 -0.021973627020706234 0 -0.00010410337978796372 -0.022166222784729548 0 7.6717364357693787e-05 -0.02194409873838921 0 -0.00097458097163253469 -0.02130815702177595 0 -0.00072396503884866444 -0.021098433098241394 0 -0.0018180277454490682 -0.02039039811868347 0 -0.0015967460079505736 -0.02039062803593595 0 -0.0015750504063853359 -0.020000474842154413 0 -0.00015588580352625031 -0.021973627020706234 0 -0.00010410337978796372 -0.022166222784729548 0 -0.00022853480999810818 -0.022086727995691727 0 -0.00010410337978796372 -0.022166222784729548 0 -0.00022853480999810818 -0.022086727995691727 0 -0.00033611695286433265 -0.022183119499142562 0 -0.00015588580352625031 -0.021973627020706234 0 -0.00022853480999810818 -0.022086727995691727 0 -0.00038176451661615208 -0.022005215496189428 0 -0.00038176451661615208 -0.022005215496189428 0 -0.00051443689431821839 -0.022115980573676652 0 -0.00033611695286433265 -0.022183119499142562 0 -0.00022853480999810818 -0.022086727995691727 0 -0.00038176451661615208 -0.022005215496189428 0 -0.00033611695286433265 -0.022183119499142562 0 -0.00050966129408554716 -0.021789186632806583 0 -0.00028876306713827865 -0.021816279274273948 0 -0.00038176451661615208 -0.022005215496189428 0 -0.00067604281717601182 -0.021949917064397476 0 -0.00050966129408554716 -0.021789186632806583 0 -0.00038176451661615208 -0.022005215496189428 0 -0.00066077483780377767 -0.022251675262793581 0 -0.00067604281717601182 -0.021949917064397476 0 -0.00051443689431821839 -0.022115980573676652 0 -0.00067604281717601182 -0.021949917064397476 0 -0.00038176451661615208 -0.022005215496189428 0 -0.00051443689431821839 -0.022115980573676652 0 -0.00066077483780377767 -0.022251675262793581 0 -0.00051443689431821839 -0.022115980573676652 0 -0.00054696953699869292 -0.022226129279752885 0 -0.00070394972970484466 -0.02156931427063729 0 -0.00061815790500952667 -0.021831092673477458 0 -0.00066077483780377767 -0.022251675262793581 0 -0.00054696953699869292 -0.022226129279752885 0 -0.00046509266091151232 -0.022310854446332903 0 -0.0007978160755275841 -0.021306675044113103 0 -0.00096797233774492924 -0.021256337797681289 0 -0.00088025010604891375 -0.021192519470014371 0 -0.00054696953699869292 -0.022226129279752885 0 -0.00033611695286433265 -0.022183119499142562 0 -0.00046509266091151232 -0.022310854446332903 0 -0.00033611695286433265 -0.022183119499142562 0 -0.00046509266091151232 -0.022310854446332903 0 -0.00026874214072147986 -0.022367265563688423 0 -0.00051443689431821839 -0.022115980573676652 0 -0.00054696953699869292 -0.022226129279752885 0 -0.00033611695286433265 -0.022183119499142562 0 -0.00061815790500952667 -0.021831092673477458 0 -0.0011406515948172379 -0.021232694361955927 0 -0.00096797233774492924 -0.021256337797681289 0 -0.0010858963509670064 -0.021100578206047573 0 -0.0011537313217018761 -0.021196061991215185 0 -0.00096797233774492924 -0.021256337797681289 0 -0.0010858963509670064 -0.021100578206047573 0 -0.00095358272053836066 -0.021114326230218913 0 -0.0010858963509670064 -0.021100578206047573 0 -0.00095358272053836066 -0.021114326230218913 0 -0.0010630804728596062 -0.021026324242602736 0 -0.00080521027922393889 -0.021091096975086567 0 -0.0007978160755275841 -0.021306675044113103 0 -0.00088025010604891375 -0.021192519470014371 0 -0.00096797233774492924 -0.021256337797681289 0 -0.00088025010604891375 -0.021192519470014371 0 -0.00095358272053836066 -0.021114326230218913 0 -0.00080521027922393889 -0.021091096975086567 0 -0.00088025010604891375 -0.021192519470014371 0 -0.00095358272053836066 -0.021114326230218913 0 -0.00093522263059263951 -0.021016995527488563 0 -0.0010050442780603255 -0.020934937398292469 0 -0.00085462605731710716 -0.02094369528986503 0 -0.00080521027922393889 -0.021091096975086567 0 -0.00093522263059263951 -0.021016995527488563 0 -0.00085462605731710716 -0.02094369528986503 0 -0.00080521027922393889 -0.021091096975086567 0 -0.00095358272053836066 -0.021114326230218913 0 -0.00093522263059263951 -0.021016995527488563 0 -0.00095358272053836066 -0.021114326230218913 0 -0.00093522263059263951 -0.021016995527488563 0 -0.0010630804728596062 -0.021026324242602736 0 -0.0010630804728596062 -0.021026324242602736 0 -0.0010050442780603255 -0.020934937398292469 0 -0.0011207829077164967 -0.020964351904354892 0 -0.00093522263059263951 -0.021016995527488563 0 -0.0010630804728596062 -0.021026324242602736 0 -0.0010050442780603255 -0.020934937398292469 0 -0.0010050442780603255 -0.020934937398292469 0 -0.0010724979690174103 -0.020864679280742163 0 -0.0011207829077164967 -0.020964351904354892 0 -0.0010050442780603255 -0.020934937398292469 0 -0.0010724979690174103 -0.020864679280742163 0 -0.00096812779844506684 -0.020848606034040065 0 -0.0010050442780603255 -0.020934937398292469 0 -0.00096812779844506684 -0.020848606034040065 0 -0.00085462605731710716 -0.02094369528986503 0 -0.00082185619221153904 -0.02081510897115171 0 -0.00096812779844506684 -0.020848606034040065 0 -0.00085462605731710716 -0.02094369528986503 0 -0.0012149209806074429 -0.020886703483097912 0 -0.0013388407399711759 -0.020908834948247055 0 -0.0012992469854570391 -0.020828428481312285 0 -0.0012326046344607402 -0.020902135927076612 0 -0.001257796352384182 -0.021016639057877724 0 -0.0011718724288920495 -0.020787362915743492 0 -0.0012149209806074429 -0.020886703483097912 0 -0.0012992469854570391 -0.020828428481312285 0 -0.0010724979690174103 -0.020864679280742163 0 -0.0012397156473451557 -0.020924226150965744 0 -0.0011207829077164967 -0.020964351904354892 0 -0.0010797489650569579 -0.020866022387632119 0 -0.0012326046344607402 -0.020902135927076612 0 -0.0011718724288920495 -0.020787362915743492 0 -0.0010724979690174103 -0.020864679280742163 0 -0.0012149209806074429 -0.020886703483097912 0 -0.0012397156473451557 -0.020924226150965744 0 -0.0011207829077164967 -0.020964351904354892 0 -0.0011789080091387204 -0.021030229849211272 0 -0.0010630804728596062 -0.021026324242602736 0 -0.0011207829077164967 -0.020964351904354892 0 -0.0011789080091387204 -0.021030229849211272 0 -0.0010858963509670064 -0.021100578206047573 0 -0.0010630804728596062 -0.021026324242602736 0 -0.0011789080091387204 -0.021030229849211272 0 -0.0011789080091387204 -0.021030229849211272 0 -0.0012848367525306222 -0.02099291513481006 0 -0.0012735977991287244 -0.021059322537185659 0 -0.0012397156473451557 -0.020924226150965744 0 -0.0012848367525306222 -0.02099291513481006 0 -0.0013271837254829086 -0.02098806458297978 0 -0.0012397156473451557 -0.020924226150965744 0 -0.0011789080091387204 -0.021030229849211272 0 -0.0012848367525306222 -0.02099291513481006 0 -0.001695342567204082 -0.020833276976516303 0 -0.0020438133932712483 -0.020732640185058066 0 -0.00179923240734405 -0.020636968043852909 0 -0.001695342567204082 -0.020833276976516303 0 -0.001631824926444282 -0.020582773455931153 0 -0.00179923240734405 -0.020636968043852909 0 -0.001695342567204082 -0.020833276976516303 0 -0.001631824926444282 -0.020582773455931153 0 -0.0014209754100738927 -0.020684982427811836 0 -0.0015738906995050532 -0.020904953213321375 0 -0.0011406515948172379 -0.021232694361955927 0 -0.0010858963509670064 -0.021100578206047573 0 -0.0011789080091387204 -0.021030229849211272 0 -0.0011373724236962035 -0.021145281117687667 0 -0.0011789080091387204 -0.021030229849211272 0 -0.0012735977991287244 -0.021059322537185659 0 -0.0011373724236962035 -0.021145281117687667 0 -0.001085818129253331 -0.021115731429505447 0 -0.0011406515948172379 -0.021232694361955927 0 -0.00010410337978796372 -0.022166222784729548 0 -0.00033611695286433265 -0.022183119499142562 0 -0.00026874214072147986 -0.022367265563688423 0 -0.00097458097163253469 -0.02130815702177595 0 -0.0011406515948172379 -0.021232694361955927 0 -0.0018180277454490682 -0.02039039811868347 0 -0.0020438133932712483 -0.020732640185058066 0 -0.00179923240734405 -0.020636968043852909 0 -0.0018180277454490682 -0.02039039811868347 0 -0.001631824926444282 -0.020582773455931153 0 -0.00179923240734405 -0.020636968043852909 0 -0.0018180277454490682 -0.02039039811868347 0 -0.001631824926444282 -0.020582773455931153 0 -0.0015967460079505736 -0.02039062803593595 0 -0.001631824926444282 -0.020582773455931153 0 -0.0015967460079505736 -0.02039062803593595 0 -0.0013682794355342259 -0.020446932359482261 0 -0.001631824926444282 -0.020582773455931153 0 -0.0013682794355342259 -0.020446932359482261 0 -0.0014209754100738927 -0.020684982427811836 0 -0.0013682794355342259 -0.020446932359482261 0 -0.0010907246455623509 -0.020625480820546938 0 -0.0014209754100738927 -0.020684982427811836 0 -0.0021755109865927518 -0.019340451847808832 0 -0.0021487693983473859 -0.019330635955101969 0 -0.0021728200066854796 -0.019189902313721301 0 -0.0015596955568152615 -0.020160776034824832 0 -0.0021481219791309775 -0.019073780695467144 0 -0.0013682794355342259 -0.020446932359482261 0 -0.0010907246455623509 -0.020625480820546938 0 -0.0010983971388772765 -0.020156523979295474 0 -0.0015596955568152615 -0.020160776034824832 0 -0.0018266094329957819 -0.019979624379077344 0 -0.0010907246455623509 -0.020625480820546938 0 -0.0013208489198254078 -0.020936457387016476 0 -0.0014209754100738927 -0.020684982427811836 0 -0.0010907246455623509 -0.020625480820546938 0 -0.0013208489198254078 -0.020936457387016476 0 -0.0011403099936527833 -0.021002460564128089 0 -0.0015738906995050532 -0.020904953213321375 0 -0.0012929312600518576 -0.020960870039377317 0 -0.001695342567204082 -0.020833276976516303 0 -0.0013208489198254078 -0.020936457387016476 0 -0.0014209754100738927 -0.020684982427811836 0 -0.0012848367525306222 -0.02099291513481006 0 -0.0012735977991287244 -0.021059322537185659 0 -0.0013208489198254078 -0.020936457387016476 0 -0.0012848367525306222 -0.02099291513481006 0 -0.0013208489198254078 -0.020936457387016476 0 -0.0013271837254829086 -0.02098806458297978 0 -0.0013208489198254078 -0.020936457387016476 0 -0.0013271837254829086 -0.02098806458297978 0 -0.0011403099936527833 -0.021002460564128089 0 -0.0013388407399711759 -0.020908834948247055 0 -0.0014645262759488769 -0.020936743734342639 0 -0.0013963889585447609 -0.020864322163987536 0 -0.001257796352384182 -0.021016639057877724 0 -0.0018266094329957819 -0.019979624379077344 0 -0.0018266094329957819 -0.019979624379077344 0 -0.0022575491586295346 -0.019619592270742808 0 -0.0014645262759488769 -0.020936743734342639 0 -0.0013963889585447609 -0.020864322163987536 0 -0.0014710372740578852 -0.020835954048322041 0 -0.0013846656378400193 -0.020792318658710812 0 -0.0013963889585447609 -0.020864322163987536 0 -0.0014710372740578852 -0.020835954048322041 0 -0.0013846656378400193 -0.020792318658710812 0 -0.0013963889585447609 -0.020864322163987536 0 -0.0012992469854570391 -0.020828428481312285 0 -0.0013388407399711759 -0.020908834948247055 0 -0.0013963889585447609 -0.020864322163987536 0 -0.0012992469854570391 -0.020828428481312285 0 -0.0027559374891456792 -0.018657654772584145 0 -0.0028148742699318822 -0.018570778987755381 0 -0.0028987760781187442 -0.018633080113839261 0 -0.0028792034372542713 -0.018542145743607928 0 -0.0028148742699318822 -0.018570778987755381 0 -0.0028295766819393308 -0.018470174719743018 0 -0.0028148742699318822 -0.018570778987755381 0 -0.0028295766819393308 -0.018470174719743018 0 -0.002729834867753985 -0.01853165205302067 0 -0.0027559374891456792 -0.018657654772584145 0 -0.0028148742699318822 -0.018570778987755381 0 -0.002729834867753985 -0.01853165205302067 0 -0.0028792034372542713 -0.018542145743607928 0 -0.0028148742699318822 -0.018570778987755381 0 -0.0028987760781187442 -0.018633080113839261 0 -0.0030184499314746113 -0.018442336503278537 0 -0.0030225050182303812 -0.01858969628598596 0 -0.002948695269503354 -0.018559055831634055 0 -0.0028792034372542713 -0.018542145743607928 0 -0.0028987760781187442 -0.018633080113839261 0 -0.002948695269503354 -0.018559055831634055 0 -0.0030225050182303812 -0.01858969628598596 0 -0.0028987760781187442 -0.018633080113839261 0 -0.002948695269503354 -0.018559055831634055 0 -0.0028792034372542713 -0.018542145743607928 0 -0.002948695269503354 -0.018559055831634055 0 -0.0029306329194804491 -0.018480005183347175 0 -0.0029306329194804491 -0.018480005183347175 0 -0.0029511256084489494 -0.018395002822787047 0 -0.0028295766819393308 -0.018470174719743018 0 -0.0029110824791777662 -0.018434119115782042 0 -0.0027855702865599071 -0.018812015064854783 0 -0.0030184499314746113 -0.018442336503278537 0 -0.002948695269503354 -0.018559055831634055 0 -0.0029306329194804491 -0.018480005183347175 0 -0.0018266094329957819 -0.019979624379077344 0 -0.0027855702865599071 -0.018812015064854783 0 -0.0030184499314746113 -0.018442336503278537 0 -0.0029306329194804491 -0.018480005183347175 0 -0.0029460425752395338 -0.018419017703447373 0 -0.0029511256084489494 -0.018395002822787047 0 -0.0028295766819393308 -0.018470174719743018 0 -0.0028165339130414827 -0.018340801981973399 0 -0.0027855702865599071 -0.018812015064854783 0 -0.0028366316928038044 -0.018368146115197832 0 -0.0028792034372542713 -0.018542145743607928 0 -0.0029306329194804491 -0.018480005183347175 0 -0.0028295766819393308 -0.018470174719743018 0 -0.0028295766819393308 -0.018470174719743018 0 -0.0027207118690152042 -0.018432762288008664 0 -0.002729834867753985 -0.01853165205302067 0 -0.0028295766819393308 -0.018470174719743018 0 -0.0028165339130414827 -0.018340801981973399 0 -0.0027207118690152042 -0.018432762288008664 0 -0.0029528870498293776 -0.018384376927547859 0 -0.0028165339130414827 -0.018340801981973399 0 -0.0028857493417325719 -0.018229682306535419 0 -0.0028165339130414827 -0.018340801981973399 0 -0.0028857493417325719 -0.018229682306535419 0 -0.0027591979528764151 -0.018201012594023413 0 -0.0021755109865927518 -0.019340451847808832 0 -0.0021741293218397566 -0.019477886596843585 0 -0.0021236738169873111 -0.019459037364482044 0 -0.0029528870498293776 -0.018384376927547859 0 -0.0028857493417325719 -0.018229682306535419 0 -0.0029980765169875961 -0.01817721797699838 0 -0.0021755109865927518 -0.019340451847808832 0 -0.0021236738169873111 -0.019459037364482044 0 -0.0021487693983473859 -0.019330635955101969 0 -0.0027855702865599071 -0.018812015064854783 0 -0.0026038607297247029 -0.018674133602032791 0 -0.0028857493417325719 -0.018229682306535419 0 -0.0029980765169875961 -0.01817721797699838 0 -0.0029018214825265866 -0.018055344954505403 0 -0.0042975330684985845 -0.016410684823736608 0 -0.0044501888606554713 -0.016330700978655976 0 -0.0042612955438115167 -0.01662312658419066 0 -0.0038372212964833258 -0.017078033667377607 0 -0.003451409832082592 -0.017474112867651995 0 -0.0028857493417325719 -0.018229682306535419 0 -0.0029018214825265866 -0.018055344954505403 0 -0.0027591979528764151 -0.018201012594023413 0 -0.0042975330684985845 -0.016410684823736608 0 -0.0043083673755053868 -0.016191714102468113 0 -0.0044501888606554713 -0.016330700978655976 0 -0.0043083673755053868 -0.016191714102468113 0 -0.004405258501998007 -0.01616980108813482 0 -0.0044501888606554713 -0.016330700978655976 0 -0.004405258501998007 -0.01616980108813482 0 -0.004326931768504399 -0.016109998223474285 0 -0.0044751112075533143 -0.016118748949908192 0 -0.0043083673755053868 -0.016191714102468113 0 -0.004405258501998007 -0.01616980108813482 0 -0.004326931768504399 -0.016109998223474285 0 -0.0043975401849800904 -0.016042039383198793 0 -0.0038678178514825988 -0.016293368471702884 0 -0.004405258501998007 -0.01616980108813482 0 -0.0044751112075533143 -0.016118748949908192 0 -0.0045507340711621784 -0.016175994405239418 0 -0.0035325917012523351 -0.015792469859615511 0 -0.0028793330727287592 -0.015663579862562074 0 -0.0033126214836412785 -0.016088564169204247 0 -0.0034529055734117569 -0.016861302068674804 0 -0.0029254048361046269 -0.016501382220636178 0 -0.0028084078119873092 -0.016813001568842953 0 -0.0038678178514825988 -0.016293368471702884 0 -0.0028741433827607844 -0.017424199175402128 0 -0.0038678178514825988 -0.016293368471702884 0 -0.0025755654547900981 -0.016553086059977247 0 -0.0029018214825265866 -0.018055344954505403 0 -0.0030352489282575714 -0.017990601067268835 0 -0.0030219818884096184 -0.017924194962532461 0 -0.004405258501998007 -0.01616980108813482 0 -0.0044501888606554713 -0.016330700978655976 0 -0.0045507340711621784 -0.016175994405239418 0 -0.0029980765169875961 -0.01817721797699838 0 -0.0029018214825265866 -0.018055344954505403 0 -0.0030352489282575714 -0.017990601067268835 0 -0.0038372212964833258 -0.017078033667377607 0 -0.0028741433827607844 -0.017424199175402128 0 -0.0013682794355342259 -0.020446932359482261 0 -0.0010983971388772765 -0.020156523979295474 0 -0.0013641556277625734 -0.020220700333608257 0 -0.0026038607297247029 -0.018674133602032791 0 -0.0021481219791309775 -0.019073780695467144 0 -0.0013324295637616398 -0.020238052218665079 0 -0.0022409511334170896 -0.018349530022850953 0 -0.0010983971388772765 -0.020156523979295474 0 -0.0013641556277625734 -0.020220700333608257 0 -0.0011054317677962906 -0.020020163417356698 0 -0.0013383748172749827 -0.02018825794669616 0 -0.0015750504063853359 -0.020000474842154413 0 -0.001259901028670689 -0.020014523770278889 0 -0.0015967460079505736 -0.02039062803593595 0 -0.0013383748172749827 -0.02018825794669616 0 -0.0015750504063853359 -0.020000474842154413 0 -0.0015691146266597279 -0.020367014289748686 0 -0.0013324295637616398 -0.020238052218665079 0 -0.0015967460079505736 -0.02039062803593595 0 -0.0013682794355342259 -0.020446932359482261 0 -0.0013641556277625734 -0.020220700333608257 0 -0.0015750504063853359 -0.020000474842154413 0 -0.0011837160183658811 -0.019840144698893954 0 -0.0013147157424218364 -0.01961136713725161 0 -0.0015750504063853359 -0.020000474842154413 0 -0.001259901028670689 -0.020014523770278889 0 -0.0011837160183658811 -0.019840144698893954 0 -0.00072396503884866444 -0.021098433098241394 0 -0.0011055740534335215 -0.019662166299501124 0 -0.0030352489282575714 -0.017990601067268835 0 -0.0030219818884096184 -0.017924194962532461 0 -0.0030360627035312367 -0.017935110521534604 0 -0.0011436751189608453 -0.019921382367794411 0 -0.0010577811122874936 -0.019966235776045487 0 -0.00111837908699209 -0.019831590482056405 0 -0.0022409511334170896 -0.018349530022850953 0 -0.002205723460769526 -0.017430629280520121 0 -0.0028741433827607844 -0.017424199175402128 0 -0.0025102310911627721 -0.017383232091987083 0 -0.0022409511334170896 -0.018349530022850953 0 -0.0025102310911627721 -0.017383232091987083 0 -0.0020718585252549292 -0.017660447217189481 0 -0.0021609598634859187 -0.017723261828473037 0 -0.0021657252563028013 -0.017555367029199794 0 -0.0028741433827607844 -0.017424199175402128 0 -0.0022409511334170896 -0.018349530022850953 0 -0.0021481219791309775 -0.019073780695467144 0 -0.0022409511334170896 -0.018349530022850953 0 -0.0013383748172749827 -0.02018825794669616 0 -0.0010577811122874936 -0.019966235776045487 0 -0.001259901028670689 -0.020014523770278889 0 -0.0011436751189608453 -0.019921382367794411 0 -0.0010577811122874936 -0.019966235776045487 0 -0.001259901028670689 -0.020014523770278889 0 -0.0011436751189608453 -0.019921382367794411 0 -0.001259901028670689 -0.020014523770278889 0 -0.0011837160183658811 -0.019840144698893954 0 -0.0011837160183658811 -0.019840144698893954 0 -0.001116796800363265 -0.019831248269797139 0 -0.0013147157424218364 -0.01961136713725161 0 -0.0011436751189608453 -0.019921382367794411 0 -0.0011837160183658811 -0.019840144698893954 0 -0.00111837908699209 -0.019831590482056405 0 -0.0018687073407193003 -0.017692199255631327 0 -0.002205723460769526 -0.017430629280520121 0 -0.0022207437789112197 -0.017907167883569868 0 -0.0024114267576173299 -0.01747129498666785 0 -0.0022259674672886649 -0.017679360449525547 0 -0.002205723460769526 -0.017430629280520121 0 -0.0025755654547900981 -0.016553086059977247 0 -0.0026448237567614722 -0.01719373611144951 0 -0.0027288024437705574 -0.017103009678420236 0 -0.0027255242971409577 -0.017199042878607886 0 -0.002205723460769526 -0.017430629280520121 0 -0.0025102310911627721 -0.017383232091987083 0 -0.0029254048361046269 -0.016501382220636178 0 -0.0028140420182141412 -0.016624085983648514 0 -0.0028084078119873092 -0.016813001568842953 0 -0.0025102310911627721 -0.017383232091987083 0 -0.0025755654547900981 -0.016553086059977247 0 -0.0020976020306391683 -0.017384288887122519 0 -0.0018844642489545919 -0.017901290704869285 0 -0.0017729074271198922 -0.017750579817292122 0 -0.0020976020306391683 -0.017384288887122519 0 -0.0018844642489545919 -0.017901290704869285 0 -0.0019498576670757409 -0.01804889914150512 0 -0.0025755654547900981 -0.016553086059977247 0 -0.0028298583346972467 -0.016782113930111003 0 -0.0027696548537962675 -0.015023054759842782 0 -0.0021510376609473842 -0.016684035911167926 0 -0.0027502430442306876 -0.017389685687601606 0 -0.002205723460769526 -0.017430629280520121 0 -0.0021082312359345244 -0.017139436548481681 0 -0.0025373988210805358 -0.015009164822014493 0 -0.0027696548537962675 -0.015023054759842782 0 -0.0021510376609473842 -0.016684035911167926 0 -0.0028793330727287592 -0.015663579862562074 0 -0.0027502430442306876 -0.017389685687601606 0 -0.0031588025725903662 -0.016512601960332992 0 -0.002205723460769526 -0.017430629280520121 0 -0.0011055740534335215 -0.019662166299501124 0 -0.0010523307130293877 -0.018745363248428088 0 -0.0011055740534335215 -0.019662166299501124 0 -0.0012138611924245684 -0.018301401313494246 0 -0.0018844642489545919 -0.017901290704869285 0 -0.0017560039885513633 -0.017730465522014169 0 3.825288798474197e-05 -0.021737184785874504 0 7.6717364357693787e-05 -0.02194409873838921 0 0.00024274092592170568 -0.021705852593887659 0 9.6775540536388294e-05 -0.021518889241986323 0 3.825288798474197e-05 -0.021737184785874504 0 0.00024274092592170568 -0.021705852593887659 0 -0.00050883554487960163 -0.019949248166824054 0 -0.0011055740534335215 -0.019662166299501124 0 -0.0012138611924245684 -0.018301401313494246 0 -0.0018844642489545919 -0.017901290704869285 0 -0.0019498576670757409 -0.01804889914150512 0 -0.0012138611924245684 -0.018301401313494246 0 -0.0019498576670757409 -0.01804889914150512 0 -0.0018580596712286233 -0.018718717840862278 0 -0.0021082312359345244 -0.017139436548481681 0 -0.0018326607870352508 -0.018693808637211911 0 -0.0021510376609473842 -0.016684035911167926 0 -0.0027502430442306876 -0.017389685687601606 0 -0.0018580596712286233 -0.018718717840862278 0 -0.0027502430442306876 -0.017389685687601606 0 -0.0033473658093060707 -0.017692894197993456 0 -0.0033018520019515306 -0.017033054835175192 0 -0.0033473658093060707 -0.017692894197993456 0 -0.0033018520019515306 -0.017033054835175192 0 -0.0037062255014973524 -0.017007695682235383 0 -0.0033473658093060707 -0.017692894197993456 0 -0.0037062255014973524 -0.017007695682235383 0 -0.0042684904871058121 -0.016835016837203728 0 -0.0027502430442306876 -0.017389685687601606 0 -0.0033018520019515306 -0.017033054835175192 0 -0.0031588025725903662 -0.016512601960332992 0 -0.0033018520019515306 -0.017033054835175192 0 -0.0031588025725903662 -0.016512601960332992 0 -0.0035574689293131454 -0.016710386508836522 0 -0.0037062255014973524 -0.017007695682235383 0 -0.0039745638179105739 -0.016704110600861032 0 -0.0035574689293131454 -0.016710386508836522 0 -0.0033018520019515306 -0.017033054835175192 0 -0.0037062255014973524 -0.017007695682235383 0 -0.0035574689293131454 -0.016710386508836522 0 -0.0042684904871058121 -0.016835016837203728 0 -0.0039745638179105739 -0.016704110600861032 0 -0.0042347743991216517 -0.01649084532990272 0 -0.0037062255014973524 -0.017007695682235383 0 -0.0042684904871058121 -0.016835016837203728 0 -0.0039745638179105739 -0.016704110600861032 0 -0.0039745638179105739 -0.016704110600861032 0 -0.0042347743991216517 -0.01649084532990272 0 -0.0036473089741171131 -0.016375263510288042 0 -0.0042770266355848336 -0.015989629401301751 0 -0.004239359305874821 -0.015990250454525606 0 -0.0042744221175190222 -0.016004822789926626 0 -0.0038678178514825988 -0.016293368471702884 0 -0.0042146565448497458 -0.016182382142755337 0 -0.0035325917012523351 -0.015792469859615511 0 -0.0042347743991216517 -0.01649084532990272 0 -0.0036473089741171131 -0.016375263510288042 0 -0.0035325917012523351 -0.015792469859615511 0 -0.0033126214836412785 -0.016088564169204247 0 -0.0036473089741171131 -0.016375263510288042 0 -0.0028793330727287592 -0.015663579862562074 0 -0.0033126214836412785 -0.016088564169204247 0 -0.0031588025725903662 -0.016512601960332992 0 -0.0033126214836412785 -0.016088564169204247 0 -0.0031588025725903662 -0.016512601960332992 0 -0.0036473089741171131 -0.016375263510288042 0 -0.0031588025725903662 -0.016512601960332992 0 -0.0036473089741171131 -0.016375263510288042 0 -0.0035574689293131454 -0.016710386508836522 0 -0.0039745638179105739 -0.016704110600861032 0 -0.0036473089741171131 -0.016375263510288042 0 -0.0035574689293131454 -0.016710386508836522 0 -0.0041242385832239515 -0.016663549676278516 0 -0.00395985279257937 -0.016477425285577205 0 -0.0038101268197413439 -0.016860655149421703 0 -0.0041242385832239515 -0.016663549676278516 0 -0.0041863918581283967 -0.016563651356770768 0 -0.00395985279257937 -0.016477425285577205 0 -0.0041242385832239515 -0.016663549676278516 0 -0.0041863918581283967 -0.016563651356770768 0 -0.0042478644173799601 -0.016461812596992462 0 -0.0042684904871058121 -0.016835016837203728 0 -0.0041863918581283967 -0.016563651356770768 0 -0.00395985279257937 -0.016477425285577205 0 -0.0042684904871058121 -0.016835016837203728 0 -0.0041863918581283967 -0.016563651356770768 0 -0.0042556900854953412 -0.016490244125234532 0 -0.0033473658093060707 -0.017692894197993456 0 -0.0042684904871058121 -0.016835016837203728 0 -0.0033653619736850313 -0.018843607595357689 0 -0.0041978290613312692 -0.016965595732783386 0 -0.0036018613734480828 -0.017662375428197263 0 -0.0033473658093060707 -0.017692894197993456 0 -0.0033653619736850313 -0.018843607595357689 0 -0.0026328541648386618 -0.018551559654200397 0 -0.0027502430442306876 -0.017389685687601606 0 -0.0033473658093060707 -0.017692894197993456 0 -0.0026328541648386618 -0.018551559654200397 0 -0.0026328541648386618 -0.018551559654200397 0 -0.0018580596712286233 -0.018718717840862278 0 -0.0019379497274795187 -0.020211008833434584 0 -0.0027502430442306876 -0.017389685687601606 0 -0.0026328541648386618 -0.018551559654200397 0 -0.0018580596712286233 -0.018718717840862278 0 -0.0012138611924245684 -0.018301401313494246 0 -0.0012392654674076714 -0.019317771362028561 0 -0.0018580596712286233 -0.018718717840862278 0 -0.0012392654674076714 -0.019317771362028561 0 -0.0019379497274795187 -0.020211008833434584 0 -0.00080830161731721686 -0.02024723038599216 0 -0.0012392654674076714 -0.019317771362028561 0 -0.0018580596712286233 -0.018718717840862278 0 -0.0019379497274795187 -0.020211008833434584 0 -0.0033653619736850313 -0.018843607595357689 0 -0.0026328541648386618 -0.018551559654200397 0 -0.0019379497274795187 -0.020211008833434584 0 -0.00395985279257937 -0.016477425285577205 0 -0.0031713685511648103 -0.016757439166300146 0 -0.0038101268197413439 -0.016860655149421703 0 -0.0036018613734480828 -0.017662375428197263 0 -0.0025543593922541246 -0.018490828540936425 0 -0.0032662814032303113 -0.01731277159160181 0 -0.0037188986349038873 -0.017400047692984373 0 -0.0038101268197413439 -0.016860655149421703 0 -0.0031713685511648103 -0.016757439166300146 0 -0.0032662814032303113 -0.01731277159160181 0 -0.0038101268197413439 -0.016860655149421703 0 -0.0019379497274795187 -0.020211008833434584 0 -0.00089914838164371403 -0.020923546628949234 0 -0.00080830161731721686 -0.02024723038599216 0 -0.0025543593922541246 -0.018490828540936425 0 -0.0015709074885863811 -0.01921838441858785 0 -0.0031713685511648103 -0.016757439166300146 0 -0.0032662814032303113 -0.01731277159160181 0 -0.0022035491727358477 -0.017550048153769704 0 -0.0032662814032303113 -0.01731277159160181 0 -0.0027623907704183784 -0.017911300270004316 0 -0.0022035491727358477 -0.017550048153769704 0 -0.0027623907704183784 -0.017911300270004316 0 -0.0029966179069057602 -0.018361896351147725 0 -0.0025542956762213353 -0.018604041798236357 0 -0.0027623907704183784 -0.017911300270004316 0 -0.0025542956762213353 -0.018604041798236357 0 -0.002185262009977347 -0.018305783622787192 0 -0.0034034822784183103 -0.017860753112683762 0 -0.0029966179069057602 -0.018361896351147725 0 -0.0033302934040470443 -0.018398134279818859 0 -0.0027623907704183784 -0.017911300270004316 0 -0.0034034822784183103 -0.017860753112683762 0 -0.0029966179069057602 -0.018361896351147725 0 -0.0027946284945111247 -0.017864242447308807 0 -0.0035207734027290346 -0.017631191067729379 0 -0.0032662814032303113 -0.01731277159160181 0 -0.0027623907704183784 -0.017911300270004316 0 -0.0037188986349038873 -0.017400047692984373 0 -0.0035207734027290346 -0.017631191067729379 0 -0.0040074602811837334 -0.017309473117441153 0 -0.0034034822784183103 -0.017860753112683762 0 -0.0036317014046763668 -0.018109528762609243 0 -0.0033302934040470443 -0.018398134279818859 0 -0.0034034822784183103 -0.017860753112683762 0 -0.0038802214173880973 -0.017651738971888882 0 -0.0036317014046763668 -0.018109528762609243 0 -0.0037188986349038873 -0.017400047692984373 0 -0.0038101268197413439 -0.016860655149421703 0 -0.0041555720574677785 -0.016973952133459168 0 -0.0041242385832239515 -0.016663549676278516 0 -0.0041555720574677785 -0.016973952133459168 0 -0.0042200378823888194 -0.016652608818510915 0 -0.0041242385832239515 -0.016663549676278516 0 -0.0038101268197413439 -0.016860655149421703 0 -0.0041555720574677785 -0.016973952133459168 0 -0.0038802214173880973 -0.017651738971888882 0 -0.0036317014046763668 -0.018109528762609243 0 -0.0040387469662651037 -0.017789363820888256 0 -0.003835590931948294 -0.018315313894225731 0 -0.0036317014046763668 -0.018109528762609243 0 -0.0040387469662651037 -0.017789363820888256 0 -0.003835590931948294 -0.018315313894225731 0 -0.0040387469662651037 -0.017789363820888256 0 -0.0040929703995049617 -0.018103466487645829 0 -0.003835590931948294 -0.018315313894225731 0 -0.004092639816564882 -0.018384470900888298 0 -0.0040929703995049617 -0.018103466487645829 0 -0.0036317014046763668 -0.018109528762609243 0 -0.0035256852460938872 -0.018607774900707922 0 -0.0033302934040470443 -0.018398134279818859 0 -0.003835590931948294 -0.018315313894225731 0 -0.0036317014046763668 -0.018109528762609243 0 -0.0035256852460938872 -0.018607774900707922 0 -0.0035256852460938872 -0.018607774900707922 0 -0.0037018936918826561 -0.018848254230897723 0 -0.0033761278964465095 -0.019170422020395463 0 -0.003835590931948294 -0.018315313894225731 0 -0.0035256852460938872 -0.018607774900707922 0 -0.0037018936918826561 -0.018848254230897723 0 -0.0037018936918826561 -0.018848254230897723 0 -0.003864023353401194 -0.01918440765759976 0 -0.0035043052991760673 -0.019353456837930105 0 -0.0037018936918826561 -0.018848254230897723 0 -0.0035043052991760673 -0.019353456837930105 0 -0.0033761278964465095 -0.019170422020395463 0 -0.0039119399739284437 -0.019257777142532791 0 -0.0043510408513763466 -0.018490945360071034 0 -0.0039833665826838711 -0.018647958259843347 0 -0.003864023353401194 -0.01918440765759976 0 -0.0042471201462781103 -0.018434508827228774 0 -0.003835590931948294 -0.018315313894225731 0 -0.0039833665826838711 -0.018647958259843347 0 -0.004092639816564882 -0.018384470900888298 0 -0.003835590931948294 -0.018315313894225731 0 -0.0037018936918826561 -0.018848254230897723 0 -0.0039833665826838711 -0.018647958259843347 0 -0.0037018936918826561 -0.018848254230897723 0 -0.0039833665826838711 -0.018647958259843347 0 -0.003864023353401194 -0.01918440765759976 0 -0.004003830268886662 -0.019297637726457793 0 -0.0039833286124495949 -0.019749351627793524 0 -0.0044689223277873513 -0.018857762326324624 0 -0.0044002101286055115 -0.017724863146075558 0 -0.0046173650050645373 -0.017434347053848845 0 -0.0048836025164193499 -0.015664888073921985 0 -0.004851287013655654 -0.01599300758335534 0 -0.0048524995095087578 -0.015782991770140267 0 -0.0039119399739284437 -0.019257777142532791 0 -0.0032790185702194418 -0.019934876603203106 0 -0.003864023353401194 -0.01918440765759976 0 -0.0035043052991760673 -0.019353456837930105 0 -0.0032676723408090135 -0.02002368801549622 0 -0.004003830268886662 -0.019297637726457793 0 -0.0039833286124495949 -0.019749351627793524 0 -0.0032676723408090135 -0.02002368801549622 0 -0.0044002101286055115 -0.017724863146075558 0 -0.0039015633206228345 -0.018111944417199488 0 -0.0048836025164193499 -0.015664888073921985 0 -0.0047894857873158692 -0.015588007496889485 0 -0.0046426302796066781 -0.015500477711976848 0 -0.0039833286124495949 -0.019749351627793524 0 -0.0032086408102566626 -0.020696597958168611 0 -0.0032676723408090135 -0.02002368801549622 0 -0.0048836025164193499 -0.015664888073921985 0 -0.0047894857873158692 -0.015588007496889485 0 -0.0048525167403293459 -0.015632786570460525 0 -0.0047894857873158692 -0.015588007496889485 0 -0.0048525167403293459 -0.015632786570460525 0 -0.0048508982520006193 -0.015605954389090163 0 -0.0048525167403293459 -0.015632786570460525 0 -0.0048611530697202495 -0.015649102110262214 0 -0.0048508982520006193 -0.015605954389090163 0 -0.0048836025164193499 -0.015664888073921985 0 -0.0048659180867910955 -0.015681739406880765 0 -0.0048524995095087578 -0.015782991770140267 0 -0.0048611530697202495 -0.015649102110262214 0 -0.0048589440704654482 -0.015632213060042692 0 -0.0048508982520006193 -0.015605954389090163 0 -0.0048611530697202495 -0.015649102110262214 0 -0.0048472271775677235 -0.015698456091867607 0 -0.0048589440704654482 -0.015632213060042692 0 -0.0048659180867910955 -0.015681739406880765 0 -0.0048472271775677235 -0.015698456091867607 0 -0.0048524995095087578 -0.015782991770140267 0 -0.0048611530697202495 -0.015649102110262214 0 -0.0048659180867910955 -0.015681739406880765 0 -0.0048472271775677235 -0.015698456091867607 0 -0.0048836025164193499 -0.015664888073921985 0 -0.0048525167403293459 -0.015632786570460525 0 -0.0048659180867910955 -0.015681739406880765 0 -0.0048525167403293459 -0.015632786570460525 0 -0.0048611530697202495 -0.015649102110262214 0 -0.0048659180867910955 -0.015681739406880765 0 -0.0024958870508019681 -0.020383648547878011 0 -0.0027387318233817325 -0.020627561832376511 0 -0.0028747923971968723 -0.020083316276921594 0 -0.0024958870508019681 -0.020383648547878011 0 -0.0027387318233817325 -0.020627561832376511 0 -0.0022157226493112782 -0.020848126487842913 0 -0.0027387318233817325 -0.020627561832376511 0 -0.0032676723408090135 -0.02002368801549622 0 -0.0028747923971968723 -0.020083316276921594 0 -0.0027387318233817325 -0.020627561832376511 0 -0.0032086408102566626 -0.020696597958168611 0 -0.0032676723408090135 -0.02002368801549622 0 -0.0032676723408090135 -0.02002368801549622 0 -0.0029933821221895212 -0.019590770311408632 0 -0.0028747923971968723 -0.020083316276921594 0 -0.0035043052991760673 -0.019353456837930105 0 -0.0032880647056504377 -0.019532238152108715 0 -0.0033761278964465095 -0.019170422020395463 0 -0.0035043052991760673 -0.019353456837930105 0 -0.0032676723408090135 -0.02002368801549622 0 -0.0032880647056504377 -0.019532238152108715 0 -0.0032880647056504377 -0.019532238152108715 0 -0.0029933821221895212 -0.019590770311408632 0 -0.0033761278964465095 -0.019170422020395463 0 -0.0032676723408090135 -0.02002368801549622 0 -0.0032880647056504377 -0.019532238152108715 0 -0.0029933821221895212 -0.019590770311408632 0 -0.0024958870508019681 -0.020383648547878011 0 -0.0025820060041287711 -0.019695165503580987 0 -0.0022263032743104674 -0.020100433609718558 0 -0.0029933821221895212 -0.019590770311408632 0 -0.0028747923971968723 -0.020083316276921594 0 -0.0025820060041287711 -0.019695165503580987 0 -0.0024958870508019681 -0.020383648547878011 0 -0.0028747923971968723 -0.020083316276921594 0 -0.0025820060041287711 -0.019695165503580987 0 -0.0025820060041287711 -0.019695165503580987 0 -0.0028124256103840071 -0.019062671695663114 0 -0.0024358916969061074 -0.019159330652154648 0 -0.0025820060041287711 -0.019695165503580987 0 -0.0024358916969061074 -0.019159330652154648 0 -0.0021512559393698175 -0.019574555184244759 0 -0.0029933821221895212 -0.019590770311408632 0 -0.0025820060041287711 -0.019695165503580987 0 -0.0028124256103840071 -0.019062671695663114 0 -0.0029933821221895212 -0.019590770311408632 0 -0.0028124256103840071 -0.019062671695663114 0 -0.0031842976885205283 -0.018895172576299198 0 -0.0029933821221895212 -0.019590770311408632 0 -0.0033761278964465095 -0.019170422020395463 0 -0.0031842976885205283 -0.018895172576299198 0 -0.0035256852460938872 -0.018607774900707922 0 -0.0033761278964465095 -0.019170422020395463 0 -0.0031842976885205283 -0.018895172576299198 0 -0.0028124256103840071 -0.019062671695663114 0 -0.0031842976885205283 -0.018895172576299198 0 -0.0029966179069057602 -0.018361896351147725 0 -0.0031842976885205283 -0.018895172576299198 0 -0.0029966179069057602 -0.018361896351147725 0 -0.0033302934040470443 -0.018398134279818859 0 -0.0035256852460938872 -0.018607774900707922 0 -0.0031842976885205283 -0.018895172576299198 0 -0.0033302934040470443 -0.018398134279818859 0 -0.0028124256103840071 -0.019062671695663114 0 -0.0029966179069057602 -0.018361896351147725 0 -0.0025542956762213353 -0.018604041798236357 0 -0.0028124256103840071 -0.019062671695663114 0 -0.0024358916969061074 -0.019159330652154648 0 -0.0025542956762213353 -0.018604041798236357 0 -0.0020037940788447412 -0.018969351302266357 0 -0.0013985545604895478 -0.018458561567945484 0 -0.002185262009977347 -0.018305783622787192 0 -0.0025542956762213353 -0.018604041798236357 0 -0.0020037940788447412 -0.018969351302266357 0 -0.002185262009977347 -0.018305783622787192 0 -0.0024358916969061074 -0.019159330652154648 0 -0.0025542956762213353 -0.018604041798236357 0 -0.0020037940788447412 -0.018969351302266357 0 -0.0020037940788447412 -0.018969351302266357 0 -0.0013193546172424256 -0.019265373721235247 0 -0.0013985545604895478 -0.018458561567945484 0 -0.0020037940788447412 -0.018969351302266357 0 -0.0013193546172424256 -0.019265373721235247 0 -0.0016456180955595565 -0.019588402086903989 0 -0.0012486793559198367 -0.019569613408867089 0 -0.0016456180955595565 -0.019588402086903989 0 -0.0013093000316363463 -0.019820947885892701 0 -0.0013193546172424256 -0.019265373721235247 0 -0.0012486793559198367 -0.019569613408867089 0 -0.0016456180955595565 -0.019588402086903989 0 -0.0016456180955595565 -0.019588402086903989 0 -0.0015142492220170311 -0.019990146472510996 0 -0.0018766223865225545 -0.020031782705264716 0 -0.0016456180955595565 -0.019588402086903989 0 -0.0015142492220170311 -0.019990146472510996 0 -0.0013093000316363463 -0.019820947885892701 0 -0.0015142492220170311 -0.019990146472510996 0 -0.0013093000316363463 -0.019820947885892701 0 -0.0012372812157718622 -0.020183590733997732 0 -0.0024358916969061074 -0.019159330652154648 0 -0.0020037940788447412 -0.018969351302266357 0 -0.0021512559393698175 -0.019574555184244759 0 -0.0020037940788447412 -0.018969351302266357 0 -0.0016456180955595565 -0.019588402086903989 0 -0.0021512559393698175 -0.019574555184244759 0 -0.0016456180955595565 -0.019588402086903989 0 -0.0021512559393698175 -0.019574555184244759 0 -0.0018766223865225545 -0.020031782705264716 0 -0.0025820060041287711 -0.019695165503580987 0 -0.0021512559393698175 -0.019574555184244759 0 -0.0022263032743104674 -0.020100433609718558 0 -0.0024958870508019681 -0.020383648547878011 0 -0.0022263032743104674 -0.020100433609718558 0 -0.0019329045669440664 -0.020564798864363149 0 -0.0022263032743104674 -0.020100433609718558 0 -0.0018766223865225545 -0.020031782705264716 0 -0.0019329045669440664 -0.020564798864363149 0 -0.0021512559393698175 -0.019574555184244759 0 -0.0022263032743104674 -0.020100433609718558 0 -0.0018766223865225545 -0.020031782705264716 0 -0.0015142492220170311 -0.019990146472510996 0 -0.0018766223865225545 -0.020031782705264716 0 -0.0014460351421352775 -0.020358395216213715 0 -0.0014460351421352775 -0.020358395216213715 0 -0.0012621859857484543 -0.020870445374958781 0 -0.0019329045669440664 -0.020564798864363149 0 -0.0015142492220170311 -0.019990146472510996 0 -0.0014460351421352775 -0.020358395216213715 0 -0.0012372812157718622 -0.020183590733997732 0 -0.0018766223865225545 -0.020031782705264716 0 -0.0014460351421352775 -0.020358395216213715 0 -0.0019329045669440664 -0.020564798864363149 0 -0.001613611933689355 -0.021107184467713539 0 -0.0012621859857484543 -0.020870445374958781 0 -0.0019329045669440664 -0.020564798864363149 0 -0.001613611933689355 -0.021107184467713539 0 -0.0012621859857484543 -0.020870445374958781 0 -0.00090211869415784084 -0.021458408100200815 0 -0.001613611933689355 -0.021107184467713539 0 -0.0022157226493112782 -0.020848126487842913 0 -0.0019329045669440664 -0.020564798864363149 0 -0.0024958870508019681 -0.020383648547878011 0 -0.0022157226493112782 -0.020848126487842913 0 -0.0019329045669440664 -0.020564798864363149 0 -0.00038268403965248702 -0.021553154700511837 0 -0.0007620188510611347 -0.021073560947768053 0 -0.00090211869415784084 -0.021458408100200815 0 -0.00038268403965248702 -0.021553154700511837 0 -0.0007620188510611347 -0.021073560947768053 0 -0.00045226675258512291 -0.021051318137734171 0 -0.0012621859857484543 -0.020870445374958781 0 -0.0007620188510611347 -0.021073560947768053 0 -0.00090211869415784084 -0.021458408100200815 0 -0.0012621859857484543 -0.020870445374958781 0 -0.0007620188510611347 -0.021073560947768053 0 -0.00098298695897933099 -0.020630641810354827 0 -0.0007620188510611347 -0.021073560947768053 0 -0.00098298695897933099 -0.020630641810354827 0 -0.00068878887206591315 -0.020548170739964188 0 -0.0014460351421352775 -0.020358395216213715 0 -0.0012621859857484543 -0.020870445374958781 0 -0.00098298695897933099 -0.020630641810354827 0 -0.00098298695897933099 -0.020630641810354827 0 -0.0012372812157718622 -0.020183590733997732 0 -0.00097163923847787682 -0.020309721822287758 0 -0.0014460351421352775 -0.020358395216213715 0 -0.00098298695897933099 -0.020630641810354827 0 -0.0012372812157718622 -0.020183590733997732 0 -0.0012372812157718622 -0.020183590733997732 0 -0.00097163923847787682 -0.020309721822287758 0 -0.0010791467841179667 -0.020038764334718073 0 -0.00098298695897933099 -0.020630641810354827 0 -0.00097163923847787682 -0.020309721822287758 0 -0.00068878887206591315 -0.020548170739964188 0 -0.00097163923847787682 -0.020309721822287758 0 -0.00068878887206591315 -0.020548170739964188 0 -0.00084298148246029949 -0.020096257798738967 0 -0.00068878887206591315 -0.020548170739964188 0 -0.00033748128365580375 -0.020768362910725858 0 -0.00049736590033282613 -0.020262179316768832 0 -0.0007620188510611347 -0.021073560947768053 0 -0.00068878887206591315 -0.020548170739964188 0 -0.00045226675258512291 -0.021051318137734171 0 -0.00068878887206591315 -0.020548170739964188 0 -0.00045226675258512291 -0.021051318137734171 0 -0.00033748128365580375 -0.020768362910725858 0 -0.00049736590033282613 -0.020262179316768832 0 -0.00066639021868544648 -0.01944266740718064 0 -0.0002120538294121971 -0.02068338741666392 0 -0.00033748128365580375 -0.020768362910725858 0 -0.00049736590033282613 -0.020262179316768832 0 -0.0002120538294121971 -0.02068338741666392 0 -0.00057546173539851594 -0.020071262340075492 0 -0.00024297274795007079 -0.020585073688141897 0 -0.00042617245834347629 -0.020679863442484531 0 -0.000222168040722851 -0.020606825088328753 0 -0.0002120538294121971 -0.02068338741666392 0 -0.00068878887206591315 -0.020548170739964188 0 -0.00049736590033282613 -0.020262179316768832 0 -0.00067617057855677955 -0.020112978563155474 0 -0.00049736590033282613 -0.020262179316768832 0 -0.00067617057855677955 -0.020112978563155474 0 -0.00070551804931151671 -0.019783455526436806 0 -0.00049736590033282613 -0.020262179316768832 0 -0.00070551804931151671 -0.019783455526436806 0 -0.00066639021868544648 -0.01944266740718064 0 -0.0013093000316363463 -0.019820947885892701 0 -0.0010791467841179667 -0.020038764334718073 0 -0.0010041229986045726 -0.019762082995954784 0 -0.0013093000316363463 -0.019820947885892701 0 -0.0012372812157718622 -0.020183590733997732 0 -0.0010791467841179667 -0.020038764334718073 0 -0.0010791467841179667 -0.020038764334718073 0 -0.00084298148246029949 -0.020096257798738967 0 -0.0010041229986045726 -0.019762082995954784 0 -0.00068878887206591315 -0.020548170739964188 0 -0.00067617057855677955 -0.020112978563155474 0 -0.00084298148246029949 -0.020096257798738967 0 -0.00084298148246029949 -0.020096257798738967 0 -0.00080640642883930366 -0.019839658296927486 0 -0.0010041229986045726 -0.019762082995954784 0 -0.00097163923847787682 -0.020309721822287758 0 -0.0010791467841179667 -0.020038764334718073 0 -0.00084298148246029949 -0.020096257798738967 0 -0.00067617057855677955 -0.020112978563155474 0 -0.00084298148246029949 -0.020096257798738967 0 -0.00080640642883930366 -0.019839658296927486 0 -0.00067617057855677955 -0.020112978563155474 0 -0.00070551804931151671 -0.019783455526436806 0 -0.00080640642883930366 -0.019839658296927486 0 -0.00070551804931151671 -0.019783455526436806 0 -0.000958179050549558 -0.019572748316678885 0 -0.00066639021868544648 -0.01944266740718064 0 -0.00070551804931151671 -0.019783455526436806 0 -0.00080640642883930366 -0.019839658296927486 0 -0.000958179050549558 -0.019572748316678885 0 -0.00080640642883930366 -0.019839658296927486 0 -0.0010041229986045726 -0.019762082995954784 0 -0.000958179050549558 -0.019572748316678885 0 -0.0012486793559198367 -0.019569613408867089 0 -0.0013093000316363463 -0.019820947885892701 0 -0.0010041229986045726 -0.019762082995954784 0 -0.0013193546172424256 -0.019265373721235247 0 -0.0012486793559198367 -0.019569613408867089 0 -0.000958179050549558 -0.019572748316678885 0 -0.0012486793559198367 -0.019569613408867089 0 -0.0010041229986045726 -0.019762082995954784 0 -0.000958179050549558 -0.019572748316678885 0 -0.0013193546172424256 -0.019265373721235247 0 -0.000958179050549558 -0.019572748316678885 0 -0.00066639021868544648 -0.01944266740718064 0 -0.00057546173539851594 -0.020071262340075492 0 -0.00091868812582888775 -0.019693511034068426 0 -0.0013193546172424256 -0.019265373721235247 0 -0.00066639021868544648 -0.01944266740718064 0 -0.0013985545604895478 -0.018458561567945484 0 -0.00042617245834347629 -0.020679863442484531 0 -0.00041309785007351827 -0.020811787240319832 0 -0.00037446588698854412 -0.020960820609789287 0 -0.00042617245834347629 -0.020679863442484531 0 -0.00041309785007351827 -0.020811787240319832 0 -0.00042280792734638591 -0.020678556520394346 0 -0.00041309785007351827 -0.020811787240319832 0 -0.00042280792734638591 -0.020678556520394346 0 -0.00049454400314233023 -0.02081660781881392 0 -0.00042280792734638591 -0.020678556520394346 0 -0.00060795993432126102 -0.020727449353386815 0 -0.00072711212492846495 -0.020565822966591173 0 -0.00039519600803793192 -0.020671890046398141 0 -0.00051777058998723005 -0.02053925766679356 0 -0.00042617245834347629 -0.020679863442484531 0 -0.00042280792734638591 -0.020678556520394346 0 -0.000222168040722851 -0.020606825088328753 0 -0.00042280792734638591 -0.020678556520394346 0 -0.00049454400314233023 -0.02081660781881392 0 -0.00060795993432126102 -0.020727449353386815 0 -0.00049454400314233023 -0.02081660781881392 0 -0.00060795993432126102 -0.020727449353386815 0 -0.00064414180594274362 -0.0208366410134894 0 -0.00049454400314233023 -0.02081660781881392 0 -0.00050597996919527562 -0.020947286837012542 0 -0.00064414180594274362 -0.0208366410134894 0 -0.00049454400314233023 -0.02081660781881392 0 -0.00050597996919527562 -0.020947286837012542 0 -0.000386249844936861 -0.020909014807704088 0 -0.00050597996919527562 -0.020947286837012542 0 -0.00072094653313859781 -0.021027368214101765 0 -0.00064414180594274362 -0.0208366410134894 0 -0.00050597996919527562 -0.020947286837012542 0 -0.0005985753832799867 -0.021188814405517346 0 -0.00037236505146654635 -0.020948168726191544 0 -0.00050597996919527562 -0.020947286837012542 0 -0.0005985753832799867 -0.021188814405517346 0 -0.00072094653313859781 -0.021027368214101765 0 -0.00050597996919527562 -0.020947286837012542 0 -0.00037236505146654635 -0.020948168726191544 0 -0.000386249844936861 -0.020909014807704088 0 -0.00037236505146654635 -0.020948168726191544 0 -0.00039391565042605877 -0.020856834788065715 0 -0.00022810331951220284 -0.020763010992181499 0 -0.00037236505146654635 -0.020948168726191544 0 -0.000386249844936861 -0.020909014807704088 0 -0.00039391565042605877 -0.020856834788065715 0 -0.00041309785007351827 -0.020811787240319832 0 -0.000386249844936861 -0.020909014807704088 0 -0.00037446588698854412 -0.020960820609789287 0 -0.00041309785007351827 -0.020811787240319832 0 -0.00049454400314233023 -0.02081660781881392 0 -0.000386249844936861 -0.020909014807704088 0 -0.00037446588698854412 -0.020960820609789287 0 -0.00089914838164371403 -0.020923546628949234 0 -0.00039391565042605877 -0.020856834788065715 0 -0.000386249844936861 -0.020909014807704088 0 -0.00037446588698854412 -0.020960820609789287 0 -0.00039391565042605877 -0.020856834788065715 0 -0.00091868812582888775 -0.019693511034068426 0 -0.0015709074885863811 -0.01921838441858785 0 -0.0013985545604895478 -0.018458561567945484 0 -0.002185262009977347 -0.018305783622787192 0 -0.0022035491727358477 -0.017550048153769704 0 -0.0027623907704183784 -0.017911300270004316 0 -0.002185262009977347 -0.018305783622787192 0 -0.0022035491727358477 -0.017550048153769704 0 -0.00089914838164371403 -0.020923546628949234 0 -0.00039391565042605877 -0.020856834788065715 0 -0.00080830161731721686 -0.02024723038599216 0 -0.00022810331951220284 -0.020763010992181499 0 -0.00080830161731721686 -0.02024723038599216 0 -0.00050020884067892451 -0.019357841367724692 0 -0.00039391565042605877 -0.020856834788065715 0 -0.00022810331951220284 -0.020763010992181499 0 -0.00080830161731721686 -0.02024723038599216 0 -0.00022911172854320178 -0.020658606721627618 0 -0.00031169067630579933 -0.020307968508323063 0 -0.0012392654674076714 -0.019317771362028561 0 -0.00080830161731721686 -0.02024723038599216 0 -0.00050020884067892451 -0.019357841367724692 0 -0.0012138611924245684 -0.018301401313494246 0 -0.0012392654674076714 -0.019317771362028561 0 -0.00050020884067892451 -0.019357841367724692 0 -0.00050883554487960163 -0.019949248166824054 0 -0.00031169067630579933 -0.020307968508323063 0 -0.00022810331951220284 -0.020763010992181499 0 -9.3601693508291552e-06 -0.021288189582204867 0 -0.00028818137958788769 -0.02131925821242352 0 -0.00012740469135649952 -0.021609090902012434 0 -9.3601693508291552e-06 -0.021288189582204867 0 -0.00028818137958788769 -0.02131925821242352 0 -0.00040433763894874298 -0.021570365747479898 0 -0.00028818137958788769 -0.02131925821242352 0 -0.00058084718730054368 -0.02138522846213434 0 -0.0005985753832799867 -0.021188814405517346 0 -0.00037236505146654635 -0.020948168726191544 0 -0.00058084718730054368 -0.02138522846213434 0 -0.00022810331951220284 -0.020763010992181499 0 -0.00028818137958788769 -0.02131925821242352 0 -0.00058084718730054368 -0.02138522846213434 0 -0.00037236505146654635 -0.020948168726191544 0 -0.00022810331951220284 -0.020763010992181499 0 -0.00058084718730054368 -0.02138522846213434 0 -0.0005985753832799867 -0.021188814405517346 0 -0.00058084718730054368 -0.02138522846213434 0 -0.00097009045801991155 -0.021768070638165115 0 -0.00072260644004216025 -0.021680517393791326 0 -0.00058084718730054368 -0.02138522846213434 0 -0.00077322899342368212 -0.021639677570434539 0 -0.00058084718730054368 -0.02138522846213434 0 -0.00097009045801991155 -0.021768070638165115 0 -0.00077322899342368212 -0.021639677570434539 0 -0.00097009045801991155 -0.021768070638165115 0 -0.00069027212013860135 -0.021716754770933683 0 -0.00052407316430038494 -0.02189284382409247 0 -0.00097009045801991155 -0.021768070638165115 0 -0.00077322899342368212 -0.021639677570434539 0 -0.00069027212013860135 -0.021716754770933683 0 -0.00046576576218727763 -0.021752540083551066 0 -0.00052407316430038494 -0.02189284382409247 0 -0.00028569157860858777 -0.021843265601405419 0 -0.00046576576218727763 -0.021752540083551066 0 -0.00069027212013860135 -0.021716754770933683 0 -0.00052407316430038494 -0.02189284382409247 0 -0.00052407316430038494 -0.02189284382409247 0 -0.00028569157860858777 -0.021843265601405419 0 -5.8105967515079453e-05 -0.022002789616342316 0 -0.00011418660179695025 -0.021845388452401412 0 -0.00028569157860858777 -0.021843265601405419 0 -5.8105967515079453e-05 -0.022002789616342316 0 -5.8105967515079453e-05 -0.022002789616342316 0 -1.1211951417677382e-06 -0.022514264274569491 0 0.00022296887176149268 -0.022197409391690359 0 -5.8105967515079453e-05 -0.022002789616342316 0 -1.1211951417677382e-06 -0.022514264274569491 0 -0.00043783520981717413 -0.022351359599695864 0 -0.00097009045801991155 -0.021768070638165115 0 -0.00043783520981717413 -0.022351359599695864 0 -0.00072530319971472669 -0.022857714362037318 0 -0.00097009045801991155 -0.021768070638165115 0 -0.00052407316430038494 -0.02189284382409247 0 -0.00043783520981717413 -0.022351359599695864 0 -0.00052407316430038494 -0.02189284382409247 0 -5.8105967515079453e-05 -0.022002789616342316 0 -0.00043783520981717413 -0.022351359599695864 0 -0.00043783520981717413 -0.022351359599695864 0 -0.00072530319971472669 -0.022857714362037318 0 -0.00028921540847921638 -0.023298869480598439 0 -1.1211951417677382e-06 -0.022514264274569491 0 -0.00043783520981717413 -0.022351359599695864 0 -0.00028921540847921638 -0.023298869480598439 0 -1.1211951417677382e-06 -0.022514264274569491 0 -0.00028921540847921638 -0.023298869480598439 0 0.00041190790641834602 -0.023061910403904821 0 -0.00028921540847921638 -0.023298869480598439 0 0.00019122606859031416 -0.024431839428149003 0 0.00041190790641834602 -0.023061910403904821 0 -0.00028921540847921638 -0.023298869480598439 0 -0.00038875073081375385 -0.024242212864856852 0 0.00019122606859031416 -0.024431839428149003 0 -0.00028921540847921638 -0.023298869480598439 0 -0.000818056279999419 -0.023837309874021214 0 -0.00038875073081375385 -0.024242212864856852 0 -0.00072530319971472669 -0.022857714362037318 0 -0.00028921540847921638 -0.023298869480598439 0 -0.000818056279999419 -0.023837309874021214 0 -0.00072530319971472669 -0.022857714362037318 0 -0.000818056279999419 -0.023837309874021214 0 -0.0013132642133073201 -0.023274507712039816 0 -0.0010315834638294288 -0.020995970558016754 0 -0.00081504942314756601 -0.020852349028905176 0 -0.0009097034127206453 -0.020692646975388342 0 -0.0010041949253382959 -0.021781948424063207 0 -0.0011793078763020868 -0.022228812232474197 0 -0.00097009045801991155 -0.021768070638165115 0 -0.00072530319971472669 -0.022857714362037318 0 -0.0013132642133073201 -0.023274507712039816 0 -0.0005985753832799867 -0.021188814405517346 0 -0.00097009045801991155 -0.021768070638165115 0 -0.00072094653313859781 -0.021027368214101765 0 -0.00097009045801991155 -0.021768070638165115 0 -0.0010315834638294288 -0.020995970558016754 0 -0.00072094653313859781 -0.021027368214101765 0 -0.0010315834638294288 -0.020995970558016754 0 -0.00072094653313859781 -0.021027368214101765 0 -0.00081504942314756601 -0.020852349028905176 0 -0.00072094653313859781 -0.021027368214101765 0 -0.00081504942314756601 -0.020852349028905176 0 -0.00064414180594274362 -0.0208366410134894 0 -0.00081504942314756601 -0.020852349028905176 0 -0.00064414180594274362 -0.0208366410134894 0 -0.00075512413030039301 -0.020724499391567678 0 -0.00060795993432126102 -0.020727449353386815 0 -0.00064414180594274362 -0.0208366410134894 0 -0.00075512413030039301 -0.020724499391567678 0 -0.00081504942314756601 -0.020852349028905176 0 -0.00075512413030039301 -0.020724499391567678 0 -0.0009097034127206453 -0.020692646975388342 0 -0.00075512413030039301 -0.020724499391567678 0 -0.00087769225691043608 -0.020617432451706479 0 -0.0009097034127206453 -0.020692646975388342 0 -0.00075512413030039301 -0.020724499391567678 0 -0.00087769225691043608 -0.020617432451706479 0 -0.00072711212492846495 -0.020565822966591173 0 -0.00060795993432126102 -0.020727449353386815 0 -0.00075512413030039301 -0.020724499391567678 0 -0.00072711212492846495 -0.020565822966591173 0 -0.0010315834638294288 -0.020995970558016754 0 -0.0009097034127206453 -0.020692646975388342 0 -0.00098635128758985872 -0.020610578194316821 0 -0.000818056279999419 -0.023837309874021214 0 -0.0013132642133073201 -0.023274507712039816 0 -0.0011734946083625259 -0.024496722843435355 0 -0.0011793078763020868 -0.022228812232474197 0 -0.00076202860504216122 -0.02217655176564888 0 -0.00087769225691043608 -0.020617432451706479 0 -0.0009097034127206453 -0.020692646975388342 0 -0.00098522875312451077 -0.020616164872211778 0 -0.0012745957086064007 -0.020987723219536132 0 -0.00076202860504216122 -0.02217655176564888 0 0.00026564219808060836 -0.021371850321415951 0 0.00025713577445674756 -0.021480913199092056 0 0.00037885632992881447 -0.021411192825522327 0 -0.00076202860504216122 -0.02217655176564888 0 0.00056331559475349645 -0.023570055963076136 0 -0.00076202860504216122 -0.02217655176564888 0 -0.00023571226846658477 -0.021329092833893379 0 -0.00065172684710891713 -0.021872604317887543 0 -0.00057086313755216206 -0.022623699983716345 0 0.00049210530732662916 -0.022961441200979496 0 -0.00087769225691043608 -0.020617432451706479 0 -0.00098522875312451077 -0.020616164872211778 0 -0.00099766170140788333 -0.020497392829737636 0 0.00026617236527471381 -0.020694400619940493 0 -5.8662145821124518e-05 -0.020792764212290787 0 8.3087849226389269e-05 -0.021054303014409262 0 -0.00023571226846658477 -0.021329092833893379 0 -0.00051777058998723005 -0.02053925766679356 0 -0.00087769225691043608 -0.020617432451706479 0 -0.00099766170140788333 -0.020497392829737636 0 -0.00072711212492846495 -0.020565822966591173 0 0.00026617236527471381 -0.020694400619940493 0 -0.000222168040722851 -0.020606825088328753 0 -5.8662145821124518e-05 -0.020792764212290787 0 -5.8662145821124518e-05 -0.020792764212290787 0 -0.0002120538294121971 -0.02068338741666392 0 -9.8898790472116434e-05 -0.020929254625359228 0 -0.000222168040722851 -0.020606825088328753 0 -5.8662145821124518e-05 -0.020792764212290787 0 -0.0002120538294121971 -0.02068338741666392 0 -0.00033748128365580375 -0.020768362910725858 0 -7.8431155164124816e-05 -0.02129377793785105 0 -9.8898790472116434e-05 -0.020929254625359228 0 -0.00045226675258512291 -0.021051318137734171 0 -0.00033748128365580375 -0.020768362910725858 0 -7.8431155164124816e-05 -0.02129377793785105 0 -0.00033748128365580375 -0.020768362910725858 0 -0.0002120538294121971 -0.02068338741666392 0 -9.8898790472116434e-05 -0.020929254625359228 0 -5.8662145821124518e-05 -0.020792764212290787 0 -9.8898790472116434e-05 -0.020929254625359228 0 8.3087849226389269e-05 -0.021054303014409262 0 -7.8431155164124816e-05 -0.02129377793785105 0 -9.8898790472116434e-05 -0.020929254625359228 0 8.3087849226389269e-05 -0.021054303014409262 0 -0.00023571226846658477 -0.021329092833893379 0 0.00026017447562070743 -0.02134291901877531 0 0.00026617236527471381 -0.020694400619940493 0 8.3087849226389269e-05 -0.021054303014409262 0 0.00025713577445674756 -0.021480913199092056 0 -7.8431155164124816e-05 -0.02129377793785105 0 0.00025713577445674756 -0.021480913199092056 0 0.00023275591580995572 -0.021838363568258141 0 0.00025713577445674756 -0.021480913199092056 0 0.00023275591580995572 -0.021838363568258141 0 0.00036485377936553337 -0.021733757793000293 0 -7.8431155164124816e-05 -0.02129377793785105 0 8.3087849226389269e-05 -0.021054303014409262 0 0.00025713577445674756 -0.021480913199092056 0 -7.8431155164124816e-05 -0.02129377793785105 0 0.00023275591580995572 -0.021838363568258141 0 -1.8479719915669217e-05 -0.021777817062776123 0 0.00023275591580995572 -0.021838363568258141 0 0.00038215901950552352 -0.022349105078913141 0 0.0001808445378320759 -0.022119989630462005 0 0.00023275591580995572 -0.021838363568258141 0 -1.8479719915669217e-05 -0.021777817062776123 0 0.0001808445378320759 -0.022119989630462005 0 -0.00038268403965248702 -0.021553154700511837 0 -0.00045226675258512291 -0.021051318137734171 0 -7.8431155164124816e-05 -0.02129377793785105 0 -0.00038268403965248702 -0.021553154700511837 0 -7.8431155164124816e-05 -0.02129377793785105 0 -1.8479719915669217e-05 -0.021777817062776123 0 0.00059642001645228947 -0.022642370638139953 0 0.00049652430523011151 -0.021936573363399294 0 0.00074205838424179764 -0.022071303126387942 0 0.00059642001645228947 -0.022642370638139953 0 0.00040788630087137398 -0.022063484534427993 0 0.00038215901950552352 -0.022349105078913141 0 0.00023275591580995572 -0.021838363568258141 0 0.00040788630087137398 -0.022063484534427993 0 0.00038215901950552352 -0.022349105078913141 0 0.00023275591580995572 -0.021838363568258141 0 0.00040788630087137398 -0.022063484534427993 0 0.00036485377936553337 -0.021733757793000293 0 0.00049652430523011151 -0.021936573363399294 0 0.00040788630087137398 -0.022063484534427993 0 0.00036485377936553337 -0.021733757793000293 0 0.00059642001645228947 -0.022642370638139953 0 0.00049652430523011151 -0.021936573363399294 0 0.00040788630087137398 -0.022063484534427993 0 0.00049652430523011151 -0.021936573363399294 0 0.00036485377936553337 -0.021733757793000293 0 0.00037885632992881447 -0.021411192825522327 0 0.00025713577445674756 -0.021480913199092056 0 0.00036485377936553337 -0.021733757793000293 0 0.00037885632992881447 -0.021411192825522327 0 0.00049652430523011151 -0.021936573363399294 0 0.00074205838424179764 -0.022071303126387942 0 0.00037885632992881447 -0.021411192825522327 0 0.0014459502245412531 -0.02437129424756394 0 0.0013479734479785791 -0.024753717526873401 0 0.0019798542643702202 -0.024936839562270326 0 0.00072024198065325309 -0.024972399696251257 0 0.00056331559475349645 -0.023570055963076136 0 0.0011254373600788406 -0.023197741392184602 0 0.00056331559475349645 -0.023570055963076136 0 -9.7860416972511554e-06 -0.024922049602228671 0 -0.00021075096724677361 -0.024663089252387724 0 -0.00057688484359449748 -0.024912509428666643 0 -9.7860416972511554e-06 -0.024922049602228671 0 -0.00021075096724677361 -0.024663089252387724 0 2.9301234344363772e-05 -0.02472422540729962 0 -0.00023571226846658477 -0.021329092833893379 0 0.00056331559475349645 -0.023570055963076136 0 -0.00021075096724677361 -0.024663089252387724 0 -0.00057688484359449748 -0.024912509428666643 0 -0.00064145249130807098 -0.02448971482393841 0 -0.0011734946083625259 -0.024496722843435355 0 -0.00057688484359449748 -0.024912509428666643 0 -0.00064145249130807098 -0.02448971482393841 0 -0.000818056279999419 -0.023837309874021214 0 -0.0011734946083625259 -0.024496722843435355 0 -0.00064145249130807098 -0.02448971482393841 0 -0.00021075096724677361 -0.024663089252387724 0 -0.00064145249130807098 -0.02448971482393841 0 -0.00038875073081375385 -0.024242212864856852 0 -0.000818056279999419 -0.023837309874021214 0 -0.00064145249130807098 -0.02448971482393841 0 -0.00038875073081375385 -0.024242212864856852 0 -0.00021075096724677361 -0.024663089252387724 0 -0.00038875073081375385 -0.024242212864856852 0 0.00019122606859031416 -0.024431839428149003 0 -0.00021075096724677361 -0.024663089252387724 0 0.00019122606859031416 -0.024431839428149003 0 2.9301234344363772e-05 -0.02472422540729962 0 0.00019122606859031416 -0.024431839428149003 0 7.5198559627191126e-05 -0.024694135405912813 0 0.00010548725059402691 -0.024764804798136981 0 7.5198559627191126e-05 -0.024694135405912813 0 0.00010548725059402691 -0.024764804798136981 0 6.7708648629159873e-05 -0.024840713193861271 0 7.5198559627191126e-05 -0.024694135405912813 0 6.7708648629159873e-05 -0.024840713193861271 0 2.4585898115592231e-05 -0.024896400034444124 0 8.3404071331143483e-05 -0.024871412305838086 0 0.00010548725059402691 -0.024764804798136981 0 6.7708648629159873e-05 -0.024840713193861271 0 -9.7860416972511554e-06 -0.024922049602228671 0 2.9301234344363772e-05 -0.02472422540729962 0 0.00010548725059402691 -0.024764804798136981 0 0.00019122606859031416 -0.024431839428149003 0 2.9301234344363772e-05 -0.02472422540729962 0 0.00010548725059402691 -0.024764804798136981 0 0.0014459502245412531 -0.02437129424756394 0 0.0013479734479785791 -0.024753717526873401 0 0.00054181729957969394 -0.024589515806853243 0 -9.7860416972511554e-06 -0.024922049602228671 0 0.00010548725059402691 -0.024764804798136981 0 9.1394291732302906e-05 -0.024894617501093997 0 0.00072024198065325309 -0.024972399696251257 0 0.00029770931552480453 -0.024731466222380129 0 8.3404071331143483e-05 -0.024871412305838086 0 9.1394291732302906e-05 -0.024894617501093997 0 5.6044082143861118e-05 -0.024926673326321647 0 8.3404071331143483e-05 -0.024871412305838086 0 0.00010548725059402691 -0.024764804798136981 0 9.1394291732302906e-05 -0.024894617501093997 0 0.00029770931552480453 -0.024731466222380129 0 4.9035433896826801e-05 -0.024758300090929209 0 0.00054181729957969394 -0.024589515806853243 0 0.00022285765644790235 -0.024178570845001975 0 6.0969365412823662e-05 -0.024549933975115356 0 0.00054181729957969394 -0.024589515806853243 0 0.00022285765644790235 -0.024178570845001975 0 0.0007464261300657286 -0.023593976709035673 0 0.0014459502245412531 -0.02437129424756394 0 0.00054181729957969394 -0.024589515806853243 0 0.0007464261300657286 -0.023593976709035673 0 0.00059642001645228947 -0.022642370638139953 0 0.00074205838424179764 -0.022071303126387942 0 0.0007464261300657286 -0.023593976709035673 0 0.0011254373600788406 -0.023197741392184602 0 0.00074215680939422623 -0.023479620205799814 0 -5.9108159249694556e-08 -0.024999283078916298 0 6.0969365412823662e-05 -0.024549933975115356 0 3.73503575820284e-05 -0.024631066034762165 0 -4.9907424173878335e-08 -0.024999853732112692 0 4.9035433896826801e-05 -0.024758300090929209 0 0.00022285765644790235 -0.024178570845001975 0 6.0969365412823662e-05 -0.024549933975115356 0 3.73503575820284e-05 -0.024631066034762165 0 8.3404071331143483e-05 -0.024871412305838086 0 5.6044082143861118e-05 -0.024926673326321647 0 5.11254700591772e-05 -0.024921476806788807 0 1.1127533403790129e-08 -0.024999914201364798 0 5.6044082143861118e-05 -0.024926673326321647 0 4.8957685716823598e-08 -0.024999900052213555 0 5.6044082143861118e-05 -0.024926673326321647 0 4.8957685716823598e-08 -0.024999900052213555 0 5.11254700591772e-05 -0.024921476806788807 0 4.8957685716823598e-08 -0.024999900052213555 0 5.11254700591772e-05 -0.024921476806788807 0 2.07031362921122e-08 -0.024999869902849449 0 5.11254700591772e-05 -0.024921476806788807 0 6.7708648629159873e-05 -0.024840713193861271 0 2.07031362921122e-08 -0.024999869902849449 0 8.3404071331143483e-05 -0.024871412305838086 0 5.11254700591772e-05 -0.024921476806788807 0 6.7708648629159873e-05 -0.024840713193861271 0 6.7708648629159873e-05 -0.024840713193861271 0 2.07031362921122e-08 -0.024999869902849449 0 2.4585898115592231e-05 -0.024896400034444124 0 2.07031362921122e-08 -0.024999869902849449 0 -1.7651482682939758e-08 -0.024999926032978004 0 2.4585898115592231e-05 -0.024896400034444124 0 -1.7651482682939758e-08 -0.024999926032978004 0 2.0624303108777655e-05 -0.024975484994080015 0 2.4585898115592231e-05 -0.024896400034444124 0 2.0624303108777655e-05 -0.024975484994080015 0 2.4585898115592231e-05 -0.024896400034444124 0 5.9078963098515692e-05 -0.024851233641330031 0 7.5198559627191126e-05 -0.024694135405912813 0 2.4585898115592231e-05 -0.024896400034444124 0 5.9078963098515692e-05 -0.024851233641330031 0 7.5198559627191126e-05 -0.024694135405912813 0 5.9078963098515692e-05 -0.024851233641330031 0 0.00014070211313445345 -0.024846982554159267 0 0.00020668014187179412 -0.024390489609586473 0 0.00024967285879996109 -0.023967984856335025 0 0.00019122606859031416 -0.024431839428149003 0 7.5198559627191126e-05 -0.024694135405912813 0 0.00014070211313445345 -0.024846982554159267 0 5.9078963098515692e-05 -0.024851233641330031 0 0.00014070211313445345 -0.024846982554159267 0 4.0142166634897791e-05 -0.02492527499424357 0 0.00014070211313445345 -0.024846982554159267 0 4.0142166634897791e-05 -0.02492527499424357 0 1.1418320844222628e-05 -0.024989181847427235 0 -1.1211951417677382e-06 -0.022514264274569491 0 0.00041190790641834602 -0.023061910403904821 0 0.00022296887176149268 -0.022197409391690359 0 0.00024967285879996109 -0.023967984856335025 0 0.00010386531195031552 -0.023597821323865963 0 2.3647019761862864e-05 -0.024910072698185622 0 5.9078963098515692e-05 -0.024851233641330031 0 4.0142166634897791e-05 -0.02492527499424357 0 2.2646352974766037e-05 -0.024938868582623366 0 5.777831601486353e-05 -0.024864538019529044 0 2.3647019761862864e-05 -0.024910072698185622 0 4.0142166634897791e-05 -0.02492527499424357 0 4.4104076819715441e-05 -0.024887890986460735 0 4.0142166634897791e-05 -0.02492527499424357 0 4.9790257384675282e-05 -0.024831980203450291 0 4.4104076819715441e-05 -0.024887890986460735 0 4.0142166634897791e-05 -0.02492527499424357 0 1.1418320844222628e-05 -0.024989181847427235 0 4.9790257384675282e-05 -0.024831980203450291 0 1.1418320844222628e-05 -0.024989181847427235 0 -1.9756819584629986e-05 -0.024612462467818164 0 4.9790257384675282e-05 -0.024831980203450291 0 -2.6049599069733017e-05 -0.021817000214754044 0 -5.8105967515079453e-05 -0.022002789616342316 0 0.00022296887176149268 -0.022197409391690359 0 -9.635009628237061e-05 -0.023026626392608239 0 0.00010386531195031552 -0.023597821323865963 0 -0.00024115081305324678 -0.02431851904773287 0 1.1418320844222628e-05 -0.024989181847427235 0 -1.9756819584629986e-05 -0.024612462467818164 0 -2.6049599069733017e-05 -0.021817000214754044 0 -0.00011418660179695025 -0.021845388452401412 0 -5.8105967515079453e-05 -0.022002789616342316 0 4.9790257384675282e-05 -0.024831980203450291 0 3.5986790552646191e-05 -0.024812902555500227 0 4.4104076819715441e-05 -0.024887890986460735 0 4.9790257384675282e-05 -0.024831980203450291 0 2.5391008847423707e-05 -0.024744009082933508 0 3.5986790552646191e-05 -0.024812902555500227 0 -1.9756819584629986e-05 -0.024612462467818164 0 4.9790257384675282e-05 -0.024831980203450291 0 2.5391008847423707e-05 -0.024744009082933508 0 1.8102409221438518e-05 -0.024753715577759388 0 -1.9756819584629986e-05 -0.024612462467818164 0 2.5391008847423707e-05 -0.024744009082933508 0 1.8102409221438518e-05 -0.024753715577759388 0 2.5391008847423707e-05 -0.024744009082933508 0 3.5986790552646191e-05 -0.024812902555500227 0 2.8764708136327874e-05 -0.024884015394251471 0 4.4104076819715441e-05 -0.024887890986460735 0 1.6604161425678233e-05 -0.0249386965217172 0 3.5986790552646191e-05 -0.024812902555500227 0 2.8764708136327874e-05 -0.024884015394251471 0 4.4104076819715441e-05 -0.024887890986460735 0 1.5659740180831408e-05 -0.024879368923456928 0 3.5986790552646191e-05 -0.024812902555500227 0 2.8764708136327874e-05 -0.024884015394251471 0 9.3370348506703373e-06 -0.02492862467696105 0 2.8764708136327874e-05 -0.024884015394251471 0 1.6604161425678233e-05 -0.0249386965217172 0 -1.4791220391018361e-09 -0.024999945670511448 0 1.6604161425678233e-05 -0.0249386965217172 0 2.7285418634086098e-08 -0.024999780430863396 0 2.3647019761862864e-05 -0.024910072698185622 0 1.6604161425678233e-05 -0.0249386965217172 0 2.7285418634086098e-08 -0.024999780430863396 0 -1.7651482682939758e-08 -0.024999926032978004 0 2.0624303108777655e-05 -0.024975484994080015 0 1.5927390394921465e-08 -0.025000035172184572 0 2.2646352974766037e-05 -0.024938868582623366 0 8.2158730886524318e-09 -0.024999979928835712 0 2.3647019761862864e-05 -0.024910072698185622 0 4.4104076819715441e-05 -0.024887890986460735 0 1.6604161425678233e-05 -0.0249386965217172 0 -0.00077543938297523188 -0.014258741134821548 0 -0.00077437556128717928 -0.014259100032639528 0 -0.0010325535997140448 -0.014328818010893975 0 -0.00077543938297523188 -0.014258741134821548 0 -0.00075906472514949942 -0.014209240819238494 0 -0.00057228334933017008 -0.014157774206596363 0 0.00031621520409964648 -0.0086529902701588841 0 0.00022926045467847601 -0.0093559990139547022 0 -0.00077543938297523188 -0.014258741134821548 0 -0.00075906472514949942 -0.014209240819238494 0 -0.00077151857678543247 -0.014229047805580436 0 -0.00075906472514949942 -0.014209240819238494 0 -0.00077151857678543247 -0.014229047805580436 0 -0.00077709617829371856 -0.014196421695237464 0 -0.00077151857678543247 -0.014229047805580436 0 -0.00077437556128717928 -0.014259100032639528 0 -0.00077709617829371856 -0.014196421695237464 0 -0.00077543938297523188 -0.014258741134821548 0 -0.00077151857678543247 -0.014229047805580436 0 -0.00077437556128717928 -0.014259100032639528 0 -0.0029869545129903403 -0.016025613272866415 0 -0.0030508322724570078 -0.016039539875224076 0 -0.0029879858967363821 -0.016033016156513962 0 -0.0029869545129903403 -0.016025613272866415 0 -0.0030508322724570078 -0.016039539875224076 0 -0.0029939858677273086 -0.015916676538894559 0 -0.0030508322724570078 -0.016039539875224076 0 -0.0031657545852403781 -0.016069980373221552 0 -0.0031085255081517715 -0.015987921559986545 0 -0.0031657545852403781 -0.016069980373221552 0 -0.0031085255081517715 -0.015987921559986545 0 -0.0033145148755411272 -0.016038089515136477 0 -0.0018317988627755228 -0.015711974583888576 0 -0.0020609490365275105 -0.01498880820863332 0 -0.0030508322724570078 -0.016039539875224076 0 -0.0031085255081517715 -0.015987921559986545 0 -0.0029939858677273086 -0.015916676538894559 0 -0.0010325535997140448 -0.014328818010893975 0 -0.0015292197506835037 -0.014183334290136622 0 -0.00082307404671759575 -0.01415807634572301 0 -0.0031085255081517715 -0.015987921559986545 0 -0.0029519839380674571 -0.015686757766490606 0 -0.0033145148755411272 -0.016038089515136477 0 -0.0031085255081517715 -0.015987921559986545 0 -0.0029939858677273086 -0.015916676538894559 0 -0.0029519839380674571 -0.015686757766490606 0 -0.0020609490365275105 -0.01498880820863332 0 -0.0022429028873820556 -0.014931626057006051 0 -0.0022429028873820556 -0.014931626057006051 0 -0.0026034360316453992 -0.014475910580985473 0 -0.0015292197506835037 -0.014183334290136622 0 -0.00082307404671759575 -0.01415807634572301 0 -0.00095233453989285535 -0.013828942400543389 0 -0.00082307404671759575 -0.01415807634572301 0 -0.00024490876539918507 -0.013868339558446196 0 -0.00095233453989285535 -0.013828942400543389 0 -0.00077543938297523188 -0.014258741134821548 0 -0.0010325535997140448 -0.014328818010893975 0 -0.00082307404671759575 -0.01415807634572301 0 -0.00077543938297523188 -0.014258741134821548 0 -0.00082307404671759575 -0.01415807634572301 0 -0.00057228334933017008 -0.014157774206596363 0 -0.00082307404671759575 -0.01415807634572301 0 -0.00057228334933017008 -0.014157774206596363 0 -0.00024490876539918507 -0.013868339558446196 0 0.00022926045467847601 -0.0093559990139547022 0 0.00049212808493273228 -0.0089861082851360272 0 0.0011899988108919502 -0.0043014328340216712 0 0.0011333781390797082 -0.0042800630505582769 0 0.0011268148721105837 -0.004167057471593686 0 0.0011333781390797082 -0.0042800630505582769 0 0.0011268148721105837 -0.004167057471593686 0 0.0010616874923148134 -0.0042182335809665874 0 0.0010854831374410314 -0.0042662228238871417 0 0.0011268148721105837 -0.004167057471593686 0 0.0010846317014672896 -0.0041916290456733667 0 0.0010854831374410314 -0.0042662228238871417 0 0.0011899988108919502 -0.0043014328340216712 0 0.0011268148721105837 -0.004167057471593686 0 0.00081565057786754972 -0.0041279015541726971 0 0.0010616874923148134 -0.0042182335809665874 0 0.0009218863241494188 -0.0042915740113720719 0 0.00081565057786754972 -0.0041279015541726971 0 0.0010616874923148134 -0.0042182335809665874 0 0.0010224704744055887 -0.0040699817827958137 0 0.0011268148721105837 -0.004167057471593686 0 0.0010224704744055887 -0.0040699817827958137 0 0.001170072405725941 -0.0039262275259893172 0 0.0011268148721105837 -0.004167057471593686 0 0.0010616874923148134 -0.0042182335809665874 0 0.0010224704744055887 -0.0040699817827958137 0 0.00073041359565023754 -0.0037831577912281786 0 0.00081565057786754972 -0.0041279015541726971 0 0.0010224704744055887 -0.0040699817827958137 0 0.00073041359565023754 -0.0037831577912281786 0 0.0010224704744055887 -0.0040699817827958137 0 0.001170072405725941 -0.0039262275259893172 0 0.001170072405725941 -0.0039262275259893172 0 0.0014451941464486905 -0.0032831515703822937 0 0.00077681426152211713 -0.003152981909588543 0 0.0011937126465774617 -0.0039355132038408035 0 0.0013131607630621149 -0.003753328835351791 0 0.00073041359565023754 -0.0037831577912281786 0 0.001170072405725941 -0.0039262275259893172 0 0.00077681426152211713 -0.003152981909588543 0 0.00096968038795315246 -0.0043503791861597028 0 0.0010854831374410314 -0.0042662228238871417 0 0.0010846317014672896 -0.0041916290456733667 0 0.0011268148721105837 -0.004167057471593686 0 0.001170072405725941 -0.0039262275259893172 0 0.0010846317014672896 -0.0041916290456733667 0 0.001170072405725941 -0.0039262275259893172 0 0.0011988670581400975 -0.0042744688091036634 0 0.0010846317014672896 -0.0041916290456733667 0 0.0011988670581400975 -0.0042744688091036634 0 0.0010846317014672896 -0.0041916290456733667 0 0.0010472582075889446 -0.0043936612888942454 0 0.00096968038795315246 -0.0043503791861597028 0 0.0010846317014672896 -0.0041916290456733667 0 0.0010472582075889446 -0.0043936612888942454 0 0.0013131607630621149 -0.003753328835351791 0 0.0014237523031476185 -0.0037488631203272788 0 0.0011988670581400975 -0.0042744688091036634 0 0.0010472582075889446 -0.0043936612888942454 0 0.0011596885260513928 -0.0044773915482716449 0 0.0014237523031476185 -0.0037488631203272788 0 0.00071963993991472418 -0.0024924257724689195 0 0.0010472582075889446 -0.0043936612888942454 0 0.0011596885260513928 -0.0044773915482716449 0 0.0010676668094729259 -0.0044871226781398217 0 0.0011596885260513928 -0.0044773915482716449 0 0.0010676668094729259 -0.0044871226781398217 0 0.001073295413715078 -0.0045672820945655635 0 0.0010472582075889446 -0.0043936612888942454 0 0.00098896221235668011 -0.0045421738104096674 0 0.00092034260313800904 -0.0045062907042547591 0 0.00098896221235668011 -0.0045421738104096674 0 0.0010676668094729259 -0.0044871226781398217 0 0.001073295413715078 -0.0045672820945655635 0 0.0010472582075889446 -0.0043936612888942454 0 0.00098896221235668011 -0.0045421738104096674 0 0.0010676668094729259 -0.0044871226781398217 0 0.0014451941464486905 -0.0032831515703822937 0 0.00077681426152211713 -0.003152981909588543 0 0.0011541530174358188 -0.0027747746321848694 0 0.0014451941464486905 -0.0032831515703822937 0 0.0016357445459807122 -0.0027332586274351951 0 0.0011541530174358188 -0.0027747746321848694 0 0.0011541530174358188 -0.0027747746321848694 0 0.0010875000234189514 -0.0023321202386934895 0 0.00156033287647199 -0.0024067565748774715 0 0.0016357445459807122 -0.0027332586274351951 0 0.0011541530174358188 -0.0027747746321848694 0 0.00156033287647199 -0.0024067565748774715 0 0.00050319290293838689 -0.0025520695406315145 0 0.00077681426152211713 -0.003152981909588543 0 0.0011541530174358188 -0.0027747746321848694 0 0.00050319290293838689 -0.0025520695406315145 0 0.0011541530174358188 -0.0027747746321848694 0 0.0010875000234189514 -0.0023321202386934895 0 0.0004444370133400882 0.0013173722586116452 0 0.0011475176887136801 0.001728882985117669 0 0.00050203909480605929 0.0052751629753957458 0 0.0008661822907444814 0.0053778346929549891 0 0.00068588852980763391 0.0054960716809259709 0 0.0008661822907444814 0.0053778346929549891 0 0.00068588852980763391 0.0054960716809259709 0 0.00083502885178587851 0.0056615863821029505 0 0.0008661822907444814 0.0053778346929549891 0 0.0011877702186571506 0.0054267040777805685 0 0.0011532187993490484 0.0054637974942349215 0 0.0011475176887136801 0.001728882985117669 0 0.00088813493967283992 0.00022513701951734169 0 0.0008661822907444814 0.0053778346929549891 0 0.00083502885178587851 0.0056615863821029505 0 0.0011532187993490484 0.0054637974942349215 0 0.0010875000234189514 -0.0023321202386934895 0 0.00156033287647199 -0.0024067565748774715 0 0.0017124179902815739 -0.0021131076840209813 0 -0.00075223540414426045 -0.00022455539059592104 0 -0.00094700289576250265 -8.620965315548044e-05 0 -0.0009630075250664648 -0.00020820359520578528 0 0.00091915233687488336 0.0052662505579420989 0 0.00012193600521639145 0.0014014708495661489 0 0.00020525316007906694 0.003299746810817461 0 -5.2366554128606424e-05 0.0032203024575187147 0 0.00064667511794202679 0.0029067137476954138 0 -0.00039139219261401193 0.0028144423873920823 0 0.00012193600521639145 0.0014014708495661489 0 -0.00039139219261401193 0.0028144423873920823 0 0.00091915233687488336 0.0052662505579420989 0 0.0007473222956123275 0.0058485499898183494 0 0.00091915233687488336 0.0052662505579420989 0 0.00052156972375222758 0.0056427602126202956 0 0.00068588852980763391 0.0054960716809259709 0 0.00083502885178587851 0.0056615863821029505 0 0.00048458259637359802 0.0060057023264339206 0 0.00091915233687488336 0.0052662505579420989 0 -0.003411709842745895 -0.0098284042186227369 0 -0.0027045045646435996 -0.010114745921173006 0 -0.0027802022071504282 -0.010855003854222797 0 -0.0022601884324075917 -0.0063181559433852291 0 -0.0018610304462712073 -0.0094558034833519041 0 -0.0025149798999003345 -0.0075621938034714491 0 -0.0020644164670180396 -0.0062054515908315016 0 -0.00096528560341801594 -0.0079553270229463895 0 -0.0005825482364094852 -0.0037269490525078338 0 -7.9020364609825742e-05 -0.0041736079718102601 0 -0.00095677083040761367 -0.0044688207734971076 0 -0.0005825482364094852 -0.0037269490525078338 0 -0.00052837264451786891 -0.0032122311402679044 0 -0.00095677083040761367 -0.0044688207734971076 0 0.00012296964048781196 -0.0050528111329674425 0 -0.0022601884324075917 -0.0063181559433852291 0 -0.00037964633952662516 -0.0065261650158500144 0 0.00012296964048781196 -0.0050528111329674425 0 -0.0012138552752782219 -0.0086562474472140615 0 -0.0025149798999003345 -0.0075621938034714491 0 -0.00096528560341801594 -0.0079553270229463895 0 0.00098896221235668011 -0.0045421738104096674 0 0.0010654819840853606 -0.0045859249762369575 0 0.001073295413715078 -0.0045672820945655635 0 0.00012296964048781196 -0.0050528111329674425 0 0.00027596419784416706 -0.0048403524967766147 0 0.0010656323886314497 -0.004584846499651885 0 0.001073295413715078 -0.0045672820945655635 0 0.0011041615120539127 -0.0046127898913704305 0 0.0016357445459807122 -0.0027332586274351951 0 0.00156033287647199 -0.0024067565748774715 0 0.0018062247251439784 -0.0021924060797542805 0 0.0011596885260513928 -0.0044773915482716449 0 0.001073295413715078 -0.0045672820945655635 0 0.0011041615120539127 -0.0046127898913704305 0 0.00012296964048781196 -0.0050528111329674425 0 0.00071963993991472418 -0.0024924257724689195 0 0.00156033287647199 -0.0024067565748774715 0 0.0017124179902815739 -0.0021131076840209813 0 0.0018062247251439784 -0.0021924060797542805 0 0.00012193600521639145 0.0014014708495661489 0 0.00024076945002353818 -0.00056031910980949124 0 0.00063987297821278138 2.8941316728710272e-05 0 3.337038909437336e-05 0.00053132337305139131 0 0.0010015262931543554 0.00014547986291383913 0 0.00088813493967283992 0.00022513701951734169 0 0.00012193600521639145 0.0014014708495661489 0 -0.0005825482364094852 -0.0037269490525078338 0 -0.00052837264451786891 -0.0032122311402679044 0 8.7540055026170217e-05 -0.003709579040865634 0 -0.0005825482364094852 -0.0037269490525078338 0 8.7540055026170217e-05 -0.003709579040865634 0 6.5003941690588925e-06 -0.0039505811642451209 0 8.6180247969376184e-05 -0.0025299566840937316 0 0.00024669945721248382 -0.0019132856934109582 0 0.00088813493967283992 0.00022513701951734169 0 0.00071963993991472418 -0.0024924257724689195 0 0.00071963993991472418 -0.0024924257724689195 0 0.00024669945721248382 -0.0019132856934109582 0 0.00070962987423339383 -0.0010020649709062445 0 0.00056704916372917532 -0.0007483313021241359 0 0.0007668418521644939 -0.0008291540300245199 0 0.00024076945002353818 -0.00056031910980949124 0 0.00024669945721248382 -0.0019132856934109582 0 0.00045060614668587811 -0.00078531610575893035 0 0.00070962987423339383 -0.0010020649709062445 0 0.00056704916372917532 -0.0007483313021241359 0 0.00088813493967283992 0.00022513701951734169 0 0.00024076945002353818 -0.00056031910980949124 0 0.00024076945002353818 -0.00056031910980949124 0 -0.0003126755348932922 -0.0020986097028580569 0 0.00014218837187732964 -0.0010462678009747312 0 2.9665511743989427e-05 -0.0010850088686686912 0 5.3976397494426432e-05 -0.0010134151977259527 0 -0.0005825482364094852 -0.0037269490525078338 0 -7.9020364609825742e-05 -0.0041736079718102601 0 -3.9007486275120366e-06 -0.0039487953908253371 0 -0.0003126755348932922 -0.0020986097028580569 0 0.00024669945721248382 -0.0019132856934109582 0 -0.0010209130007380297 -0.00034288435059200991 0 -0.00075223540414426045 -0.00022455539059592104 0 -0.0009630075250664648 -0.00020820359520578528 0 -0.0003126755348932922 -0.0020986097028580569 0 -0.0020569912357984096 -0.002999506620991679 0 -0.0010450319101521857 -8.7047249179212808e-05 0 -0.0010014064382000375 -0.00014627061896942378 0 -0.0010961297349705865 -0.00022641570979549448 0 -0.00099987850003786945 -6.979362740452635e-05 0 -0.0010450319101521857 -8.7047249179212808e-05 0 -0.0010014064382000375 -0.00014627061896942378 0 -0.00094700289576250265 -8.620965315548044e-05 0 -0.0010014064382000375 -0.00014627061896942378 0 -0.0009630075250664648 -0.00020820359520578528 0 -0.00094700289576250265 -8.620965315548044e-05 0 -0.00099987850003786945 -6.979362740452635e-05 0 -0.0010014064382000375 -0.00014627061896942378 0 -0.0010209130007380297 -0.00034288435059200991 0 -0.0009630075250664648 -0.00020820359520578528 0 -0.0010961297349705865 -0.00022641570979549448 0 -0.0019713360505877789 -0.0015360682245216394 0 -0.0020569912357984096 -0.002999506620991679 0 -0.0010014064382000375 -0.00014627061896942378 0 -0.0009630075250664648 -0.00020820359520578528 0 -0.0010961297349705865 -0.00022641570979549448 0 -0.0033226465062847692 -0.0061128136452047116 0 -0.0022601884324075917 -0.0063181559433852291 0 -0.0027347399265610487 -0.0054148832999192428 0 -0.0026022013296854427 -0.005034020085637499 0 -0.0027465589629534289 -0.0048067637317782443 0 -0.0003126755348932922 -0.0020986097028580569 0 -0.0022601884324075917 -0.0063181559433852291 0 -0.0015071321698479116 -0.0037467681587676008 0 -0.0016437666142897446 -0.0041361075951150085 0 -0.0018234599037262717 -0.0038555089647153307 0 -0.0020569912357984096 -0.002999506620991679 0 -0.0022601884324075917 -0.0063181559433852291 0 -0.0022601884324075917 -0.0063181559433852291 0 -0.0031389366582987169 -0.0097130980055788671 0 -0.0019051351492321541 -0.0093568437757886227 0 -0.0027045045646435996 -0.010114745921173006 0 -0.0020138564289749325 -0.010433629236386696 0 -0.0031389366582987169 -0.0097130980055788671 0 -0.0027865461870222427 -0.013078561847582762 0 -0.003411709842745895 -0.0098284042186227369 0 -0.0019051351492321541 -0.0093568437757886227 0 -0.0027045045646435996 -0.010114745921173006 0 -0.0028934076911063937 -0.0078031174897955531 0 -0.0026307100806887908 -0.0071385636063326305 0 -0.0032858411097147675 -0.0073656341121550372 0 -0.0034268093229034005 -0.01212708859832278 0 -0.0031389366582987169 -0.0097130980055788671 0 -0.0032780208018638197 -0.012199804021199957 0 -0.0031503916748833187 -0.012300608227537216 0 -0.0033032460477650997 -0.012496089001623634 0 -0.0029985647997077883 -0.012110330293623361 0 -0.0032780208018638197 -0.012199804021199957 0 -0.0031503916748833187 -0.012300608227537216 0 -0.0030310655447500345 -0.016423419018326182 0 -0.0029631262412469811 -0.016330936570241712 0 -0.0030695263842373667 -0.01628338245505315 0 -0.0034268093229034005 -0.01212708859832278 0 -0.0033759815255243932 -0.014535417317920815 0 -0.0029631262412469811 -0.016330936570241712 0 -0.0029798336469270014 -0.016218311110533467 0 -0.0030695263842373667 -0.01628338245505315 0 -0.0029631262412469811 -0.016330936570241712 0 -0.0029798336469270014 -0.016218311110533467 0 -0.0028966563769470756 -0.016236459183390371 0 -0.0033759815255243932 -0.014535417317920815 0 -0.0027865461870222427 -0.013078561847582762 0 -0.0029798336469270014 -0.016218311110533467 0 -0.0028966563769470756 -0.016236459183390371 0 -0.002934982810987744 -0.016163626541329346 0 -0.0027045045646435996 -0.010114745921173006 0 -0.0020138564289749325 -0.010433629236386696 0 -0.0025052791716343595 -0.010513262982403026 0 -0.0027865461870222427 -0.013078561847582762 0 -0.0020343401414018598 -0.011780466165618012 0 -0.0020138564289749325 -0.010433629236386696 0 -0.0022213771439714516 -0.010686020853269331 0 -0.0025052791716343595 -0.010513262982403026 0 -0.0027045045646435996 -0.010114745921173006 0 -0.0027802022071504282 -0.010855003854222797 0 -0.0025052791716343595 -0.010513262982403026 0 -0.0022213771439714516 -0.010686020853269331 0 -0.0027802022071504282 -0.010855003854222797 0 -0.0025052791716343595 -0.010513262982403026 0 -0.0020138905275749351 -0.010439580441687361 0 -0.0022213771439714516 -0.010686020853269331 0 -0.0021544872870105166 -0.011886960716458918 0 -0.0027865461870222427 -0.013078561847582762 0 -0.0014058426475039301 -0.012089827611566854 0 -0.0028966563769470756 -0.016236459183390371 0 -0.0028852179906848781 -0.016079696563209941 0 -0.002934982810987744 -0.016163626541329346 0 -0.0012138552752782219 -0.0086562474472140615 0 -0.00096528560341801594 -0.0079553270229463895 0 9.400839141083301e-05 -0.0097683192630682106 0 -0.0018610304462712073 -0.0094558034833519041 0 -0.0014058426475039301 -0.012089827611566854 0 -0.0022213771439714516 -0.010686020853269331 0 -0.0027802022071504282 -0.010855003854222797 0 -0.0021544872870105166 -0.011886960716458918 0 -0.00037964633952662516 -0.0065261650158500144 0 -0.0014058426475039301 -0.012089827611566854 0 -0.0028852179906848781 -0.016079696563209941 0 -0.0029328769636854037 -0.016114379025455271 0 -0.002917609888993472 -0.016088509037854887 0 -0.0029798336469270014 -0.016218311110533467 0 -0.002934982810987744 -0.016163626541329346 0 -0.0029742892377360875 -0.016146774860400229 0 -0.002934982810987744 -0.016163626541329346 0 -0.0029742892377360875 -0.016146774860400229 0 -0.0029328769636854037 -0.016114379025455271 0 -0.0029798336469270014 -0.016218311110533467 0 -0.0029742892377360875 -0.016146774860400229 0 -0.0030387817537609967 -0.016161432833205598 0 -0.0029742892377360875 -0.016146774860400229 0 -0.0029777365259111869 -0.01610238250074501 0 -0.0030387817537609967 -0.016161432833205598 0 -0.0029777365259111869 -0.01610238250074501 0 -0.003025429066707816 -0.016087974194679621 0 -0.0030387817537609967 -0.016161432833205598 0 -0.0028852179906848781 -0.016079696563209941 0 -0.002934982810987744 -0.016163626541329346 0 -0.0029328769636854037 -0.016114379025455271 0 -0.0029742892377360875 -0.016146774860400229 0 -0.0029777365259111869 -0.01610238250074501 0 -0.0029328769636854037 -0.016114379025455271 0 -0.0029777365259111869 -0.01610238250074501 0 -0.0029328769636854037 -0.016114379025455271 0 -0.0029444850857188354 -0.016077711999624305 0 -0.0029328769636854037 -0.016114379025455271 0 -0.002917609888993472 -0.016088509037854887 0 -0.0029444850857188354 -0.016077711999624305 0 -0.0029869545129903403 -0.016025613272866415 0 -0.0029585565107116156 -0.015990813636173485 0 -0.0029879858967363821 -0.016033016156513962 0 -0.0018317988627755228 -0.015711974583888576 0 -0.0014058426475039301 -0.012089827611566854 0 -0.0028852179906848781 -0.016079696563209941 0 -0.0029444850857188354 -0.016077711999624305 0 -0.0029879858967363821 -0.016033016156513962 0 -0.0014058426475039301 -0.012089827611566854 0 -0.0028348884767346438 -0.016631647058018732 0 -0.00077437556128717928 -0.014259100032639528 0 -0.00078983299523335609 -0.014138671000846686 0 -0.00077709617829371856 -0.014196421695237464 0 -0.0029777365259111869 -0.01610238250074501 0 -0.0029444850857188354 -0.016077711999624305 0 -0.0029840426945238491 -0.016075885684327072 0 -0.0029840426945238491 -0.016075885684327072 0 -0.0029879858967363821 -0.016033016156513962 0 -0.003025429066707816 -0.016087974194679621 0 -0.0029444850857188354 -0.016077711999624305 0 -0.0029840426945238491 -0.016075885684327072 0 -0.0029879858967363821 -0.016033016156513962 0 -0.0029777365259111869 -0.01610238250074501 0 -0.0029840426945238491 -0.016075885684327072 0 -0.003025429066707816 -0.016087974194679621 0 0.00031621520409964648 -0.0086529902701588841 0 -0.0014058426475039301 -0.012089827611566854 0 -0.00075906472514949942 -0.014209240819238494 0 -0.00078983299523335609 -0.014138671000846686 0 -0.00077709617829371856 -0.014196421695237464 0 0.00096968038795315246 -0.0043503791861597028 0 0.0010472582075889446 -0.0043936612888942454 0 0.00092034260313800904 -0.0045062907042547591 0 -0.0028852179906848781 -0.016079696563209941 0 -0.002917609888993472 -0.016088509037854887 0 -0.0029444850857188354 -0.016077711999624305 0 -0.0031657545852403781 -0.016069980373221552 0 -0.0032109948262688008 -0.016131330615384989 0 -0.0030888095035575408 -0.016104442691308136 0 -0.0030508322724570078 -0.016039539875224076 0 -0.0029879858967363821 -0.016033016156513962 0 -0.003025429066707816 -0.016087974194679621 0 -0.0030508322724570078 -0.016039539875224076 0 -0.003025429066707816 -0.016087974194679621 0 -0.0030888095035575408 -0.016104442691308136 0 -0.0030508322724570078 -0.016039539875224076 0 -0.0031657545852403781 -0.016069980373221552 0 -0.0030888095035575408 -0.016104442691308136 0 -0.0030888095035575408 -0.016104442691308136 0 -0.0030387817537609967 -0.016161432833205598 0 -0.0031588658878111573 -0.01619925502273695 0 -0.003025429066707816 -0.016087974194679621 0 -0.0030888095035575408 -0.016104442691308136 0 -0.0030387817537609967 -0.016161432833205598 0 -0.0032109948262688008 -0.016131330615384989 0 -0.0030888095035575408 -0.016104442691308136 0 -0.0031588658878111573 -0.01619925502273695 0 -0.0031588658878111573 -0.01619925502273695 0 -0.0030695263842373667 -0.01628338245505315 0 -0.003235893168285387 -0.016339443996301741 0 -0.0030387817537609967 -0.016161432833205598 0 -0.0031588658878111573 -0.01619925502273695 0 -0.0030695263842373667 -0.01628338245505315 0 -0.0029798336469270014 -0.016218311110533467 0 -0.0030387817537609967 -0.016161432833205598 0 -0.0030695263842373667 -0.01628338245505315 0 -0.0030310655447500345 -0.016423419018326182 0 -0.0030695263842373667 -0.01628338245505315 0 -0.0031549470662267614 -0.016390879374671784 0 -0.0030695263842373667 -0.01628338245505315 0 -0.0031549470662267614 -0.016390879374671784 0 -0.003235893168285387 -0.016339443996301741 0 -0.0032859426648356887 -0.016526288248493622 0 -0.0031549470662267614 -0.016390879374671784 0 -0.003235893168285387 -0.016339443996301741 0 -0.0032859426648356887 -0.016526288248493622 0 -0.003235893168285387 -0.016339443996301741 0 -0.0034598717770413113 -0.016455480728014744 0 -0.0031588658878111573 -0.01619925502273695 0 -0.003235893168285387 -0.016339443996301741 0 -0.0033612030446050671 -0.016216090028256136 0 -0.003235893168285387 -0.016339443996301741 0 -0.0034598717770413113 -0.016455480728014744 0 -0.0033612030446050671 -0.016216090028256136 0 -0.0034577580503724966 -0.016454790680395934 0 -0.0034286043531559468 -0.016340540334344265 0 -0.0034598717770413113 -0.016455480728014744 0 -0.0035469577230234192 -0.016483317110671598 0 -0.0035023934596006847 -0.016452966672126389 0 -0.0035469577230234192 -0.016483317110671598 0 -0.0036136296143512566 -0.016447068844455889 0 -0.0035023934596006847 -0.016452966672126389 0 -0.0034598717770413113 -0.016455480728014744 0 -0.0035536306706176746 -0.016507253253536046 0 -0.0035469577230234192 -0.016483317110671598 0 -0.0035536306706176746 -0.016507253253536046 0 -0.0036316054576718266 -0.016538579567341762 0 -0.0035469577230234192 -0.016483317110671598 0 -0.0037525325433491385 -0.01673880436357662 0 -0.0035956445740578081 -0.016504906437545867 0 -0.0035536306706176746 -0.016507253253536046 0 -0.0035386195492526891 -0.016514303127312172 0 -0.0036316054576718266 -0.016538579567341762 0 -0.0037661441641143765 -0.016755523333890857 0 -0.0036316054576718266 -0.016538579567341762 0 -0.0038705691895286037 -0.016584791787592885 0 -0.0036316054576718266 -0.016538579567341762 0 -0.0036136296143512566 -0.016447068844455889 0 -0.0037699785152035298 -0.016450950035432385 0 -0.0036316054576718266 -0.016538579567341762 0 -0.0037699785152035298 -0.016450950035432385 0 -0.0038705691895286037 -0.016584791787592885 0 -0.0036316054576718266 -0.016538579567341762 0 -0.0035469577230234192 -0.016483317110671598 0 -0.0036136296143512566 -0.016447068844455889 0 -0.0036136296143512566 -0.016447068844455889 0 -0.0037699785152035298 -0.016450950035432385 0 -0.0037391021048787552 -0.016345794873499048 0 -0.0036136296143512566 -0.016447068844455889 0 -0.0037391021048787552 -0.016345794873499048 0 -0.0035870669173785367 -0.016368652678416112 0 -0.0037699785152035298 -0.016450950035432385 0 -0.0037391021048787552 -0.016345794873499048 0 -0.0039028270764909132 -0.016361139092156838 0 -0.0037391021048787552 -0.016345794873499048 0 -0.0039028270764909132 -0.016361139092156838 0 -0.003932152769544707 -0.01623456354040366 0 -0.0037391021048787552 -0.016345794873499048 0 -0.0036624508996243705 -0.016222414394951232 0 -0.003932152769544707 -0.01623456354040366 0 -0.0037391021048787552 -0.016345794873499048 0 -0.0035870669173785367 -0.016368652678416112 0 -0.0036624508996243705 -0.016222414394951232 0 -0.0035870669173785367 -0.016368652678416112 0 -0.0034378925769646363 -0.016312281517414984 0 -0.0036624508996243705 -0.016222414394951232 0 -0.0031657545852403781 -0.016069980373221552 0 -0.0032109948262688008 -0.016131330615384989 0 -0.0032849800570421031 -0.016094249441679451 0 -0.0033630675548750621 -0.016196456252047516 0 -0.0034286043531559468 -0.016340540334344265 0 -0.0032109948262688008 -0.016131330615384989 0 -0.0031588658878111573 -0.01619925502273695 0 -0.0033612030446050671 -0.016216090028256136 0 -0.0032109948262688008 -0.016131330615384989 0 -0.0032849800570421031 -0.016094249441679451 0 -0.0033612030446050671 -0.016216090028256136 0 -0.0036136296143512566 -0.016447068844455889 0 -0.0035870669173785367 -0.016368652678416112 0 -0.0035023934596006847 -0.016452966672126389 0 -0.0035870669173785367 -0.016368652678416112 0 -0.0034378925769646363 -0.016312281517414984 0 -0.0035023934596006847 -0.016452966672126389 0 -0.0028165339130414827 -0.018340801981973399 0 -0.0027207118690152042 -0.018432762288008664 0 -0.0026116413094227795 -0.018357705689077002 0 -0.0027207118690152042 -0.018432762288008664 0 -0.0026470604538893668 -0.018492032133873671 0 -0.0026116413094227795 -0.018357705689077002 0 -0.0027207118690152042 -0.018432762288008664 0 -0.002729834867753985 -0.01853165205302067 0 -0.0026470604538893668 -0.018492032133873671 0 -0.0027559374891456792 -0.018657654772584145 0 -0.002729834867753985 -0.01853165205302067 0 -0.0026481320548354201 -0.018595695847404989 0 -0.002729834867753985 -0.01853165205302067 0 -0.0026481320548354201 -0.018595695847404989 0 -0.0026470604538893668 -0.018492032133873671 0 -0.0024670199351575703 -0.018749829009095234 0 -0.0025172597406342579 -0.018557253845116282 0 -0.0024958293034137739 -0.018398844404535861 0 -0.0021660550515464759 -0.017862913775178988 0 -0.0030929879822961326 -0.017317085538378633 0 -0.0025752280635398567 -0.01867466556788511 0 -0.0026481320548354201 -0.018595695847404989 0 -0.0025172597406342579 -0.018557253845116282 0 -0.0026481320548354201 -0.018595695847404989 0 -0.0026470604538893668 -0.018492032133873671 0 -0.0025172597406342579 -0.018557253845116282 0 -0.0022881898212399887 -0.01890768828917375 0 -0.0033699393999990831 -0.017501463092308 0 -0.0026470604538893668 -0.018492032133873671 0 -0.0025172597406342579 -0.018557253845116282 0 -0.0026116413094227795 -0.018357705689077002 0 -0.0025172597406342579 -0.018557253845116282 0 -0.0024958293034137739 -0.018398844404535861 0 -0.0026623989788897582 -0.0182256660718472 0 -0.0041615481413801048 -0.016605288688563046 0 -0.0041645450909892816 -0.016553516055869921 0 -0.004262136253445856 -0.016489517421541106 0 -0.0030929879822961326 -0.017317085538378633 0 -0.0033758372944541889 -0.016799795917766879 0 -0.0030929879822961326 -0.017317085538378633 0 -0.0033699393999990831 -0.017501463092308 0 -0.0041645450909892816 -0.016553516055869921 0 -0.0040840132757982168 -0.016467265455403935 0 -0.0041763926132205673 -0.016445049791761288 0 -0.0041645450909892816 -0.016553516055869921 0 -0.004262136253445856 -0.016489517421541106 0 -0.0041763926132205673 -0.016445049791761288 0 -0.0041645450909892816 -0.016553516055869921 0 -0.0040464825119405877 -0.016575070136701023 0 -0.0040840132757982168 -0.016467265455403935 0 -0.0040464825119405877 -0.016575070136701023 0 -0.0039443297306409209 -0.016472221944672103 0 -0.0040840132757982168 -0.016467265455403935 0 -0.0041628993504908849 -0.016603295555662725 0 -0.0041645450909892816 -0.016553516055869921 0 -0.0040464825119405877 -0.016575070136701023 0 -0.0030929879822961326 -0.017317085538378633 0 -0.0031989657001747665 -0.016868896214075203 0 -0.0041628993504908849 -0.016603295555662725 0 -0.0040464825119405877 -0.016575070136701023 0 -0.004027221847050109 -0.016755382505902697 0 -0.0021812612162929045 -0.016986888090441316 0 -0.0021898030994675489 -0.017116628120038301 0 -0.0022414895339244387 -0.017045436386499004 0 -0.0040464825119405877 -0.016575070136701023 0 -0.004027221847050109 -0.016755382505902697 0 -0.0038705691895286037 -0.016584791787592885 0 -0.0037661441641143765 -0.016755523333890857 0 -0.004027221847050109 -0.016755382505902697 0 -0.0038705691895286037 -0.016584791787592885 0 -0.0037699785152035298 -0.016450950035432385 0 -0.0038705691895286037 -0.016584791787592885 0 -0.0039443297306409209 -0.016472221944672103 0 -0.0040464825119405877 -0.016575070136701023 0 -0.0038705691895286037 -0.016584791787592885 0 -0.0039443297306409209 -0.016472221944672103 0 -0.0037699785152035298 -0.016450950035432385 0 -0.0039443297306409209 -0.016472221944672103 0 -0.0039028270764909132 -0.016361139092156838 0 -0.0039443297306409209 -0.016472221944672103 0 -0.0039028270764909132 -0.016361139092156838 0 -0.0040246103145861944 -0.01638953084628746 0 -0.0039028270764909132 -0.016361139092156838 0 -0.0040459492450961093 -0.016292210528501726 0 -0.003932152769544707 -0.01623456354040366 0 -0.0039028270764909132 -0.016361139092156838 0 -0.0040459492450961093 -0.016292210528501726 0 -0.0040246103145861944 -0.01638953084628746 0 -0.0040459492450961093 -0.016292210528501726 0 -0.0041402040129170075 -0.016370155468350946 0 -0.0040246103145861944 -0.01638953084628746 0 -0.0040459492450961093 -0.016292210528501726 0 -0.0041528624828728634 -0.016255062660157638 0 -0.0041402040129170075 -0.016370155468350946 0 -0.0041402040129170075 -0.016370155468350946 0 -0.0040246103145861944 -0.01638953084628746 0 -0.0040840132757982168 -0.016467265455403935 0 -0.0039443297306409209 -0.016472221944672103 0 -0.0040246103145861944 -0.01638953084628746 0 -0.0040840132757982168 -0.016467265455403935 0 -0.0041402040129170075 -0.016370155468350946 0 -0.0040840132757982168 -0.016467265455403935 0 -0.0041763926132205673 -0.016445049791761288 0 -0.004262136253445856 -0.016489517421541106 0 -0.0041763926132205673 -0.016445049791761288 0 -0.0042301477634978952 -0.016354915877093524 0 -0.0041402040129170075 -0.016370155468350946 0 -0.0041763926132205673 -0.016445049791761288 0 -0.0042301477634978952 -0.016354915877093524 0 -0.0041528624828728634 -0.016255062660157638 0 -0.0041402040129170075 -0.016370155468350946 0 -0.0042093134147185478 -0.016287556878923862 0 -0.0041402040129170075 -0.016370155468350946 0 -0.0042301477634978952 -0.016354915877093524 0 -0.0042093134147185478 -0.016287556878923862 0 -0.0041528624828728634 -0.016255062660157638 0 -0.0042093134147185478 -0.016287556878923862 0 -0.0042265971101856084 -0.016198107769115299 0 -0.0042093134147185478 -0.016287556878923862 0 -0.0042636864245929997 -0.016261182451997994 0 -0.0042265971101856084 -0.016198107769115299 0 -0.0042301477634978952 -0.016354915877093524 0 -0.0042093134147185478 -0.016287556878923862 0 -0.0042636864245929997 -0.016261182451997994 0 -0.0042301477634978952 -0.016354915877093524 0 -0.0042636864245929997 -0.016261182451997994 0 -0.0043129321773051179 -0.016290557883063779 0 -0.0042636864245929997 -0.016261182451997994 0 -0.0043129321773051179 -0.016290557883063779 0 -0.0042803866679626858 -0.016217880935134644 0 -0.0042975330684985845 -0.016410684823736608 0 -0.0041176612580732111 -0.01651630747098819 0 -0.0042612955438115167 -0.01662312658419066 0 -0.0033699393999990831 -0.017501463092308 0 -0.0043323818708681256 -0.016219272440416991 0 -0.0039296243519430958 -0.016999736651283542 0 -0.0041176612580732111 -0.01651630747098819 0 -0.0042612955438115167 -0.01662312658419066 0 -0.0028165339130414827 -0.018340801981973399 0 -0.0026116413094227795 -0.018357705689077002 0 -0.0027591979528764151 -0.018201012594023413 0 -0.0033699393999990831 -0.017501463092308 0 -0.003451409832082592 -0.017474112867651995 0 -0.004262136253445856 -0.016489517421541106 0 -0.0042301477634978952 -0.016354915877093524 0 -0.0043129321773051179 -0.016290557883063779 0 -0.0043975401849800904 -0.016042039383198793 0 -0.0042585548470152152 -0.016043621768968806 0 -0.004326931768504399 -0.016109998223474285 0 -0.0042753067077122347 -0.016152125744950219 0 -0.0042589511592718487 -0.016097418280953974 0 -0.0043083673755053868 -0.016191714102468113 0 -0.004326931768504399 -0.016109998223474285 0 -0.0042753067077122347 -0.016152125744950219 0 -0.0042591172387674934 -0.016289964040798233 0 -0.0043323818708681256 -0.016219272440416991 0 -0.0042975330684985845 -0.016410684823736608 0 -0.0043083673755053868 -0.016191714102468113 0 -0.0041176612580732111 -0.01651630747098819 0 -0.0043083673755053868 -0.016191714102468113 0 -0.0043129321773051179 -0.016290557883063779 0 -0.0042803866679626858 -0.016217880935134644 0 -0.0043083673755053868 -0.016191714102468113 0 -0.0042753067077122347 -0.016152125744950219 0 -0.0042803866679626858 -0.016217880935134644 0 -0.0042753067077122347 -0.016152125744950219 0 -0.0042803866679626858 -0.016217880935134644 0 -0.0042265971101856084 -0.016198107769115299 0 -0.0042636864245929997 -0.016261182451997994 0 -0.0042803866679626858 -0.016217880935134644 0 -0.0042265971101856084 -0.016198107769115299 0 -0.0042309007174214904 -0.016116084582483554 0 -0.0042489235305485235 -0.016028375258219013 0 -0.0042589511592718487 -0.016097418280953974 0 -0.0042753067077122347 -0.016152125744950219 0 -0.0042265971101856084 -0.016198107769115299 0 -0.0042309007174214904 -0.016116084582483554 0 -0.0042753067077122347 -0.016152125744950219 0 -0.0042309007174214904 -0.016116084582483554 0 -0.0042589511592718487 -0.016097418280953974 0 -0.0042309007174214904 -0.016116084582483554 0 -0.0041362330446487331 -0.016159300601041284 0 -0.0042489235305485235 -0.016028375258219013 0 -0.0040459492450961093 -0.016292210528501726 0 -0.0041528624828728634 -0.016255062660157638 0 -0.0041362330446487331 -0.016159300601041284 0 -0.0042265971101856084 -0.016198107769115299 0 -0.0042309007174214904 -0.016116084582483554 0 -0.0041362330446487331 -0.016159300601041284 0 -0.0041528624828728634 -0.016255062660157638 0 -0.0042265971101856084 -0.016198107769115299 0 -0.0041362330446487331 -0.016159300601041284 0 -0.0041362330446487331 -0.016159300601041284 0 -0.0040838257475472838 -0.016076613092019961 0 -0.003932152769544707 -0.01623456354040366 0 -0.0040459492450961093 -0.016292210528501726 0 -0.0041362330446487331 -0.016159300601041284 0 -0.003932152769544707 -0.01623456354040366 0 -0.0041362330446487331 -0.016159300601041284 0 -0.0040838257475472838 -0.016076613092019961 0 -0.0042489235305485235 -0.016028375258219013 0 -0.0040838257475472838 -0.016076613092019961 0 -0.0041770247996879067 -0.01593845465751767 0 -0.0042489235305485235 -0.016028375258219013 0 -0.0041770247996879067 -0.01593845465751767 0 -0.004331868128606791 -0.015929235380056521 0 -0.0042489235305485235 -0.016028375258219013 0 -0.0041770247996879067 -0.01593845465751767 0 -0.004331868128606791 -0.015929235380056521 0 -0.0044188538431900034 -0.015765695109213163 0 -0.004331868128606791 -0.015929235380056521 0 -0.0043461994810764602 -0.016080185158792639 0 -0.0044188538431900034 -0.015765695109213163 0 -0.004331868128606791 -0.015929235380056521 0 -0.0043117715859238943 -0.015978146548051689 0 -0.0043461994810764602 -0.016080185158792639 0 -0.004331868128606791 -0.015929235380056521 0 -0.0042489235305485235 -0.016028375258219013 0 -0.0043117715859238943 -0.015978146548051689 0 -0.0043117715859238943 -0.015978146548051689 0 -0.0043057537015014887 -0.01599610969887659 0 -0.0042836744745812774 -0.016004626306487111 0 -0.0042489235305485235 -0.016028375258219013 0 -0.0043117715859238943 -0.015978146548051689 0 -0.0043057537015014887 -0.01599610969887659 0 -0.0042517387327155381 -0.0160328122016824 0 -0.0042585548470152152 -0.016043621768968806 0 -0.0043274397077715807 -0.016270198411279128 0 -0.0043447419838955094 -0.016140204617429186 0 -0.0043108886796877095 -0.016554441207382406 0 -0.0042556900854953412 -0.016490244125234532 0 -0.0043461994810764602 -0.016080185158792639 0 -0.0043117715859238943 -0.015978146548051689 0 -0.0042836744745812774 -0.016004626306487111 0 -0.0043461994810764602 -0.016080185158792639 0 -0.0042684904871058121 -0.016835016837203728 0 -0.0042347743991216517 -0.01649084532990272 0 -0.0043108886796877095 -0.016554441207382406 0 -0.0042684904871058121 -0.016835016837203728 0 -0.0043108886796877095 -0.016554441207382406 0 -0.0042556900854953412 -0.016490244125234532 0 -0.0042146565448497458 -0.016182382142755337 0 -0.0043274397077715807 -0.016270198411279128 0 -0.0042744221175190222 -0.016004822789926626 0 -0.0042836744745812774 -0.016004626306487111 0 -0.0042878252183620718 -0.01599998533528155 0 -0.0042770266355848336 -0.015989629401301751 0 -0.0043057537015014887 -0.01599610969887659 0 -0.0042878252183620718 -0.01599998533528155 0 -0.0043057537015014887 -0.01599610969887659 0 -0.0042836744745812774 -0.016004626306487111 0 -0.0042878252183620718 -0.01599998533528155 0 -0.0042770266355848336 -0.015989629401301751 0 -0.0042744221175190222 -0.016004822789926626 0 -0.0042878252183620718 -0.01599998533528155 0 -0.0033145148755411272 -0.016038089515136477 0 -0.0036624508996243705 -0.016222414394951232 0 -0.0036561168043339918 -0.01600481244674009 0 -0.0033630675548750621 -0.016196456252047516 0 -0.0033197539243604115 -0.016040374049448684 0 -0.0031657545852403781 -0.016069980373221552 0 -0.0032849800570421031 -0.016094249441679451 0 -0.0033145148755411272 -0.016038089515136477 0 -0.0034378925769646363 -0.016312281517414984 0 -0.0033145148755411272 -0.016038089515136477 0 -0.0036624508996243705 -0.016222414394951232 0 -0.0036624508996243705 -0.016222414394951232 0 -0.003932152769544707 -0.01623456354040366 0 -0.0038949680282027036 -0.016113306767082836 0 -0.0040838257475472838 -0.016076613092019961 0 -0.003932152769544707 -0.01623456354040366 0 -0.0038949680282027036 -0.016113306767082836 0 -0.0040838257475472838 -0.016076613092019961 0 -0.0038949680282027036 -0.016113306767082836 0 -0.0039551789293833092 -0.015980310845673144 0 -0.0038949680282027036 -0.016113306767082836 0 -0.0036561168043339918 -0.01600481244674009 0 -0.0039551789293833092 -0.015980310845673144 0 -0.0036624508996243705 -0.016222414394951232 0 -0.0038949680282027036 -0.016113306767082836 0 -0.0036561168043339918 -0.01600481244674009 0 -0.0036561168043339918 -0.01600481244674009 0 -0.0039675236630862271 -0.015736454317044419 0 -0.0033880588908070941 -0.015765922053579084 0 -0.0036561168043339918 -0.01600481244674009 0 -0.0039551789293833092 -0.015980310845673144 0 -0.0039675236630862271 -0.015736454317044419 0 -0.0040838257475472838 -0.016076613092019961 0 -0.0041770247996879067 -0.01593845465751767 0 -0.0039551789293833092 -0.015980310845673144 0 -0.0041770247996879067 -0.01593845465751767 0 -0.0039551789293833092 -0.015980310845673144 0 -0.0039675236630862271 -0.015736454317044419 0 -0.0041770247996879067 -0.01593845465751767 0 -0.0039675236630862271 -0.015736454317044419 0 -0.0044188538431900034 -0.015765695109213163 0 -0.0039675236630862271 -0.015736454317044419 0 -0.0033880588908070941 -0.015765922053579084 0 -0.0034869185380708842 -0.015395985053934811 0 -0.0033145148755411272 -0.016038089515136477 0 -0.0036561168043339918 -0.01600481244674009 0 -0.0033880588908070941 -0.015765922053579084 0 -0.0029519839380674571 -0.015686757766490606 0 -0.0033145148755411272 -0.016038089515136477 0 -0.0033880588908070941 -0.015765922053579084 0 -0.0029519839380674571 -0.015686757766490606 0 -0.0033880588908070941 -0.015765922053579084 0 -0.002896979987032978 -0.015178371776584548 0 -0.0026034360316453992 -0.014475910580985473 0 -0.0030413128657913713 -0.013897854350319542 0 -0.0022276990307783608 -0.013889277110912446 0 -0.0030460664719934713 -0.013918487946342111 0 -0.0019669214072734328 -0.013152399335743539 0 -0.0038863820884570527 -0.015040767718716347 0 -0.003649990823340932 -0.014265243889880101 0 -0.0030460664719934713 -0.013918487946342111 0 -0.0034869185380708842 -0.015395985053934811 0 -0.0038863820884570527 -0.015040767718716347 0 -0.0030460664719934713 -0.013918487946342111 0 -0.002896979987032978 -0.015178371776584548 0 -0.0034869185380708842 -0.015395985053934811 0 -0.0030460664719934713 -0.013918487946342111 0 -0.0033880588908070941 -0.015765922053579084 0 -0.002896979987032978 -0.015178371776584548 0 -0.0034869185380708842 -0.015395985053934811 0 -0.0039675236630862271 -0.015736454317044419 0 -0.0034869185380708842 -0.015395985053934811 0 -0.0038863820884570527 -0.015040767718716347 0 -0.0039675236630862271 -0.015736454317044419 0 -0.0044602425428624101 -0.015431147299823957 0 -0.0038863820884570527 -0.015040767718716347 0 -0.0039675236630862271 -0.015736454317044419 0 -0.0044602425428624101 -0.015431147299823957 0 -0.0044188538431900034 -0.015765695109213163 0 -0.0044602425428624101 -0.015431147299823957 0 -0.0038863820884570527 -0.015040767718716347 0 -0.0042462440328722966 -0.014842243338931889 0 -0.0044602425428624101 -0.015431147299823957 0 -0.0042462440328722966 -0.014842243338931889 0 -0.0048734696160540516 -0.015410976651090693 0 -0.0038863820884570527 -0.015040767718716347 0 -0.003649990823340932 -0.014265243889880101 0 -0.0042462440328722966 -0.014842243338931889 0 -0.003649990823340932 -0.014265243889880101 0 -0.0040218614905692847 -0.014076284036885094 0 -0.0033918718205484194 -0.013174325033280386 0 -0.003649990823340932 -0.014265243889880101 0 -0.0040218614905692847 -0.014076284036885094 0 -0.0042462440328722966 -0.014842243338931889 0 -0.0044433706168080069 -0.01437975416923889 0 -0.0048734696160540516 -0.015410976651090693 0 -0.0050596497787142427 -0.013746866738709267 0 -0.0042462440328722966 -0.014842243338931889 0 -0.0044433706168080069 -0.01437975416923889 0 -0.0048734696160540516 -0.015410976651090693 0 -0.0040218614905692847 -0.014076284036885094 0 -0.0042462440328722966 -0.014842243338931889 0 -0.0044433706168080069 -0.01437975416923889 0 -0.0040218614905692847 -0.014076284036885094 0 -0.0044433706168080069 -0.01437975416923889 0 -0.0043045591677899567 -0.013681319977713604 0 -0.0044851340583610703 -0.013101633640052301 0 -0.0050596497787142427 -0.013746866738709267 0 -0.004979522648381628 -0.012767577557701349 0 -0.0044433706168080069 -0.01437975416923889 0 -0.0043045591677899567 -0.013681319977713604 0 -0.0050596497787142427 -0.013746866738709267 0 -0.0043045591677899567 -0.013681319977713604 0 -0.0044851340583610703 -0.013101633640052301 0 -0.0050596497787142427 -0.013746866738709267 0 -0.0044851340583610703 -0.013101633640052301 0 -0.0033918718205484194 -0.013174325033280386 0 -0.0045182021695427061 -0.01296698369119546 0 -0.0043045591677899567 -0.013681319977713604 0 -0.0044851340583610703 -0.013101633640052301 0 -0.0033918718205484194 -0.013174325033280386 0 -0.0040218614905692847 -0.014076284036885094 0 -0.0043045591677899567 -0.013681319977713604 0 -0.0033918718205484194 -0.013174325033280386 0 -0.003590635959949844 -0.012463984684756308 0 -0.0049587789548273505 -0.012879909047538893 0 -0.0039094017674849114 -0.01194427216034619 0 -0.0025074894227651479 -0.012675810675043664 0 -0.0033679610029105074 -0.011099153950385849 0 -0.003590635959949844 -0.012463984684756308 0 -0.0025322285133407064 -0.012743863603928042 0 -0.0025074894227651479 -0.012675810675043664 0 -0.0030460664719934713 -0.013918487946342111 0 -0.0019669214072734328 -0.013152399335743539 0 -0.003649990823340932 -0.014265243889880101 0 -0.0033918718205484194 -0.013174325033280386 0 -0.0030460664719934713 -0.013918487946342111 0 -0.0033918718205484194 -0.013174325033280386 0 -0.0025074894227651479 -0.012675810675043664 0 -0.0030460664719934713 -0.013918487946342111 0 -0.0041242385832239515 -0.016663549676278516 0 -0.0042478644173799601 -0.016461812596992462 0 -0.0042200378823888194 -0.016652608818510915 0 -0.0042478644173799601 -0.016461812596992462 0 -0.0043294979242008693 -0.016337624208891045 0 -0.0042200378823888194 -0.016652608818510915 0 -0.0041863918581283967 -0.016563651356770768 0 -0.0042478644173799601 -0.016461812596992462 0 -0.0042556900854953412 -0.016490244125234532 0 -0.0042478644173799601 -0.016461812596992462 0 -0.0042556900854953412 -0.016490244125234532 0 -0.0043461994810764602 -0.016080185158792639 0 -0.0042478644173799601 -0.016461812596992462 0 -0.0043461994810764602 -0.016080185158792639 0 -0.0043294979242008693 -0.016337624208891045 0 -0.0043461994810764602 -0.016080185158792639 0 -0.0043294979242008693 -0.016337624208891045 0 -0.0045934753063549194 -0.015817094737705078 0 -0.0043461994810764602 -0.016080185158792639 0 -0.0044188538431900034 -0.015765695109213163 0 -0.0045934753063549194 -0.015817094737705078 0 -0.0044602425428624101 -0.015431147299823957 0 -0.0044188538431900034 -0.015765695109213163 0 -0.0045934753063549194 -0.015817094737705078 0 -0.0044602425428624101 -0.015431147299823957 0 -0.0045934753063549194 -0.015817094737705078 0 -0.0048734696160540516 -0.015410976651090693 0 -0.0048734696160540516 -0.015410976651090693 0 -0.0047346849506180698 -0.016169478379380937 0 -0.0051745928064572322 -0.016670303278563378 0 -0.0045934753063549194 -0.015817094737705078 0 -0.0048734696160540516 -0.015410976651090693 0 -0.0047346849506180698 -0.016169478379380937 0 -0.0049561536092508646 -0.015406708625790022 0 -0.0050566404229277235 -0.015150853659303817 0 -0.0047346849506180698 -0.016169478379380937 0 -0.0047982403408574435 -0.016794838090251327 0 -0.004524857932055531 -0.016556370054965269 0 -0.0050566404229277235 -0.015150853659303817 0 -0.0045220770975167458 -0.0152387683784 0 -0.0047346849506180698 -0.016169478379380937 0 -0.0051745928064572322 -0.016670303278563378 0 -0.0047982403408574435 -0.016794838090251327 0 -0.0051745928064572322 -0.016670303278563378 0 -0.0049342253252325644 -0.017030106299197208 0 -0.0049995829838145964 -0.017101159444271097 0 -0.0051745928064572322 -0.016670303278563378 0 -0.0047982403408574435 -0.016794838090251327 0 -0.0049342253252325644 -0.017030106299197208 0 -0.0047982403408574435 -0.016794838090251327 0 -0.0046643052017558209 -0.017172685648070233 0 -0.0049342253252325644 -0.017030106299197208 0 -0.0046643052017558209 -0.017172685648070233 0 -0.004524857932055531 -0.016556370054965269 0 -0.0044221860333398949 -0.017426361203880105 0 -0.0047982403408574435 -0.016794838090251327 0 -0.0046643052017558209 -0.017172685648070233 0 -0.004524857932055531 -0.016556370054965269 0 -0.0043294979242008693 -0.016337624208891045 0 -0.0045934753063549194 -0.015817094737705078 0 -0.004524857932055531 -0.016556370054965269 0 -0.0045934753063549194 -0.015817094737705078 0 -0.0047346849506180698 -0.016169478379380937 0 -0.004524857932055531 -0.016556370054965269 0 -0.0043294979242008693 -0.016337624208891045 0 -0.004524857932055531 -0.016556370054965269 0 -0.0042760606634387839 -0.01665886775728562 0 -0.0045474444623204375 -0.016637979338720243 0 -0.004275176176143901 -0.016947259522786789 0 -0.0042274089228541371 -0.017265039208672308 0 -0.0044221860333398949 -0.017426361203880105 0 -0.0042458650083947985 -0.017804709143982064 0 -0.004524857932055531 -0.016556370054965269 0 -0.0042274089228541371 -0.017265039208672308 0 -0.0044221860333398949 -0.017426361203880105 0 -0.0040074602811837334 -0.017309473117441153 0 -0.004275176176143901 -0.016947259522786789 0 -0.0042274089228541371 -0.017265039208672308 0 -0.0040387469662651037 -0.017789363820888256 0 -0.0042458650083947985 -0.017804709143982064 0 -0.0038802214173880973 -0.017651738971888882 0 -0.0042274089228541371 -0.017265039208672308 0 -0.0040387469662651037 -0.017789363820888256 0 -0.0043294979242008693 -0.016337624208891045 0 -0.0042760606634387839 -0.01665886775728562 0 -0.0042200378823888194 -0.016652608818510915 0 -0.0041555720574677785 -0.016973952133459168 0 -0.0042760606634387839 -0.01665886775728562 0 -0.0042200378823888194 -0.016652608818510915 0 -0.004003830268886662 -0.019297637726457793 0 -0.0044689223277873513 -0.018857762326324624 0 -0.0044519601653009652 -0.018592111751248613 0 -0.004851287013655654 -0.01599300758335534 0 -0.0047124813111765074 -0.016130428761303637 0 -0.0047745420368173631 -0.015996856519728441 0 -0.0042471201462781103 -0.018434508827228774 0 -0.0042049989625114505 -0.018172783554454772 0 -0.0043390025193439062 -0.018001639886481586 0 -0.0042471201462781103 -0.018434508827228774 0 -0.004092639816564882 -0.018384470900888298 0 -0.0042049989625114505 -0.018172783554454772 0 -0.0039833665826838711 -0.018647958259843347 0 -0.0042471201462781103 -0.018434508827228774 0 -0.004092639816564882 -0.018384470900888298 0 -0.004092639816564882 -0.018384470900888298 0 -0.0040929703995049617 -0.018103466487645829 0 -0.0042049989625114505 -0.018172783554454772 0 -0.0040387469662651037 -0.017789363820888256 0 -0.0040929703995049617 -0.018103466487645829 0 -0.0042458650083947985 -0.017804709143982064 0 -0.0042458650083947985 -0.017804709143982064 0 -0.0042049989625114505 -0.018172783554454772 0 -0.0043390025193439062 -0.018001639886481586 0 -0.0040929703995049617 -0.018103466487645829 0 -0.0042458650083947985 -0.017804709143982064 0 -0.0042049989625114505 -0.018172783554454772 0 -0.0042458650083947985 -0.017804709143982064 0 -0.0043390025193439062 -0.018001639886481586 0 -0.0044125481814525341 -0.017758876558376928 0 -0.0044221860333398949 -0.017426361203880105 0 -0.0042458650083947985 -0.017804709143982064 0 -0.0044125481814525341 -0.017758876558376928 0 -0.0044221860333398949 -0.017426361203880105 0 -0.0044125481814525341 -0.017758876558376928 0 -0.0045030788271567578 -0.017642345720605686 0 -0.0044221860333398949 -0.017426361203880105 0 -0.0045030788271567578 -0.017642345720605686 0 -0.0045470345481138487 -0.017506354685106976 0 -0.0044125481814525341 -0.017758876558376928 0 -0.0045030788271567578 -0.017642345720605686 0 -0.0046011593004576029 -0.017779981207954761 0 -0.0043390025193439062 -0.018001639886481586 0 -0.0044125481814525341 -0.017758876558376928 0 -0.0046011593004576029 -0.017779981207954761 0 -0.0042471201462781103 -0.018434508827228774 0 -0.0043390025193439062 -0.018001639886481586 0 -0.0046011593004576029 -0.017779981207954761 0 -0.0046424577341123699 -0.01623128042631046 0 -0.0047124813111765074 -0.016130428761303637 0 -0.0046144678197711959 -0.016351026755260456 0 -0.004851287013655654 -0.01599300758335534 0 -0.0047124813111765074 -0.016130428761303637 0 -0.0046144678197711959 -0.016351026755260456 0 -0.0043510408513763466 -0.018490945360071034 0 -0.0046307853543045251 -0.017880013577575158 0 -0.0046173650050645373 -0.017434347053848845 0 -0.0045995066715646318 -0.017192436177490882 0 -0.0044519601653009652 -0.018592111751248613 0 -0.0046204923533286766 -0.017942106997483491 0 -0.0046011593004576029 -0.017779981207954761 0 -0.0044689223277873513 -0.018857762326324624 0 -0.0044519601653009652 -0.018592111751248613 0 -0.0046204923533286766 -0.017942106997483491 0 -0.0047124813111765074 -0.016130428761303637 0 -0.0047313604871653996 -0.016029640290893203 0 -0.0047745420368173631 -0.015996856519728441 0 -0.0047124813111765074 -0.016130428761303637 0 -0.0046828644277211312 -0.016068909965716648 0 -0.0047313604871653996 -0.016029640290893203 0 -0.0047124813111765074 -0.016130428761303637 0 -0.0046574398994318512 -0.016154962053500168 0 -0.0046828644277211312 -0.016068909965716648 0 -0.0046277745983168131 -0.016095794767459967 0 -0.0046574398994318512 -0.016154962053500168 0 -0.0046828644277211312 -0.016068909965716648 0 -0.0046277745983168131 -0.016095794767459967 0 -0.0046574398994318512 -0.016154962053500168 0 -0.004618837219900012 -0.016217584306171776 0 -0.0046424577341123699 -0.01623128042631046 0 -0.0046574398994318512 -0.016154962053500168 0 -0.004618837219900012 -0.016217584306171776 0 -0.0046424577341123699 -0.01623128042631046 0 -0.0047124813111765074 -0.016130428761303637 0 -0.0046574398994318512 -0.016154962053500168 0 -0.004618837219900012 -0.016217584306171776 0 -0.0045379855820860031 -0.016127003441028322 0 -0.0046141330659991084 -0.016333972229938386 0 -0.0046277745983168131 -0.016095794767459967 0 -0.004618837219900012 -0.016217584306171776 0 -0.0045379855820860031 -0.016127003441028322 0 -0.0045379855820860031 -0.016127003441028322 0 -0.0045014874907631256 -0.016264899137231361 0 -0.0046141330659991084 -0.016333972229938386 0 -0.0045379855820860031 -0.016127003441028322 0 -0.0045014874907631256 -0.016264899137231361 0 -0.0043718767315067946 -0.01608763643502252 0 -0.0045014874907631256 -0.016264899137231361 0 -0.0046141330659991084 -0.016333972229938386 0 -0.0046845843587676279 -0.016549968579051708 0 -0.0046141330659991084 -0.016333972229938386 0 -0.0046144678197711959 -0.016351026755260456 0 -0.0046845843587676279 -0.016549968579051708 0 -0.004618837219900012 -0.016217584306171776 0 -0.0046141330659991084 -0.016333972229938386 0 -0.0046194698931493246 -0.01629389488720491 0 -0.0046424577341123699 -0.01623128042631046 0 -0.004618837219900012 -0.016217584306171776 0 -0.0046194698931493246 -0.01629389488720491 0 -0.0046424577341123699 -0.01623128042631046 0 -0.0046194698931493246 -0.01629389488720491 0 -0.0046144678197711959 -0.016351026755260456 0 -0.0046141330659991084 -0.016333972229938386 0 -0.0046194698931493246 -0.01629389488720491 0 -0.0046144678197711959 -0.016351026755260456 0 -0.0045995066715646318 -0.017192436177490882 0 -0.0048528461465889138 -0.017058290380149537 0 -0.0046144678197711959 -0.016351026755260456 0 -0.0046845843587676279 -0.016549968579051708 0 -0.0049342253252325644 -0.017030106299197208 0 -0.0046204923533286766 -0.017942106997483491 0 -0.0046011593004576029 -0.017779981207954761 0 -0.0049342253252325644 -0.017030106299197208 0 -0.0046643052017558209 -0.017172685648070233 0 -0.0046011593004576029 -0.017779981207954761 0 -0.0049342253252325644 -0.017030106299197208 0 -0.0045030788271567578 -0.017642345720605686 0 -0.0046011593004576029 -0.017779981207954761 0 -0.0045470345481138487 -0.017506354685106976 0 -0.0046643052017558209 -0.017172685648070233 0 -0.0044221860333398949 -0.017426361203880105 0 -0.0045470345481138487 -0.017506354685106976 0 -0.0046643052017558209 -0.017172685648070233 0 -0.0046011593004576029 -0.017779981207954761 0 -0.0045470345481138487 -0.017506354685106976 0 -0.0046271847758931626 -0.016890968587708315 0 -0.0045220770975167458 -0.0152387683784 0 -0.0046845843587676279 -0.016549968579051708 0 -0.0042896162277720751 -0.016305552337037309 0 -0.0040956445381276638 -0.016676100507700378 0 -0.0046845843587676279 -0.016549968579051708 0 -0.0049342253252325644 -0.017030106299197208 0 -0.0049995829838145964 -0.017101159444271097 0 -0.0042896162277720751 -0.016305552337037309 0 -0.0040956445381276638 -0.016676100507700378 0 -0.0041130807497134258 -0.016016807592331345 0 -0.0045014874907631256 -0.016264899137231361 0 -0.0046845843587676279 -0.016549968579051708 0 -0.0042896162277720751 -0.016305552337037309 0 -0.0045014874907631256 -0.016264899137231361 0 -0.0042896162277720751 -0.016305552337037309 0 -0.0043718767315067946 -0.01608763643502252 0 -0.0042896162277720751 -0.016305552337037309 0 -0.0043718767315067946 -0.01608763643502252 0 -0.0041130807497134258 -0.016016807592331345 0 -0.0043305888931416707 -0.015910754458614 0 -0.0043007438631462152 -0.015771374814748409 0 -0.0041130807497134258 -0.016016807592331345 0 -0.0043718767315067946 -0.01608763643502252 0 -0.0043305888931416707 -0.015910754458614 0 -0.0044653175424766598 -0.015955944332521101 0 -0.0043718767315067946 -0.01608763643502252 0 -0.0043305888931416707 -0.015910754458614 0 -0.0041130807497134258 -0.016016807592331345 0 -0.0045163986587820866 -0.013520504341775005 0 -0.0040707239026039387 -0.015564263851278759 0 -0.0043007438631462152 -0.015771374814748409 0 -0.0041130807497134258 -0.016016807592331345 0 -0.0041879649957191501 -0.015641788517340736 0 -0.0042335850194037015 -0.014104472600841557 0 -0.004238685813326282 -0.014729038198069425 0 -0.0041119879226006375 -0.014764357583699143 0 -0.0043007438631462152 -0.015771374814748409 0 -0.004427002170698283 -0.015688504310827345 0 -0.0043266332911430384 -0.015633733094056298 0 -0.0043007438631462152 -0.015771374814748409 0 -0.0043266332911430384 -0.015633733094056298 0 -0.0041879649957191501 -0.015641788517340736 0 -0.0043305888931416707 -0.015910754458614 0 -0.0043007438631462152 -0.015771374814748409 0 -0.0044393983118451476 -0.015824606622625918 0 -0.0044393983118451476 -0.015824606622625918 0 -0.004427002170698283 -0.015688504310827345 0 -0.0045480013046376444 -0.015754075418241937 0 -0.0043007438631462152 -0.015771374814748409 0 -0.0044393983118451476 -0.015824606622625918 0 -0.004427002170698283 -0.015688504310827345 0 -0.004427002170698283 -0.015688504310827345 0 -0.0045480013046376444 -0.015754075418241937 0 -0.0045438501853166833 -0.015636882197632623 0 -0.0044393983118451476 -0.015824606622625918 0 -0.0045480013046376444 -0.015754075418241937 0 -0.0045600354170199494 -0.015877932637254538 0 -0.0045480013046376444 -0.015754075418241937 0 -0.0045600354170199494 -0.015877932637254538 0 -0.0046502087425518068 -0.01580834674382418 0 -0.0045600354170199494 -0.015877932637254538 0 -0.0045850360352127405 -0.015998381827078998 0 -0.0046513944617249652 -0.015922905399718714 0 -0.0045600354170199494 -0.015877932637254538 0 -0.0044653175424766598 -0.015955944332521101 0 -0.0045850360352127405 -0.015998381827078998 0 -0.0044393983118451476 -0.015824606622625918 0 -0.0045600354170199494 -0.015877932637254538 0 -0.0044653175424766598 -0.015955944332521101 0 -0.0043305888931416707 -0.015910754458614 0 -0.0044393983118451476 -0.015824606622625918 0 -0.0044653175424766598 -0.015955944332521101 0 -0.0045379855820860031 -0.016127003441028322 0 -0.0043718767315067946 -0.01608763643502252 0 -0.0044653175424766598 -0.015955944332521101 0 -0.0046277745983168131 -0.016095794767459967 0 -0.0045379855820860031 -0.016127003441028322 0 -0.0045850360352127405 -0.015998381827078998 0 -0.0045379855820860031 -0.016127003441028322 0 -0.0044653175424766598 -0.015955944332521101 0 -0.0045850360352127405 -0.015998381827078998 0 -0.004651505763675302 -0.016012291346130417 0 -0.0047051681364321503 -0.015977069376403894 0 -0.0046513944617249652 -0.015922905399718714 0 -0.0045850360352127405 -0.015998381827078998 0 -0.004651505763675302 -0.016012291346130417 0 -0.0046513944617249652 -0.015922905399718714 0 -0.0046277745983168131 -0.016095794767459967 0 -0.0045850360352127405 -0.015998381827078998 0 -0.004651505763675302 -0.016012291346130417 0 -0.0046277745983168131 -0.016095794767459967 0 -0.004651505763675302 -0.016012291346130417 0 -0.0046828644277211312 -0.016068909965716648 0 -0.004651505763675302 -0.016012291346130417 0 -0.0046828644277211312 -0.016068909965716648 0 -0.0047051681364321503 -0.015977069376403894 0 -0.0047313604871653996 -0.016029640290893203 0 -0.0047626408414595976 -0.015954057004843453 0 -0.0047051681364321503 -0.015977069376403894 0 -0.0046828644277211312 -0.016068909965716648 0 -0.0047313604871653996 -0.016029640290893203 0 -0.0047051681364321503 -0.015977069376403894 0 -0.0047313604871653996 -0.016029640290893203 0 -0.0047626408414595976 -0.015954057004843453 0 -0.0047745420368173631 -0.015996856519728441 0 -0.0047626408414595976 -0.015954057004843453 0 -0.0047051681364321503 -0.015977069376403894 0 -0.004740680584561451 -0.015863673101599515 0 -0.0047051681364321503 -0.015977069376403894 0 -0.004740680584561451 -0.015863673101599515 0 -0.0046513944617249652 -0.015922905399718714 0 -0.004740680584561451 -0.015863673101599515 0 -0.0046513944617249652 -0.015922905399718714 0 -0.0046502087425518068 -0.01580834674382418 0 -0.0045600354170199494 -0.015877932637254538 0 -0.0046513944617249652 -0.015922905399718714 0 -0.0046502087425518068 -0.01580834674382418 0 -0.0045480013046376444 -0.015754075418241937 0 -0.0046502087425518068 -0.01580834674382418 0 -0.0046485861893159159 -0.015691210362448992 0 -0.0045480013046376444 -0.015754075418241937 0 -0.0046485861893159159 -0.015691210362448992 0 -0.0045438501853166833 -0.015636882197632623 0 -0.0046485861893159159 -0.015691210362448992 0 -0.0047421123155896097 -0.015725098273273765 0 -0.0047689940149666507 -0.015584490998941544 0 -0.0046502087425518068 -0.01580834674382418 0 -0.0046485861893159159 -0.015691210362448992 0 -0.0047421123155896097 -0.015725098273273765 0 -0.004740680584561451 -0.015863673101599515 0 -0.0046502087425518068 -0.01580834674382418 0 -0.0047421123155896097 -0.015725098273273765 0 -0.004740680584561451 -0.015863673101599515 0 -0.0047421123155896097 -0.015725098273273765 0 -0.0048047842011945639 -0.015770039400457708 0 -0.0047421123155896097 -0.015725098273273765 0 -0.0048047842011945639 -0.015770039400457708 0 -0.0048171339372414411 -0.015659402724299127 0 -0.0047421123155896097 -0.015725098273273765 0 -0.0048171339372414411 -0.015659402724299127 0 -0.0047689940149666507 -0.015584490998941544 0 -0.0048171339372414411 -0.015659402724299127 0 -0.0048472271775677235 -0.015698456091867607 0 -0.0048589440704654482 -0.015632213060042692 0 -0.0048047842011945639 -0.015770039400457708 0 -0.0048171339372414411 -0.015659402724299127 0 -0.0048472271775677235 -0.015698456091867607 0 -0.0048047842011945639 -0.015770039400457708 0 -0.0048472271775677235 -0.015698456091867607 0 -0.0048524995095087578 -0.015782991770140267 0 -0.0048047842011945639 -0.015770039400457708 0 -0.0048524995095087578 -0.015782991770140267 0 -0.0048058896918562908 -0.015892746240258004 0 -0.004740680584561451 -0.015863673101599515 0 -0.0048047842011945639 -0.015770039400457708 0 -0.0048058896918562908 -0.015892746240258004 0 -0.0047626408414595976 -0.015954057004843453 0 -0.004740680584561451 -0.015863673101599515 0 -0.0048058896918562908 -0.015892746240258004 0 -0.004851287013655654 -0.01599300758335534 0 -0.0048058896918562908 -0.015892746240258004 0 -0.0047745420368173631 -0.015996856519728441 0 -0.0047626408414595976 -0.015954057004843453 0 -0.0048058896918562908 -0.015892746240258004 0 -0.0047745420368173631 -0.015996856519728441 0 -0.004851287013655654 -0.01599300758335534 0 -0.0048524995095087578 -0.015782991770140267 0 -0.0048058896918562908 -0.015892746240258004 0 -0.0037604623518016191 -0.010126587744486545 0 -0.0033679610029105074 -0.011099153950385849 0 -0.0041015123267278642 -0.010815286386283372 0 -0.0037604623518016191 -0.010126587744486545 0 -0.0030596571537474361 -0.010284532350887375 0 -0.0033679610029105074 -0.011099153950385849 0 -0.0030596571537474361 -0.010284532350887375 0 -0.0024464202229773093 -0.011082278935645706 0 -0.0020466312441008985 -0.0098408324777037853 0 -0.0025074894227651479 -0.012675810675043664 0 -0.0024464202229773093 -0.011082278935645706 0 -0.0033679610029105074 -0.011099153950385849 0 -0.0030596571537474361 -0.010284532350887375 0 -0.0024464202229773093 -0.011082278935645706 0 -0.0033679610029105074 -0.011099153950385849 0 -0.0039094017674849114 -0.01194427216034619 0 -0.0033679610029105074 -0.011099153950385849 0 -0.0041015123267278642 -0.010815286386283372 0 -0.0039094017674849114 -0.01194427216034619 0 -0.0046646044348593865 -0.010955456494316613 0 -0.0050824365500106066 -0.011430043613555508 0 -0.0039094017674849114 -0.01194427216034619 0 -0.0046646044348593865 -0.010955456494316613 0 -0.0041015123267278642 -0.010815286386283372 0 -0.0047091754724493838 -0.013589748561624759 0 -0.0046194483775105948 -0.013618095842942822 0 -0.0046517653117753551 -0.013433228431542021 0 -0.0046646044348593865 -0.010955456494316613 0 -0.0050824365500106066 -0.011430043613555508 0 -0.0052180509733068797 -0.010629519021861773 0 -0.0049587789548273505 -0.012879909047538893 0 -0.0050116312272353251 -0.01167404519573966 0 -0.0045220770975167458 -0.0152387683784 0 -0.0049587789548273505 -0.012879909047538893 0 -0.0044851340583610703 -0.013101633640052301 0 -0.004979522648381628 -0.012767577557701349 0 -0.0045256677597012495 -0.012918052503206203 0 -0.0048977194820321208 -0.012958559346425166 0 -0.0049587789548273505 -0.012879909047538893 0 -0.0052180509733068797 -0.010629519021861773 0 -0.0045722170554015574 -0.0101095621384858 0 -0.0053303878548307364 -0.0098433816509504845 0 -0.0045220770975167458 -0.0152387683784 0 -0.0045163986587820866 -0.013520504341775005 0 -0.0050116312272353251 -0.01167404519573966 0 -0.0045163986587820866 -0.013520504341775005 0 -0.0046646044348593865 -0.010955456494316613 0 -0.0052180509733068797 -0.010629519021861773 0 -0.0045722170554015574 -0.0101095621384858 0 -0.0047091754724493838 -0.013589748561624759 0 -0.0046517653117753551 -0.013433228431542021 0 -0.0046838876847504676 -0.013248293218380044 0 -0.0046646044348593865 -0.010955456494316613 0 -0.0041015123267278642 -0.010815286386283372 0 -0.0045722170554015574 -0.0101095621384858 0 -0.0037604623518016191 -0.010126587744486545 0 -0.0041015123267278642 -0.010815286386283372 0 -0.0045722170554015574 -0.0101095621384858 0 -0.0037604623518016191 -0.010126587744486545 0 -0.0045722170554015574 -0.0101095621384858 0 -0.00404283379272905 -0.0092556335519555239 0 -0.0045722170554015574 -0.0101095621384858 0 -0.00404283379272905 -0.0092556335519555239 0 -0.0047278688074034857 -0.0092516294367837298 0 -0.0045722170554015574 -0.0101095621384858 0 -0.0053303878548307364 -0.0098433816509504845 0 -0.0047278688074034857 -0.0092516294367837298 0 -0.0045163986587820866 -0.013520504341775005 0 -0.0047330229811435604 -0.011284410637011124 0 -0.0047278688074034857 -0.0092516294367837298 0 -0.0051720484029449849 -0.0085170016888973157 0 -0.0043536675259076615 -0.0086504404456280541 0 -0.0053303878548307364 -0.0098433816509504845 0 -0.0047278688074034857 -0.0092516294367837298 0 -0.0051720484029449849 -0.0085170016888973157 0 -0.00404283379272905 -0.0092556335519555239 0 -0.0043536675259076615 -0.0086504404456280541 0 -0.0032056840688997859 -0.0083680267584298074 0 -0.00404283379272905 -0.0092556335519555239 0 -0.0047278688074034857 -0.0092516294367837298 0 -0.0043536675259076615 -0.0086504404456280541 0 -0.00404283379272905 -0.0092556335519555239 0 -0.0031765029028887068 -0.0093505432166039633 0 -0.0032056840688997859 -0.0083680267584298074 0 -0.0037604623518016191 -0.010126587744486545 0 -0.0030596571537474361 -0.010284532350887375 0 -0.0031765029028887068 -0.0093505432166039633 0 -0.0037604623518016191 -0.010126587744486545 0 -0.00404283379272905 -0.0092556335519555239 0 -0.0031765029028887068 -0.0093505432166039633 0 -0.0030596571537474361 -0.010284532350887375 0 -0.0031765029028887068 -0.0093505432166039633 0 -0.0020466312441008985 -0.0098408324777037853 0 -0.0031765029028887068 -0.0093505432166039633 0 -0.0020228827996029665 -0.0087276383186678293 0 -0.0020466312441008985 -0.0098408324777037853 0 -0.0020073226984811689 -0.0086662332122323174 0 -0.0031867889196883748 -0.0083165640702501462 0 -0.0031765029028887068 -0.0093505432166039633 0 -0.0020228827996029665 -0.0087276383186678293 0 -0.0032056840688997859 -0.0083680267584298074 0 -0.0020330367380212554 -0.0085978890882210876 0 -0.00089468332069785983 -0.0089791202855059454 0 -0.0013335304181628679 -0.0080063684988717632 0 -0.0020073226984811689 -0.0086662332122323174 0 -0.00095628557412298046 -0.008974803094749708 0 -0.0020228827996029665 -0.0087276383186678293 0 -0.0020466312441008985 -0.0098408324777037853 0 -0.00089468332069785983 -0.0089791202855059454 0 -0.0020466312441008985 -0.0098408324777037853 0 -0.00089468332069785983 -0.0089791202855059454 0 -0.0011297368579418455 -0.009984313295385858 0 -3.9382953561352814e-05 -0.0091080769805445012 0 0.00044563942384494911 -0.0083648112109582576 0 -0.00024452239160742211 -0.0078485088891668935 0 -0.00089468332069785983 -0.0089791202855059454 0 -0.00024452239160742211 -0.0078485088891668935 0 -0.0013335304181628679 -0.0080063684988717632 0 -0.00089468332069785983 -0.0089791202855059454 0 -3.9382953561352814e-05 -0.0091080769805445012 0 -0.00024452239160742211 -0.0078485088891668935 0 -0.00089468332069785983 -0.0089791202855059454 0 -0.00035774434011718735 -0.010015246562577055 0 -0.0011297368579418455 -0.009984313295385858 0 -0.00089468332069785983 -0.0089791202855059454 0 -3.9382953561352814e-05 -0.0091080769805445012 0 -0.00035774434011718735 -0.010015246562577055 0 -3.9382953561352814e-05 -0.0091080769805445012 0 -0.00035774434011718735 -0.010015246562577055 0 0.0006518412140800741 -0.010296443759649396 0 -0.00035774434011718735 -0.010015246562577055 0 0.00020910149157624946 -0.010641144264956603 0 0.0006518412140800741 -0.010296443759649396 0 -0.00035774434011718735 -0.010015246562577055 0 -0.00072437095493969796 -0.010927637595593367 0 -0.0011297368579418455 -0.009984313295385858 0 -0.00072437095493969796 -0.010927637595593367 0 0.00020910149157624946 -0.010641144264956603 0 -0.00014415325720725387 -0.011301965150837654 0 -0.00035774434011718735 -0.010015246562577055 0 -0.00072437095493969796 -0.010927637595593367 0 0.00020910149157624946 -0.010641144264956603 0 -0.0024464202229773093 -0.011082278935645706 0 -0.0020466312441008985 -0.0098408324777037853 0 -0.0015887177823036302 -0.010802213063048051 0 -0.0020466312441008985 -0.0098408324777037853 0 -0.0011297368579418455 -0.009984313295385858 0 -0.0015887177823036302 -0.010802213063048051 0 -0.00072437095493969796 -0.010927637595593367 0 -0.0015887177823036302 -0.010802213063048051 0 -0.0012583680934234389 -0.01195875896530621 0 -0.00072437095493969796 -0.010927637595593367 0 -0.0011297368579418455 -0.009984313295385858 0 -0.0015887177823036302 -0.010802213063048051 0 -0.0024464202229773093 -0.011082278935645706 0 -0.0015887177823036302 -0.010802213063048051 0 -0.0019310789120095041 -0.011969737454616094 0 -0.0019310789120095041 -0.011969737454616094 0 -0.0019669214072734328 -0.013152399335743539 0 -0.0012583680934234389 -0.01195875896530621 0 -0.0025074894227651479 -0.012675810675043664 0 -0.0024464202229773093 -0.011082278935645706 0 -0.0019310789120095041 -0.011969737454616094 0 -0.0025074894227651479 -0.012675810675043664 0 -0.0019310789120095041 -0.011969737454616094 0 -0.0019669214072734328 -0.013152399335743539 0 -0.0012583680934234389 -0.01195875896530621 0 -0.00068854818746243813 -0.012080208338924488 0 -0.0011407906932362842 -0.013099297051196114 0 -0.0019669214072734328 -0.013152399335743539 0 -0.0012583680934234389 -0.01195875896530621 0 -0.0011407906932362842 -0.013099297051196114 0 -0.0015887177823036302 -0.010802213063048051 0 -0.0019310789120095041 -0.011969737454616094 0 -0.0012583680934234389 -0.01195875896530621 0 -0.00068854818746243813 -0.012080208338924488 0 -0.00014415325720725387 -0.011301965150837654 0 -0.00021250506738553485 -0.012489419199118442 0 -0.00072437095493969796 -0.010927637595593367 0 -0.0012583680934234389 -0.01195875896530621 0 -0.00068854818746243813 -0.012080208338924488 0 -0.00072437095493969796 -0.010927637595593367 0 -0.00068854818746243813 -0.012080208338924488 0 -0.00014415325720725387 -0.011301965150837654 0 0.00020910149157624946 -0.010641144264956603 0 -0.00014415325720725387 -0.011301965150837654 0 0.00033792680889609816 -0.010734561645435988 0 -0.00014415325720725387 -0.011301965150837654 0 0.0004360161486784392 -0.010486807634210525 0 0.00033792680889609816 -0.010734561645435988 0 -1.138520488583171e-05 -0.0116640699554484 0 0.0014552853411310305 -0.0072175352535493531 0 -0.00014415325720725387 -0.011301965150837654 0 -0.00021250506738553485 -0.012489419199118442 0 0.00062456733742902962 -0.011872606198181739 0 0.00020910149157624946 -0.010641144264956603 0 0.00038534004345790629 -0.010764220806270168 0 0.00033792680889609816 -0.010734561645435988 0 -0.00021250506738553485 -0.012489419199118442 0 0.00021368907955872461 -0.013089678713113532 0 0.00062456733742902962 -0.011872606198181739 0 -0.00068854818746243813 -0.012080208338924488 0 -0.00021250506738553485 -0.012489419199118442 0 -0.0011407906932362842 -0.013099297051196114 0 -0.00021250506738553485 -0.012489419199118442 0 -0.00054994183355095707 -0.013309987289585705 0 -0.0011407906932362842 -0.013099297051196114 0 -0.00054994183355095707 -0.013309987289585705 0 -0.00095233453989285535 -0.013828942400543389 0 -0.0011407906932362842 -0.013099297051196114 0 -0.00021250506738553485 -0.012489419199118442 0 -0.00054994183355095707 -0.013309987289585705 0 0.00021368907955872461 -0.013089678713113532 0 0.00049212808493273228 -0.0089861082851360272 0 0.00064690660131766194 -0.0090017028314472742 0 -0.00024490876539918507 -0.013868339558446196 0 -0.00054994183355095707 -0.013309987289585705 0 0.00021368907955872461 -0.013089678713113532 0 -0.00024490876539918507 -0.013868339558446196 0 -0.00054994183355095707 -0.013309987289585705 0 -0.00095233453989285535 -0.013828942400543389 0 -0.00095233453989285535 -0.013828942400543389 0 -0.0015464480617082481 -0.013686327385310832 0 -0.0011407906932362842 -0.013099297051196114 0 -0.0015292197506835037 -0.014183334290136622 0 -0.00095233453989285535 -0.013828942400543389 0 -0.0015464480617082481 -0.013686327385310832 0 -0.0015292197506835037 -0.014183334290136622 0 -0.0022276990307783608 -0.013889277110912446 0 -0.0015464480617082481 -0.013686327385310832 0 -0.0022276990307783608 -0.013889277110912446 0 -0.0019669214072734328 -0.013152399335743539 0 -0.0015464480617082481 -0.013686327385310832 0 -0.0019669214072734328 -0.013152399335743539 0 -0.0015464480617082481 -0.013686327385310832 0 -0.0011407906932362842 -0.013099297051196114 0 0.00090539918009625354 -0.0044477016968980185 0 0.0009218863241494188 -0.0042915740113720719 0 0.0010624325236123476 -0.0043716034686585173 0 0.00090539918009625354 -0.0044477016968980185 0 0.0010624325236123476 -0.0043716034686585173 0 0.0010769340279951087 -0.0045412706434888326 0 0.00066146103488267652 -0.0043532480736121421 0 0.00090539918009625354 -0.0044477016968980185 0 0.0009218863241494188 -0.0042915740113720719 0 0.0010616874923148134 -0.0042182335809665874 0 0.0009218863241494188 -0.0042915740113720719 0 0.0010624325236123476 -0.0043716034686585173 0 0.0011333781390797082 -0.0042800630505582769 0 0.0010616874923148134 -0.0042182335809665874 0 0.0010624325236123476 -0.0043716034686585173 0 0.0011333781390797082 -0.0042800630505582769 0 0.0010624325236123476 -0.0043716034686585173 0 0.0012351109100102761 -0.0044727227285320439 0 0.0011899988108919502 -0.0043014328340216712 0 0.0011333781390797082 -0.0042800630505582769 0 0.0012351109100102761 -0.0044727227285320439 0 0.0010624325236123476 -0.0043716034686585173 0 0.0012351109100102761 -0.0044727227285320439 0 0.0010769340279951087 -0.0045412706434888326 0 0.002751170760542748 -0.0014536920565238914 0 0.0014552853411310305 -0.0072175352535493531 0 0.0012351109100102761 -0.0044727227285320439 0 0.0010769340279951087 -0.0045412706434888326 0 0.0012353846142097607 -0.0046630689820950011 0 0.00064690660131766194 -0.0090017028314472742 0 0.0014552853411310305 -0.0072175352535493531 0 0.0049739542905599329 -0.00079350537599896884 0 0.0049432292097744777 -0.0011000838990435633 0 0.0041296589617360246 -0.00038904850208841351 0 0.0004360161486784392 -0.010486807634210525 0 0.00036111727227714809 -0.010537243976905957 0 0.00033792680889609816 -0.010734561645435988 0 0.0014552853411310305 -0.0072175352535493531 0 0.0023374195697110725 -0.007650685203389255 0 0.0023374195697110725 -0.007650685203389255 0 0.0016815265498829333 -0.0079762970707192762 0 0.0023374195697110725 -0.007650685203389255 0 0.0029506091302357314 -0.0048120949047356504 0 0.0041713367604713711 0.00047665337214357253 0 0.0049739542905599329 -0.00079350537599896884 0 0.0041296589617360246 -0.00038904850208841351 0 0.0029506091302357314 -0.0048120949047356504 0 0.0026823685722389161 -0.0047906133939028374 0 0.0041296589617360246 -0.00038904850208841351 0 0.0035839739085109751 0.00054380603070036063 0 0.0033586627670884666 5.6594892623461149e-05 0 0.0033914722524061485 0.0013371328980664766 0 0.0041713367604713711 0.00047665337214357253 0 0.0035839739085109751 0.00054380603070036063 0 0.0041713367604713711 0.00047665337214357253 0 0.0041296589617360246 -0.00038904850208841351 0 0.0035839739085109751 0.00054380603070036063 0 0.0021225315064083159 -0.0016291534509727816 0 0.002751170760542748 -0.0014536920565238914 0 0.0027266831012802864 0.0010922305427645967 0 0.0033914722524061485 0.0013371328980664766 0 0.0035839739085109751 0.00054380603070036063 0 0.0027266831012802864 0.0010922305427645967 0 0.0035839739085109751 0.00054380603070036063 0 0.0033586627670884666 5.6594892623461149e-05 0 0.0023697335253186225 -0.0090902777205900346 0 0.0020260294991813529 -0.0095848766061891379 0 0.0016964234927470216 -0.0090489038378183013 0 0.0013986570051615548 -0.0096718931982983977 0 0.0020260294991813529 -0.0095848766061891379 0 0.0016964234927470216 -0.0090489038378183013 0 0.0023697335253186225 -0.0090902777205900346 0 0.0024982254300216144 -0.0085638357661678328 0 0.0016964234927470216 -0.0090489038378183013 0 0.00088685371654847209 -0.0096879958983589823 0 0.0011852361166241048 -0.0093629861951198441 0 0.00091281783116402759 -0.0092754368657043482 0 0.00020910149157624946 -0.010641144264956603 0 0.00038534004345790629 -0.010764220806270168 0 0.0006518412140800741 -0.010296443759649396 0 0.0023374195697110725 -0.007650685203389255 0 0.00059587106594906423 -0.010315756033255631 0 0.00088685371654847209 -0.0096879958983589823 0 0.0013986570051615548 -0.0096718931982983977 0 0.0011852361166241048 -0.0093629861951198441 0 0.0013986570051615548 -0.0096718931982983977 0 0.0016964234927470216 -0.0090489038378183013 0 0.0011852361166241048 -0.0093629861951198441 0 0.0016964234927470216 -0.0090489038378183013 0 0.0011852361166241048 -0.0093629861951198441 0 0.0011504990439701055 -0.0090763766248255807 0 0.0011852361166241048 -0.0093629861951198441 0 0.0011504990439701055 -0.0090763766248255807 0 0.00091281783116402759 -0.0092754368657043482 0 0.0011504990439701055 -0.0090763766248255807 0 0.00091281783116402759 -0.0092754368657043482 0 0.00079820966615067989 -0.0089850120735999305 0 0.00059587106594906423 -0.010315756033255631 0 0.00085202689295697418 -0.0088191031656535412 0 -3.9382953561352814e-05 -0.0091080769805445012 0 0.0006518412140800741 -0.010296443759649396 0 0.00079820966615067989 -0.0089850120735999305 0 -3.9382953561352814e-05 -0.0091080769805445012 0 0.00079820966615067989 -0.0089850120735999305 0 0.00044563942384494911 -0.0083648112109582576 0 0.0011504990439701055 -0.0090763766248255807 0 0.00079820966615067989 -0.0089850120735999305 0 0.0013404688680216353 -0.0084353498370574043 0 0.0016964234927470216 -0.0090489038378183013 0 0.0011504990439701055 -0.0090763766248255807 0 0.0013404688680216353 -0.0084353498370574043 0 0.00079820966615067989 -0.0089850120735999305 0 0.0013404688680216353 -0.0084353498370574043 0 0.00044563942384494911 -0.0083648112109582576 0 0.0013404688680216353 -0.0084353498370574043 0 0.00044563942384494911 -0.0083648112109582576 0 0.00081511306605021522 -0.0077419146645338983 0 0.0024982254300216144 -0.0085638357661678328 0 0.0016964234927470216 -0.0090489038378183013 0 0.0020279578326903203 -0.0081837446096964112 0 0.0016964234927470216 -0.0090489038378183013 0 0.0013404688680216353 -0.0084353498370574043 0 0.0020279578326903203 -0.0081837446096964112 0 0.0013404688680216353 -0.0084353498370574043 0 0.0020279578326903203 -0.0081837446096964112 0 0.0018459711172675534 -0.0074540780382547564 0 0.0020279578326903203 -0.0081837446096964112 0 0.0018459711172675534 -0.0074540780382547564 0 0.0026951807769164155 -0.0074091657162167514 0 0.0018459711172675534 -0.0074540780382547564 0 0.001204939110594878 -0.0070503021953498444 0 0.0019280648682490585 -0.006525779608065628 0 0.0018459711172675534 -0.0074540780382547564 0 0.0025639185633816032 -0.0067577884331006021 0 0.0026951807769164155 -0.0074091657162167514 0 0.0018459711172675534 -0.0074540780382547564 0 0.0019280648682490585 -0.006525779608065628 0 0.0025639185633816032 -0.0067577884331006021 0 0.00081511306605021522 -0.0077419146645338983 0 0.00037816723934345852 -0.0071167930196864692 0 -0.00024452239160742211 -0.0078485088891668935 0 0.00044563942384494911 -0.0083648112109582576 0 0.00081511306605021522 -0.0077419146645338983 0 -0.00024452239160742211 -0.0078485088891668935 0 0.0013404688680216353 -0.0084353498370574043 0 0.0018459711172675534 -0.0074540780382547564 0 0.00081511306605021522 -0.0077419146645338983 0 0.0018459711172675534 -0.0074540780382547564 0 0.00081511306605021522 -0.0077419146645338983 0 0.001204939110594878 -0.0070503021953498444 0 0.00081511306605021522 -0.0077419146645338983 0 0.001204939110594878 -0.0070503021953498444 0 0.00037816723934345852 -0.0071167930196864692 0 0.001204939110594878 -0.0070503021953498444 0 0.00037816723934345852 -0.0071167930196864692 0 0.00076190259316609899 -0.006503570228159429 0 0.00076190259316609899 -0.006503570228159429 0 0.00031506952857392781 -0.005874175997598056 0 -0.00023279773286782353 -0.0067248026297093682 0 0.00037816723934345852 -0.0071167930196864692 0 0.00076190259316609899 -0.006503570228159429 0 -0.00020212346167646351 -0.006705079208997303 0 0.00071568298983742745 -0.0065240535663648362 0 -0.00021014774858687973 -0.0067107672171729058 0 0.001204939110594878 -0.0070503021953498444 0 0.00076190259316609899 -0.006503570228159429 0 0.0013384240655517831 -0.0058944390764182923 0 0.00085244571865861121 -0.0057942736849829063 0 0.0013384240655517831 -0.0058944390764182923 0 0.0011124504724202113 -0.0053767103487583762 0 0.00076190259316609899 -0.006503570228159429 0 0.00085244571865861121 -0.0057942736849829063 0 0.0013384240655517831 -0.0058944390764182923 0 0.00085244571865861121 -0.0057942736849829063 0 0.00031506952857392781 -0.005874175997598056 0 0.00067117945386051139 -0.0054348133442806059 0 0.00076190259316609899 -0.006503570228159429 0 0.00085244571865861121 -0.0057942736849829063 0 0.00031506952857392781 -0.005874175997598056 0 0.0019280648682490585 -0.006525779608065628 0 0.0025639185633816032 -0.0067577884331006021 0 0.0026309944612645888 -0.0061019000507079703 0 0.0019280648682490585 -0.006525779608065628 0 0.0020872855527922897 -0.0056907030743478084 0 0.0026309944612645888 -0.0061019000507079703 0 0.0019280648682490585 -0.006525779608065628 0 0.0013384240655517831 -0.0058944390764182923 0 0.0020872855527922897 -0.0056907030743478084 0 0.001204939110594878 -0.0070503021953498444 0 0.0019280648682490585 -0.006525779608065628 0 0.0013384240655517831 -0.0058944390764182923 0 0.0013384240655517831 -0.0058944390764182923 0 0.0020872855527922897 -0.0056907030743478084 0 0.0016684658346547913 -0.005082050407842236 0 0.0012995234508274304 -0.00583988065358702 0 0.0010474287116353485 -0.0050519359909554527 0 0.0020872855527922897 -0.0056907030743478084 0 0.0023513941938770769 -0.004840469727255217 0 0.0026177023962810821 -0.0055462237088563428 0 0.0020872855527922897 -0.0056907030743478084 0 0.0026177023962810821 -0.0055462237088563428 0 0.0026309944612645888 -0.0061019000507079703 0 0.0020872855527922897 -0.0056907030743478084 0 0.0023513941938770769 -0.004840469727255217 0 0.0016684658346547913 -0.005082050407842236 0 0.0023513941938770769 -0.004840469727255217 0 0.0015600089920099268 -0.0042328297437530561 0 0.0016684658346547913 -0.005082050407842236 0 0.0023905780652422937 -0.003867793203910543 0 0.0015600089920099268 -0.0042328297437530561 0 0.0018923362130829416 -0.0033764600017235583 0 0.0023513941938770769 -0.004840469727255217 0 0.0023905780652422937 -0.003867793203910543 0 0.0015600089920099268 -0.0042328297437530561 0 0.0015600089920099268 -0.0042328297437530561 0 0.00092590293599195705 -0.0047475528277705799 0 0.00063770730851622304 -0.0037299190381884935 0 0.0015600089920099268 -0.0042328297437530561 0 0.00063770730851622304 -0.0037299190381884935 0 0.0018923362130829416 -0.0033764600017235583 0 0.0013384240655517831 -0.0058944390764182923 0 0.0016684658346547913 -0.005082050407842236 0 0.00092590293599195705 -0.0047475528277705799 0 0.0015600089920099268 -0.0042328297437530561 0 0.0016684658346547913 -0.005082050407842236 0 0.00092590293599195705 -0.0047475528277705799 0 0.00085244571865861121 -0.0057942736849829063 0 0.00067117945386051139 -0.0054348133442806059 0 0.0011124504724202113 -0.0053767103487583762 0 0.00067117945386051139 -0.0054348133442806059 0 0.0011124504724202113 -0.0053767103487583762 0 0.00078423409102009172 -0.0050897751048022757 0 0.00031506952857392781 -0.005874175997598056 0 0.00067117945386051139 -0.0054348133442806059 0 0.00012442888200461935 -0.0053798591188545537 0 0.00066749196399066234 -0.005391672503877825 0 0.00018252399573090539 -0.0049427418361710634 0 0.00067117945386051139 -0.0054348133442806059 0 0.00039585346440922504 -0.0049038570661835285 0 0.00012442888200461935 -0.0053798591188545537 0 0.00067117945386051139 -0.0054348133442806059 0 0.00043054032112114918 -0.0048399296838504587 0 0.00078423409102009172 -0.0050897751048022757 0 0.0011124504724202113 -0.0053767103487583762 0 0.00078423409102009172 -0.0050897751048022757 0 0.00091776204861461388 -0.0047063332447077931 0 0.0010474287116353485 -0.0050519359909554527 0 0.00054711237938014448 -0.0043632998630194868 0 0.00018252399573090539 -0.0049427418361710634 0 0.00054711237938014448 -0.0043632998630194868 0 0.00043054032112114918 -0.0048399296838504587 0 0.00078423409102009172 -0.0050897751048022757 0 0.00091776204861461388 -0.0047063332447077931 0 0.00018144598665220004 -0.004356595915197754 0 0.00012391070947179522 -0.0041053855462809914 0 0.00029836750730060079 -0.004145102030660223 0 0.00024925394434073528 -0.0047179532645410952 0 7.9614459992232103e-05 -0.0045839110546329765 0 0.0001624483162383445 -0.0044264237668137493 0 0.00054711237938014448 -0.0043632998630194868 0 0.00012704219455206641 -0.0042895462074490423 0 2.9046852125776048e-05 -0.0047806224047178903 0 7.9614459992232103e-05 -0.0045839110546329765 0 -0.0001230007599324933 -0.0044102489867141655 0 -4.0515164908483354e-05 -0.0051359113935179864 0 -0.00015743820134247563 -0.0047929729258258209 0 -0.00023075906186002858 -0.0050332401318102698 0 0.00018252399573090539 -0.0049427418361710634 0 -0.00016592210440715183 -0.0045972070084334847 0 2.9046852125776048e-05 -0.0047806224047178903 0 0.00024925394434073528 -0.0047179532645410952 0 7.9614459992232103e-05 -0.0045839110546329765 0 7.9614459992232103e-05 -0.0045839110546329765 0 0.0001624483162383445 -0.0044264237668137493 0 -0.0001230007599324933 -0.0044102489867141655 0 0.0001624483162383445 -0.0044264237668137493 0 -0.0001230007599324933 -0.0044102489867141655 0 7.5809884685304254e-05 -0.0041314250040762604 0 0.00012704219455206641 -0.0042895462074490423 0 7.339070559349963e-05 -0.0040145858165509165 0 0.00012391070947179522 -0.0041053855462809914 0 0.00029836750730060079 -0.004145102030660223 0 0.00023866027355312831 -0.0039507723812965646 0 0.00029836750730060079 -0.004145102030660223 0 0.00045276888493947422 -0.0039482537230877074 0 0.00051864584334797965 -0.0042981145186518745 0 0.00029836750730060079 -0.004145102030660223 0 0.00045276888493947422 -0.0039482537230877074 0 0.00023866027355312831 -0.0039507723812965646 0 0.00045276888493947422 -0.0039482537230877074 0 0.00069323267960991436 -0.0040141487231008912 0 0.00051864584334797965 -0.0042981145186518745 0 0.00054711237938014448 -0.0043632998630194868 0 0.0011402898758028223 -0.0037930933434977814 0 0.00018144598665220004 -0.004356595915197754 0 0.00029836750730060079 -0.004145102030660223 0 0.00051864584334797965 -0.0042981145186518745 0 -0.00075292672673121189 -0.0049326308482631224 0 -0.00063897977476518237 -0.0052261714739961539 0 -0.00099486442103971636 -0.0051842080390080477 0 -0.00075292672673121189 -0.0049326308482631224 0 -0.0010675456383555481 -0.0049347969455033501 0 -0.00099486442103971636 -0.0051842080390080477 0 -0.0010675456383555481 -0.0049347969455033501 0 -0.00099486442103971636 -0.0051842080390080477 0 -0.0013060539917609411 -0.0051107279982822969 0 -0.00075292672673121189 -0.0049326308482631224 0 -0.0010675456383555481 -0.0049347969455033501 0 -0.00094251512849683654 -0.0046805271516059122 0 -0.0010675456383555481 -0.0049347969455033501 0 -0.0013195472114830569 -0.004764972509801413 0 -0.00094251512849683654 -0.0046805271516059122 0 -0.00075292672673121189 -0.0049326308482631224 0 -0.00054778366252097963 -0.0046889035915160197 0 -0.00094251512849683654 -0.0046805271516059122 0 -0.00075292672673121189 -0.0049326308482631224 0 -0.00054778366252097963 -0.0046889035915160197 0 -0.00041660695278937851 -0.0049766757106867923 0 -0.00054778366252097963 -0.0046889035915160197 0 -0.00015743820134247563 -0.0047929729258258209 0 -0.00041660695278937851 -0.0049766757106867923 0 -0.00023075906186002858 -0.0050332401318102698 0 -0.00041660695278937851 -0.0049766757106867923 0 -0.00030800686823019693 -0.0052026788652264301 0 -0.00015743820134247563 -0.0047929729258258209 0 -0.00023075906186002858 -0.0050332401318102698 0 -0.00041660695278937851 -0.0049766757106867923 0 -0.00075292672673121189 -0.0049326308482631224 0 -0.00041660695278937851 -0.0049766757106867923 0 -0.00063897977476518237 -0.0052261714739961539 0 -0.00041660695278937851 -0.0049766757106867923 0 -0.00063897977476518237 -0.0052261714739961539 0 -0.00030800686823019693 -0.0052026788652264301 0 0.00039585346440922504 -0.0049038570661835285 0 -0.00030800686823019693 -0.0052026788652264301 0 0.00012442888200461935 -0.0053798591188545537 0 0.00018252399573090539 -0.0049427418361710634 0 -0.00027650576495312382 -0.0051961659577999903 0 -4.0515164908483354e-05 -0.0051359113935179864 0 -0.00023075906186002858 -0.0050332401318102698 0 -0.00030800686823019693 -0.0052026788652264301 0 0.00031506952857392781 -0.005874175997598056 0 0.00012442888200461935 -0.0053798591188545537 0 -0.00046510867576353551 -0.0056706529543522188 0 -0.00030800686823019693 -0.0052026788652264301 0 0.00012442888200461935 -0.0053798591188545537 0 -0.00046510867576353551 -0.0056706529543522188 0 -0.00063897977476518237 -0.0052261714739961539 0 -0.00030800686823019693 -0.0052026788652264301 0 -0.00046510867576353551 -0.0056706529543522188 0 -0.00063897977476518237 -0.0052261714739961539 0 -0.00046510867576353551 -0.0056706529543522188 0 -0.00086120003760007833 -0.0055341260570054007 0 -0.0005020412205723469 -0.0056559839307426078 0 -0.0012100196364272626 -0.0054719902572985873 0 -0.00063897977476518237 -0.0052261714739961539 0 -0.00086120003760007833 -0.0055341260570054007 0 -0.00099486442103971636 -0.0051842080390080477 0 -0.00086120003760007833 -0.0055341260570054007 0 -0.00099486442103971636 -0.0051842080390080477 0 -0.0012444835671130508 -0.0054445317575964498 0 -0.0012100196364272626 -0.0054719902572985873 0 -0.001904596900238201 -0.005352804349693748 0 -0.0015572495034799122 -0.0054052590108393181 0 -0.0021084150228730678 -0.0061384235902951249 0 -0.0026582803049005703 -0.005190890643817633 0 -0.00046510867576353551 -0.0056706529543522188 0 -0.0015572495034799122 -0.0054052590108393181 0 -0.0011510420070721299 -0.0061700021962468946 0 -0.0015572495034799122 -0.0054052590108393181 0 -0.0021084150228730678 -0.0061384235902951249 0 -0.0011510420070721299 -0.0061700021962468946 0 -0.0021084150228730678 -0.0061384235902951249 0 -0.0011510420070721299 -0.0061700021962468946 0 -0.0013874138710506456 -0.0069719561735774403 0 -0.0021084150228730678 -0.0061384235902951249 0 -0.0013874138710506456 -0.0069719561735774403 0 -0.0026306688649540464 -0.0071451511554230492 0 0.00031506952857392781 -0.005874175997598056 0 -0.00046510867576353551 -0.0056706529543522188 0 -0.00023279773286782353 -0.0067248026297093682 0 -0.00046510867576353551 -0.0056706529543522188 0 -0.0011510420070721299 -0.0061700021962468946 0 -0.00023279773286782353 -0.0067248026297093682 0 -0.0011510420070721299 -0.0061700021962468946 0 -0.0013874138710506456 -0.0069719561735774403 0 -0.00023279773286782353 -0.0067248026297093682 0 -0.0014036063430024356 -0.0069362407737743091 0 -0.00021014774858687973 -0.0067107672171729058 0 0.00037816723934345852 -0.0071167930196864692 0 -0.00020212346167646351 -0.006705079208997303 0 -0.00024452239160742211 -0.0078485088891668935 0 -0.0013849720174693879 -0.0068956200041949932 0 -0.00020212346167646351 -0.006705079208997303 0 -0.00024452239160742211 -0.0078485088891668935 0 -0.0013849720174693879 -0.0068956200041949932 0 -0.00024452239160742211 -0.0078485088891668935 0 -0.0013335304181628679 -0.0080063684988717632 0 -0.0013849720174693879 -0.0068956200041949932 0 -0.0021032151401167054 -0.0077727031346879983 0 -0.0026306688649540464 -0.0071451511554230492 0 -0.0014036063430024356 -0.0069362407737743091 0 -0.0025642481615110657 -0.0071281098518023089 0 -0.0013849720174693879 -0.0068956200041949932 0 -0.0013335304181628679 -0.0080063684988717632 0 -0.0021032151401167054 -0.0077727031346879983 0 -0.0020330367380212554 -0.0085978890882210876 0 -0.0013335304181628679 -0.0080063684988717632 0 -0.0021032151401167054 -0.0077727031346879983 0 -0.0021032151401167054 -0.0077727031346879983 0 -0.0026306688649540464 -0.0071451511554230492 0 -0.0031270256162272544 -0.0082787507737259736 0 -0.0020330367380212554 -0.0085978890882210876 0 -0.0021032151401167054 -0.0077727031346879983 0 -0.0031270256162272544 -0.0082787507737259736 0 -0.0026306688649540464 -0.0071451511554230492 0 -0.0035177497890094018 -0.0075047700252411295 0 -0.0031270256162272544 -0.0082787507737259736 0 -0.0026306688649540464 -0.0071451511554230492 0 -0.0035177497890094018 -0.0075047700252411295 0 -0.003832728568929542 -0.0066242459449841395 0 -0.0031867889196883748 -0.0083165640702501462 0 -0.0042465795448085901 -0.0079802564272866573 0 -0.0035177497890094018 -0.0075047700252411295 0 -0.0031270256162272544 -0.0082787507737259736 0 -0.0043077758118215395 -0.0079692288624506544 0 -0.0043536675259076615 -0.0086504404456280541 0 -0.0032056840688997859 -0.0083680267584298074 0 -0.0043077758118215395 -0.0079692288624506544 0 -0.0051720484029449849 -0.0085170016888973157 0 -0.0043077758118215395 -0.0079692288624506544 0 -0.0050077043621019795 -0.0072660582674977242 0 -0.0051720484029449849 -0.0085170016888973157 0 -0.0043536675259076615 -0.0086504404456280541 0 -0.0043077758118215395 -0.0079692288624506544 0 -0.0047330229811435604 -0.011284410637011124 0 -0.0045530909804887111 -0.011211877996550884 0 -0.004238685813326282 -0.014729038198069425 0 -0.0041529576693959394 -0.01507613902649794 0 -0.0041119879226006375 -0.014764357583699143 0 -0.0043077758118215395 -0.0079692288624506544 0 -0.0050077043621019795 -0.0072660582674977242 0 -0.0043144200614809759 -0.0071338231152145177 0 -0.0035177497890094018 -0.0075047700252411295 0 -0.0043077758118215395 -0.0079692288624506544 0 -0.0043144200614809759 -0.0071338231152145177 0 -0.0035177497890094018 -0.0075047700252411295 0 -0.0043144200614809759 -0.0071338231152145177 0 -0.003832728568929542 -0.0066242459449841395 0 -0.0043144200614809759 -0.0071338231152145177 0 -0.003832728568929542 -0.0066242459449841395 0 -0.0048729649107932494 -0.0060909995170153391 0 -0.0050077043621019795 -0.0072660582674977242 0 -0.0043144200614809759 -0.0071338231152145177 0 -0.0048729649107932494 -0.0060909995170153391 0 -0.0045530909804887111 -0.011211877996550884 0 -0.004555885220791602 -0.010489747487697293 0 -0.003832728568929542 -0.0066242459449841395 0 -0.0048729649107932494 -0.0060909995170153391 0 -0.0042979770713834752 -0.0055493134287161808 0 -0.003832728568929542 -0.0066242459449841395 0 -0.003252375072720348 -0.0059431144260571316 0 -0.0042979770713834752 -0.0055493134287161808 0 -0.0021084150228730678 -0.0061384235902951249 0 -0.003252375072720348 -0.0059431144260571316 0 -0.0026582803049005703 -0.005190890643817633 0 -0.0021084150228730678 -0.0061384235902951249 0 -0.0026306688649540464 -0.0071451511554230492 0 -0.003252375072720348 -0.0059431144260571316 0 -0.0026306688649540464 -0.0071451511554230492 0 -0.003832728568929542 -0.0066242459449841395 0 -0.003252375072720348 -0.0059431144260571316 0 -0.0049529800952440957 -0.01548845321872672 0 -0.0047689940149666507 -0.015584490998941544 0 -0.0046762916804076685 -0.015433961391409495 0 -0.0049529800952440957 -0.01548845321872672 0 -0.0046762916804076685 -0.015433961391409495 0 -0.004740007974087127 -0.015212383214002321 0 -0.0049529800952440957 -0.01548845321872672 0 -0.0047689940149666507 -0.015584490998941544 0 -0.0048749877389790948 -0.015582409409344493 0 -0.0048171339372414411 -0.015659402724299127 0 -0.0048749877389790948 -0.015582409409344493 0 -0.0048589440704654482 -0.015632213060042692 0 -0.0048171339372414411 -0.015659402724299127 0 -0.0047689940149666507 -0.015584490998941544 0 -0.0048749877389790948 -0.015582409409344493 0 -0.0047689940149666507 -0.015584490998941544 0 -0.0046405979359509675 -0.015588259141842222 0 -0.0046762916804076685 -0.015433961391409495 0 -0.0046485861893159159 -0.015691210362448992 0 -0.0047689940149666507 -0.015584490998941544 0 -0.0046405979359509675 -0.015588259141842222 0 -0.0046405979359509675 -0.015588259141842222 0 -0.004548558665217561 -0.015515286569341383 0 -0.0045438501853166833 -0.015636882197632623 0 -0.0046485861893159159 -0.015691210362448992 0 -0.0046405979359509675 -0.015588259141842222 0 -0.0045438501853166833 -0.015636882197632623 0 -0.0046405979359509675 -0.015588259141842222 0 -0.0046762916804076685 -0.015433961391409495 0 -0.004548558665217561 -0.015515286569341383 0 -0.0046762916804076685 -0.015433961391409495 0 -0.0045537865530245851 -0.015217557724367062 0 -0.004740007974087127 -0.015212383214002321 0 -0.0046762916804076685 -0.015433961391409495 0 -0.0044255678018136372 -0.015344696821000014 0 -0.004548558665217561 -0.015515286569341383 0 -0.0046762916804076685 -0.015433961391409495 0 -0.0045537865530245851 -0.015217557724367062 0 -0.0044255678018136372 -0.015344696821000014 0 -0.0045537865530245851 -0.015217557724367062 0 -0.0044255678018136372 -0.015344696821000014 0 -0.0043524685904477063 -0.015065369530400344 0 -0.0044255678018136372 -0.015344696821000014 0 -0.004172928788245862 -0.015114026656638739 0 -0.0043524685904477063 -0.015065369530400344 0 -0.0044255678018136372 -0.015344696821000014 0 -0.004277122547210398 -0.015397329647171649 0 -0.004172928788245862 -0.015114026656638739 0 -0.0044255678018136372 -0.015344696821000014 0 -0.004548558665217561 -0.015515286569341383 0 -0.0044348954907311834 -0.015555526217425932 0 -0.004427002170698283 -0.015688504310827345 0 -0.0045438501853166833 -0.015636882197632623 0 -0.0044348954907311834 -0.015555526217425932 0 -0.004548558665217561 -0.015515286569341383 0 -0.0045438501853166833 -0.015636882197632623 0 -0.0044348954907311834 -0.015555526217425932 0 -0.0044348954907311834 -0.015555526217425932 0 -0.0043245770108646334 -0.015494121489116828 0 -0.0043266332911430384 -0.015633733094056298 0 -0.004427002170698283 -0.015688504310827345 0 -0.0044348954907311834 -0.015555526217425932 0 -0.0043266332911430384 -0.015633733094056298 0 -0.0044255678018136372 -0.015344696821000014 0 -0.004277122547210398 -0.015397329647171649 0 -0.0043245770108646334 -0.015494121489116828 0 -0.0044255678018136372 -0.015344696821000014 0 -0.0044348954907311834 -0.015555526217425932 0 -0.0043245770108646334 -0.015494121489116828 0 -0.004277122547210398 -0.015397329647171649 0 -0.0041879649957191501 -0.015641788517340736 0 -0.004172928788245862 -0.015114026656638739 0 -0.004277122547210398 -0.015397329647171649 0 -0.0043245770108646334 -0.015494121489116828 0 -0.0041879649957191501 -0.015641788517340736 0 -0.0040707239026039387 -0.015564263851278759 0 -0.0042091728755434951 -0.014944130499350948 0 -0.0043245770108646334 -0.015494121489116828 0 -0.0043266332911430384 -0.015633733094056298 0 -0.0041879649957191501 -0.015641788517340736 0 -0.0041529576693959394 -0.01507613902649794 0 -0.0041119879226006375 -0.014764357583699143 0 -0.004172928788245862 -0.015114026656638739 0 -0.0041529576693959394 -0.01507613902649794 0 -0.0039175163081262721 -0.014703632913226803 0 -0.0041588164150298968 -0.014923257925892325 0 -0.0041529576693959394 -0.01507613902649794 0 -0.004172928788245862 -0.015114026656638739 0 -0.0041588164150298968 -0.014923257925892325 0 -0.004172928788245862 -0.015114026656638739 0 -0.0041588164150298968 -0.014923257925892325 0 -0.0043524685904477063 -0.015065369530400344 0 -0.0039175163081262721 -0.014703632913226803 0 -0.0042345455871559213 -0.014659976655883688 0 -0.0040786717096401963 -0.014409661250234136 0 -0.0039175163081262721 -0.014703632913226803 0 -0.0041588164150298968 -0.014923257925892325 0 -0.0042345455871559213 -0.014659976655883688 0 -0.0041588164150298968 -0.014923257925892325 0 -0.0042345455871559213 -0.014659976655883688 0 -0.00434945984054976 -0.014853658972983975 0 -0.0042345455871559213 -0.014659976655883688 0 -0.00434945984054976 -0.014853658972983975 0 -0.0045220011795988405 -0.014690334958968508 0 -0.00434945984054976 -0.014853658972983975 0 -0.0045220011795988405 -0.014690334958968508 0 -0.0045205588719719201 -0.014998608215154153 0 -0.00434945984054976 -0.014853658972983975 0 -0.0045205588719719201 -0.014998608215154153 0 -0.0043524685904477063 -0.015065369530400344 0 -0.0041588164150298968 -0.014923257925892325 0 -0.00434945984054976 -0.014853658972983975 0 -0.0043524685904477063 -0.015065369530400344 0 -0.0045537865530245851 -0.015217557724367062 0 -0.0045205588719719201 -0.014998608215154153 0 -0.0043524685904477063 -0.015065369530400344 0 -0.0045537865530245851 -0.015217557724367062 0 -0.0045205588719719201 -0.014998608215154153 0 -0.004740007974087127 -0.015212383214002321 0 -0.004740007974087127 -0.015212383214002321 0 -0.0046992185341972279 -0.014900444540066509 0 -0.0049595073492843551 -0.014912610634180156 0 -0.0045205588719719201 -0.014998608215154153 0 -0.004740007974087127 -0.015212383214002321 0 -0.0046992185341972279 -0.014900444540066509 0 -0.0045220011795988405 -0.014690334958968508 0 -0.0046992185341972279 -0.014900444540066509 0 -0.0049329023469748337 -0.014542970899527349 0 -0.0045220011795988405 -0.014690334958968508 0 -0.0045205588719719201 -0.014998608215154153 0 -0.0046992185341972279 -0.014900444540066509 0 -0.0046992185341972279 -0.014900444540066509 0 -0.0050050437311583281 -0.014869470662004017 0 -0.0049329023469748337 -0.014542970899527349 0 -0.0047855867841332727 -0.014949933996121659 0 -0.004865892380943794 -0.015280175881064647 0 -0.0046312259087457281 -0.015207761318537951 0 -0.0046444982214063155 -0.015262981158532656 0 -0.0045651598794967914 -0.015251952454651507 0 -0.0049598949931331897 -0.013863773580327674 0 -0.0039187068143637449 -0.015977731053658174 0 -0.004865892380943794 -0.015280175881064647 0 -0.0049598949931331897 -0.013863773580327674 0 -0.004999430310249766 -0.015513796046075631 0 -0.004865892380943794 -0.015280175881064647 0 -0.0049529800952440957 -0.01548845321872672 0 -0.004740007974087127 -0.015212383214002321 0 -0.0049595073492843551 -0.014912610634180156 0 -0.0049529800952440957 -0.01548845321872672 0 -0.0050757645029746957 -0.015833527547770572 0 -0.0048552214439214706 -0.015878537368133824 0 -0.0034147763348226076 -0.016112384144424945 0 -0.0030464402554726149 -0.016216699281840267 0 -0.0033523094288734233 -0.015790000177414335 0 -0.0034147763348226076 -0.016112384144424945 0 -0.0033735111377767883 -0.016339401592466305 0 -0.0030464402554726149 -0.016216699281840267 0 -0.0033735111377767883 -0.016339401592466305 0 -0.0032266930286598901 -0.016542445939267 0 -0.0035702691797855441 -0.016607295808625491 0 -0.0033735111377767883 -0.016339401592466305 0 -0.0032266930286598901 -0.016542445939267 0 -0.0030464402554726149 -0.016216699281840267 0 -0.0049598949931331897 -0.013863773580327674 0 -0.0042073468806207073 -0.012247320115926066 0 -0.0049598949931331897 -0.013863773580327674 0 -0.0041030355712873487 -0.012074214668767886 0 -0.0058621593720822032 -0.010246740187145465 0 -0.0045677942884256896 -0.0089588880545286541 0 -0.0055204213230440795 -0.0087162975663160544 0 -0.0058621593720822032 -0.010246740187145465 0 -0.0045677942884256896 -0.0089588880545286541 0 -0.0037605373982258776 -0.0095301641573508813 0 -0.0045220011795988405 -0.014690334958968508 0 -0.0049329023469748337 -0.014542970899527349 0 -0.0043963784121052703 -0.014342635238321477 0 -0.0045677942884256896 -0.0089588880545286541 0 -0.0055204213230440795 -0.0087162975663160544 0 -0.0042678273288979402 -0.0080238781258831215 0 -0.0045677942884256896 -0.0089588880545286541 0 -0.0032575947835085223 -0.0086430269194836002 0 -0.0042678273288979402 -0.0080238781258831215 0 -0.0032575947835085223 -0.0086430269194836002 0 -0.0031001456073000803 -0.0078516809698828526 0 -0.0042678273288979402 -0.0080238781258831215 0 -0.0045677942884256896 -0.0089588880545286541 0 -0.0032575947835085223 -0.0086430269194836002 0 -0.0037605373982258776 -0.0095301641573508813 0 -0.0042345455871559213 -0.014659976655883688 0 -0.0045220011795988405 -0.014690334958968508 0 -0.0043963784121052703 -0.014342635238321477 0 -0.0042345455871559213 -0.014659976655883688 0 -0.0043963784121052703 -0.014342635238321477 0 -0.0040786717096401963 -0.014409661250234136 0 -0.0043963784121052703 -0.014342635238321477 0 -0.0040786717096401963 -0.014409661250234136 0 -0.003839269940385903 -0.014094851396282771 0 -0.0041030355712873487 -0.012074214668767886 0 -0.0031326210480869215 -0.0090520208177897361 0 -0.0032575947835085223 -0.0086430269194836002 0 -0.0023488293302361468 -0.0083564290931447249 0 -0.0015938875958361159 -0.0088100013087264086 0 -0.0032575947835085223 -0.0086430269194836002 0 -0.0037605373982258776 -0.0095301641573508813 0 -0.0015938875958361159 -0.0088100013087264086 0 -0.0032575947835085223 -0.0086430269194836002 0 -0.0023488293302361468 -0.0083564290931447249 0 -0.0031001456073000803 -0.0078516809698828526 0 -0.0023488293302361468 -0.0083564290931447249 0 -0.0023018722495982153 -0.0073108849049950643 0 -0.0019072834119475989 -0.0075821853561790636 0 -0.0023488293302361468 -0.0083564290931447249 0 -0.0023018722495982153 -0.0073108849049950643 0 -0.0031001456073000803 -0.0078516809698828526 0 -0.0023018722495982153 -0.0073108849049950643 0 -0.0031001456073000803 -0.0078516809698828526 0 -0.00277206524147721 -0.0071264603364028503 0 -0.00277206524147721 -0.0071264603364028503 0 -0.0032164565233881387 -0.0067839747161411368 0 -0.0023343337056595356 -0.0064817502467234165 0 -0.0031001456073000803 -0.0078516809698828526 0 -0.00277206524147721 -0.0071264603364028503 0 -0.0032164565233881387 -0.0067839747161411368 0 -0.0023018722495982153 -0.0073108849049950643 0 -0.00277206524147721 -0.0071264603364028503 0 -0.0023343337056595356 -0.0064817502467234165 0 -0.0023018722495982153 -0.0073108849049950643 0 -0.0023343337056595356 -0.0064817502467234165 0 -0.0015413206359046825 -0.0061908076893980625 0 -0.0023226207840036507 -0.0064487765039656702 0 -0.0035204695601179061 -0.0058137075731827257 0 -0.0023343337056595356 -0.0064817502467234165 0 -0.0025099937298461777 -0.0058430996260184151 0 -0.0029205732176406088 -0.005886677183441217 0 -0.0032164565233881387 -0.0067839747161411368 0 -0.0023343337056595356 -0.0064817502467234165 0 -0.003709570288305718 -0.0059345809695822609 0 -0.0023343337056595356 -0.0064817502467234165 0 -0.0020830541344726782 -0.0057585845294748968 0 -0.0025099937298461777 -0.0058430996260184151 0 -0.0020830541344726782 -0.0057585845294748968 0 -0.0025099937298461777 -0.0058430996260184151 0 -0.0023572287607155802 -0.0054255620034426803 0 -0.0025099937298461777 -0.0058430996260184151 0 -0.0029205732176406088 -0.005886677183441217 0 -0.0026997064556800346 -0.0055328211034695327 0 -0.003709570288305718 -0.0059345809695822609 0 -0.0040597538250611203 -0.0065370074568999442 0 -0.0048992502082289956 -0.0054097014486703494 0 -0.0035204695601179061 -0.0058137075731827257 0 -0.0032607354310560488 -0.0071346216712696066 0 -0.0032164565233881387 -0.0067839747161411368 0 -0.003709570288305718 -0.0059345809695822609 0 -0.0040597538250611203 -0.0065370074568999442 0 -0.0029205732176406088 -0.005886677183441217 0 -0.0034157599375232478 -0.0055743914418352079 0 -0.0029768965209705533 -0.0053952122321807459 0 -0.0031001456073000803 -0.0078516809698828526 0 -0.0039887710225634081 -0.0068939578990661211 0 -0.0042678273288979402 -0.0080238781258831215 0 -0.0031001456073000803 -0.0078516809698828526 0 -0.0032164565233881387 -0.0067839747161411368 0 -0.0040597538250611203 -0.0065370074568999442 0 -0.0030906529128296905 -0.0078685547554243011 0 -0.0042648785761189119 -0.0064158787970701684 0 -0.0055204213230440795 -0.0087162975663160544 0 -0.0042678273288979402 -0.0080238781258831215 0 -0.0051406416637459641 -0.0072601480132246429 0 -0.0039887710225634081 -0.0068939578990661211 0 -0.0042678273288979402 -0.0080238781258831215 0 -0.0051406416637459641 -0.0072601480132246429 0 -0.0042073468806207073 -0.012247320115926066 0 -0.0040171907073232446 -0.011947166307625519 0 -0.0039887710225634081 -0.0068939578990661211 0 -0.0051406416637459641 -0.0072601480132246429 0 -0.004795590900500476 -0.0058744893820445324 0 -0.0026677573193970984 -0.015508730497892436 0 -0.0025948941972634702 -0.014401909894314755 0 -0.0022448260176825738 -0.014134922938398867 0 -0.0026677573193970984 -0.015508730497892436 0 -0.0025948941972634702 -0.014401909894314755 0 -0.0030442002181170539 -0.014762563989115096 0 -0.0040171907073232446 -0.011947166307625519 0 -0.0032607354310560488 -0.0071346216712696066 0 -0.0042648785761189119 -0.0064158787970701684 0 -0.0032607354310560488 -0.0071346216712696066 0 -0.0025948941972634702 -0.014401909894314755 0 -0.0031013651597300677 -0.014255181790420757 0 -0.0022448260176825738 -0.014134922938398867 0 -0.0036972096863159554 -0.014625277175318358 0 -0.0031390635452000918 -0.015241532609270773 0 -0.0033523094288734233 -0.015790000177414335 0 -0.0030442002181170539 -0.014762563989115096 0 -0.0036972096863159554 -0.014625277175318358 0 -0.0031390635452000918 -0.015241532609270773 0 -0.0034452738832293404 -0.015697767303464172 0 -0.0034177026315931956 -0.01550670469075875 0 -0.0026677573193970984 -0.015508730497892436 0 -0.0030442002181170539 -0.014762563989115096 0 -0.0031390635452000918 -0.015241532609270773 0 -0.0025948941972634702 -0.014401909894314755 0 -0.0030442002181170539 -0.014762563989115096 0 -0.0031013651597300677 -0.014255181790420757 0 -0.0030442002181170539 -0.014762563989115096 0 -0.0031013651597300677 -0.014255181790420757 0 -0.0036972096863159554 -0.014625277175318358 0 -0.0030464402554726149 -0.016216699281840267 0 -0.0026677573193970984 -0.015508730497892436 0 -0.0033523094288734233 -0.015790000177414335 0 -0.003357720353459616 -0.015620880114848466 0 -0.0033523094288734233 -0.015790000177414335 0 -0.0035164175581292229 -0.015782485244679158 0 -0.0026677573193970984 -0.015508730497892436 0 -0.0031390635452000918 -0.015241532609270773 0 -0.0033523094288734233 -0.015790000177414335 0 -0.0012444835671130508 -0.0054445317575964498 0 -0.0016027500821312901 -0.0053630153658936969 0 -0.0013060539917609411 -0.0051107279982822969 0 -0.00099486442103971636 -0.0051842080390080477 0 -0.0012444835671130508 -0.0054445317575964498 0 -0.0013060539917609411 -0.0051107279982822969 0 -0.001904596900238201 -0.005352804349693748 0 -0.0028545275224440567 -0.0049298739874583256 0 -0.003252375072720348 -0.0059431144260571316 0 -0.0026582803049005703 -0.005190890643817633 0 -0.0037396120754643763 -0.0050038554417059693 0 -0.003252375072720348 -0.0059431144260571316 0 -0.0042979770713834752 -0.0055493134287161808 0 -0.0037396120754643763 -0.0050038554417059693 0 -0.0042979770713834752 -0.0055493134287161808 0 -0.0046588889235134072 -0.0049367012026278164 0 -0.0037396120754643763 -0.0050038554417059693 0 -0.0048729649107932494 -0.0060909995170153391 0 -0.0042979770713834752 -0.0055493134287161808 0 -0.0047670019116090364 -0.0049723011754180188 0 -0.0039175163081262721 -0.014703632913226803 0 -0.0040786717096401963 -0.014409661250234136 0 -0.003839269940385903 -0.014094851396282771 0 -0.0042979770713834752 -0.0055493134287161808 0 -0.0047670019116090364 -0.0049723011754180188 0 -0.0046588889235134072 -0.0049367012026278164 0 -0.004555885220791602 -0.010489747487697293 0 -0.0031326210480869215 -0.0090520208177897361 0 -0.0046588889235134072 -0.0049367012026278164 0 -0.0047594514282663265 -0.0048340033524804848 0 -0.0037396120754643763 -0.0050038554417059693 0 -0.0023488293302361468 -0.0083564290931447249 0 -0.0015938875958361159 -0.0088100013087264086 0 -0.0015836270362775281 -0.0085350999583989878 0 -0.0031326210480869215 -0.0090520208177897361 0 -0.0032979218955967666 -0.0087632807085775994 0 -0.0047606907955536036 -0.0049752139727583808 0 -0.0046588889235134072 -0.0049367012026278164 0 -0.0047594514282663265 -0.0048340033524804848 0 -0.0031326210480869215 -0.0090520208177897361 0 -0.0026851138227089043 -0.0070993386214714465 0 -0.0018919942655153726 -0.0080161169313849243 0 -0.0026851138227089043 -0.0070993386214714465 0 -0.0023488293302361468 -0.0083564290931447249 0 -0.0014918398286120856 -0.0085118051378944067 0 -0.0019072834119475989 -0.0075821853561790636 0 -0.0026851138227089043 -0.0070993386214714465 0 -0.0028545275224440567 -0.0049298739874583256 0 -0.0019246155020075741 -0.0052944900806027508 0 -0.0016027500821312901 -0.0053630153658936969 0 -0.001736122645380804 -0.0051001013642909517 0 -0.0016027500821312901 -0.0053630153658936969 0 -0.001736122645380804 -0.0051001013642909517 0 -0.0015387204001357483 -0.0050000085725450272 0 -0.001736122645380804 -0.0051001013642909517 0 -0.0017124869933501463 -0.0049190852215418614 0 -0.0015387204001357483 -0.0050000085725450272 0 -0.0014918398286120856 -0.0085118051378944067 0 -0.0019072834119475989 -0.0075821853561790636 0 -0.0015413206359046825 -0.0061908076893980625 0 -0.0026851138227089043 -0.0070993386214714465 0 -0.0015932140589623124 -0.0055253326571300405 0 -0.0019246155020075741 -0.0052944900806027508 0 -0.001736122645380804 -0.0051001013642909517 0 -0.0018783394929070842 -0.0049267107067865554 0 -0.0023018722495982153 -0.0073108849049950643 0 -0.0019072834119475989 -0.0075821853561790636 0 -0.0015413206359046825 -0.0061908076893980625 0 -0.0023343337056595356 -0.0064817502467234165 0 -0.0020830541344726782 -0.0057585845294748968 0 -0.0015413206359046825 -0.0061908076893980625 0 -0.0017124869933501463 -0.0049190852215418614 0 -0.0015807065550591439 -0.0047939554522343965 0 -0.0015387204001357483 -0.0050000085725450272 0 -0.001736122645380804 -0.0051001013642909517 0 -0.0018783394929070842 -0.0049267107067865554 0 -0.0017124869933501463 -0.0049190852215418614 0 -0.0018783394929070842 -0.0049267107067865554 0 -0.0017124869933501463 -0.0049190852215418614 0 -0.001765044015753423 -0.0047960608689836858 0 -0.0017124869933501463 -0.0049190852215418614 0 -0.0015807065550591439 -0.0047939554522343965 0 -0.001765044015753423 -0.0047960608689836858 0 -0.0015387204001357483 -0.0050000085725450272 0 -0.0013060539917609411 -0.0051107279982822969 0 -0.0013195472114830569 -0.004764972509801413 0 -0.0015807065550591439 -0.0047939554522343965 0 -0.0015387204001357483 -0.0050000085725450272 0 -0.0013195472114830569 -0.004764972509801413 0 -0.0016027500821312901 -0.0053630153658936969 0 -0.0015387204001357483 -0.0050000085725450272 0 -0.0013060539917609411 -0.0051107279982822969 0 -0.0010675456383555481 -0.0049347969455033501 0 -0.0013060539917609411 -0.0051107279982822969 0 -0.0013195472114830569 -0.004764972509801413 0 -0.0013195472114830569 -0.004764972509801413 0 -0.001160544972206089 -0.0044428108618832082 0 -0.00094251512849683654 -0.0046805271516059122 0 -0.0013195472114830569 -0.004764972509801413 0 -0.001160544972206089 -0.0044428108618832082 0 -0.0015425684390292891 -0.0044931692642299469 0 -0.001160544972206089 -0.0044428108618832082 0 -0.0015425684390292891 -0.0044931692642299469 0 -0.0011589992907733084 -0.0040355192771254714 0 -0.0015807065550591439 -0.0047939554522343965 0 -0.0013195472114830569 -0.004764972509801413 0 -0.0015425684390292891 -0.0044931692642299469 0 -0.0015425684390292891 -0.0044931692642299469 0 -0.001765044015753423 -0.0047960608689836858 0 -0.0018843400125580303 -0.0047367558283569209 0 -0.0015807065550591439 -0.0047939554522343965 0 -0.0015425684390292891 -0.0044931692642299469 0 -0.001765044015753423 -0.0047960608689836858 0 -0.0015932140589623124 -0.0055253326571300405 0 -0.0018850128383282449 -0.0048143281726174842 0 -0.0020830541344726782 -0.0057585845294748968 0 -0.0018843400125580303 -0.0047367558283569209 0 -0.0023572287607155802 -0.0054255620034426803 0 -0.0020830541344726782 -0.0057585845294748968 0 -0.0015413206359046825 -0.0061908076893980625 0 -0.0018843400125580303 -0.0047367558283569209 0 -0.0018783394929070842 -0.0049267107067865554 0 -0.001765044015753423 -0.0047960608689836858 0 -0.0018843400125580303 -0.0047367558283569209 0 -0.0018843400125580303 -0.0047367558283569209 0 -0.0017760222758762196 -0.0042589429478901222 0 -0.0020980185067368822 -0.0043782754465357884 0 -0.0018843400125580303 -0.0047367558283569209 0 -0.0020980185067368822 -0.0043782754465357884 0 -0.0025040253489746096 -0.0046325959636484811 0 -0.0015425684390292891 -0.0044931692642299469 0 -0.0018843400125580303 -0.0047367558283569209 0 -0.0017760222758762196 -0.0042589429478901222 0 -0.0017760222758762196 -0.0042589429478901222 0 -0.0020980185067368822 -0.0043782754465357884 0 -0.002028548740334393 -0.0040704948960603171 0 -0.0020980185067368822 -0.0043782754465357884 0 -0.002028548740334393 -0.0040704948960603171 0 -0.0023955751611902886 -0.0042460071684263506 0 -0.002028548740334393 -0.0040704948960603171 0 -0.0022911361052974492 -0.0038802149065853614 0 -0.0019549055416600066 -0.0036983362158035621 0 -0.002028548740334393 -0.0040704948960603171 0 -0.0017853586512460073 -0.0039446018415739042 0 -0.0019549055416600066 -0.0036983362158035621 0 -0.0017853586512460073 -0.0039446018415739042 0 -0.0015152720730475997 -0.004002303739035349 0 -0.0016703378864809438 -0.0036979772064785793 0 -0.0017760222758762196 -0.0042589429478901222 0 -0.0017853586512460073 -0.0039446018415739042 0 -0.0015152720730475997 -0.004002303739035349 0 -0.0017760222758762196 -0.0042589429478901222 0 -0.002028548740334393 -0.0040704948960603171 0 -0.0017853586512460073 -0.0039446018415739042 0 -0.0015152720730475997 -0.004002303739035349 0 -0.00127643961248273 -0.0037015055912189986 0 -0.0016703378864809438 -0.0036979772064785793 0 -0.0015152720730475997 -0.004002303739035349 0 -0.0011589992907733084 -0.0040355192771254714 0 -0.00127643961248273 -0.0037015055912189986 0 -0.0011589992907733084 -0.0040355192771254714 0 -0.00127643961248273 -0.0037015055912189986 0 -0.00099691539497616041 -0.0036278315528486104 0 -0.0015425684390292891 -0.0044931692642299469 0 -0.0017760222758762196 -0.0042589429478901222 0 -0.0015152720730475997 -0.004002303739035349 0 -0.0015425684390292891 -0.0044931692642299469 0 -0.0015152720730475997 -0.004002303739035349 0 -0.0011589992907733084 -0.0040355192771254714 0 -0.002899960970252977 -0.0046403888729144045 0 -0.002976172159594974 -0.005033221408945146 0 -0.0026897720463861957 -0.0049566744936654483 0 -0.002899960970252977 -0.0046403888729144045 0 -0.0029975781790145782 -0.0045815240938419577 0 -0.003001852097965075 -0.0045530628468611152 0 -0.0028492616143165283 -0.004726454264228408 0 -0.0029439903288923821 -0.0045422814542586043 0 -0.002976172159594974 -0.005033221408945146 0 -0.0026897720463861957 -0.0049566744936654483 0 -0.0023859102513445543 -0.0053928852469204277 0 -0.0031856220686279015 -0.011074063552858799 0 -0.0032607354310560488 -0.0071346216712696066 0 -0.0031013651597300677 -0.014255181790420757 0 -0.0038782219760608396 -0.013365277839501939 0 -0.0022448260176825738 -0.014134922938398867 0 -0.0034452738832293404 -0.015697767303464172 0 -0.0031856220686279015 -0.011074063552858799 0 -0.0031013651597300677 -0.014255181790420757 0 -0.0036972096863159554 -0.014625277175318358 0 -0.0038782219760608396 -0.013365277839501939 0 -0.0029439903288923821 -0.0045422814542586043 0 -0.0032607354310560488 -0.0071346216712696066 0 -0.0032607354310560488 -0.0071346216712696066 0 -0.0029801273575327221 -0.0043714129286618148 0 -0.0034157599375232478 -0.0055743914418352079 0 -0.0031780141884028921 -0.0049087167680784867 0 -0.0029768965209705533 -0.0053952122321807459 0 -0.0029975781790145782 -0.0045815240938419577 0 -0.0029570766709415366 -0.0046318518724578362 0 -0.0029330506321517532 -0.0045827654820695023 0 -0.0029975781790145782 -0.0045815240938419577 0 -0.0029570766709415366 -0.0046318518724578362 0 -0.0029474760673283804 -0.004682945279795697 0 -0.0029570766709415366 -0.0046318518724578362 0 -0.0029474760673283804 -0.004682945279795697 0 -0.0029330506321517532 -0.0045827654820695023 0 -0.0029975781790145782 -0.0045815240938419577 0 -0.0029330506321517532 -0.0045827654820695023 0 -0.003001852097965075 -0.0045530628468611152 0 -0.0029330506321517532 -0.0045827654820695023 0 -0.003001852097965075 -0.0045530628468611152 0 -0.0029083217069643345 -0.0044395145512387685 0 -0.0031780141884028921 -0.0049087167680784867 0 -0.0025040253489746096 -0.0046325959636484811 0 -0.0029083217069643345 -0.0044395145512387685 0 -0.0031780141884028921 -0.0049087167680784867 0 -0.0025980818229608478 -0.0050889937118610588 0 -0.0025040253489746096 -0.0046325959636484811 0 -0.0029801273575327221 -0.0043714129286618148 0 -0.0029688942502722991 -0.0046145535088038953 0 -0.0031780141884028921 -0.0049087167680784867 0 -0.0029768965209705533 -0.0053952122321807459 0 -0.0025980818229608478 -0.0050889937118610588 0 -0.0029768965209705533 -0.0053952122321807459 0 -0.0025980818229608478 -0.0050889937118610588 0 -0.0026997064556800346 -0.0055328211034695327 0 -0.0029205732176406088 -0.005886677183441217 0 -0.0029768965209705533 -0.0053952122321807459 0 -0.0026997064556800346 -0.0055328211034695327 0 -0.0018843400125580303 -0.0047367558283569209 0 -0.0025980818229608478 -0.0050889937118610588 0 -0.0023572287607155802 -0.0054255620034426803 0 -0.0025980818229608478 -0.0050889937118610588 0 -0.0026997064556800346 -0.0055328211034695327 0 -0.0023572287607155802 -0.0054255620034426803 0 -0.0025099937298461777 -0.0058430996260184151 0 -0.0026997064556800346 -0.0055328211034695327 0 -0.0023572287607155802 -0.0054255620034426803 0 -0.0018843400125580303 -0.0047367558283569209 0 -0.0025980818229608478 -0.0050889937118610588 0 -0.0025040253489746096 -0.0046325959636484811 0 -0.0020980185067368822 -0.0043782754465357884 0 -0.0025040253489746096 -0.0046325959636484811 0 -0.0023955751611902886 -0.0042460071684263506 0 -0.002028548740334393 -0.0040704948960603171 0 -0.0023955751611902886 -0.0042460071684263506 0 -0.0022911361052974492 -0.0038802149065853614 0 -0.0023955751611902886 -0.0042460071684263506 0 -0.0022911361052974492 -0.0038802149065853614 0 -0.0026665931338261369 -0.0040804898224836312 0 -0.0026665931338261369 -0.0040804898224836312 0 -0.0029083217069643345 -0.0044395145512387685 0 -0.0029122109932194747 -0.0042274788082587323 0 -0.0026665931338261369 -0.0040804898224836312 0 -0.0029122109932194747 -0.0042274788082587323 0 -0.0029803276563036734 -0.003853011507230733 0 -0.0023955751611902886 -0.0042460071684263506 0 -0.0026665931338261369 -0.0040804898224836312 0 -0.0029083217069643345 -0.0044395145512387685 0 -0.0025040253489746096 -0.0046325959636484811 0 -0.0023955751611902886 -0.0042460071684263506 0 -0.0029083217069643345 -0.0044395145512387685 0 -0.003001852097965075 -0.0045530628468611152 0 -0.0029083217069643345 -0.0044395145512387685 0 -0.0030967028724400427 -0.004466116635672257 0 -0.0029083217069643345 -0.0044395145512387685 0 -0.0030967028724400427 -0.004466116635672257 0 -0.0029122109932194747 -0.0042274788082587323 0 -0.0030967028724400427 -0.004466116635672257 0 -0.0029122109932194747 -0.0042274788082587323 0 -0.0029803276563036734 -0.003853011507230733 0 -0.0030967028724400427 -0.004466116635672257 0 -0.0030002543465629354 -0.00508880855900709 0 -0.0035982287254154662 -0.0052039509145772149 0 -0.0031326355501724687 -0.0044535433073800085 0 -0.0032726848544778202 -0.0045629915338578778 0 -0.0028986715143153119 -0.0046895566151092388 0 -0.0030002543465629354 -0.00508880855900709 0 -0.0026202312858332713 -0.0050133142703714436 0 -0.0030967028724400427 -0.004466116635672257 0 -0.0028986715143153119 -0.0046895566151092388 0 -0.0030002543465629354 -0.00508880855900709 0 -0.0028986715143153119 -0.0046895566151092388 0 -0.0029584858658129858 -0.0045322849346327255 0 -0.002889355165622018 -0.0045020586531241552 0 -0.0030967028724400427 -0.004466116635672257 0 -0.0028986715143153119 -0.0046895566151092388 0 -0.0029584858658129858 -0.0045322849346327255 0 -0.002899960970252977 -0.0046403888729144045 0 -0.003001852097965075 -0.0045530628468611152 0 -0.0029584858658129858 -0.0045322849346327255 0 -0.003001852097965075 -0.0045530628468611152 0 -0.0030967028724400427 -0.004466116635672257 0 -0.0029584858658129858 -0.0045322849346327255 0 -0.002899960970252977 -0.0046403888729144045 0 -0.0029584858658129858 -0.0045322849346327255 0 -0.002889355165622018 -0.0045020586531241552 0 -0.0025972414756263835 -0.0059017365350877002 0 -0.0028732209814371443 -0.0066769367933208305 0 -0.0022288279294221934 -0.0067395122918517888 0 -0.0025972414756263835 -0.0059017365350877002 0 -0.0032866042938468703 -0.0060168240454078915 0 -0.0028732209814371443 -0.0066769367933208305 0 -0.0029923457155614547 -0.0049547257759190028 0 -0.0022077427009179768 -0.0065890677772221162 0 -0.0025972414756263835 -0.0059017365350877002 0 -0.0030002543465629354 -0.00508880855900709 0 -0.0032866042938468703 -0.0060168240454078915 0 -0.0025972414756263835 -0.0059017365350877002 0 -0.0030002543465629354 -0.00508880855900709 0 -0.0019396437206748295 -0.0051517863709779413 0 -0.0030002543465629354 -0.00508880855900709 0 -0.0035982287254154662 -0.0052039509145772149 0 -0.0032866042938468703 -0.0060168240454078915 0 -0.0032866042938468703 -0.0060168240454078915 0 -0.0040663390055999688 -0.0063059021690336442 0 -0.0035946634460750863 -0.0069380085171564798 0 -0.0032866042938468703 -0.0060168240454078915 0 -0.0035946634460750863 -0.0069380085171564798 0 -0.0028732209814371443 -0.0066769367933208305 0 -0.0035982287254154662 -0.0052039509145772149 0 -0.0032866042938468703 -0.0060168240454078915 0 -0.0040663390055999688 -0.0063059021690336442 0 -0.0027599487624131009 -0.0033955746342769311 0 -0.0025463182358770636 -0.0036837359178811756 0 -0.0024546471129799408 -0.0033212487084468625 0 -0.0026665931338261369 -0.0040804898224836312 0 -0.0029803276563036734 -0.003853011507230733 0 -0.0025463182358770636 -0.0036837359178811756 0 -0.0032726848544778202 -0.0045629915338578778 0 -0.0034631031047013534 -0.0047466617448898686 0 -0.0029803276563036734 -0.003853011507230733 0 -0.0027599487624131009 -0.0033955746342769311 0 -0.0025463182358770636 -0.0036837359178811756 0 -0.0022911361052974492 -0.0038802149065853614 0 -0.0026665931338261369 -0.0040804898224836312 0 -0.0025463182358770636 -0.0036837359178811756 0 -0.0022911361052974492 -0.0038802149065853614 0 -0.0025463182358770636 -0.0036837359178811756 0 -0.0022453607552143057 -0.003517961306253637 0 -0.0025463182358770636 -0.0036837359178811756 0 -0.0022453607552143057 -0.003517961306253637 0 -0.0024546471129799408 -0.0033212487084468625 0 -0.0022453607552143057 -0.003517961306253637 0 -0.0024546471129799408 -0.0033212487084468625 0 -0.0022323727270357457 -0.0030985903553647784 0 -0.0024546471129799408 -0.0033212487084468625 0 -0.0025710276209173944 -0.0029996137767908685 0 -0.0022323727270357457 -0.0030985903553647784 0 -0.0027945304966115942 -0.0058837709972159365 0 -0.0026939193279251362 -0.004754564464617232 0 -0.0027565571211718622 -0.0068263859875357328 0 -0.0029980646349819836 -0.0064745650832147119 0 -0.0031349730556230913 -0.0069092311448843754 0 -0.0027565571211718622 -0.0068263859875357328 0 -0.002662807413202167 -0.0066067284270782132 0 -0.0029980646349819836 -0.0064745650832147119 0 -0.0027565571211718622 -0.0068263859875357328 0 -0.0027887511239988267 -0.0069187374088023794 0 -0.0031349730556230913 -0.0069092311448843754 0 -0.0028678726556054623 -0.0067670376723848024 0 -0.0027945304966115942 -0.0058837709972159365 0 -0.0027565571211718622 -0.0068263859875357328 0 -0.0025760993291964775 -0.0063496604429577729 0 -0.0023359423563738681 -0.0067344555417325567 0 -0.0025760993291964775 -0.0063496604429577729 0 -0.0023359423563738681 -0.0067344555417325567 0 -0.0016552644723196125 -0.0066539902111350064 0 -0.0027945304966115942 -0.0058837709972159365 0 -0.0026642625315987651 -0.0072280112355380295 0 -0.0027565571211718622 -0.0068263859875357328 0 -0.0027887511239988267 -0.0069187374088023794 0 -0.0023286776999731124 -0.0071000390809069121 0 -0.0027565571211718622 -0.0068263859875357328 0 -0.0023359423563738681 -0.0067344555417325567 0 -0.0023286776999731124 -0.0071000390809069121 0 -0.0023359423563738681 -0.0067344555417325567 0 -0.0016552644723196125 -0.0066539902111350064 0 -0.0023286776999731124 -0.0071000390809069121 0 -0.004482520110190299 -0.0073743485292688754 0 -0.0035946634460750863 -0.0069380085171564798 0 -0.0035495555936773207 -0.0077048705486370186 0 -0.0027599487624131009 -0.0033955746342769311 0 -0.0024546471129799408 -0.0033212487084468625 0 -0.0025710276209173944 -0.0029996137767908685 0 -0.0034631031047013534 -0.0047466617448898686 0 -0.0027945304966115942 -0.0058837709972159365 0 -0.0040663390055999688 -0.0063059021690336442 0 -0.004482520110190299 -0.0073743485292688754 0 -0.0035946634460750863 -0.0069380085171564798 0 -0.0035946634460750863 -0.0069380085171564798 0 -0.0035495555936773207 -0.0077048705486370186 0 -0.0030155703908298732 -0.0072914676374278096 0 -0.0035946634460750863 -0.0069380085171564798 0 -0.0030155703908298732 -0.0072914676374278096 0 -0.0028732209814371443 -0.0066769367933208305 0 -0.0026642625315987651 -0.0072280112355380295 0 -0.0017046829779737468 -0.007329142172741861 0 -0.0016552644723196125 -0.0066539902111350064 0 -0.00062968097433573761 -0.0070021335105510422 0 -0.0015971136843661389 -0.0074736604301918318 0 -0.0035495555936773207 -0.0077048705486370186 0 -0.0026176240255396822 -0.0080255489273157957 0 -0.0030155703908298732 -0.0072914676374278096 0 -0.0026176240255396822 -0.0080255489273157957 0 -0.0023668171181800064 -0.0073357951027482647 0 -0.0030155703908298732 -0.0072914676374278096 0 -0.0026176240255396822 -0.0080255489273157957 0 -0.0023668171181800064 -0.0073357951027482647 0 -0.0020737153806023138 -0.0078381399451081211 0 -0.0023668171181800064 -0.0073357951027482647 0 -0.0030155703908298732 -0.0072914676374278096 0 -0.0028732209814371443 -0.0066769367933208305 0 -0.0023668171181800064 -0.0073357951027482647 0 -0.0028732209814371443 -0.0066769367933208305 0 -0.0022288279294221934 -0.0067395122918517888 0 -0.0014444781352377831 -0.0032732845631710853 0 -0.0014380590530625994 -0.0035301381461369848 0 -0.0017735104797844228 -0.0034012867260990146 0 -0.00090854723718019454 -0.0028402361273720772 0 -0.00093152088340374341 -0.0028446707526262609 0 -0.00094644406666758839 -0.002921894188647163 0 -0.0010496183375453324 -0.0029501762561142497 0 -0.0010064685069559878 -0.0031569180610013701 0 -0.0014444781352377831 -0.0032732845631710853 0 -0.0014380590530625994 -0.0035301381461369848 0 -0.0010418090475413702 -0.0033703369233139663 0 -0.00127643961248273 -0.0037015055912189986 0 -0.0014380590530625994 -0.0035301381461369848 0 -0.0010418090475413702 -0.0033703369233139663 0 -0.0014380590530625994 -0.0035301381461369848 0 -0.0016703378864809438 -0.0036979772064785793 0 -0.0017735104797844228 -0.0034012867260990146 0 -0.00127643961248273 -0.0037015055912189986 0 -0.0014380590530625994 -0.0035301381461369848 0 -0.0016703378864809438 -0.0036979772064785793 0 -0.0017853586512460073 -0.0039446018415739042 0 -0.0016703378864809438 -0.0036979772064785793 0 -0.0019549055416600066 -0.0036983362158035621 0 -0.0016703378864809438 -0.0036979772064785793 0 -0.0019549055416600066 -0.0036983362158035621 0 -0.001786069508851828 -0.0034725941472411909 0 -0.0016719348949255997 -0.0037052228970415558 0 -0.0018312543096205419 -0.0033283003142230176 0 -0.0022911361052974492 -0.0038802149065853614 0 -0.0022453607552143057 -0.003517961306253637 0 -0.0019549055416600066 -0.0036983362158035621 0 -0.0022453607552143057 -0.003517961306253637 0 -0.0020059644368638843 -0.003401383803460984 0 -0.0022323727270357457 -0.0030985903553647784 0 -0.0022453607552143057 -0.003517961306253637 0 -0.0019549055416600066 -0.0036983362158035621 0 -0.0020059644368638843 -0.003401383803460984 0 -0.0019549055416600066 -0.0036983362158035621 0 -0.0020059644368638843 -0.003401383803460984 0 -0.001786069508851828 -0.0034725941472411909 0 -0.0014444781352377831 -0.0032732845631710853 0 -0.0017735104797844228 -0.0034012867260990146 0 -0.0018735474300682468 -0.0031423735567587051 0 -0.0018312543096205419 -0.0033283003142230176 0 -0.0020731134767127848 -0.0040694643689342053 0 -0.0020059644368638843 -0.003401383803460984 0 -0.001786069508851828 -0.0034725941472411909 0 -0.0018959044979776252 -0.0032051371600745988 0 -0.0010496183375453324 -0.0029501762561142497 0 -0.0020731134767127848 -0.0040694643689342053 0 -0.00077047059231700077 -0.0028378831162418757 0 -0.00078974767704989915 -0.0029338977040088885 0 -0.00085608507163446141 -0.0028728303433308566 0 -0.0020731134767127848 -0.0040694643689342053 0 -0.0026939193279251362 -0.004754564464617232 0 -0.0020059644368638843 -0.003401383803460984 0 -0.0018959044979776252 -0.0032051371600745988 0 -0.0022323727270357457 -0.0030985903553647784 0 -0.0033479401449973954 -0.0063300739480003174 0 -0.0029980646349819836 -0.0064745650832147119 0 -0.0031349730556230913 -0.0069092311448843754 0 -0.0020731134767127848 -0.0040694643689342053 0 -0.0018695706543289802 -0.0051273932194086554 0 -0.00077047059231700077 -0.0028378831162418757 0 -0.00078974767704989915 -0.0029338977040088885 0 -0.00066295890264491395 -0.0029996897521762781 0 -0.0008652134891833686 -0.0029353504503461529 0 -0.00085608507163446141 -0.0028728303433308566 0 -0.00093152088340374341 -0.0028446707526262609 0 -0.00078974767704989915 -0.0029338977040088885 0 -0.0008652134891833686 -0.0029353504503461529 0 -0.00083282165609613811 -0.003049167764638407 0 -0.00078974767704989915 -0.0029338977040088885 0 -0.0008652134891833686 -0.0029353504503461529 0 -0.00085608507163446141 -0.0028728303433308566 0 -0.00090854723718019454 -0.0028402361273720772 0 -0.00085608507163446141 -0.0028728303433308566 0 -0.00093152088340374341 -0.0028446707526262609 0 -0.00090854723718019454 -0.0028402361273720772 0 -0.00077047059231700077 -0.0028378831162418757 0 -0.00085608507163446141 -0.0028728303433308566 0 -0.00093152088340374341 -0.0028446707526262609 0 -0.00096934182112410239 -0.0029044912148844379 0 -0.0009250608142302929 -0.0029634371844202479 0 -0.0008652134891833686 -0.0029353504503461529 0 -0.00093152088340374341 -0.0028446707526262609 0 -0.0009250608142302929 -0.0029634371844202479 0 -0.00093152088340374341 -0.0028446707526262609 0 -0.00096934182112410239 -0.0029044912148844379 0 -0.00088011437730940495 -0.0027464547944989304 0 -0.00097645527948393425 -0.0026761787423537301 0 -0.00089587741388072169 -0.0027466078046538981 0 -0.0010301862301788308 -0.0023934851396633637 0 -0.0006940522693455281 -0.0024548344244423293 0 -0.00088011437730940495 -0.0027464547944989304 0 -0.0006940522693455281 -0.0024548344244423293 0 -0.00067600522672403671 -0.002801598179179873 0 -0.00088011437730940495 -0.0027464547944989304 0 -0.00067600522672403671 -0.002801598179179873 0 -0.00088011437730940495 -0.0027464547944989304 0 -0.00094644406666758839 -0.002921894188647163 0 -0.00093152088340374341 -0.0028446707526262609 0 -0.00088011437730940495 -0.0027464547944989304 0 -0.00094644406666758839 -0.002921894188647163 0 -0.00067600522672403671 -0.002801598179179873 0 -0.00094644406666758839 -0.002921894188647163 0 -0.00070602570636524992 -0.003110302400823846 0 -0.0010064685069559878 -0.0031569180610013701 0 -0.0006641960017925863 -0.0032560520627371329 0 -0.00066716860900267803 -0.0033964614334030434 0 -0.00099691539497616041 -0.0036278315528486104 0 -0.00081316241008343388 -0.0037845593277276383 0 -0.00127643961248273 -0.0037015055912189986 0 -0.0010418090475413702 -0.0033703369233139663 0 -0.00099691539497616041 -0.0036278315528486104 0 -0.0010418090475413702 -0.0033703369233139663 0 -0.00066716860900267803 -0.0033964614334030434 0 -0.00099691539497616041 -0.0036278315528486104 0 -0.00030099132546546449 -0.0033589014900979775 0 -0.00036788504618979361 -0.0029015929696208516 0 -6.697025091102109e-05 -0.0030518858700817244 0 -0.00070602570636524992 -0.003110302400823846 0 -0.00030099132546546449 -0.0033589014900979775 0 -0.00036788504618979361 -0.0029015929696208516 0 -0.0006641960017925863 -0.0032560520627371329 0 -0.00031484135172066936 -0.003359881196774943 0 -0.00067600522672403671 -0.002801598179179873 0 -0.00070602570636524992 -0.003110302400823846 0 -0.00036788504618979361 -0.0029015929696208516 0 -0.00036788504618979361 -0.0029015929696208516 0 -0.00024126849511539106 -0.0026490511762326308 0 -7.5344795692552295e-05 -0.0027833567811125525 0 -0.00036788504618979361 -0.0029015929696208516 0 -0.00024126849511539106 -0.0026490511762326308 0 -0.00045593206847378278 -0.0025907136514025202 0 -0.00024126849511539106 -0.0026490511762326308 0 -0.00027093876645570492 -0.0024529554232759912 0 -6.9282558470943153e-06 -0.0024948037790730117 0 -0.00024126849511539106 -0.0026490511762326308 0 -0.00045593206847378278 -0.0025907136514025202 0 -0.00027093876645570492 -0.0024529554232759912 0 -0.00067600522672403671 -0.002801598179179873 0 -0.00036788504618979361 -0.0029015929696208516 0 -0.00045593206847378278 -0.0025907136514025202 0 -0.0006940522693455281 -0.0024548344244423293 0 -0.00067600522672403671 -0.002801598179179873 0 -0.00045593206847378278 -0.0025907136514025202 0 -0.0006940522693455281 -0.0024548344244423293 0 -0.00045593206847378278 -0.0025907136514025202 0 -0.000443437598737694 -0.00236319181126544 0 -0.000443437598737694 -0.00236319181126544 0 -0.00027093876645570492 -0.0024529554232759912 0 -0.00020285554133192768 -0.0022045224042956178 0 -0.00045593206847378278 -0.0025907136514025202 0 -0.000443437598737694 -0.00236319181126544 0 -0.00027093876645570492 -0.0024529554232759912 0 0.00020071699444609438 -0.002267114160493861 0 -6.9282558470943153e-06 -0.0024948037790730117 0 -0.00020285554133192768 -0.0022045224042956178 0 -0.00027093876645570492 -0.0024529554232759912 0 -6.9282558470943153e-06 -0.0024948037790730117 0 -0.00020285554133192768 -0.0022045224042956178 0 0.00020071699444609438 -0.002267114160493861 0 0.00024151582106773762 -0.0023757563142085144 0 -6.9282558470943153e-06 -0.0024948037790730117 0 0.00014699794610993619 -0.0025095198410137729 0 0.00015174722994835784 -0.0026665221931934341 0 -6.9282558470943153e-06 -0.0024948037790730117 0 0.00024151582106773762 -0.0023757563142085144 0 0.00014699794610993619 -0.0025095198410137729 0 -6.9282558470943153e-06 -0.0024948037790730117 0 0.00024151582106773762 -0.0023757563142085144 0 0.00014699794610993619 -0.0025095198410137729 0 0.0002889161942093461 -0.0025132007553513207 0 0.0002889161942093461 -0.0025132007553513207 0 0.00015174722994835784 -0.0026665221931934341 0 0.0003370313522727399 -0.002567238366994567 0 0.00015174722994835784 -0.0026665221931934341 0 0.0003370313522727399 -0.002567238366994567 0 0.00022573317684781996 -0.0027506411923548055 0 0.00014699794610993619 -0.0025095198410137729 0 0.0002889161942093461 -0.0025132007553513207 0 0.00015174722994835784 -0.0026665221931934341 0 -0.00024126849511539106 -0.0026490511762326308 0 -6.9282558470943153e-06 -0.0024948037790730117 0 -7.5344795692552295e-05 -0.0027833567811125525 0 0.00015174722994835784 -0.0026665221931934341 0 -6.9282558470943153e-06 -0.0024948037790730117 0 -7.5344795692552295e-05 -0.0027833567811125525 0 -7.8818947974450623e-05 -0.0024841973330276689 0 0.000161128600442381 -0.0025697375972734667 0 9.9214207203085679e-05 -0.0024455248144729306 0 -7.8818947974450623e-05 -0.0024841973330276689 0 0.000161128600442381 -0.0025697375972734667 0 -0.00031451893652135679 -0.0025958879368889586 0 0.000161128600442381 -0.0025697375972734667 0 0.00014206878479758886 -0.0024907223097226211 0 9.9214207203085679e-05 -0.0024455248144729306 0 0.00063175176488697706 -0.0021084609996340161 0 0.00063138370368445728 -0.0020262686037959233 0 0.00068808158618915874 -0.001970783039989469 0 0.00068808158618915874 -0.001970783039989469 0 0.00059523104296960215 -0.0019364362289642514 0 0.00075094939600810467 -0.0018646086550551748 0 0.00063138370368445728 -0.0020262686037959233 0 0.00068808158618915874 -0.001970783039989469 0 0.00059523104296960215 -0.0019364362289642514 0 0.00059523104296960215 -0.0019364362289642514 0 0.00038621668899314914 -0.001880648297865822 0 0.00046607365419935821 -0.0017886727711492669 0 0.00059523104296960215 -0.0019364362289642514 0 0.00053801879728522777 -0.0021555266827119075 0 0.00038621668899314914 -0.001880648297865822 0 0.00063138370368445728 -0.0020262686037959233 0 0.00059523104296960215 -0.0019364362289642514 0 0.00053801879728522777 -0.0021555266827119075 0 0.00063175176488697706 -0.0021084609996340161 0 0.00063138370368445728 -0.0020262686037959233 0 0.00053801879728522777 -0.0021555266827119075 0 0.000161128600442381 -0.0025697375972734667 0 0.00017987633842652033 -0.0025218073146900943 0 0.00014206878479758886 -0.0024907223097226211 0 9.0944085956876466e-05 -0.0017524157417844386 0 0.00038621668899314914 -0.001880648297865822 0 0.00025155678857418252 -0.0017227694816151838 0 0.0002889161942093461 -0.0025132007553513207 0 0.00063175176488697706 -0.0021084609996340161 0 0.00053801879728522777 -0.0021555266827119075 0 0.00017167205326111979 -0.002012720761891081 0 0.00053565263959440366 -0.0021568978019871239 0 9.0944085956876466e-05 -0.0017524157417844386 0 0.00053801879728522777 -0.0021555266827119075 0 0.00038621668899314914 -0.001880648297865822 0 0.00020071699444609438 -0.002267114160493861 0 0.00024151582106773762 -0.0023757563142085144 0 0.00053801879728522777 -0.0021555266827119075 0 0.00026387142494598513 -0.0023345317704053796 0 0.00048124166350476858 -0.0029064526259069403 0 0.0002889161942093461 -0.0025132007553513207 0 0.000161128600442381 -0.0025697375972734667 0 0.00022417378791855493 -0.0025261594645015488 0 0.00024151582106773762 -0.0023757563142085144 0 0.0002889161942093461 -0.0025132007553513207 0 0.00053801879728522777 -0.0021555266827119075 0 0.0002889161942093461 -0.0025132007553513207 0 0.00027492922220600439 -0.0025247397784947602 0 0.00022417378791855493 -0.0025261594645015488 0 0.0002889161942093461 -0.0025132007553513207 0 0.0003370313522727399 -0.002567238366994567 0 0.00027492922220600439 -0.0025247397784947602 0 0.0003370313522727399 -0.002567238366994567 0 0.00027492922220600439 -0.0025247397784947602 0 0.00023929703022466313 -0.0024633982885818827 0 0.00027492922220600439 -0.0025247397784947602 0 0.0002231379058150668 -0.0024954262678961365 0 0.00023929703022466313 -0.0024633982885818827 0 0.0002231379058150668 -0.0024954262678961365 0 0.00019241648662505489 -0.0024636200174488641 0 0.00023929703022466313 -0.0024633982885818827 0 0.0002231379058150668 -0.0024954262678961365 0 0.00022417378791855493 -0.0025261594645015488 0 0.00018595990714012693 -0.0024923936974260027 0 0.00027492922220600439 -0.0025247397784947602 0 0.0002231379058150668 -0.0024954262678961365 0 0.00022417378791855493 -0.0025261594645015488 0 0.00010636773656820546 -0.0024548938296036524 0 9.9214207203085679e-05 -0.0024455248144729306 0 -4.9907885514922343e-05 -0.0024120085888078113 0 0.000161128600442381 -0.0025697375972734667 0 0.00022417378791855493 -0.0025261594645015488 0 0.00017987633842652033 -0.0025218073146900943 0 0.00017987633842652033 -0.0025218073146900943 0 0.00010636773656820546 -0.0024548938296036524 0 0.00014206878479758886 -0.0024907223097226211 0 0.00017987633842652033 -0.0025218073146900943 0 0.00018595990714012693 -0.0024923936974260027 0 0.00010636773656820546 -0.0024548938296036524 0 0.00022417378791855493 -0.0025261594645015488 0 0.00017987633842652033 -0.0025218073146900943 0 0.00018595990714012693 -0.0024923936974260027 0 0.0002231379058150668 -0.0024954262678961365 0 0.00018595990714012693 -0.0024923936974260027 0 0.00019241648662505489 -0.0024636200174488641 0 0.00018595990714012693 -0.0024923936974260027 0 0.00019241648662505489 -0.0024636200174488641 0 0.00011188083109409618 -0.0024284428252736492 0 0.00018595990714012693 -0.0024923936974260027 0 0.00011188083109409618 -0.0024284428252736492 0 0.00010636773656820546 -0.0024548938296036524 0 0.00011188083109409618 -0.0024284428252736492 0 0.00010636773656820546 -0.0024548938296036524 0 -4.9907885514922343e-05 -0.0024120085888078113 0 0.00010636773656820546 -0.0024548938296036524 0 0.00014206878479758886 -0.0024907223097226211 0 9.9214207203085679e-05 -0.0024455248144729306 0 -7.8818947974450623e-05 -0.0024841973330276689 0 9.9214207203085679e-05 -0.0024455248144729306 0 -0.00040738827736872858 -0.0022002311185166752 0 5.9377870928957226e-05 -0.0023343890100857353 0 0.00010956687638688445 -0.0021854305697305604 0 -5.8363246026913154e-05 -0.0022067218070533959 0 5.9377870928957226e-05 -0.0023343890100857353 0 0.00016439031430479103 -0.0023774748704878429 0 0.00010956687638688445 -0.0021854305697305604 0 0.00011188083109409618 -0.0024284428252736492 0 5.9377870928957226e-05 -0.0023343890100857353 0 -4.9907885514922343e-05 -0.0024120085888078113 0 0.00011188083109409618 -0.0024284428252736492 0 5.9377870928957226e-05 -0.0023343890100857353 0 0.00016439031430479103 -0.0023774748704878429 0 0.00019241648662505489 -0.0024636200174488641 0 0.00011188083109409618 -0.0024284428252736492 0 0.00016439031430479103 -0.0023774748704878429 0 0.00016439031430479103 -0.0023774748704878429 0 0.00023282825866951514 -0.0023470664251547071 0 0.00010956687638688445 -0.0021854305697305604 0 0.0003370313522727399 -0.002567238366994567 0 0.00023282825866951514 -0.0023470664251547071 0 0.0003089667080834553 -0.0021375138251716309 0 0.0003370313522727399 -0.002567238366994567 0 0.0005838927233877306 -0.003237298066356887 0 0.00029879465865453175 -0.002925236694157311 0 0.00039565887763674985 -0.0026141480696850795 0 0.00028289298189138111 -0.0025885320443665588 0 0.0003370313522727399 -0.002567238366994567 0 0.00023282825866951514 -0.0023470664251547071 0 0.00023929703022466313 -0.0024633982885818827 0 0.00016439031430479103 -0.0023774748704878429 0 0.00023282825866951514 -0.0023470664251547071 0 0.00023929703022466313 -0.0024633982885818827 0 0.00019241648662505489 -0.0024636200174488641 0 0.00016439031430479103 -0.0023774748704878429 0 0.00023929703022466313 -0.0024633982885818827 0 0.00035813940351031972 -0.0031537186830242242 0 0.0005838927233877306 -0.003237298066356887 0 0.00029879465865453175 -0.002925236694157311 0 0.00049788265172646918 -0.0029501029328423026 0 0.00028289298189138111 -0.0025885320443665588 0 0.00035813940351031972 -0.0031537186830242242 0 0.00035579085098715046 -0.0032997721896619665 0 0.00045004031959788529 -0.0032189111395076009 0 0.00035579085098715046 -0.0032997721896619665 0 0.00045004031959788529 -0.0032189111395076009 0 0.00038717661414765264 -0.0033949359554913657 0 0.00023282825866951514 -0.0023470664251547071 0 0.0003089667080834553 -0.0021375138251716309 0 0.00010956687638688445 -0.0021854305697305604 0 0.0003089667080834553 -0.0021375138251716309 0 0.00010956687638688445 -0.0021854305697305604 0 -1.2711542580591287e-05 -0.0019679659784762006 0 0.00028289298189138111 -0.0025885320443665588 0 0.00029763820343556735 -0.0021964295025344608 0 0.00011503149756014929 -0.0020370213222308405 0 0.00022311901731803834 -0.0021493487276806299 0 0.00034316657553065428 -0.0021401135720622677 0 -0.00036788504618979361 -0.0029015929696208516 0 -6.697025091102109e-05 -0.0030518858700817244 0 -7.5344795692552295e-05 -0.0027833567811125525 0 -6.697025091102109e-05 -0.0030518858700817244 0 -7.5344795692552295e-05 -0.0027833567811125525 0 0.00013492808405323229 -0.0028549772710965288 0 0.00015174722994835784 -0.0026665221931934341 0 -7.5344795692552295e-05 -0.0027833567811125525 0 0.00013492808405323229 -0.0028549772710965288 0 0.00015174722994835784 -0.0026665221931934341 0 0.00013492808405323229 -0.0028549772710965288 0 0.00022573317684781996 -0.0027506411923548055 0 0.00013492808405323229 -0.0028549772710965288 0 0.00022573317684781996 -0.0027506411923548055 0 0.00029879465865453175 -0.002925236694157311 0 0.0003370313522727399 -0.002567238366994567 0 0.00022573317684781996 -0.0027506411923548055 0 0.00029879465865453175 -0.002925236694157311 0 -6.697025091102109e-05 -0.0030518858700817244 0 0.00013492808405323229 -0.0028549772710965288 0 0.00016471603556842172 -0.0030986631016728383 0 0.00013492808405323229 -0.0028549772710965288 0 0.00029879465865453175 -0.002925236694157311 0 0.00016471603556842172 -0.0030986631016728383 0 0.00035813940351031972 -0.0031537186830242242 0 0.00029879465865453175 -0.002925236694157311 0 0.00016471603556842172 -0.0030986631016728383 0 0.00035813940351031972 -0.0031537186830242242 0 0.00016471603556842172 -0.0030986631016728383 0 0.00023342038719536569 -0.003277963364192716 0 0.00035579085098715046 -0.0032997721896619665 0 0.00023342038719536569 -0.003277963364192716 0 0.00030847674550210538 -0.0033995893415835641 0 0.00035813940351031972 -0.0031537186830242242 0 0.00035579085098715046 -0.0032997721896619665 0 0.00023342038719536569 -0.003277963364192716 0 0.00016471603556842172 -0.0030986631016728383 0 0.00023342038719536569 -0.003277963364192716 0 3.5781420800121888e-05 -0.0033030951063275629 0 -0.00030099132546546449 -0.0033589014900979775 0 -6.697025091102109e-05 -0.0030518858700817244 0 3.5781420800121888e-05 -0.0033030951063275629 0 -6.697025091102109e-05 -0.0030518858700817244 0 0.00016471603556842172 -0.0030986631016728383 0 3.5781420800121888e-05 -0.0033030951063275629 0 -9.885807615144208e-05 -0.0035925787646682444 0 0.00017572973018971919 -0.0034657954787403349 0 0.00016046824953751859 -0.0036733445859278772 0 -0.00030099132546546449 -0.0033589014900979775 0 3.5781420800121888e-05 -0.0033030951063275629 0 -9.885807615144208e-05 -0.0035925787646682444 0 3.5781420800121888e-05 -0.0033030951063275629 0 -9.885807615144208e-05 -0.0035925787646682444 0 0.00017572973018971919 -0.0034657954787403349 0 0.00023342038719536569 -0.003277963364192716 0 3.5781420800121888e-05 -0.0033030951063275629 0 0.00017572973018971919 -0.0034657954787403349 0 0.00023342038719536569 -0.003277963364192716 0 0.00030847674550210538 -0.0033995893415835641 0 0.00017572973018971919 -0.0034657954787403349 0 0.00030847674550210538 -0.0033995893415835641 0 0.00017572973018971919 -0.0034657954787403349 0 0.00034002510857222053 -0.0035416085357438364 0 0.00017572973018971919 -0.0034657954787403349 0 0.00016046824953751859 -0.0036733445859278772 0 0.00034002510857222053 -0.0035416085357438364 0 0.00016046824953751859 -0.0036733445859278772 0 0.00034002510857222053 -0.0035416085357438364 0 0.00031385657400647234 -0.0036826608949184284 0 -9.885807615144208e-05 -0.0035925787646682444 0 0.00016046824953751859 -0.0036733445859278772 0 -1.682415044813465e-05 -0.0038172889588836733 0 0.00031421843732069865 -0.002270479382633671 0 0.00022311901731803834 -0.0021493487276806299 0 0.00034316657553065428 -0.0021401135720622677 0 0.00031421843732069865 -0.002270479382633671 0 0.00022311901731803834 -0.0021493487276806299 0 0.00014726119221234122 -0.0021952281694199048 0 0.00045004031959788529 -0.0032189111395076009 0 0.00048281713971268827 -0.0035011701556177488 0 0.00038717661414765264 -0.0033949359554913657 0 0.00011503149756014929 -0.0020370213222308405 0 0.00022311901731803834 -0.0021493487276806299 0 0.00014726119221234122 -0.0021952281694199048 0 0.00028289298189138111 -0.0025885320443665588 0 0.00031660324724072631 -0.0028588056299325691 0 0.00048281713971268827 -0.0035011701556177488 0 0.00038717661414765264 -0.0033949359554913657 0 0.00034002510857222053 -0.0035416085357438364 0 0.00035579085098715046 -0.0032997721896619665 0 0.00030847674550210538 -0.0033995893415835641 0 0.00038717661414765264 -0.0033949359554913657 0 0.00030847674550210538 -0.0033995893415835641 0 0.00038717661414765264 -0.0033949359554913657 0 0.00034002510857222053 -0.0035416085357438364 0 0.00034002510857222053 -0.0035416085357438364 0 0.00031385657400647234 -0.0036826608949184284 0 0.00041118385543309228 -0.0036322427576983168 0 0.00031385657400647234 -0.0036826608949184284 0 0.00041118385543309228 -0.0036322427576983168 0 0.00040146465666441434 -0.0037247488672883136 0 0.00048281713971268827 -0.0035011701556177488 0 0.00034002510857222053 -0.0035416085357438364 0 0.00041118385543309228 -0.0036322427576983168 0 0.00031660324724072631 -0.0028588056299325691 0 0.00042001058814320478 -0.0032566709899293721 0 0.00014726119221234122 -0.0021952281694199048 0 0.00029733143980840895 -0.0025135147604362154 0 0.000306685644655887 -0.0028112457960733661 0 0.00048281713971268827 -0.0035011701556177488 0 0.00041118385543309228 -0.0036322427576983168 0 0.00050371372521461225 -0.0036844335032436286 0 0.00031421843732069865 -0.002270479382633671 0 0.00014726119221234122 -0.0021952281694199048 0 0.00029733143980840895 -0.0025135147604362154 0 0.00029733143980840895 -0.0025135147604362154 0 0.00034319453747702204 -0.0023901809701234191 0 0.0003621121067146543 -0.0023598855960881029 0 0.00031421843732069865 -0.002270479382633671 0 0.00029733143980840895 -0.0025135147604362154 0 0.00034319453747702204 -0.0023901809701234191 0 0.00031421843732069865 -0.002270479382633671 0 0.00034319453747702204 -0.0023901809701234191 0 0.0003739022831139835 -0.0023326576757010239 0 0.000306685644655887 -0.0028112457960733661 0 0.00060795744384938781 -0.0037199575517095165 0 0.00091873519949295347 -0.0032037050312202914 0 0.00029733143980840895 -0.0025135147604362154 0 0.000306685644655887 -0.0028112457960733661 0 0.00091873519949295347 -0.0032037050312202914 0 0.00042001058814320478 -0.0032566709899293721 0 0.00058542821637626514 -0.0036891227366513163 0 0.00050371372521461225 -0.0036844335032436286 0 0.00048368480243220067 -0.0037496280007958196 0 0.00060795744384938781 -0.0037199575517095165 0 0.00031339051750765856 -0.0024946758452268638 0 0.00064973436904935879 -0.0027109371964488382 0 0.00050371372521461225 -0.0036844335032436286 0 0.00048368480243220067 -0.0037496280007958196 0 0.00040146465666441434 -0.0037247488672883136 0 0.00031385657400647234 -0.0036826608949184284 0 0.00040146465666441434 -0.0037247488672883136 0 0.00021857964018780389 -0.003803763517438379 0 0.00040146465666441434 -0.0037247488672883136 0 0.00036066176364016035 -0.0038306997011505724 0 0.00021857964018780389 -0.003803763517438379 0 0.00048368480243220067 -0.0037496280007958196 0 0.00040146465666441434 -0.0037247488672883136 0 0.00036066176364016035 -0.0038306997011505724 0 0.00041118385543309228 -0.0036322427576983168 0 0.00050371372521461225 -0.0036844335032436286 0 0.00040146465666441434 -0.0037247488672883136 0 0.00045276888493947422 -0.0039482537230877074 0 0.00048368480243220067 -0.0037496280007958196 0 0.00036066176364016035 -0.0038306997011505724 0 0.00045276888493947422 -0.0039482537230877074 0 0.00036066176364016035 -0.0038306997011505724 0 0.00023866027355312831 -0.0039507723812965646 0 0.00045276888493947422 -0.0039482537230877074 0 0.00048368480243220067 -0.0037496280007958196 0 0.00060795744384938781 -0.0037199575517095165 0 0.00045276888493947422 -0.0039482537230877074 0 0.00069323267960991436 -0.0040141487231008912 0 0.00060795744384938781 -0.0037199575517095165 0 -1.682415044813465e-05 -0.0038172889588836733 0 0.00021857964018780389 -0.003803763517438379 0 8.4158710753361103e-05 -0.0039087465477971413 0 -1.682415044813465e-05 -0.0038172889588836733 0 7.5809884685304254e-05 -0.0041314250040762604 0 -0.0002785013739524241 -0.004037850841046197 0 -3.4523206898158803e-06 -0.0038281919602779157 0 7.339070559349963e-05 -0.0040145858165509165 0 0.00016046824953751859 -0.0036733445859278772 0 0.00031385657400647234 -0.0036826608949184284 0 0.00021857964018780389 -0.003803763517438379 0 0.00016046824953751859 -0.0036733445859278772 0 -1.682415044813465e-05 -0.0038172889588836733 0 0.00021857964018780389 -0.003803763517438379 0 0.00021857964018780389 -0.003803763517438379 0 0.00023866027355312831 -0.0039507723812965646 0 8.4158710753361103e-05 -0.0039087465477971413 0 0.00036066176364016035 -0.0038306997011505724 0 0.00021857964018780389 -0.003803763517438379 0 0.00023866027355312831 -0.0039507723812965646 0 0.00012391070947179522 -0.0041053855462809914 0 0.00023866027355312831 -0.0039507723812965646 0 8.4158710753361103e-05 -0.0039087465477971413 0 -0.00016592210440715183 -0.0045972070084334847 0 -0.00028257440588512429 -0.0042027125878980314 0 -0.0001230007599324933 -0.0044102489867141655 0 7.5809884685304254e-05 -0.0041314250040762604 0 -0.0002785013739524241 -0.004037850841046197 0 -0.00054778366252097963 -0.0046889035915160197 0 -0.00015743820134247563 -0.0047929729258258209 0 -0.00028142935468725204 -0.0043781738338918817 0 -1.682415044813465e-05 -0.0038172889588836733 0 -0.0002785013739524241 -0.004037850841046197 0 -0.00045559145855576702 -0.0038195203095615598 0 -0.00028257440588512429 -0.0042027125878980314 0 -0.00044721604098021516 -0.0038313598681559025 0 -0.00028142935468725204 -0.0043781738338918817 0 -0.00080365041317260089 -0.0043288155981315675 0 -0.00045559145855576702 -0.0038195203095615598 0 -0.00054778366252097963 -0.0046889035915160197 0 -0.00028142935468725204 -0.0043781738338918817 0 -0.00080365041317260089 -0.0043288155981315675 0 -0.00054778366252097963 -0.0046889035915160197 0 -0.00094251512849683654 -0.0046805271516059122 0 -0.00080365041317260089 -0.0043288155981315675 0 -0.001160544972206089 -0.0044428108618832082 0 -0.00094251512849683654 -0.0046805271516059122 0 -0.00080365041317260089 -0.0043288155981315675 0 -0.001160544972206089 -0.0044428108618832082 0 -0.0011589992907733084 -0.0040355192771254714 0 -0.00080365041317260089 -0.0043288155981315675 0 -0.00066716860900267803 -0.0033964614334030434 0 -0.00081316241008343388 -0.0037845593277276383 0 -0.00045559145855576702 -0.0038195203095615598 0 -0.00080365041317260089 -0.0043288155981315675 0 -0.00081316241008343388 -0.0037845593277276383 0 -0.00045559145855576702 -0.0038195203095615598 0 -0.0011589992907733084 -0.0040355192771254714 0 -0.00080365041317260089 -0.0043288155981315675 0 -0.00081316241008343388 -0.0037845593277276383 0 -0.0011589992907733084 -0.0040355192771254714 0 -0.00099691539497616041 -0.0036278315528486104 0 -0.00081316241008343388 -0.0037845593277276383 0 -0.00066716860900267803 -0.0033964614334030434 0 -0.00030099132546546449 -0.0033589014900979775 0 -0.00045559145855576702 -0.0038195203095615598 0 -0.00030099132546546449 -0.0033589014900979775 0 -9.885807615144208e-05 -0.0035925787646682444 0 -0.00045559145855576702 -0.0038195203095615598 0 -9.885807615144208e-05 -0.0035925787646682444 0 -1.682415044813465e-05 -0.0038172889588836733 0 -0.00045559145855576702 -0.0038195203095615598 0 -5.5054988024787605e-06 -0.024993757948386344 0 -2.7351520816687154e-06 -0.024995789865034163 0 -6.5204313379114768e-06 -0.024994541972341668 0 -5.5054988024787605e-06 -0.024993757948386344 0 -6.5204313379114768e-06 -0.024994541972341668 0 -1.1491058694769032e-05 -0.02499226704734165 0 -6.5204313379114768e-06 -0.024994541972341668 0 -1.0218463463853393e-05 -0.024995877481836633 0 -1.1491058694769032e-05 -0.02499226704734165 0 -5.5054988024787605e-06 -0.024993757948386344 0 -1.1491058694769032e-05 -0.02499226704734165 0 -1.352437317590651e-05 -0.024987920702090737 0 -5.5054988024787605e-06 -0.024993757948386344 0 -2.1650133052549994e-09 -0.024999993851585651 0 -2.7351520816687154e-06 -0.024995789865034163 0 -2.1650133052549994e-09 -0.024999993851585651 0 -2.7351520816687154e-06 -0.024995789865034163 0 9.5879161578559143e-10 -0.024999994529033915 0 -2.7351520816687154e-06 -0.024995789865034163 0 9.5879161578559143e-10 -0.024999994529033915 0 1.957394728382133e-06 -0.024998368521703333 0 -5.834394774982905e-06 -0.024989977563210839 0 -2.6867166569728177e-05 -0.024992739903341752 0 1.957394728382133e-06 -0.024998368521703333 0 -2.7351520816687154e-06 -0.024995789865034163 0 -5.834394774982905e-06 -0.024989977563210839 0 1.957394728382133e-06 -0.024998368521703333 0 -2.7351520816687154e-06 -0.024995789865034163 0 -5.834394774982905e-06 -0.024989977563210839 0 -6.5204313379114768e-06 -0.024994541972341668 0 -2.671409052998998e-05 -0.024967677460772112 0 4.2152468259811398e-05 -0.02500212605090444 0 -5.834394774982905e-06 -0.024989977563210839 0 -6.5204313379114768e-06 -0.024994541972341668 0 -1.0218463463853393e-05 -0.024995877481836633 0 -5.834394774982905e-06 -0.024989977563210839 0 -2.6867166569728177e-05 -0.024992739903341752 0 -4.1651626266580646e-05 -0.024931109832206848 0 -0.0002571358936404446 -0.023754247091343404 0 -0.00048275521344965283 -0.023583111271936571 0 -0.00054945757189249315 -0.023227989870078597 0 -2.6867166569728177e-05 -0.024992739903341752 0 -4.1651626266580646e-05 -0.024931109832206848 0 -0.00010880188423183721 -0.024879846727103604 0 -0.00016931751854974282 -0.024309254583822448 0 -0.00026507273103779631 -0.024353454488710111 0 -0.0002571358936404446 -0.023754247091343404 0 -0.00048275521344965283 -0.023583111271936571 0 -0.00045081212259315663 -0.023810937969673034 0 -0.0005549460697762494 -0.023683995341530557 0 -0.00048275521344965283 -0.023583111271936571 0 -0.00045081212259315663 -0.023810937969673034 0 -0.0005549460697762494 -0.023683995341530557 0 -0.0006138659174182115 -0.023799697843864449 0 -0.00045081212259315663 -0.023810937969673034 0 -0.0005549460697762494 -0.023683995341530557 0 -0.00048275521344965283 -0.023583111271936571 0 -0.00057934546026435386 -0.023574545692137541 0 -0.00048275521344965283 -0.023583111271936571 0 -0.00057934546026435386 -0.023574545692137541 0 -0.00057187850704112984 -0.023446188778357351 0 -0.00087108334911726768 -0.023599386482836396 0 -0.00089607358854616422 -0.023736329245323318 0 -0.00076324521072587237 -0.023753133370528697 0 -0.00087108334911726768 -0.023599386482836396 0 -0.00076324521072587237 -0.023753133370528697 0 -0.00075099752587015774 -0.023581243269221924 0 -0.00076324521072587237 -0.023753133370528697 0 -0.00064718305998813085 -0.023650811549260436 0 -0.00075099752587015774 -0.023581243269221924 0 -0.00076324521072587237 -0.023753133370528697 0 -0.00064718305998813085 -0.023650811549260436 0 -0.0006138659174182115 -0.023799697843864449 0 -0.0005549460697762494 -0.023683995341530557 0 -0.00064718305998813085 -0.023650811549260436 0 -0.0006138659174182115 -0.023799697843864449 0 -0.0005549460697762494 -0.023683995341530557 0 -0.00064718305998813085 -0.023650811549260436 0 -0.00057934546026435386 -0.023574545692137541 0 -0.00064718305998813085 -0.023650811549260436 0 -0.00057934546026435386 -0.023574545692137541 0 -0.00066199615787727948 -0.023497162521330509 0 -0.00064225173426894983 -0.023418565810318297 0 -0.00057187850704112984 -0.023446188778357351 0 -0.00066199615787727948 -0.023497162521330509 0 -0.00057934546026435386 -0.023574545692137541 0 -0.00057187850704112984 -0.023446188778357351 0 -0.00066199615787727948 -0.023497162521330509 0 -0.00064225173426894983 -0.023418565810318297 0 -0.00066199615787727948 -0.023497162521330509 0 -0.00073534193570605564 -0.023389304221153869 0 -0.00064718305998813085 -0.023650811549260436 0 -0.00066199615787727948 -0.023497162521330509 0 -0.00075099752587015774 -0.023581243269221924 0 -0.00066199615787727948 -0.023497162521330509 0 -0.00075099752587015774 -0.023581243269221924 0 -0.00083192518125782327 -0.023449793760749023 0 -0.00066199615787727948 -0.023497162521330509 0 -0.00083192518125782327 -0.023449793760749023 0 -0.00073534193570605564 -0.023389304221153869 0 -0.00087108334911726768 -0.023599386482836396 0 -0.00075099752587015774 -0.023581243269221924 0 -0.00083192518125782327 -0.023449793760749023 0 -0.00087108334911726768 -0.023599386482836396 0 -0.00083192518125782327 -0.023449793760749023 0 -0.00099136911055051555 -0.023489307856607852 0 -2.4995313262782173e-05 -0.024989239293419979 0 -2.3486218553234953e-05 -0.024991177117605613 0 -4.7503378678886597e-05 -0.024974199106028903 0 -0.00080295456020062204 -0.023113262361719955 0 -0.00054945757189249315 -0.023227989870078597 0 -0.00095440053864960311 -0.022876968875281293 0 -0.00083192518125782327 -0.023449793760749023 0 -0.00082682900626382914 -0.023263290113829202 0 -0.00073534193570605564 -0.023389304221153869 0 -0.00083192518125782327 -0.023449793760749023 0 -0.00082682900626382914 -0.023263290113829202 0 -0.00098316720729910091 -0.023329848367832286 0 -0.00082682900626382914 -0.023263290113829202 0 -0.00073534193570605564 -0.023389304221153869 0 -0.0007201848453152475 -0.02330375955266626 0 -0.00082682900626382914 -0.023263290113829202 0 -0.0007201848453152475 -0.02330375955266626 0 -0.00070045302386648883 -0.023235051969201465 0 -0.00057187850704112984 -0.023446188778357351 0 -0.0006269959703244191 -0.023336291108570384 0 -0.00054945757189249315 -0.023227989870078597 0 -0.0007201848453152475 -0.02330375955266626 0 -0.0006269959703244191 -0.023336291108570384 0 -0.00070045302386648883 -0.023235051969201465 0 -0.00064225173426894983 -0.023418565810318297 0 -0.00073534193570605564 -0.023389304221153869 0 -0.0006269959703244191 -0.023336291108570384 0 -0.00073534193570605564 -0.023389304221153869 0 -0.0007201848453152475 -0.02330375955266626 0 -0.0006269959703244191 -0.023336291108570384 0 -0.00064225173426894983 -0.023418565810318297 0 -0.00057187850704112984 -0.023446188778357351 0 -0.0006269959703244191 -0.023336291108570384 0 -0.0006269959703244191 -0.023336291108570384 0 -0.00070045302386648883 -0.023235051969201465 0 -0.00054945757189249315 -0.023227989870078597 0 -0.00070045302386648883 -0.023235051969201465 0 -0.00080295456020062204 -0.023113262361719955 0 -0.00054945757189249315 -0.023227989870078597 0 -0.00020410808008715904 -0.024463587745605947 0 -0.00026507273103779631 -0.024353454488710111 0 -0.00082682900626382914 -0.023263290113829202 0 -0.00080295456020062204 -0.023113262361719955 0 -0.001010551131901427 -0.0231115375459243 0 -0.00082682900626382914 -0.023263290113829202 0 -0.00070045302386648883 -0.023235051969201465 0 -0.00080295456020062204 -0.023113262361719955 0 -1.0218463463853393e-05 -0.024995877481836633 0 -2.3011938957449316e-05 -0.02499102939936361 0 -1.1491058694769032e-05 -0.02499226704734165 0 -0.00048275521344965283 -0.023583111271936571 0 -0.00057187850704112984 -0.023446188778357351 0 -0.00054945757189249315 -0.023227989870078597 0 4.2152468259811398e-05 -0.02500212605090444 0 -0.00026507273103779631 -0.024353454488710111 0 -2.3011938957449316e-05 -0.02499102939936361 0 -1.8679524059296178e-05 -0.024988707223436366 0 -1.1491058694769032e-05 -0.02499226704734165 0 -2.4995313262782173e-05 -0.024989239293419979 0 -1.8679524059296178e-05 -0.024988707223436366 0 -2.4050394750150142e-05 -0.024982743006402051 0 -2.4995313262782173e-05 -0.024989239293419979 0 -2.3011938957449316e-05 -0.02499102939936361 0 -1.8679524059296178e-05 -0.024988707223436366 0 -1.8679524059296178e-05 -0.024988707223436366 0 -1.1491058694769032e-05 -0.02499226704734165 0 -1.352437317590651e-05 -0.024987920702090737 0 -1.352437317590651e-05 -0.024987920702090737 0 -2.7840970831388047e-05 -0.024975507520007611 0 -6.2529928126356871e-06 -0.024987289740020787 0 -2.6345708842504038e-05 -0.024977759252441601 0 -6.4928109931166833e-06 -0.02498520761083561 0 -1.8679524059296178e-05 -0.024988707223436366 0 -1.352437317590651e-05 -0.024987920702090737 0 -2.4050394750150142e-05 -0.024982743006402051 0 -1.352437317590651e-05 -0.024987920702090737 0 -2.4050394750150142e-05 -0.024982743006402051 0 -2.7840970831388047e-05 -0.024975507520007611 0 -2.4050394750150142e-05 -0.024982743006402051 0 -2.7840970831388047e-05 -0.024975507520007611 0 -4.7503378678886597e-05 -0.024974199106028903 0 -0.00026507273103779631 -0.024353454488710111 0 -0.00051393998862972641 -0.023954144545255886 0 -2.4995313262782173e-05 -0.024989239293419979 0 -2.4050394750150142e-05 -0.024982743006402051 0 -4.7503378678886597e-05 -0.024974199106028903 0 -2.7840970831388047e-05 -0.024975507520007611 0 -3.9691352276372444e-05 -0.024966657735437558 0 -4.7503378678886597e-05 -0.024974199106028903 0 -2.7840970831388047e-05 -0.024975507520007611 0 -3.1384321464282158e-05 -0.024962679780491388 0 -1.4585252484438664e-05 -0.024968055977303148 0 -2.7840970831388047e-05 -0.024975507520007611 0 -3.9691352276372444e-05 -0.024966657735437558 0 -3.1384321464282158e-05 -0.024962679780491388 0 -3.1384321464282158e-05 -0.024962679780491388 0 -1.4585252484438664e-05 -0.024968055977303148 0 -2.540668607446105e-05 -0.024956954885349623 0 -3.1384321464282158e-05 -0.024962679780491388 0 -3.8158018893966459e-05 -0.024957067845323384 0 -2.540668607446105e-05 -0.024956954885349623 0 -3.9691352276372444e-05 -0.024966657735437558 0 -3.1384321464282158e-05 -0.024962679780491388 0 -3.8158018893966459e-05 -0.024957067845323384 0 -2.7840970831388047e-05 -0.024975507520007611 0 -1.4585252484438664e-05 -0.024968055977303148 0 -5.4016295833202872e-06 -0.024983115943509132 0 -1.4585252484438664e-05 -0.024968055977303148 0 -5.4016295833202872e-06 -0.024983115943509132 0 -2.3917726961952599e-06 -0.0249808692749421 0 -5.5054988024787605e-06 -0.024993757948386344 0 -2.1650133052549994e-09 -0.024999993851585651 0 -6.2529928126356871e-06 -0.024987289740020787 0 -5.5054988024787605e-06 -0.024993757948386344 0 -1.352437317590651e-05 -0.024987920702090737 0 -6.2529928126356871e-06 -0.024987289740020787 0 -2.1650133052549994e-09 -0.024999993851585651 0 -6.2529928126356871e-06 -0.024987289740020787 0 -2.7150258622579533e-09 -0.024999982934159282 0 -6.4928109931166833e-06 -0.02498520761083561 0 2.8816027772540109e-10 -0.024999993899659047 0 -5.4016295833202872e-06 -0.024983115943509132 0 3.3096291552723194e-09 -0.024999979771027497 0 -2.3917726961952599e-06 -0.0249808692749421 0 -1.0637345302185565e-09 -0.02499998358921611 0 -2.3917726961952599e-06 -0.0249808692749421 0 -4.3619539370048713e-06 -0.024981378380965247 0 3.3096291552723194e-09 -0.024999979771027497 0 -1.0637345302185565e-09 -0.02499998358921611 0 -2.3917726961952599e-06 -0.0249808692749421 0 -2.3917726961952599e-06 -0.0249808692749421 0 -4.3619539370048713e-06 -0.024981378380965247 0 -3.1043712532630424e-06 -0.024946118297396076 0 -4.3619539370048713e-06 -0.024981378380965247 0 -9.5867278402397563e-06 -0.024978809423968226 0 -3.1043712532630424e-06 -0.024946118297396076 0 -4.3619539370048713e-06 -0.024981378380965247 0 -6.3573336867808878e-09 -0.024999960726001632 0 -9.5867278402397563e-06 -0.024978809423968226 0 -1.0637345302185565e-09 -0.02499998358921611 0 -4.3619539370048713e-06 -0.024981378380965247 0 -6.3573336867808878e-09 -0.024999960726001632 0 9.9412197851171395e-08 -0.024999761369844817 0 7.5453462277555425e-05 -0.024738447711954849 0 8.9176406409328004e-08 -0.024999564249188009 0 9.9412197851171395e-08 -0.024999761369844817 0 7.5453462277555425e-05 -0.024738447711954849 0 9.0813573618471474e-05 -0.024753355712430373 0 9.9922784306157013e-08 -0.024999941855797802 0 8.6326832815672412e-06 -0.024915517735290934 0 8.6326832815672412e-06 -0.024915517735290934 0 0.00019944993590058379 -0.023872186314506386 0 7.5453462277555425e-05 -0.024738447711954849 0 9.0813573618471474e-05 -0.024753355712430373 0 6.7463089362238422e-05 -0.024237989582105064 0 9.0813573618471474e-05 -0.024753355712430373 0 6.7463089362238422e-05 -0.024237989582105064 0 -0.00031076604538476981 -0.024569864043390902 0 0.00022285765644790235 -0.024178570845001975 0 6.7463089362238422e-05 -0.024237989582105064 0 3.73503575820284e-05 -0.024631066034762165 0 7.5453462277555425e-05 -0.024738447711954849 0 6.7463089362238422e-05 -0.024237989582105064 0 3.73503575820284e-05 -0.024631066034762165 0 -5.9108159249694556e-08 -0.024999283078916298 0 3.73503575820284e-05 -0.024631066034762165 0 8.9176406409328004e-08 -0.024999564249188009 0 7.5453462277555425e-05 -0.024738447711954849 0 3.73503575820284e-05 -0.024631066034762165 0 8.9176406409328004e-08 -0.024999564249188009 0 0.0007464261300657286 -0.023593976709035673 0 0.00047862230075944767 -0.023766963960199929 0 0.00075700794965660127 -0.023287773712025148 0 0.00059642001645228947 -0.022642370638139953 0 0.0007464261300657286 -0.023593976709035673 0 0.00075700794965660127 -0.023287773712025148 0 0.00022285765644790235 -0.024178570845001975 0 0.0007464261300657286 -0.023593976709035673 0 0.00047862230075944767 -0.023766963960199929 0 0.00022285765644790235 -0.024178570845001975 0 6.7463089362238422e-05 -0.024237989582105064 0 0.00047862230075944767 -0.023766963960199929 0 -9.5867278402397563e-06 -0.024978809423968226 0 1.0378598925868721e-05 -0.024990238922071514 0 -3.1043712532630424e-06 -0.024946118297396076 0 0.00047862230075944767 -0.023766963960199929 0 0.0004398848378761126 -0.023453582504894335 0 0.00075700794965660127 -0.023287773712025148 0 0.00019944993590058379 -0.023872186314506386 0 0.00035011082453464081 -0.023825485509586627 0 6.7463089362238422e-05 -0.024237989582105064 0 0.00047862230075944767 -0.023766963960199929 0 0.0004398848378761126 -0.023453582504894335 0 1.6539543579657064e-05 -0.024205448536874494 0 0.00019944993590058379 -0.023872186314506386 0 0.00019944993590058379 -0.023872186314506386 0 0.00069908488511648877 -0.022919577971249404 0 0.00063250939637622173 -0.022693512937299012 0 0.00054146433137933019 -0.022659266046949584 0 0.00056910551459036325 -0.022757486402968218 0 9.9408487805450162e-05 -0.024933690790272568 0 -3.1043712532630424e-06 -0.024946118297396076 0 0.00014467213229579225 -0.024768457100086631 0 1.0378598925868721e-05 -0.024990238922071514 0 9.9408487805450162e-05 -0.024933690790272568 0 -3.1043712532630424e-06 -0.024946118297396076 0 -1.4585252484438664e-05 -0.024968055977303148 0 -3.1043712532630424e-06 -0.024946118297396076 0 -2.540668607446105e-05 -0.024956954885349623 0 -1.4585252484438664e-05 -0.024968055977303148 0 -2.3917726961952599e-06 -0.0249808692749421 0 -3.1043712532630424e-06 -0.024946118297396076 0 -1.403696948972116e-05 -0.024877939315375013 0 0.00013367434792475018 -0.025070334964731752 0 -3.1043712532630424e-06 -0.024946118297396076 0 -2.540668607446105e-05 -0.024956954885349623 0 -3.8213398597341922e-05 -0.024949201039179792 0 9.9408487805450162e-05 -0.024933690790272568 0 0.00014467213229579225 -0.024768457100086631 0 0.00024059778602914897 -0.024779160925593978 0 -3.8158018893966459e-05 -0.024957067845323384 0 -2.540668607446105e-05 -0.024956954885349623 0 -3.8213398597341922e-05 -0.024949201039179792 0 0.00014467213229579225 -0.024768457100086631 0 0.00024059778602914897 -0.024779160925593978 0 0.00037428179605118544 -0.024560357936762273 0 0.00047944341663178709 -0.022887885759374598 0 0.00032947774870033795 -0.022890901965363548 0 0.00043917473529050878 -0.022705866196566789 0 0.00047944341663178709 -0.022887885759374598 0 0.00032947774870033795 -0.022890901965363548 0 0.00029190197550698011 -0.023089100076335745 0 0.00041882285376996392 -0.023928847361956575 0 -0.00067931620947417695 -0.022657052980009237 0 0.00043917473529050878 -0.022705866196566789 0 0.00023933797932055746 -0.02248825873063471 0 0.00020615900093489312 -0.022737290757471995 0 0.00032947774870033795 -0.022890901965363548 0 0.00043917473529050878 -0.022705866196566789 0 0.00020615900093489312 -0.022737290757471995 0 0.00035011082453464081 -0.023825485509586627 0 0.00041882285376996392 -0.023928847361956575 0 0.00056910551459036325 -0.022757486402968218 0 0.00047944341663178709 -0.022887885759374598 0 0.00043917473529050878 -0.022705866196566789 0 0.00069908488511648877 -0.022919577971249404 0 0.00050624803880204821 -0.022740209438871735 0 0.00054146433137933019 -0.022659266046949584 0 0.00043917473529050878 -0.022705866196566789 0 0.00046999342150570549 -0.022648693895945926 0 0.00054146433137933019 -0.022659266046949584 0 0.00056910551459036325 -0.022757486402968218 0 0.00043917473529050878 -0.022705866196566789 0 0.00043917473529050878 -0.022705866196566789 0 0.00046999342150570549 -0.022648693895945926 0 0.00023933797932055746 -0.02248825873063471 0 0.00038215901950552352 -0.022349105078913141 0 0.00046999342150570549 -0.022648693895945926 0 0.00023933797932055746 -0.02248825873063471 0 0.00059642001645228947 -0.022642370638139953 0 0.00038215901950552352 -0.022349105078913141 0 0.00046999342150570549 -0.022648693895945926 0 0.00059642001645228947 -0.022642370638139953 0 0.00075700794965660127 -0.023287773712025148 0 0.00046999342150570549 -0.022648693895945926 0 -0.00038268403965248702 -0.021553154700511837 0 -1.8479719915669217e-05 -0.021777817062776123 0 -0.00010343285100882725 -0.022059885280526693 0 -1.8479719915669217e-05 -0.021777817062776123 0 -0.00010343285100882725 -0.022059885280526693 0 0.0001808445378320759 -0.022119989630462005 0 0.00038215901950552352 -0.022349105078913141 0 0.0001808445378320759 -0.022119989630462005 0 0.00023933797932055746 -0.02248825873063471 0 -0.00010343285100882725 -0.022059885280526693 0 0.0001808445378320759 -0.022119989630462005 0 0.00023933797932055746 -0.02248825873063471 0 0.00023933797932055746 -0.02248825873063471 0 -0.00018358037426316752 -0.022413383967997684 0 -2.0542364741430077e-05 -0.02268814753757557 0 -0.00010343285100882725 -0.022059885280526693 0 -0.00018358037426316752 -0.022413383967997684 0 -0.0006549327208857337 -0.022019377121225207 0 -0.00010343285100882725 -0.022059885280526693 0 0.00023933797932055746 -0.02248825873063471 0 -0.00018358037426316752 -0.022413383967997684 0 -2.0542364741430077e-05 -0.02268814753757557 0 -8.8902370491724455e-05 -0.022959137264537424 0 -0.00065473654610946608 -0.022712098745731418 0 -0.00018358037426316752 -0.022413383967997684 0 -2.0542364741430077e-05 -0.02268814753757557 0 -0.00065473654610946608 -0.022712098745731418 0 0.00023933797932055746 -0.02248825873063471 0 -2.0542364741430077e-05 -0.02268814753757557 0 0.00020615900093489312 -0.022737290757471995 0 -2.0542364741430077e-05 -0.02268814753757557 0 0.00020615900093489312 -0.022737290757471995 0 -8.8902370491724455e-05 -0.022959137264537424 0 0.00032947774870033795 -0.022890901965363548 0 0.00020615900093489312 -0.022737290757471995 0 -8.8902370491724455e-05 -0.022959137264537424 0 0.00032947774870033795 -0.022890901965363548 0 -8.8902370491724455e-05 -0.022959137264537424 0 0.00025055043088095065 -0.023060746467779926 0 -0.0027229805877269464 -0.016281519388248879 0 -0.0029253449081792565 -0.016447377531257232 0 -0.0032182120832849989 -0.015998156124232825 0 -0.0027229805877269464 -0.016281519388248879 0 -0.0029253449081792565 -0.016447377531257232 0 -0.0026139284467376982 -0.01656088969113487 0 -0.0029253449081792565 -0.016447377531257232 0 -0.0027892971376687493 -0.016641067218649139 0 -0.0026139284467376982 -0.01656088969113487 0 -0.0027892971376687493 -0.016641067218649139 0 -0.0026013693043903129 -0.016697499569942969 0 -0.0026139284467376982 -0.01656088969113487 0 -0.0029253449081792565 -0.016447377531257232 0 -0.0027892971376687493 -0.016641067218649139 0 -0.0030039711538323087 -0.016663679790694635 0 -0.0027892971376687493 -0.016641067218649139 0 -0.0028131925480578161 -0.016758370753583912 0 -0.0030039711538323087 -0.016663679790694635 0 -0.0030324597009437366 -0.017078656919494232 0 -0.0030257762557276166 -0.017121351381684705 0 -0.0029932266147519111 -0.017006825089206454 0 -0.0028131925480578161 -0.016758370753583912 0 -0.0028966844313950742 -0.016821845595822758 0 -0.0030039711538323087 -0.016663679790694635 0 -0.0027892971376687493 -0.016641067218649139 0 -0.0027267275683596393 -0.016737771737224617 0 -0.0026013693043903129 -0.016697499569942969 0 -0.0027267275683596393 -0.016737771737224617 0 -0.0027026938882923888 -0.016851925779888539 0 -0.0026013693043903129 -0.016697499569942969 0 -0.0027892971376687493 -0.016641067218649139 0 -0.0028131925480578161 -0.016758370753583912 0 -0.0027267275683596393 -0.016737771737224617 0 -0.0028131925480578161 -0.016758370753583912 0 -0.0027026938882923888 -0.016851925779888539 0 -0.0028966844313950742 -0.016821845595822758 0 -0.0028131925480578161 -0.016758370753583912 0 -0.0027267275683596393 -0.016737771737224617 0 -0.0027026938882923888 -0.016851925779888539 0 -0.0027026938882923888 -0.016851925779888539 0 -0.0029072767704457769 -0.016885590283482174 0 -0.0028966844313950742 -0.016821845595822758 0 -0.0027026938882923888 -0.016851925779888539 0 -0.0029072767704457769 -0.016885590283482174 0 -0.0029932266147519111 -0.017006825089206454 0 -0.0027964342938862265 -0.016891858552530704 0 -0.0030100979939954248 -0.0170377603950728 0 -0.0029072767704457769 -0.016885590283482174 0 -0.0028966844313950742 -0.016821845595822758 0 -0.0030275952263019521 -0.016863082599230882 0 -0.0019272733955891697 -0.022962552566764445 0 -0.001604826201391987 -0.022674356262938636 0 -0.0015250662374649061 -0.023016988390184928 0 -0.0026346299705070826 -0.02022488974482654 0 -0.0019207348629519732 -0.01954202909738172 0 -0.0027964342938862265 -0.016891858552530704 0 -0.0019207348629519732 -0.01954202909738172 0 -0.0030324597009437366 -0.017078656919494232 0 -0.0030257762557276166 -0.017121351381684705 0 -0.0031517170628670584 -0.017273955947257939 0 -0.0027026938882923888 -0.016851925779888539 0 -0.00239634282637438 -0.016708143295413709 0 -0.0026013693043903129 -0.016697499569942969 0 -8.8902370491724455e-05 -0.022959137264537424 0 0.00025055043088095065 -0.023060746467779926 0 0.00026187732282199335 -0.023111444465448026 0 -0.0014859393494468596 -0.019546029978532692 0 -0.00071022257408947587 -0.020238043586601223 0 -0.0027229805877269464 -0.016281519388248879 0 -0.0026139284467376982 -0.01656088969113487 0 -0.0022474803534979081 -0.016588857924678166 0 -0.00239634282637438 -0.016708143295413709 0 -0.0026139284467376982 -0.01656088969113487 0 -0.0022474803534979081 -0.016588857924678166 0 -0.00239634282637438 -0.016708143295413709 0 -0.0026013693043903129 -0.016697499569942969 0 -0.0026139284467376982 -0.01656088969113487 0 0.00024059778602914897 -0.024779160925593978 0 0.00039776022011151087 -0.024578136697622783 0 0.00037428179605118544 -0.024560357936762273 0 0.00032947774870033795 -0.022890901965363548 0 0.00029190197550698011 -0.023089100076335745 0 0.00025055043088095065 -0.023060746467779926 0 0.00028581136624521581 -0.023087860759107945 0 0.00025055043088095065 -0.023060746467779926 0 0.00026187732282199335 -0.023111444465448026 0 -0.0013095393894971732 -0.021306352873842419 0 -0.001419239830025129 -0.021219548501190552 0 -0.0011981075911287613 -0.021197604302252478 0 -0.00067931620947417695 -0.022657052980009237 0 -0.00071022257408947587 -0.020238043586601223 0 -0.00067931620947417695 -0.022657052980009237 0 -0.00033456346269442831 -0.022889036641071222 0 -0.00067931620947417695 -0.022657052980009237 0 -0.00057375866768345502 -0.023221844590048051 0 -0.0019207348629519732 -0.01954202909738172 0 -0.00057375866768345502 -0.023221844590048051 0 -0.00082408243312529893 -0.020826347889540877 0 -0.001419239830025129 -0.021219548501190552 0 -0.0011981075911287613 -0.021197604302252478 0 -0.001604826201391987 -0.022674356262938636 0 -0.0013556987503868167 -0.022530396790998972 0 -0.0014370013643155996 -0.022783342881539742 0 -0.0019207348629519732 -0.01954202909738172 0 -0.00071022257408947587 -0.020238043586601223 0 -3.9691352276372444e-05 -0.024966657735437558 0 -5.038967207969737e-05 -0.024955468454228781 0 -4.7503378678886597e-05 -0.024974199106028903 0 -3.8213398597341922e-05 -0.024949201039179792 0 -7.3597420723657756e-05 -0.024944713814661994 0 -5.038967207969737e-05 -0.024955468454228781 0 0.00013367434792475018 -0.025070334964731752 0 -0.00057375866768345502 -0.023221844590048051 0 -7.3597420723657756e-05 -0.024944713814661994 0 -5.038967207969737e-05 -0.024955468454228781 0 -4.7503378678886597e-05 -0.024974199106028903 0 -0.00057375866768345502 -0.023221844590048051 0 -0.00051393998862972641 -0.023954144545255886 0 -3.8158018893966459e-05 -0.024957067845323384 0 -3.8213398597341922e-05 -0.024949201039179792 0 -5.038967207969737e-05 -0.024955468454228781 0 -3.9691352276372444e-05 -0.024966657735437558 0 -3.8158018893966459e-05 -0.024957067845323384 0 -5.038967207969737e-05 -0.024955468454228781 0 -0.0013556987503868167 -0.022530396790998972 0 -0.00095440053864960311 -0.022876968875281293 0 -0.0012622067805922149 -0.022910760626660785 0 -0.00095440053864960311 -0.022876968875281293 0 -0.0012622067805922149 -0.022910760626660785 0 -0.001010551131901427 -0.0231115375459243 0 -0.00080295456020062204 -0.023113262361719955 0 -0.00095440053864960311 -0.022876968875281293 0 -0.001010551131901427 -0.0231115375459243 0 -0.0013556987503868167 -0.022530396790998972 0 -0.0014370013643155996 -0.022783342881539742 0 -0.0012622067805922149 -0.022910760626660785 0 -0.001604826201391987 -0.022674356262938636 0 -0.0014370013643155996 -0.022783342881539742 0 -0.0015250662374649061 -0.023016988390184928 0 -0.0012622067805922149 -0.022910760626660785 0 -0.0015250662374649061 -0.023016988390184928 0 -0.0012313569785466077 -0.023176484557263746 0 -0.0014370013643155996 -0.022783342881539742 0 -0.0012622067805922149 -0.022910760626660785 0 -0.0015250662374649061 -0.023016988390184928 0 -0.0015250662374649061 -0.023016988390184928 0 -0.0012313569785466077 -0.023176484557263746 0 -0.0014269764171400798 -0.023376519923715682 0 -0.0012313569785466077 -0.023176484557263746 0 -0.0011709519666507047 -0.023362294997933547 0 -0.0014269764171400798 -0.023376519923715682 0 -0.0012313569785466077 -0.023176484557263746 0 -0.001010551131901427 -0.0231115375459243 0 -0.00098316720729910091 -0.023329848367832286 0 -0.0012622067805922149 -0.022910760626660785 0 -0.0012313569785466077 -0.023176484557263746 0 -0.001010551131901427 -0.0231115375459243 0 -0.0012313569785466077 -0.023176484557263746 0 -0.0011709519666507047 -0.023362294997933547 0 -0.00098316720729910091 -0.023329848367832286 0 -0.00082682900626382914 -0.023263290113829202 0 -0.001010551131901427 -0.0231115375459243 0 -0.00098316720729910091 -0.023329848367832286 0 -0.0011709519666507047 -0.023362294997933547 0 -0.00098316720729910091 -0.023329848367832286 0 -0.00099136911055051555 -0.023489307856607852 0 -0.00099136911055051555 -0.023489307856607852 0 -0.0011715963214068651 -0.02354453312010573 0 -0.0010113107489725455 -0.023646599834899015 0 -0.00083192518125782327 -0.023449793760749023 0 -0.00098316720729910091 -0.023329848367832286 0 -0.00099136911055051555 -0.023489307856607852 0 -0.0011709519666507047 -0.023362294997933547 0 -0.00099136911055051555 -0.023489307856607852 0 -0.0011715963214068651 -0.02354453312010573 0 -0.0011715963214068651 -0.02354453312010573 0 -0.0011495054352195246 -0.023730787114875085 0 -0.0013340768190721283 -0.023646737370273511 0 -0.0011715963214068651 -0.02354453312010573 0 -0.0011495054352195246 -0.023730787114875085 0 -0.0010113107489725455 -0.023646599834899015 0 -0.0011495054352195246 -0.023730787114875085 0 -0.0010113107489725455 -0.023646599834899015 0 -0.001000637090648109 -0.023806573182593868 0 -0.00089607358854616422 -0.023736329245323318 0 -0.0010113107489725455 -0.023646599834899015 0 -0.001000637090648109 -0.023806573182593868 0 -0.00087108334911726768 -0.023599386482836396 0 -0.00099136911055051555 -0.023489307856607852 0 -0.0010113107489725455 -0.023646599834899015 0 -0.00087108334911726768 -0.023599386482836396 0 -0.00089607358854616422 -0.023736329245323318 0 -0.0010113107489725455 -0.023646599834899015 0 -0.0014269764171400798 -0.023376519923715682 0 -0.0013340768190721283 -0.023646737370273511 0 -0.0015012106589375443 -0.023604031443788937 0 -0.0014269764171400798 -0.023376519923715682 0 -0.0015012106589375443 -0.023604031443788937 0 -0.0016708410975962006 -0.023494084710447845 0 -0.0011709519666507047 -0.023362294997933547 0 -0.0011715963214068651 -0.02354453312010573 0 -0.0014269764171400798 -0.023376519923715682 0 -0.0011715963214068651 -0.02354453312010573 0 -0.0014269764171400798 -0.023376519923715682 0 -0.0013340768190721283 -0.023646737370273511 0 -0.0013340768190721283 -0.023646737370273511 0 -0.0015012106589375443 -0.023604031443788937 0 -0.0014893683999511649 -0.023752952299541084 0 -0.0015012106589375443 -0.023604031443788937 0 -0.0017128523575933798 -0.02369549907323799 0 -0.0014893683999511649 -0.023752952299541084 0 -0.0016708410975962006 -0.023494084710447845 0 -0.0019721318802799334 -0.023652351405754168 0 -0.0018071398700000676 -0.023298789661446741 0 -0.0014269764171400798 -0.023376519923715682 0 -0.0016708410975962006 -0.023494084710447845 0 -0.0018071398700000676 -0.023298789661446741 0 -0.0015012106589375443 -0.023604031443788937 0 -0.0016708410975962006 -0.023494084710447845 0 -0.0017128523575933798 -0.02369549907323799 0 -0.0016708410975962006 -0.023494084710447845 0 -0.0019721318802799334 -0.023652351405754168 0 -0.0017128523575933798 -0.02369549907323799 0 -0.0017384584005698813 -0.020773963504540093 0 -0.0026062764578015621 -0.019128648785553745 0 -0.0019721318802799334 -0.023652351405754168 0 -0.0018071398700000676 -0.023298789661446741 0 -0.0022534154775898417 -0.023244315177900512 0 -0.0016353745550554389 -0.01783897685722053 0 -0.0023071926945921273 -0.016915346159355051 0 -0.0023818207716544831 -0.017670636220401437 0 -0.0019272733955891697 -0.022962552566764445 0 -0.0018071398700000676 -0.023298789661446741 0 -0.0022534154775898417 -0.023244315177900512 0 -0.0030324597009437366 -0.017078656919494232 0 -0.0029932266147519111 -0.017006825089206454 0 -0.0029873212154341226 -0.017018043218906261 0 -0.0026346299705070826 -0.02022488974482654 0 -0.0026062764578015621 -0.019128648785553745 0 -0.0019272733955891697 -0.022962552566764445 0 -0.0015250662374649061 -0.023016988390184928 0 -0.0018071398700000676 -0.023298789661446741 0 -0.0015250662374649061 -0.023016988390184928 0 -0.0014269764171400798 -0.023376519923715682 0 -0.0018071398700000676 -0.023298789661446741 0 -0.0034415076582105476 -0.01697289099007308 0 -0.0031464170144440686 -0.017254384192905436 0 -0.0036263194168192729 -0.017384583650760878 0 -0.0034415076582105476 -0.01697289099007308 0 -0.0036263194168192729 -0.017384583650760878 0 -0.0037214825915298116 -0.017088907372623693 0 -0.0034415076582105476 -0.01697289099007308 0 -0.0031896415115598778 -0.01702751488748127 0 -0.0031464170144440686 -0.017254384192905436 0 -0.0034415076582105476 -0.01697289099007308 0 -0.0031896415115598778 -0.01702751488748127 0 -0.0032350906643847386 -0.016813522990787467 0 -0.0030518139865496697 -0.016984703646183742 0 -0.0031896415115598778 -0.01702751488748127 0 -0.0032350906643847386 -0.016813522990787467 0 -0.0030518139865496697 -0.016984703646183742 0 -0.0031896415115598778 -0.01702751488748127 0 -0.0030539758981960609 -0.017113324671940659 0 -0.0030518139865496697 -0.016984703646183742 0 -0.0028341990236540873 -0.01719475392885722 0 -0.0030539758981960609 -0.017113324671940659 0 -0.0034101636350579918 -0.016871628767488375 0 -0.0026062764578015621 -0.019128648785553745 0 -0.0030518139865496697 -0.016984703646183742 0 -0.0029932266147519111 -0.017006825089206454 0 -0.0029873212154341226 -0.017018043218906261 0 -0.0030518139865496697 -0.016984703646183742 0 -0.0029932266147519111 -0.017006825089206454 0 -0.0030275952263019521 -0.016863082599230882 0 -0.0031896415115598778 -0.01702751488748127 0 -0.0031464170144440686 -0.017254384192905436 0 -0.0030539758981960609 -0.017113324671940659 0 -0.0028341990236540873 -0.01719475392885722 0 -0.0031464170144440686 -0.017254384192905436 0 -0.0030539758981960609 -0.017113324671940659 0 -0.0023071926945921273 -0.016915346159355051 0 -0.0023818207716544831 -0.017670636220401437 0 -0.0031508487634282619 -0.017672988544122876 0 -0.0026062764578015621 -0.019128648785553745 0 -0.00285827292918157 -0.017085227289359541 0 -0.0028341990236540873 -0.01719475392885722 0 -0.0031464170144440686 -0.017254384192905436 0 -0.0031508487634282619 -0.017672988544122876 0 -0.0031464170144440686 -0.017254384192905436 0 -0.0031508487634282619 -0.017672988544122876 0 -0.0036263194168192729 -0.017384583650760878 0 -0.0031508487634282619 -0.017672988544122876 0 -0.0036263194168192729 -0.017384583650760878 0 -0.0035226586186032434 -0.018072533370976033 0 -0.0036263194168192729 -0.017384583650760878 0 -0.0040139232721240958 -0.017330891626878835 0 -0.0037214825915298116 -0.017088907372623693 0 -0.0036714670985213164 -0.017454526258085957 0 -0.0038856219450978057 -0.017921977877032723 0 -0.0036263194168192729 -0.017384583650760878 0 -0.0039088447466960469 -0.017526844406705135 0 -0.0040139232721240958 -0.017330891626878835 0 -0.0036263194168192729 -0.017384583650760878 0 -0.0039088447466960469 -0.017526844406705135 0 -0.0038166497082756106 -0.017668275794309112 0 -0.0039020788827199785 -0.016643848692534657 0 -0.0039395455147207123 -0.016654421153205045 0 -0.0039296779828615347 -0.016689686862265584 0 -0.0039020788827199785 -0.016643848692534657 0 -0.0039395455147207123 -0.016654421153205045 0 -0.0039240068715086489 -0.016597321547837562 0 -0.0039382952828501986 -0.016934760280021881 0 -0.0040067181834250636 -0.017382394156303993 0 -0.0039088447466960469 -0.017526844406705135 0 -0.0040139232721240958 -0.017330891626878835 0 -0.0040403264865108415 -0.017649934633732978 0 -0.0039020788827199785 -0.016643848692534657 0 -0.00385914769151401 -0.016738097731467897 0 -0.0039240068715086489 -0.016597321547837562 0 -0.0034415076582105476 -0.01697289099007308 0 -0.0037214825915298116 -0.017088907372623693 0 -0.00385914769151401 -0.016738097731467897 0 -0.0040139232721240958 -0.017330891626878835 0 -0.0037214825915298116 -0.017088907372623693 0 -0.00385914769151401 -0.016738097731467897 0 -0.0039382952828501986 -0.016934760280021881 0 -0.0038775812790351654 -0.016772059830101653 0 -0.0034415076582105476 -0.01697289099007308 0 -0.00385914769151401 -0.016738097731467897 0 -0.0035282040921736052 -0.016603061177545508 0 -0.00385914769151401 -0.016738097731467897 0 -0.0038646911750283108 -0.016485741249241421 0 -0.0035282040921736052 -0.016603061177545508 0 -0.00385914769151401 -0.016738097731467897 0 -0.0038646911750283108 -0.016485741249241421 0 -0.0039656593841409672 -0.016488457574596285 0 -0.00385914769151401 -0.016738097731467897 0 -0.0039656593841409672 -0.016488457574596285 0 -0.0039240068715086489 -0.016597321547837562 0 -0.0038646911750283108 -0.016485741249241421 0 -0.0037529683916347287 -0.016320714864676615 0 -0.0040177235870813661 -0.016431622369359525 0 -0.0038646911750283108 -0.016485741249241421 0 -0.0040177235870813661 -0.016431622369359525 0 -0.0039656593841409672 -0.016488457574596285 0 -0.0038646911750283108 -0.016485741249241421 0 -0.0035282040921736052 -0.016603061177545508 0 -0.0037529683916347287 -0.016320714864676615 0 -0.0035282040921736052 -0.016603061177545508 0 -0.0032268372457850357 -0.01662411699647744 0 -0.0032080786740062463 -0.016371579849684001 0 -0.0035282040921736052 -0.016603061177545508 0 -0.0032080786740062463 -0.016371579849684001 0 -0.0037529683916347287 -0.016320714864676615 0 -0.0034415076582105476 -0.01697289099007308 0 -0.0035282040921736052 -0.016603061177545508 0 -0.0032350906643847386 -0.016813522990787467 0 -0.0035282040921736052 -0.016603061177545508 0 -0.0032350906643847386 -0.016813522990787467 0 -0.0032268372457850357 -0.01662411699647744 0 -0.0029072767704457769 -0.016885590283482174 0 -0.0029932266147519111 -0.017006825089206454 0 -0.0030275952263019521 -0.016863082599230882 0 -0.0030275952263019521 -0.016863082599230882 0 -0.0032350906643847386 -0.016813522990787467 0 -0.0031251787304765167 -0.016740399739964239 0 -0.0030518139865496697 -0.016984703646183742 0 -0.0030275952263019521 -0.016863082599230882 0 -0.0032350906643847386 -0.016813522990787467 0 -0.0032350906643847386 -0.016813522990787467 0 -0.0031251787304765167 -0.016740399739964239 0 -0.0032268372457850357 -0.01662411699647744 0 -0.0031251787304765167 -0.016740399739964239 0 -0.0030039711538323087 -0.016663679790694635 0 -0.0032268372457850357 -0.01662411699647744 0 -0.0030275952263019521 -0.016863082599230882 0 -0.0031251787304765167 -0.016740399739964239 0 -0.0030039711538323087 -0.016663679790694635 0 -0.0028966844313950742 -0.016821845595822758 0 -0.0030275952263019521 -0.016863082599230882 0 -0.0030039711538323087 -0.016663679790694635 0 -0.0030039711538323087 -0.016663679790694635 0 -0.0032268372457850357 -0.01662411699647744 0 -0.0032080786740062463 -0.016371579849684001 0 -0.0029253449081792565 -0.016447377531257232 0 -0.0030039711538323087 -0.016663679790694635 0 -0.0032080786740062463 -0.016371579849684001 0 -0.0014859393494468596 -0.019546029978532692 0 -0.0019204632961052155 -0.01936574796347201 0 -0.0032182120832849989 -0.015998156124232825 0 -0.0037315109833767931 -0.015731589325891918 0 -0.0038116943773593582 -0.016317509035636328 0 -0.0029253449081792565 -0.016447377531257232 0 -0.0032080786740062463 -0.016371579849684001 0 -0.0032182120832849989 -0.015998156124232825 0 -0.0032355293523186847 -0.016371187442434144 0 -0.0037751555546355516 -0.01631420601261728 0 -0.0032080786740062463 -0.016371579849684001 0 -0.0032182120832849989 -0.015998156124232825 0 -0.0038116943773593582 -0.016317509035636328 0 -0.0019204632961052155 -0.01936574796347201 0 -0.0025772267758746342 -0.018985428731985193 0 -0.00018358037426316752 -0.022413383967997684 0 -0.00065473654610946608 -0.022712098745731418 0 -0.0006549327208857337 -0.022019377121225207 0 -0.0006549327208857337 -0.022019377121225207 0 -0.0013204428735756728 -0.021681143472288035 0 -0.0014233247176451175 -0.022243750554461678 0 -0.00065473654610946608 -0.022712098745731418 0 -0.0006549327208857337 -0.022019377121225207 0 -0.0014233247176451175 -0.022243750554461678 0 -0.0006549327208857337 -0.022019377121225207 0 -0.00090211869415784084 -0.021458408100200815 0 -0.0013204428735756728 -0.021681143472288035 0 -0.00038268403965248702 -0.021553154700511837 0 -0.00010343285100882725 -0.022059885280526693 0 -0.0006549327208857337 -0.022019377121225207 0 -0.00038268403965248702 -0.021553154700511837 0 -0.0006549327208857337 -0.022019377121225207 0 -0.00090211869415784084 -0.021458408100200815 0 -0.001613611933689355 -0.021107184467713539 0 -0.0022157226493112782 -0.020848126487842913 0 -0.0023082668250366989 -0.0215640696654785 0 -0.001613611933689355 -0.021107184467713539 0 -0.00090211869415784084 -0.021458408100200815 0 -0.0013204428735756728 -0.021681143472288035 0 -0.001613611933689355 -0.021107184467713539 0 -0.0023082668250366989 -0.0215640696654785 0 -0.0013204428735756728 -0.021681143472288035 0 -0.0023082668250366989 -0.0215640696654785 0 -0.0013204428735756728 -0.021681143472288035 0 -0.0014233247176451175 -0.022243750554461678 0 -0.003254869904226743 -0.018561181527131751 0 -0.0025772267758746342 -0.018985428731985193 0 -0.004231639886352152 -0.015546448192797706 0 -0.0037315109833767931 -0.015731589325891918 0 -0.0041192088240273083 -0.015850109905463448 0 -0.0037315109833767931 -0.015731589325891918 0 -0.0041192088240273083 -0.015850109905463448 0 -0.0038116943773593582 -0.016317509035636328 0 -0.0041192088240273083 -0.015850109905463448 0 -0.0038116943773593582 -0.016317509035636328 0 -0.0042532708698768424 -0.016022362853819434 0 -0.0038116943773593582 -0.016317509035636328 0 -0.0043461084083201949 -0.016198313295477461 0 -0.0042532708698768424 -0.016022362853819434 0 -0.0037751555546355516 -0.01631420601261728 0 -0.0041454676864852037 -0.01637376158147124 0 -0.0043461084083201949 -0.016198313295477461 0 -0.0044947280790821808 -0.0160004848547649 0 -0.0042532708698768424 -0.016022362853819434 0 -0.0040177235870813661 -0.016431622369359525 0 -0.0038522821526601309 -0.016603042093781096 0 -0.0039563732551237737 -0.016446903975123689 0 -0.0046425372929941944 -0.01602379246834456 0 -0.0044421376053705346 -0.015962118613363909 0 -0.0041454676864852037 -0.01637376158147124 0 -0.0044421376053705346 -0.015962118613363909 0 -0.0043461084083201949 -0.016198313295477461 0 -0.0044947280790821808 -0.0160004848547649 0 -0.0048657049353793454 -0.016104283949962765 0 -0.0044947280790821808 -0.0160004848547649 0 -0.0046535753128244999 -0.015836149718368501 0 -0.0047110647085710161 -0.015944096642455326 0 -0.0044947280790821808 -0.0160004848547649 0 -0.0046535753128244999 -0.015836149718368501 0 -0.0044591956495166774 -0.015782408986388417 0 -0.0041192088240273083 -0.015850109905463448 0 -0.0042532708698768424 -0.016022362853819434 0 -0.0044591956495166774 -0.015782408986388417 0 -0.0044947280790821808 -0.0160004848547649 0 -0.0042532708698768424 -0.016022362853819434 0 -0.0044591956495166774 -0.015782408986388417 0 -0.004231639886352152 -0.015546448192797706 0 -0.0044591956495166774 -0.015782408986388417 0 -0.0045669088590180864 -0.015617378432608813 0 -0.004231639886352152 -0.015546448192797706 0 -0.0041192088240273083 -0.015850109905463448 0 -0.0044591956495166774 -0.015782408986388417 0 -0.0044591956495166774 -0.015782408986388417 0 -0.0045669088590180864 -0.015617378432608813 0 -0.0047135064239038557 -0.015674239273806977 0 -0.0046535753128244999 -0.015836149718368501 0 -0.0044591956495166774 -0.015782408986388417 0 -0.0047135064239038557 -0.015674239273806977 0 -0.0046426302796066781 -0.015500477711976848 0 -0.0045669088590180864 -0.015617378432608813 0 -0.0047080619618812434 -0.015587625069406265 0 -0.0047894857873158692 -0.015588007496889485 0 -0.0046426302796066781 -0.015500477711976848 0 -0.0047080619618812434 -0.015587625069406265 0 -0.0045669088590180864 -0.015617378432608813 0 -0.0047080619618812434 -0.015587625069406265 0 -0.0047135064239038557 -0.015674239273806977 0 -0.0027387318233817325 -0.020627561832376511 0 -0.0032086408102566626 -0.020696597958168611 0 -0.0023082668250366989 -0.0215640696654785 0 -0.0046426302796066781 -0.015500477711976848 0 -0.004231639886352152 -0.015546448192797706 0 -0.0045669088590180864 -0.015617378432608813 0 -0.0027387318233817325 -0.020627561832376511 0 -0.0022157226493112782 -0.020848126487842913 0 -0.0023082668250366989 -0.0215640696654785 0 -0.0039015633206228345 -0.018111944417199488 0 -0.003254869904226743 -0.018561181527131751 0 -0.0048508982520006193 -0.015605954389090163 0 -0.0047935162187772613 -0.0156022263829395 0 -0.0048447603705169357 -0.015593738589654141 0 -0.0048749877389790948 -0.015582409409344493 0 -0.0048508982520006193 -0.015605954389090163 0 -0.0048447603705169357 -0.015593738589654141 0 -0.0048749877389790948 -0.015582409409344493 0 -0.0048589440704654482 -0.015632213060042692 0 -0.0048508982520006193 -0.015605954389090163 0 -0.0047894857873158692 -0.015588007496889485 0 -0.0048508982520006193 -0.015605954389090163 0 -0.0047935162187772613 -0.0156022263829395 0 -0.0047894857873158692 -0.015588007496889485 0 -0.0047080619618812434 -0.015587625069406265 0 -0.0047935162187772613 -0.0156022263829395 0 -0.0047080619618812434 -0.015587625069406265 0 -0.0047935162187772613 -0.0156022263829395 0 -0.0047135064239038557 -0.015674239273806977 0 -0.0047935162187772613 -0.0156022263829395 0 -0.0047135064239038557 -0.015674239273806977 0 -0.0048447603705169357 -0.015593738589654141 0 -0.0047135064239038557 -0.015674239273806977 0 -0.0048447603705169357 -0.015593738589654141 0 -0.0047855377723453807 -0.015732917217804322 0 -0.0049529800952440957 -0.01548845321872672 0 -0.0048749877389790948 -0.015582409409344493 0 -0.0048447603705169357 -0.015593738589654141 0 -0.0049529800952440957 -0.01548845321872672 0 -0.0048447603705169357 -0.015593738589654141 0 -0.0047855377723453807 -0.015732917217804322 0 -0.0049529800952440957 -0.01548845321872672 0 -0.0047855377723453807 -0.015732917217804322 0 -0.0048552214439214706 -0.015878537368133824 0 -0.0046535753128244999 -0.015836149718368501 0 -0.0047855377723453807 -0.015732917217804322 0 -0.0047110647085710161 -0.015944096642455326 0 -0.0046535753128244999 -0.015836149718368501 0 -0.0047135064239038557 -0.015674239273806977 0 -0.0047855377723453807 -0.015732917217804322 0 -0.0047855377723453807 -0.015732917217804322 0 -0.0047110647085710161 -0.015944096642455326 0 -0.0048552214439214706 -0.015878537368133824 0 -0.0044421376053705346 -0.015962118613363909 0 -0.0039187068143637449 -0.015977731053658174 0 -0.0044421376053705346 -0.015962118613363909 0 -0.0047317317535468702 -0.015550743166130507 0 -0.0038522821526601309 -0.016603042093781096 0 -0.0035702691797855441 -0.016607295808625491 0 -0.0037885588746197269 -0.016448084042451346 0 -0.0044816988988380813 -0.015242206495193119 0 -0.0045581466644487754 -0.015221612738326213 0 -0.0045651598794967914 -0.015251952454651507 0 -0.004865892380943794 -0.015280175881064647 0 -0.0047317317535468702 -0.015550743166130507 0 -0.0046312259087457281 -0.015207761318537951 0 -0.0045581466644487754 -0.015221612738326213 0 -0.0045651598794967914 -0.015251952454651507 0 -0.0033735111377767883 -0.016339401592466305 0 -0.0035702691797855441 -0.016607295808625491 0 -0.0036214828878121334 -0.016253355100364568 0 -0.0035702691797855441 -0.016607295808625491 0 -0.0036214828878121334 -0.016253355100364568 0 -0.0037885588746197269 -0.016448084042451346 0 -0.0034147763348226076 -0.016112384144424945 0 -0.0033735111377767883 -0.016339401592466305 0 -0.0036214828878121334 -0.016253355100364568 0 -0.0036214828878121334 -0.016253355100364568 0 -0.0038309122828393861 -0.01628623117161896 0 -0.0035565304206094809 -0.015973162887267335 0 -0.0034147763348226076 -0.016112384144424945 0 -0.0036214828878121334 -0.016253355100364568 0 -0.0035565304206094809 -0.015973162887267335 0 -0.0038309122828393861 -0.01628623117161896 0 -0.0040460429139887203 -0.016332795039310084 0 -0.0037424633012030466 -0.015935395172716228 0 -0.0036214828878121334 -0.016253355100364568 0 -0.0038309122828393861 -0.01628623117161896 0 -0.0037885588746197269 -0.016448084042451346 0 -0.0038309122828393861 -0.01628623117161896 0 -0.0037885588746197269 -0.016448084042451346 0 -0.0039563732551237737 -0.016446903975123689 0 -0.0038522821526601309 -0.016603042093781096 0 -0.0037885588746197269 -0.016448084042451346 0 -0.0039563732551237737 -0.016446903975123689 0 -0.0040177235870813661 -0.016431622369359525 0 -0.0039563732551237737 -0.016446903975123689 0 -0.0039978745319066119 -0.016446252106522556 0 -0.0040177235870813661 -0.016431622369359525 0 -0.0039978745319066119 -0.016446252106522556 0 -0.0039656593841409672 -0.016488457574596285 0 -0.0039656593841409672 -0.016488457574596285 0 -0.0040460429139887203 -0.016332795039310084 0 -0.0039240068715086489 -0.016597321547837562 0 -0.0039978745319066119 -0.016446252106522556 0 -0.0039656593841409672 -0.016488457574596285 0 -0.0040460429139887203 -0.016332795039310084 0 -0.0039563732551237737 -0.016446903975123689 0 -0.0039978745319066119 -0.016446252106522556 0 -0.0040460429139887203 -0.016332795039310084 0 -0.0038309122828393861 -0.01628623117161896 0 -0.0039563732551237737 -0.016446903975123689 0 -0.0040460429139887203 -0.016332795039310084 0 -0.0040460429139887203 -0.016332795039310084 0 -0.0039538825158196176 -0.015757795978898481 0 -0.0037424633012030466 -0.015935395172716228 0 -0.0040623305993591659 -0.016327989189395011 0 -0.0041364135463417828 -0.016224375086421494 0 -0.0040460429139887203 -0.016332795039310084 0 -0.0042918038310011701 -0.015807489123010044 0 -0.0039538825158196176 -0.015757795978898481 0 -0.0040460429139887203 -0.016332795039310084 0 -0.0039240068715086489 -0.016597321547837562 0 -0.0040023605317643556 -0.016631315404415717 0 -0.0039395455147207123 -0.016654421153205045 0 -0.0040023605317643556 -0.016631315404415717 0 -0.0039548650522234167 -0.016687911778780977 0 -0.0039395455147207123 -0.016654421153205045 0 -0.0039240068715086489 -0.016597321547837562 0 -0.0040023605317643556 -0.016631315404415717 0 -0.0041364135463417828 -0.016224375086421494 0 -0.0042146378167561395 -0.015989733944814146 0 -0.0042918038310011701 -0.015807489123010044 0 -0.0039538825158196176 -0.015757795978898481 0 -0.004017629678004374 -0.015442559739683073 0 -0.0039538825158196176 -0.015757795978898481 0 -0.0036410954330685953 -0.015570020737379866 0 -0.004017629678004374 -0.015442559739683073 0 -0.0039538825158196176 -0.015757795978898481 0 -0.0036410954330685953 -0.015570020737379866 0 -0.0037424633012030466 -0.015935395172716228 0 -0.003357720353459616 -0.015620880114848466 0 -0.0036410954330685953 -0.015570020737379866 0 -0.0035164175581292229 -0.015782485244679158 0 -0.0036410954330685953 -0.015570020737379866 0 -0.0035164175581292229 -0.015782485244679158 0 -0.0037424633012030466 -0.015935395172716228 0 -0.0035164175581292229 -0.015782485244679158 0 -0.0035565304206094809 -0.015973162887267335 0 -0.0037424633012030466 -0.015935395172716228 0 -0.0033523094288734233 -0.015790000177414335 0 -0.0035164175581292229 -0.015782485244679158 0 -0.0035565304206094809 -0.015973162887267335 0 -0.0034147763348226076 -0.016112384144424945 0 -0.0033523094288734233 -0.015790000177414335 0 -0.0035565304206094809 -0.015973162887267335 0 -0.0038309122828393861 -0.01628623117161896 0 -0.0035565304206094809 -0.015973162887267335 0 -0.0037424633012030466 -0.015935395172716228 0 -0.0033256868930222647 -0.013243101638590913 0 -0.0041687886440556886 -0.013712700270714345 0 -0.0036526984694882384 -0.015160844165649601 0 -0.004017629678004374 -0.015442559739683073 0 -0.0039489765763435986 -0.015017401524216305 0 -0.0032904015602474982 -0.011146596457766188 0 -0.0040803002539233756 -0.010802561430379271 0 -0.0034287202102370627 -0.010384995020308253 0 -0.0032904015602474982 -0.011146596457766188 0 -0.0034287202102370627 -0.010384995020308253 0 -0.0026780737584101459 -0.01020487569817467 0 -0.002899960970252977 -0.0046403888729144045 0 -0.002976172159594974 -0.005033221408945146 0 -0.002889355165622018 -0.0045020586531241552 0 -0.0025090058840444699 -0.011495732188927873 0 -0.0032904015602474982 -0.011146596457766188 0 -0.0026780737584101459 -0.01020487569817467 0 -0.0031856220686279015 -0.011074063552858799 0 -0.0028193108246151286 -0.0068588218757547796 0 -0.0031856220686279015 -0.011074063552858799 0 -0.0033256868930222647 -0.013243101638590913 0 -0.003357720353459616 -0.015620880114848466 0 -0.0033786146313989933 -0.015295959023102606 0 -0.0036410954330685953 -0.015570020737379866 0 -0.0033786146313989933 -0.015295959023102606 0 -0.0036410954330685953 -0.015570020737379866 0 -0.0036526984694882384 -0.015160844165649601 0 -0.0036410954330685953 -0.015570020737379866 0 -0.0036526984694882384 -0.015160844165649601 0 -0.004017629678004374 -0.015442559739683073 0 -0.004017926320600637 -0.01589242911767022 0 -0.0041687886440556886 -0.013712700270714345 0 -0.0042918038310011701 -0.015807489123010044 0 -0.004017629678004374 -0.015442559739683073 0 -0.0042194163243604258 -0.015309122525155766 0 -0.004017629678004374 -0.015442559739683073 0 -0.0042194163243604258 -0.015309122525155766 0 -0.0041122193837517815 -0.015104444730518666 0 -0.0042918038310011701 -0.015807489123010044 0 -0.0042194163243604258 -0.015309122525155766 0 -0.0044619259623510984 -0.015371163191353477 0 -0.0042194163243604258 -0.015309122525155766 0 -0.0044619259623510984 -0.015371163191353477 0 -0.0043293632265201274 -0.015031981007041071 0 -0.0042146378167561395 -0.015989733944814146 0 -0.0043822910851719519 -0.016028178886357311 0 -0.0044619259623510984 -0.015371163191353477 0 -0.0043293632265201274 -0.015031981007041071 0 -0.0046590704609160826 -0.014903512214564842 0 -0.0043293632265201274 -0.015031981007041071 0 -0.0041141678193081658 -0.014808273535615039 0 -0.0043640464758160722 -0.014718606473590388 0 -0.0043293632265201274 -0.015031981007041071 0 -0.0043640464758160722 -0.014718606473590388 0 -0.0046590704609160826 -0.014903512214564842 0 -0.004017629678004374 -0.015442559739683073 0 -0.0041122193837517815 -0.015104444730518666 0 -0.0038869879443343461 -0.014921401250826806 0 -0.0042194163243604258 -0.015309122525155766 0 -0.0043293632265201274 -0.015031981007041071 0 -0.0041122193837517815 -0.015104444730518666 0 -0.0043293632265201274 -0.015031981007041071 0 -0.0041122193837517815 -0.015104444730518666 0 -0.0041141678193081658 -0.014808273535615039 0 -0.0041687886440556886 -0.013712700270714345 0 -0.0038184952161795889 -0.014633429176566419 0 -0.0041122193837517815 -0.015104444730518666 0 -0.0038869879443343461 -0.014921401250826806 0 -0.0041141678193081658 -0.014808273535615039 0 -0.0041141678193081658 -0.014808273535615039 0 -0.0041568415789085362 -0.014414961502543585 0 -0.0037124491478246974 -0.014403170277643849 0 -0.0038289237760152392 -0.014930214279415953 0 -0.0041141678193081658 -0.014808273535615039 0 -0.0037124491478246974 -0.014403170277643849 0 -0.0043640464758160722 -0.014718606473590388 0 -0.0045443679398791421 -0.014411601546563126 0 -0.0046590704609160826 -0.014903512214564842 0 -0.0041141678193081658 -0.014808273535615039 0 -0.0041568415789085362 -0.014414961502543585 0 -0.0043640464758160722 -0.014718606473590388 0 -0.0041568415789085362 -0.014414961502543585 0 -0.0043640464758160722 -0.014718606473590388 0 -0.0045443679398791421 -0.014411601546563126 0 -0.0045443679398791421 -0.014411601546563126 0 -0.0041644837878645011 -0.013863592096667593 0 -0.0047355209315774636 -0.013849980477954958 0 -0.0041568415789085362 -0.014414961502543585 0 -0.0045443679398791421 -0.014411601546563126 0 -0.0041644837878645011 -0.013863592096667593 0 -0.0037124491478246974 -0.014403170277643849 0 -0.0035972914979120751 -0.013860784211585065 0 -0.0041644837878645011 -0.013863592096667593 0 -0.0041568415789085362 -0.014414961502543585 0 -0.0037124491478246974 -0.014403170277643849 0 -0.0041644837878645011 -0.013863592096667593 0 -0.0033116016980916309 -0.0096471672965565119 0 -0.0038974471718660514 -0.0098448429860689725 0 -0.0037081758826732277 -0.0088887787975523748 0 -0.0033116016980916309 -0.0096471672965565119 0 -0.0028466153059416746 -0.0089109624158594334 0 -0.0037081758826732277 -0.0088887787975523748 0 -0.0038316211433310934 -0.012107886369991711 0 -0.002843080753925122 -0.010695364238725746 0 -0.0040803002539233756 -0.010802561430379271 0 -0.0038974471718660514 -0.0098448429860689725 0 -0.0034287202102370627 -0.010384995020308253 0 -0.0041687886440556886 -0.013712700270714345 0 -0.0038316211433310934 -0.012107886369991711 0 -0.0033116016980916309 -0.0096471672965565119 0 -0.0038974471718660514 -0.0098448429860689725 0 -0.0034287202102370627 -0.010384995020308253 0 -0.0033116016980916309 -0.0096471672965565119 0 -0.0034287202102370627 -0.010384995020308253 0 -0.0026780737584101459 -0.01020487569817467 0 -0.0028986715143153119 -0.0046895566151092388 0 -0.002889355165622018 -0.0045020586531241552 0 -0.0026202312858332713 -0.0050133142703714436 0 -0.0028193108246151286 -0.0068588218757547796 0 -0.0022077427009179768 -0.0065890677772221162 0 -0.0033116016980916309 -0.0096471672965565119 0 -0.0026780737584101459 -0.01020487569817467 0 -0.0028466153059416746 -0.0089109624158594334 0 -0.0022077427009179768 -0.0065890677772221162 0 -0.0017797907008813816 -0.006372057484085039 0 -0.0016835259224238265 -0.0068342714923620655 0 -0.0016811699694719909 -0.0068331128931008274 0 -0.0017055128925531175 -0.0068306893736407338 0 -0.0016835259224238265 -0.0068342714923620655 0 -0.0016811699694719909 -0.0068331128931008274 0 -0.0016910854088696234 -0.0068471636084464502 0 -0.0025972414756263835 -0.0059017365350877002 0 -0.0019396437206748295 -0.0051517863709779413 0 -0.0018170022945852384 -0.0060593855973269106 0 -0.0016811699694719909 -0.0068331128931008274 0 -0.0016910854088696234 -0.0068471636084464502 0 -0.0016271144935406413 -0.0068486670993164103 0 -0.002843080753925122 -0.010695364238725746 0 -0.0016872316569355023 -0.0088698366563234148 0 -0.0022077427009179768 -0.0065890677772221162 0 -0.002843080753925122 -0.010695364238725746 0 -0.0021861683259785771 -0.012744171131596517 0 -0.0020081397413896519 -0.011865581248922067 0 -0.002676472338245858 -0.012162215441386886 0 -0.0017797907008813816 -0.006372057484085039 0 -0.0017280694244476578 -0.0069864088059547799 0 -0.0016271144935406413 -0.0068486670993164103 0 -0.0017055128925531175 -0.0068306893736407338 0 -0.0017434075928789599 -0.0070279417674745624 0 -0.0018170022945852384 -0.0060593855973269106 0 -0.0022288279294221934 -0.0067395122918517888 0 -0.0017434075928789599 -0.0070279417674745624 0 -0.0016811699694719909 -0.0068331128931008274 0 -0.0016271144935406413 -0.0068486670993164103 0 -0.0017055128925531175 -0.0068306893736407338 0 -0.0025972414756263835 -0.0059017365350877002 0 -0.0018170022945852384 -0.0060593855973269106 0 -0.0022288279294221934 -0.0067395122918517888 0 -0.0022288279294221934 -0.0067395122918517888 0 -0.0018947330345946939 -0.0072633545213386577 0 -0.0017434075928789599 -0.0070279417674745624 0 -0.0023668171181800064 -0.0073357951027482647 0 -0.0022288279294221934 -0.0067395122918517888 0 -0.0018947330345946939 -0.0072633545213386577 0 -0.0023668171181800064 -0.0073357951027482647 0 -0.0018947330345946939 -0.0072633545213386577 0 -0.0019738116774318717 -0.0074957895985400015 0 -0.0018947330345946939 -0.0072633545213386577 0 -0.0017434075928789599 -0.0070279417674745624 0 -0.0015800351186627953 -0.0073581948559270334 0 -0.0020081397413896519 -0.011865581248922067 0 -0.0018327297081367651 -0.01098523357430822 0 -0.002731094856782247 -0.011485404864058435 0 -0.0016872316569355023 -0.0088698366563234148 0 -0.0016957461735818428 -0.010772005948215948 0 -0.0016271144935406413 -0.0068486670993164103 0 -0.0017434075928789599 -0.0070279417674745624 0 -0.0015800351186627953 -0.0073581948559270334 0 -0.0016957461735818428 -0.010772005948215948 0 -0.0022423023702886186 -0.013633982624952207 0 -0.0007869895971629585 -0.01485377007512024 0 -0.0011440799070436861 -0.01452723427502369 0 -0.0015957766104561109 -0.015307917174041659 0 -0.0007869895971629585 -0.01485377007512024 0 -0.0011440799070436861 -0.01452723427502369 0 -0.00063552289756320227 -0.014147715757316118 0 -0.0015539842620182079 -0.0073896533774751826 0 -0.0016586014120003015 -0.0074454895686133843 0 -0.0016977072736422839 -0.0083537080912038618 0 -0.0016957461735818428 -0.010772005948215948 0 -0.00083074621915612949 -0.010896396209883419 0 -0.0020737153806023138 -0.0078381399451081211 0 -0.0016586014120003015 -0.0074454895686133843 0 -0.0016977072736422839 -0.0083537080912038618 0 -0.0026176240255396822 -0.0080255489273157957 0 -0.0020737153806023138 -0.0078381399451081211 0 -0.0016977072736422839 -0.0083537080912038618 0 -0.0023668171181800064 -0.0073357951027482647 0 -0.0020737153806023138 -0.0078381399451081211 0 -0.0019738116774318717 -0.0074957895985400015 0 -0.0020737153806023138 -0.0078381399451081211 0 -0.0019738116774318717 -0.0074957895985400015 0 -0.0016586014120003015 -0.0074454895686133843 0 -0.0018947330345946939 -0.0072633545213386577 0 -0.0019738116774318717 -0.0074957895985400015 0 -0.0016586014120003015 -0.0074454895686133843 0 -0.0018947330345946939 -0.0072633545213386577 0 -0.0015800351186627953 -0.0073581948559270334 0 -0.0016586014120003015 -0.0074454895686133843 0 -0.0016957461735818428 -0.010772005948215948 0 -0.0014765291561584326 -0.01046017858757891 0 -0.0018159686139590909 -0.014466102664504193 0 -0.002195609305900455 -0.015108320091717791 0 -0.0025446186452586523 -0.014597086220702361 0 -0.0011440799070436861 -0.01452723427502369 0 -0.0018159686139590909 -0.014466102664504193 0 -0.0015957766104561109 -0.015307917174041659 0 -0.0018159686139590909 -0.014466102664504193 0 -0.0015957766104561109 -0.015307917174041659 0 -0.002195609305900455 -0.015108320091717791 0 -0.002195609305900455 -0.015108320091717791 0 -0.0023545095254023153 -0.015740443007340173 0 -0.0024991850212258927 -0.015401663987556876 0 -0.0015957766104561109 -0.015307917174041659 0 -0.002195609305900455 -0.015108320091717791 0 -0.0023545095254023153 -0.015740443007340173 0 -0.0036260001831229082 -0.011990560177124767 0 -0.002676472338245858 -0.012162215441386886 0 -0.0030316062776437388 -0.012730182868961755 0 -0.0022423023702886186 -0.013633982624952207 0 -0.0025840110490880572 -0.014210441780817679 0 -0.002731094856782247 -0.011485404864058435 0 -0.0036260001831229082 -0.011990560177124767 0 -0.002676472338245858 -0.012162215441386886 0 -0.0020081397413896519 -0.011865581248922067 0 -0.002731094856782247 -0.011485404864058435 0 -0.002676472338245858 -0.012162215441386886 0 -0.0021861683259785771 -0.012744171131596517 0 -0.002676472338245858 -0.012162215441386886 0 -0.0030316062776437388 -0.012730182868961755 0 -0.002843080753925122 -0.010695364238725746 0 -0.0036760681426673413 -0.013360081818676026 0 -0.0036260001831229082 -0.011990560177124767 0 -0.0030316062776437388 -0.012730182868961755 0 -0.0038812525645872432 -0.012714252355680552 0 -0.0036760681426673413 -0.013360081818676026 0 -0.0039192889597281875 -0.014824503428118276 0 -0.0028352999427429634 -0.016647501318613502 0 -0.0038757918374904281 -0.016612337051292107 0 -0.0040028450000170208 -0.016296245484736675 0 -0.0025840110490880572 -0.014210441780817679 0 -0.0039192889597281875 -0.014824503428118276 0 -0.0023977611035802195 -0.015399697576292923 0 -0.0028352999427429634 -0.016647501318613502 0 -0.0040028450000170208 -0.016296245484736675 0 -0.0039192889597281875 -0.014824503428118276 0 -0.003730961991298451 -0.019179864185555631 0 -0.003730961991298451 -0.019179864185555631 0 -0.0028869744405414502 -0.021737091814545466 0 -0.0042322465762501321 -0.020829445886006517 0 -0.0032883966783785442 -0.020898615552082566 0 -0.0039528697529793598 -0.02027413891261572 0 -0.0031992757044661362 -0.022119106034481043 0 -0.0031425441939180667 -0.022262638511916604 0 -0.0025246391826723551 -0.02219827560451923 0 -0.003730961991298451 -0.019179864185555631 0 -0.0032534222303403581 -0.018413260555044858 0 -0.0031425441939180667 -0.022262638511916604 0 -0.0028472440528157714 -0.022942979275077154 0 -0.0027654235209823848 -0.022488803998242993 0 -0.003129479588117468 -0.016196876388075637 0 -0.0027044164017671333 -0.01561738454440981 0 -0.0034247030810377757 -0.015427215051542455 0 -0.0032534222303403581 -0.018413260555044858 0 -0.0030779616957054331 -0.019353969725671605 0 -0.0023545095254023153 -0.015740443007340173 0 -0.003129479588117468 -0.016196876388075637 0 -0.0027044164017671333 -0.01561738454440981 0 -0.0025840110490880572 -0.014210441780817679 0 -0.0032534222303403581 -0.018413260555044858 0 -0.0023545095254023153 -0.015740443007340173 0 -0.0027044164017671333 -0.01561738454440981 0 -0.0024991850212258927 -0.015401663987556876 0 -0.002195609305900455 -0.015108320091717791 0 -0.0024991850212258927 -0.015401663987556876 0 -0.0027460902711945435 -0.015154662214915163 0 -0.0027044164017671333 -0.01561738454440981 0 -0.0024991850212258927 -0.015401663987556876 0 -0.0027460902711945435 -0.015154662214915163 0 -0.002195609305900455 -0.015108320091717791 0 -0.0027460902711945435 -0.015154662214915163 0 -0.0025446186452586523 -0.014597086220702361 0 -0.0027044164017671333 -0.01561738454440981 0 -0.0027460902711945435 -0.015154662214915163 0 -0.0034247030810377757 -0.015427215051542455 0 -0.0027460902711945435 -0.015154662214915163 0 -0.0034247030810377757 -0.015427215051542455 0 -0.0031558573480370386 -0.014729567428454856 0 -0.0034247030810377757 -0.015427215051542455 0 -0.0031558573480370386 -0.014729567428454856 0 -0.0037004873816399077 -0.014679483448724705 0 -0.0027460902711945435 -0.015154662214915163 0 -0.0031558573480370386 -0.014729567428454856 0 -0.0025446186452586523 -0.014597086220702361 0 -0.0019362798122623814 -0.023700655821435393 0 -0.002256257196737119 -0.023240253314067146 0 -0.0017642109215227969 -0.023178309602999103 0 -0.0019362798122623814 -0.023700655821435393 0 -0.0025372065589343998 -0.023570737122931135 0 -0.002256257196737119 -0.023240253314067146 0 -0.0031558573480370386 -0.014729567428454856 0 -0.0037004873816399077 -0.014679483448724705 0 -0.003501604408718135 -0.014158065432399333 0 -0.0028472440528157714 -0.022942979275077154 0 -0.0025372065589343998 -0.023570737122931135 0 -0.002256257196737119 -0.023240253314067146 0 -0.0028472440528157714 -0.022942979275077154 0 -0.002256257196737119 -0.023240253314067146 0 -0.0022236749539113025 -0.022785480706914503 0 -0.0030779616957054331 -0.019353969725671605 0 -0.0032219612234881834 -0.019089117024318727 0 -0.002256257196737119 -0.023240253314067146 0 -0.0022236749539113025 -0.022785480706914503 0 -0.0017642109215227969 -0.023178309602999103 0 -0.0022236749539113025 -0.022785480706914503 0 -0.0027654235209823848 -0.022488803998242993 0 -0.0025246391826723551 -0.02219827560451923 0 -0.0028472440528157714 -0.022942979275077154 0 -0.0022236749539113025 -0.022785480706914503 0 -0.0027654235209823848 -0.022488803998242993 0 -0.0031425441939180667 -0.022262638511916604 0 -0.0027654235209823848 -0.022488803998242993 0 -0.0025246391826723551 -0.02219827560451923 0 -0.0028869744405414502 -0.021737091814545466 0 -0.002139103494105332 -0.021559796151169024 0 -0.0032883966783785442 -0.020898615552082566 0 -0.0027804615679831012 -0.020251194152550597 0 -0.0023283912343242627 -0.020968818360521474 0 -0.0022236749539113025 -0.022785480706914503 0 -0.0025246391826723551 -0.02219827560451923 0 -0.0018923360508782947 -0.022278449052278444 0 -0.0027804615679831012 -0.020251194152550597 0 -0.0026983840873684986 -0.019361014920911392 0 -0.0034363382080709768 -0.019947179838891375 0 -0.0027804615679831012 -0.020251194152550597 0 -0.0026983840873684986 -0.019361014920911392 0 -0.0020260062817201913 -0.020119535140629814 0 -0.0026983840873684986 -0.019361014920911392 0 -0.0034363382080709768 -0.019947179838891375 0 -0.0036187257279373291 -0.01922714940783022 0 -0.0034363382080709768 -0.019947179838891375 0 -0.0039983397894900871 -0.019719670119438364 0 -0.0036187257279373291 -0.01922714940783022 0 -0.0032883966783785442 -0.020898615552082566 0 -0.0027804615679831012 -0.020251194152550597 0 -0.0034363382080709768 -0.019947179838891375 0 -0.0032883966783785442 -0.020898615552082566 0 -0.0034363382080709768 -0.019947179838891375 0 -0.0039528697529793598 -0.02027413891261572 0 -0.0042322465762501321 -0.020829445886006517 0 -0.0039528697529793598 -0.02027413891261572 0 -0.0045726472528550711 -0.019979099056936934 0 -0.0039528697529793598 -0.02027413891261572 0 -0.0045726472528550711 -0.019979099056936934 0 -0.0039983397894900871 -0.019719670119438364 0 -0.0034363382080709768 -0.019947179838891375 0 -0.0039528697529793598 -0.02027413891261572 0 -0.0039983397894900871 -0.019719670119438364 0 -0.003730961991298451 -0.019179864185555631 0 -0.0043668609589967555 -0.017422451180047878 0 -0.0040353251218978722 -0.01714211203108576 0 -0.0040876431388749811 -0.017150569893220547 0 -0.0040636978365082036 -0.017218006632668086 0 -0.0039192889597281875 -0.014824503428118276 0 -0.0043668609589967555 -0.017422451180047878 0 -0.0045443679398791421 -0.014411601546563126 0 -0.0047355209315774636 -0.013849980477954958 0 -0.0049472674502843228 -0.014405322108825542 0 -0.0045443679398791421 -0.014411601546563126 0 -0.0049472674502843228 -0.014405322108825542 0 -0.0046975704668949158 -0.015063473209723902 0 -0.0045233428350461881 -0.014097691673600031 0 -0.0043822910851719519 -0.016028178886357311 0 -0.0043668609589967555 -0.017422451180047878 0 -0.0043822910851719519 -0.016028178886357311 0 -0.0043668609589967555 -0.017422451180047878 0 -0.0041741724646750739 -0.018794354803625606 0 -0.0039958346134799198 -0.01800219517430884 0 -0.0039330397114662264 -0.017856250528885433 0 -0.0040665493323402153 -0.017838315289424953 0 -0.0045726472528550711 -0.019979099056936934 0 -0.0039983397894900871 -0.019719670119438364 0 -0.0042926847725211249 -0.019167220800754305 0 -0.0039983397894900871 -0.019719670119438364 0 -0.0042926847725211249 -0.019167220800754305 0 -0.0036187257279373291 -0.01922714940783022 0 -0.0041741724646750739 -0.018794354803625606 0 -0.0038856219450978057 -0.017921977877032723 0 -0.0042926847725211249 -0.019167220800754305 0 -0.0040199041122689835 -0.018320032876256227 0 -0.0036187257279373291 -0.01922714940783022 0 -0.0039330397114662264 -0.017856250528885433 0 -0.0039772765624644761 -0.017760055617799812 0 -0.0038166497082756106 -0.017668275794309112 0 -0.0043822910851719519 -0.016028178886357311 0 -0.0040067181834250636 -0.017382394156303993 0 -0.0040665493323402153 -0.017838315289424953 0 -0.0039772765624644761 -0.017760055617799812 0 -0.0040403264865108415 -0.017649934633732978 0 -0.0039330397114662264 -0.017856250528885433 0 -0.0040665493323402153 -0.017838315289424953 0 -0.0039772765624644761 -0.017760055617799812 0 -0.0039772765624644761 -0.017760055617799812 0 -0.0040403264865108415 -0.017649934633732978 0 -0.0038166497082756106 -0.017668275794309112 0 -0.0039548650522234167 -0.016687911778780977 0 -0.0039432432011447874 -0.016705255816097435 0 -0.0039296779828615347 -0.016689686862265584 0 -0.0039395455147207123 -0.016654421153205045 0 -0.0039548650522234167 -0.016687911778780977 0 -0.0039296779828615347 -0.016689686862265584 0 -0.0039088447466960469 -0.017526844406705135 0 -0.0040403264865108415 -0.017649934633732978 0 -0.0038166497082756106 -0.017668275794309112 0 -0.0031508487634282619 -0.017672988544122876 0 -0.0035226586186032434 -0.018072533370976033 0 -0.0033498742055191807 -0.018630505238335801 0 -0.0036263194168192729 -0.017384583650760878 0 -0.0040199041122689835 -0.018320032876256227 0 -0.0035226586186032434 -0.018072533370976033 0 -0.0040199041122689835 -0.018320032876256227 0 -0.0035226586186032434 -0.018072533370976033 0 -0.0033498742055191807 -0.018630505238335801 0 -0.0031508487634282619 -0.017672988544122876 0 -0.0033498742055191807 -0.018630505238335801 0 -0.0023481977140921424 -0.018451009519596329 0 -0.0023818207716544831 -0.017670636220401437 0 -0.0031508487634282619 -0.017672988544122876 0 -0.0023481977140921424 -0.018451009519596329 0 -0.0026262521068902952 -0.019529531284171415 0 -0.0033096589655815466 -0.018688319815615983 0 -0.0025778941665855729 -0.019661628130056882 0 -0.0033498742055191807 -0.018630505238335801 0 -0.0023481977140921424 -0.018451009519596329 0 -0.0040199041122689835 -0.018320032876256227 0 -0.0033498742055191807 -0.018630505238335801 0 -0.0036187257279373291 -0.01922714940783022 0 -0.0026983840873684986 -0.019361014920911392 0 -0.0033498742055191807 -0.018630505238335801 0 -0.0036187257279373291 -0.01922714940783022 0 -0.0016388181923962346 -0.024053452225800243 0 -0.0015654125356524054 -0.024060167343406193 0 -0.0014922629166198875 -0.024026593062854377 0 -0.0015456761933175091 -0.023929499656447202 0 -0.0014922629166198875 -0.024026593062854377 0 -0.001530728304985237 -0.024046125118306547 0 -0.00094719114761306685 -0.018796508356231138 0 -0.0016502661775623347 -0.019516833940541125 0 -0.00091914331541740723 -0.020218220308620683 0 -0.0015902653140454986 -0.022376150017624531 0 -0.0011855570459290861 -0.022047499229618208 0 -0.0015902653140454986 -0.022376150017624531 0 -0.0013097488315888207 -0.02448150332088497 0 -0.0023481977140921424 -0.018451009519596329 0 -0.00094719114761306685 -0.018796508356231138 0 -0.0016502661775623347 -0.019516833940541125 0 -0.0025778941665855729 -0.019661628130056882 0 -0.0023481977140921424 -0.018451009519596329 0 -0.0016502661775623347 -0.019516833940541125 0 -0.0016353745550554389 -0.01783897685722053 0 -0.0023481977140921424 -0.018451009519596329 0 -0.00094719114761306685 -0.018796508356231138 0 -0.0016353745550554389 -0.01783897685722053 0 -0.0023818207716544831 -0.017670636220401437 0 -0.0023481977140921424 -0.018451009519596329 0 -0.0016388181923962346 -0.024053452225800243 0 -0.0017128523575933798 -0.02369549907323799 0 -0.0015100917690481126 -0.023925417249878504 0 -0.0017384584005698813 -0.020773963504540093 0 -0.0015902653140454986 -0.022376150017624531 0 -0.0019721318802799334 -0.023652351405754168 0 -0.0017069526959092893 -0.023986241373997855 0 -0.0017128523575933798 -0.02369549907323799 0 -0.0015902653140454986 -0.022376150017624531 0 -0.0016911251915624674 -0.024249501913934712 0 -0.0016388181923962346 -0.024053452225800243 0 -0.0015654125356524054 -0.024060167343406193 0 -0.0015100917690481126 -0.023925417249878504 0 -0.0017128523575933798 -0.02369549907323799 0 -0.0014893683999511649 -0.023752952299541084 0 -0.0015100917690481126 -0.023925417249878504 0 -0.0014893683999511649 -0.023752952299541084 0 -0.0013516184798857125 -0.023821848919397114 0 -0.0015100917690481126 -0.023925417249878504 0 -0.0013516184798857125 -0.023821848919397114 0 -0.0012894593442177573 -0.023943876024930241 0 -0.0011560267990397795 -0.023894443169823854 0 -0.0013340768190721283 -0.023646737370273511 0 -0.0014893683999511649 -0.023752952299541084 0 -0.0013516184798857125 -0.023821848919397114 0 -0.0011495054352195246 -0.023730787114875085 0 -0.0013340768190721283 -0.023646737370273511 0 -0.0013516184798857125 -0.023821848919397114 0 -0.0012894593442177573 -0.023943876024930241 0 -0.001132413791600213 -0.024084537786648763 0 -0.0013593497053330343 -0.02404954440132577 0 -0.0012894593442177573 -0.023943876024930241 0 -0.0015100917690481126 -0.023925417249878504 0 -0.0013593497053330343 -0.02404954440132577 0 -0.0013516184798857125 -0.023821848919397114 0 -0.0012894593442177573 -0.023943876024930241 0 -0.0015100917690481126 -0.023925417249878504 0 -0.0015654125356524054 -0.024060167343406193 0 -0.0015100917690481126 -0.023925417249878504 0 -0.0013593497053330343 -0.02404954440132577 0 -0.001000637090648109 -0.023806573182593868 0 -0.0010159145551647609 -0.023942733816760011 0 -0.00085272466573085078 -0.023905773709518428 0 -0.00089607358854616422 -0.023736329245323318 0 -0.001000637090648109 -0.023806573182593868 0 -0.00085272466573085078 -0.023905773709518428 0 -0.001000637090648109 -0.023806573182593868 0 -0.0011560267990397795 -0.023894443169823854 0 -0.0010159145551647609 -0.023942733816760011 0 -0.0011495054352195246 -0.023730787114875085 0 -0.0013516184798857125 -0.023821848919397114 0 -0.0011560267990397795 -0.023894443169823854 0 -0.0011495054352195246 -0.023730787114875085 0 -0.001000637090648109 -0.023806573182593868 0 -0.0011560267990397795 -0.023894443169823854 0 -0.0012894593442177573 -0.023943876024930241 0 -0.0011560267990397795 -0.023894443169823854 0 -0.001132413791600213 -0.024084537786648763 0 -0.0011560267990397795 -0.023894443169823854 0 -0.0010159145551647609 -0.023942733816760011 0 -0.001132413791600213 -0.024084537786648763 0 -0.0010159145551647609 -0.023942733816760011 0 -0.00093779996208727054 -0.024068525000317371 0 -0.001132413791600213 -0.024084537786648763 0 -0.0010159145551647609 -0.023942733816760011 0 -0.00093779996208727054 -0.024068525000317371 0 -0.00085272466573085078 -0.023905773709518428 0 -0.001132413791600213 -0.024084537786648763 0 -0.0010791029351518054 -0.024310207448012211 0 -0.00089353524844533938 -0.02426820636612817 0 -0.00093779996208727054 -0.024068525000317371 0 -0.001132413791600213 -0.024084537786648763 0 -0.00089353524844533938 -0.02426820636612817 0 -0.001132413791600213 -0.024084537786648763 0 -0.0010791029351518054 -0.024310207448012211 0 -0.0012767546574026214 -0.024194241732146633 0 -0.0010791029351518054 -0.024310207448012211 0 -0.0012767546574026214 -0.024194241732146633 0 -0.0012054444885415067 -0.024493339432564654 0 -0.0010791029351518054 -0.024310207448012211 0 -0.00089374002524533985 -0.024519005248415594 0 -0.00089353524844533938 -0.02426820636612817 0 -0.0010791029351518054 -0.024310207448012211 0 -0.0012054444885415067 -0.024493339432564654 0 -0.00089374002524533985 -0.024519005248415594 0 -0.0015654125356524054 -0.024060167343406193 0 -0.0012767546574026214 -0.024194241732146633 0 -0.0012054444885415067 -0.024493339432564654 0 -0.0015654125356524054 -0.024060167343406193 0 -0.0014922629166198875 -0.024026593062854377 0 -0.0014430179361335515 -0.024009173856204356 0 -0.0015358397077742398 -0.024084232513843399 0 -0.0013210490317594964 -0.024250124983412339 0 -0.0015654125356524054 -0.024060167343406193 0 -0.0013593497053330343 -0.02404954440132577 0 -0.0012767546574026214 -0.024194241732146633 0 -0.001132413791600213 -0.024084537786648763 0 -0.0013593497053330343 -0.02404954440132577 0 -0.0012767546574026214 -0.024194241732146633 0 -0.001475833497615905 -0.024053858337109685 0 -0.0014430179361335515 -0.024009173856204356 0 -0.0014318670777978232 -0.02407866290620525 0 -0.0014922629166198875 -0.024026593062854377 0 -0.001475833497615905 -0.024053858337109685 0 -0.0014430179361335515 -0.024009173856204356 0 -0.0014922629166198875 -0.024026593062854377 0 -0.001475833497615905 -0.024053858337109685 0 -0.001530728304985237 -0.024046125118306547 0 -0.0013210490317594964 -0.024250124983412339 0 -0.0010405009304566065 -0.024436194593010687 0 -0.0014430179361335515 -0.024009173856204356 0 -0.001381682645199027 -0.024069737022274034 0 -0.0013139020974951112 -0.024033894498480871 0 -0.0012054444885415067 -0.024493339432564654 0 -0.00079292691913324955 -0.024827394373876755 0 -0.00089374002524533985 -0.024519005248415594 0 -0.0014430179361335515 -0.024009173856204356 0 -0.001381682645199027 -0.024069737022274034 0 -0.0014318670777978232 -0.02407866290620525 0 -0.0014318670777978232 -0.02407866290620525 0 -0.0013806369142987899 -0.024142267407728173 0 -0.0014746530251353862 -0.024117394070987449 0 -0.001381682645199027 -0.024069737022274034 0 -0.0014318670777978232 -0.02407866290620525 0 -0.0013806369142987899 -0.024142267407728173 0 -0.001381682645199027 -0.024069737022274034 0 -0.0013806369142987899 -0.024142267407728173 0 -0.0013078920047125218 -0.024118394111488573 0 -0.001475833497615905 -0.024053858337109685 0 -0.0014318670777978232 -0.02407866290620525 0 -0.0014746530251353862 -0.024117394070987449 0 -0.001475833497615905 -0.024053858337109685 0 -0.0014746530251353862 -0.024117394070987449 0 -0.001530728304985237 -0.024046125118306547 0 -0.00091914331541740723 -0.020218220308620683 0 -0.0017542452919327555 -0.020672937463360908 0 -0.0009039971649038676 -0.021677485136863045 0 -0.0011855570459290861 -0.022047499229618208 0 -0.0012193550919186976 -0.022298631995900979 0 -0.0019327567347179728 -0.020243420276408759 0 -0.0012193550919186976 -0.022298631995900979 0 -0.0014746530251353862 -0.024117394070987449 0 -0.001530728304985237 -0.024046125118306547 0 -0.0015242171604865707 -0.024141346570514949 0 -0.0016502661775623347 -0.019516833940541125 0 -0.00091914331541740723 -0.020218220308620683 0 -0.0017542452919327555 -0.020672937463360908 0 -0.0026262521068902952 -0.019529531284171415 0 -0.0019327567347179728 -0.020243420276408759 0 -0.0025778941665855729 -0.019661628130056882 0 -0.0016502661775623347 -0.019516833940541125 0 -0.0017542452919327555 -0.020672937463360908 0 -0.0027804615679831012 -0.020251194152550597 0 -0.0020260062817201913 -0.020119535140629814 0 -0.0023283912343242627 -0.020968818360521474 0 -0.0018923360508782947 -0.022278449052278444 0 -0.0012547640508956924 -0.022331179462068033 0 -0.0015280139828989039 -0.0225112717275457 0 -0.002139103494105332 -0.021559796151169024 0 -0.001199492001416715 -0.022258527327379929 0 -0.0020260062817201913 -0.020119535140629814 0 -0.0023283912343242627 -0.020968818360521474 0 -0.0013468913873860787 -0.020907144945976418 0 -0.0023283912343242627 -0.020968818360521474 0 -0.0013468913873860787 -0.020907144945976418 0 -0.0013454759504138074 -0.021032328122098858 0 -0.0014746530251353862 -0.024117394070987449 0 -0.0015242171604865707 -0.024141346570514949 0 -0.001514790217369536 -0.024155084578298229 0 -0.0012602892355874184 -0.022360626172085608 0 -0.001189601700306363 -0.022364010507410562 0 -0.0012577474965100213 -0.022731352552626604 0 -0.0012193550919186976 -0.022298631995900979 0 -0.001199492001416715 -0.022258527327379929 0 -0.0012193550919186976 -0.022298631995900979 0 -0.0011580182684318267 -0.022503465330036606 0 -0.0012660072628451764 -0.022366529281319363 0 -0.001265623221556694 -0.022396229775747199 0 -0.0012390973161984394 -0.022397626284842209 0 -0.001199492001416715 -0.022258527327379929 0 -0.0011580182684318267 -0.022503465330036606 0 -0.0012577474965100213 -0.022731352552626604 0 -0.0015280139828989039 -0.0225112717275457 0 -0.0017042287246456336 -0.022705296080925794 0 -0.0012577474965100213 -0.022731352552626604 0 -0.0017042287246456336 -0.022705296080925794 0 -0.0013861432883802891 -0.02311435889569554 0 -0.001199492001416715 -0.022258527327379929 0 -0.0012453586783680414 -0.022683728233981616 0 -0.001189601700306363 -0.022364010507410562 0 -0.0012577474965100213 -0.022731352552626604 0 -0.00084596355935328724 -0.022785858756683552 0 -0.0012547640508956924 -0.022331179462068033 0 -0.0012577474965100213 -0.022731352552626604 0 -0.0015280139828989039 -0.0225112717275457 0 -0.0012577474965100213 -0.022731352552626604 0 -0.0013861432883802891 -0.02311435889569554 0 -0.0010290638135344967 -0.023060669330734553 0 -0.0022236749539113025 -0.022785480706914503 0 -0.0017042287246456336 -0.022705296080925794 0 -0.0017642109215227969 -0.023178309602999103 0 -0.0022236749539113025 -0.022785480706914503 0 -0.0018923360508782947 -0.022278449052278444 0 -0.0017042287246456336 -0.022705296080925794 0 -0.0018923360508782947 -0.022278449052278444 0 -0.0015280139828989039 -0.0225112717275457 0 -0.0017042287246456336 -0.022705296080925794 0 -0.0017642109215227969 -0.023178309602999103 0 -0.0013861432883802891 -0.02311435889569554 0 -0.0014825598016572515 -0.023584427207156321 0 -0.0017042287246456336 -0.022705296080925794 0 -0.0017642109215227969 -0.023178309602999103 0 -0.0013861432883802891 -0.02311435889569554 0 -0.0013861432883802891 -0.02311435889569554 0 -0.0014825598016572515 -0.023584427207156321 0 -0.0010556436629595043 -0.023429739400557051 0 -0.0013861432883802891 -0.02311435889569554 0 -0.0010556436629595043 -0.023429739400557051 0 -0.0010290638135344967 -0.023060669330734553 0 -0.0014825598016572515 -0.023584427207156321 0 -0.0011203732455005576 -0.023786014265609595 0 -0.0010556436629595043 -0.023429739400557051 0 -0.0014825598016572515 -0.023584427207156321 0 -0.0011203732455005576 -0.023786014265609595 0 -0.0013540304611695303 -0.023983447239867599 0 -0.0014825598016572515 -0.023584427207156321 0 -0.0016489110140670584 -0.023900148151736061 0 -0.0013540304611695303 -0.023983447239867599 0 -0.0019362798122623814 -0.023700655821435393 0 -0.0014825598016572515 -0.023584427207156321 0 -0.0016489110140670584 -0.023900148151736061 0 -0.0019362798122623814 -0.023700655821435393 0 -0.0017642109215227969 -0.023178309602999103 0 -0.0014825598016572515 -0.023584427207156321 0 -0.00073988774751450098 -0.023865247521331078 0 -0.00059191967672386986 -0.023247520500151619 0 -4.1162340089627275e-07 -0.023765186694069705 0 -0.00073988774751450098 -0.023865247521331078 0 -4.1162340089627275e-07 -0.023765186694069705 0 -0.00040521988310225594 -0.024209428367627756 0 -0.00073988774751450098 -0.023865247521331078 0 -0.0010556436629595043 -0.023429739400557051 0 -0.00059191967672386986 -0.023247520500151619 0 -0.0011203732455005576 -0.023786014265609595 0 -0.00073988774751450098 -0.023865247521331078 0 -0.00097831146534917753 -0.024086597703056684 0 -0.0011203732455005576 -0.023786014265609595 0 -0.00073988774751450098 -0.023865247521331078 0 -0.0010556436629595043 -0.023429739400557051 0 -0.0010556436629595043 -0.023429739400557051 0 -0.0010290638135344967 -0.023060669330734553 0 -0.00059191967672386986 -0.023247520500151619 0 -0.0010290638135344967 -0.023060669330734553 0 -0.00059191967672386986 -0.023247520500151619 0 -0.00084596355935328724 -0.022785858756683552 0 -0.00059191967672386986 -0.023247520500151619 0 -0.00040946672265728366 -0.022803404010312407 0 -1.8013410646281517e-05 -0.023080135288993043 0 -0.00059191967672386986 -0.023247520500151619 0 -1.8013410646281517e-05 -0.023080135288993043 0 -4.1162340089627275e-07 -0.023765186694069705 0 -0.00059191967672386986 -0.023247520500151619 0 -0.00040946672265728366 -0.022803404010312407 0 -0.00084596355935328724 -0.022785858756683552 0 -0.00040946672265728366 -0.022803404010312407 0 -0.00084596355935328724 -0.022785858756683552 0 -0.00062832498678045052 -0.022423363023853098 0 -0.0012577474965100213 -0.022731352552626604 0 -0.0010290638135344967 -0.023060669330734553 0 -0.00084596355935328724 -0.022785858756683552 0 -0.0011580182684318267 -0.022503465330036606 0 -0.00090194404204819122 -0.0227129449153585 0 -0.0011580182684318267 -0.022503465330036606 0 -0.0010400064734642572 -0.023306144070028796 0 -0.0011824390239446715 -0.022398039935547301 0 -0.00084596355935328724 -0.022785858756683552 0 -0.00062832498678045052 -0.022423363023853098 0 -0.0014746530251353862 -0.024117394070987449 0 -0.001514790217369536 -0.024155084578298229 0 -0.0014231310983935865 -0.02418229668703761 0 -0.0010400064734642572 -0.023306144070028796 0 -0.00078628058372075043 -0.024008589348252968 0 -0.0013806369142987899 -0.024142267407728173 0 -0.0014746530251353862 -0.024117394070987449 0 -0.0014231310983935865 -0.02418229668703761 0 -0.0013806369142987899 -0.024142267407728173 0 -0.0014231310983935865 -0.02418229668703761 0 -0.0013225792063325966 -0.024197189186988662 0 -0.00040946672265728366 -0.022803404010312407 0 -0.00062832498678045052 -0.022423363023853098 0 -4.966608350037321e-05 -0.022456152703506704 0 -0.0012957266382818558 -0.024533457243907222 0 -0.0011588256794923589 -0.024338084247283731 0 -0.0013078920047125218 -0.024118394111488573 0 -0.0013806369142987899 -0.024142267407728173 0 -0.0013225792063325966 -0.024197189186988662 0 -0.0013078920047125218 -0.024118394111488573 0 -0.00078628058372075043 -0.024008589348252968 0 -0.00047065188261381617 -0.024751674505101351 0 -0.00078628058372075043 -0.024008589348252968 0 -0.0013610214427784047 -0.024267982025696994 0 -0.0012957266382818558 -0.024533457243907222 0 -0.0011588256794923589 -0.024338084247283731 0 -0.00092773550521402313 -0.024562738945888635 0 -0.00016536124408300331 -0.024899696456002311 0 -0.00070601535570638096 -0.02463790218031417 0 -0.00092773550521402313 -0.024562738945888635 0 -0.00052613431108247308 -0.024585928246585613 0 -0.00093916721684337917 -0.024270589434613511 0 -0.00047065188261381617 -0.024751674505101351 0 -0.00016536124408300331 -0.024899696456002311 0 -0.0011588256794923589 -0.024338084247283731 0 -0.00092773550521402313 -0.024562738945888635 0 -0.00093916721684337917 -0.024270589434613511 0 -3.1666138785602949e-05 -0.024936915813630944 0 -3.3506197438624566e-05 -0.024937794203457448 0 -3.0474753091319713e-05 -0.02493531430859065 0 -3.1666138785602949e-05 -0.024936915813630944 0 -2.4025804590876635e-05 -0.024931623314343149 0 -3.3506197438624566e-05 -0.024937794203457448 0 -2.4025804590876635e-05 -0.024931623314343149 0 -3.3506197438624566e-05 -0.024937794203457448 0 -2.8851712942061499e-05 -0.024913607072904877 0 -0.00040946672265728366 -0.022803404010312407 0 -4.966608350037321e-05 -0.022456152703506704 0 -1.8013410646281517e-05 -0.023080135288993043 0 -2.0808420400575881e-05 -0.024934836186098725 0 -3.1666138785602949e-05 -0.024936915813630944 0 -2.4025804590876635e-05 -0.024931623314343149 0 -0.00078628058372075043 -0.024008589348252968 0 3.8730956245782424e-05 -0.023937305012587121 0 -2.0808420400575881e-05 -0.024934836186098725 0 -2.4025804590876635e-05 -0.024931623314343149 0 -3.1566394008306295e-06 -0.024918978895523736 0 3.8730956245782424e-05 -0.023937305012587121 0 -1.3069739096299614e-05 -0.024322203487377347 0 -3.1566394008306295e-06 -0.024918978895523736 0 -2.8851712942061499e-05 -0.024913607072904877 0 9.756227885366928e-06 -0.02484468682120386 0 -2.4025804590876635e-05 -0.024931623314343149 0 -3.1566394008306295e-06 -0.024918978895523736 0 -2.8851712942061499e-05 -0.024913607072904877 0 -3.3506197438624566e-05 -0.024937794203457448 0 -2.8851712942061499e-05 -0.024913607072904877 0 -3.6181922934933785e-05 -0.024932189182079189 0 -2.8851712942061499e-05 -0.024913607072904877 0 -4.7773832752708071e-05 -0.024867122103700734 0 -3.6181922934933785e-05 -0.024932189182079189 0 -2.8851712942061499e-05 -0.024913607072904877 0 -4.7773832752708071e-05 -0.024867122103700734 0 9.756227885366928e-06 -0.02484468682120386 0 -4.7773832752708071e-05 -0.024867122103700734 0 9.756227885366928e-06 -0.02484468682120386 0 -8.6284980039955564e-05 -0.0246170140503124 0 -2.4213011207599156e-05 -0.024948703951465492 0 -2.5796915106988525e-08 -0.02499991472810795 0 -2.0120805572420617e-08 -0.024999879282023376 0 -4.7773832752708071e-05 -0.024867122103700734 0 -2.4213011207599156e-05 -0.024948703951465492 0 -3.6181922934933785e-05 -0.024932189182079189 0 -4.7773832752708071e-05 -0.024867122103700734 0 -2.4213011207599156e-05 -0.024948703951465492 0 -3.300388922725398e-05 -0.024865890586018676 0 -2.4213011207599156e-05 -0.024948703951465492 0 -3.6181922934933785e-05 -0.024932189182079189 0 -2.0581071689385807e-05 -0.024964007784226777 0 -3.3506197438624566e-05 -0.024937794203457448 0 -3.6181922934933785e-05 -0.024932189182079189 0 -2.7104054655552501e-05 -0.024955229069463895 0 -3.6181922934933785e-05 -0.024932189182079189 0 -2.0581071689385807e-05 -0.024964007784226777 0 -2.7104054655552501e-05 -0.024955229069463895 0 -2.0581071689385807e-05 -0.024964007784226777 0 -2.6310443703114829e-06 -0.024992536162424032 0 -2.7104054655552501e-05 -0.024955229069463895 0 -2.4213011207599156e-05 -0.024948703951465492 0 -2.0581071689385807e-05 -0.024964007784226777 0 -2.5796915106988525e-08 -0.02499991472810795 0 -2.0581071689385807e-05 -0.024964007784226777 0 -2.5796915106988525e-08 -0.02499991472810795 0 -2.6310443703114829e-06 -0.024992536162424032 0 5.4646064948381903e-05 -0.025023056937392922 0 -0.00016536124408300331 -0.024899696456002311 0 -2.6310443703114829e-06 -0.024992536162424032 0 -2.7104054655552501e-05 -0.024955229069463895 0 -3.0474753091319713e-05 -0.02493531430859065 0 -2.5796915106988525e-08 -0.02499991472810795 0 -2.6310443703114829e-06 -0.024992536162424032 0 -7.3443009331697368e-09 -0.02499998053791937 0 -2.6310443703114829e-06 -0.024992536162424032 0 4.0001890076171438e-06 -0.024998328836016027 0 -7.3443009331697368e-09 -0.02499998053791937 0 -3.3506197438624566e-05 -0.024937794203457448 0 -2.7104054655552501e-05 -0.024955229069463895 0 -3.0474753091319713e-05 -0.02493531430859065 0 -0.00013348811917699951 -0.025116420850245208 0 -0.00019232453745063923 -0.025007796260874432 0 -0.00040194747304134583 -0.025048222714854584 0 -0.00013348811917699951 -0.025116420850245208 0 -4.8014327857501447e-05 -0.02500798395896222 0 -0.00019232453745063923 -0.025007796260874432 0 -0.00013348811917699951 -0.025116420850245208 0 -5.2670804517246644e-08 -0.025000306441316341 0 -4.8014327857501447e-05 -0.02500798395896222 0 -5.2670804517246644e-08 -0.025000306441316341 0 -4.8014327857501447e-05 -0.02500798395896222 0 4.9347077416369792e-08 -0.024999720616161434 0 -0.00016536124408300331 -0.024899696456002311 0 9.0043068581163033e-08 -0.025000078741154341 0 -4.8014327857501447e-05 -0.02500798395896222 0 -3.8144878307410843e-05 -0.024958632028666227 0 4.9347077416369792e-08 -0.024999720616161434 0 -4.8014327857501447e-05 -0.02500798395896222 0 -3.8144878307410843e-05 -0.024958632028666227 0 -0.00013371857510427205 -0.024936411810254154 0 -3.8144878307410843e-05 -0.024958632028666227 0 4.9347077416369792e-08 -0.024999720616161434 0 2.2143497778165808e-05 -0.024956481369549196 0 2.2143497778165808e-05 -0.024956481369549196 0 -9.2393173569053886e-05 -0.024697941471735582 0 -1.7291590226660248e-05 -0.024331102599687054 0 2.3925689215124891e-05 -0.024909849504640438 0 -1.2884040459034635e-05 -0.024677927275109587 0 4.9347077416369792e-08 -0.024999720616161434 0 2.2143497778165808e-05 -0.024956481369549196 0 2.4932010414969815e-09 -0.02500000531668144 0 -3.8144878307410843e-05 -0.024958632028666227 0 2.2143497778165808e-05 -0.024956481369549196 0 -7.7315183011648981e-05 -0.024870088608149033 0 2.2143497778165808e-05 -0.024956481369549196 0 -9.2393173569053886e-05 -0.024697941471735582 0 -7.7315183011648981e-05 -0.024870088608149033 0 -9.2393173569053886e-05 -0.024697941471735582 0 -0.00019991824068235896 -0.024781999032407704 0 -0.00026960863839762086 -0.024549346735201129 0 -9.2393173569053886e-05 -0.024697941471735582 0 -7.7315183011648981e-05 -0.024870088608149033 0 -0.00019991824068235896 -0.024781999032407704 0 -7.7315183011648981e-05 -0.024870088608149033 0 -0.00019991824068235896 -0.024781999032407704 0 -0.00013371857510427205 -0.024936411810254154 0 -0.00019991824068235896 -0.024781999032407704 0 -0.00013371857510427205 -0.024936411810254154 0 -0.00030966947312835539 -0.0248996425018168 0 -3.8144878307410843e-05 -0.024958632028666227 0 -7.7315183011648981e-05 -0.024870088608149033 0 -0.00013371857510427205 -0.024936411810254154 0 -4.8014327857501447e-05 -0.02500798395896222 0 -0.00013371857510427205 -0.024936411810254154 0 -0.00019232453745063923 -0.025007796260874432 0 -0.00013371857510427205 -0.024936411810254154 0 -0.00019232453745063923 -0.025007796260874432 0 -0.00030966947312835539 -0.0248996425018168 0 -0.00019232453745063923 -0.025007796260874432 0 -0.00040194747304134583 -0.025048222714854584 0 -0.00030966947312835539 -0.0248996425018168 0 -0.00040194747304134583 -0.025048222714854584 0 -0.00050213792910536854 -0.024827220873993871 0 -0.00030966947312835539 -0.0248996425018168 0 -0.00070601535570638096 -0.02463790218031417 0 -0.0010405009304566065 -0.024436194593010687 0 -0.0011588256794923589 -0.024338084247283731 0 -0.00093916721684337917 -0.024270589434613511 0 -0.0013078920047125218 -0.024118394111488573 0 -0.00040194747304134583 -0.025048222714854584 0 -0.00050213792910536854 -0.024827220873993871 0 -0.00079292691913324955 -0.024827394373876755 0 -0.00093916721684337917 -0.024270589434613511 0 -0.0013139020974951112 -0.024033894498480871 0 -0.0013078920047125218 -0.024118394111488573 0 -0.001381682645199027 -0.024069737022274034 0 -0.0013139020974951112 -0.024033894498480871 0 -0.0013078920047125218 -0.024118394111488573 0 -0.00079292691913324955 -0.024827394373876755 0 -0.0006327731597899856 -0.024639776947613774 0 -0.00089374002524533985 -0.024519005248415594 0 -0.00050213792910536854 -0.024827220873993871 0 -0.00079292691913324955 -0.024827394373876755 0 -0.0006327731597899856 -0.024639776947613774 0 -0.0006327731597899856 -0.024639776947613774 0 -0.0005206394243092565 -0.024438736370616814 0 -0.00073095484317787954 -0.02446356987660174 0 -0.0006327731597899856 -0.024639776947613774 0 -0.00089374002524533985 -0.024519005248415594 0 -0.00073095484317787954 -0.02446356987660174 0 -0.00019991824068235896 -0.024781999032407704 0 -0.00030966947312835539 -0.0248996425018168 0 -0.00039977302690898158 -0.024698468699357132 0 -0.00050213792910536854 -0.024827220873993871 0 -0.00030966947312835539 -0.0248996425018168 0 -0.00039977302690898158 -0.024698468699357132 0 -0.00050213792910536854 -0.024827220873993871 0 -0.0006327731597899856 -0.024639776947613774 0 -0.00039977302690898158 -0.024698468699357132 0 -0.0006327731597899856 -0.024639776947613774 0 -0.00039977302690898158 -0.024698468699357132 0 -0.0005206394243092565 -0.024438736370616814 0 -0.00019991824068235896 -0.024781999032407704 0 -0.00039977302690898158 -0.024698468699357132 0 -0.00026960863839762086 -0.024549346735201129 0 -0.00039977302690898158 -0.024698468699357132 0 -0.0005206394243092565 -0.024438736370616814 0 -0.00026960863839762086 -0.024549346735201129 0 -0.0005206394243092565 -0.024438736370616814 0 -0.00036354113223559091 -0.024243298301801171 0 -0.00026960863839762086 -0.024549346735201129 0 -0.0005206394243092565 -0.024438736370616814 0 -0.00036354113223559091 -0.024243298301801171 0 -0.00059091242214233018 -0.024182490084101647 0 -0.00071040363832873814 -0.024306072277352132 0 -0.00073095484317787954 -0.02446356987660174 0 -0.00089353524844533938 -0.02426820636612817 0 -0.00089374002524533985 -0.024519005248415594 0 -0.00073095484317787954 -0.02446356987660174 0 -0.00089353524844533938 -0.02426820636612817 0 -0.0005206394243092565 -0.024438736370616814 0 -0.00071040363832873814 -0.024306072277352132 0 -0.00073095484317787954 -0.02446356987660174 0 -0.00071040363832873814 -0.024306072277352132 0 -0.00059091242214233018 -0.024182490084101647 0 -0.00076226064050770618 -0.02412242493293516 0 -0.0005206394243092565 -0.024438736370616814 0 -0.00071040363832873814 -0.024306072277352132 0 -0.00059091242214233018 -0.024182490084101647 0 -0.00071040363832873814 -0.024306072277352132 0 -0.00076226064050770618 -0.02412242493293516 0 -0.00089353524844533938 -0.02426820636612817 0 -0.00093779996208727054 -0.024068525000317371 0 -0.00076226064050770618 -0.02412242493293516 0 -0.00089353524844533938 -0.02426820636612817 0 -0.00076226064050770618 -0.02412242493293516 0 -0.0006822148540966801 -0.023963272561852014 0 -0.00085272466573085078 -0.023905773709518428 0 -0.00093779996208727054 -0.024068525000317371 0 -0.00076226064050770618 -0.02412242493293516 0 -0.00085272466573085078 -0.023905773709518428 0 -0.00059091242214233018 -0.024182490084101647 0 -0.00076226064050770618 -0.02412242493293516 0 -0.0006822148540966801 -0.023963272561852014 0 -0.00059091242214233018 -0.024182490084101647 0 -0.0006822148540966801 -0.023963272561852014 0 -0.00050372128622478459 -0.024005740532290321 0 -0.0006822148540966801 -0.023963272561852014 0 -0.0006138659174182115 -0.023799697843864449 0 -0.00050372128622478459 -0.024005740532290321 0 -0.00076324521072587237 -0.023753133370528697 0 -0.0006822148540966801 -0.023963272561852014 0 -0.0006138659174182115 -0.023799697843864449 0 -0.00076324521072587237 -0.023753133370528697 0 -0.0006822148540966801 -0.023963272561852014 0 -0.00085272466573085078 -0.023905773709518428 0 -0.00089607358854616422 -0.023736329245323318 0 -0.00076324521072587237 -0.023753133370528697 0 -0.00085272466573085078 -0.023905773709518428 0 -0.00036354113223559091 -0.024243298301801171 0 -0.00032142405265943525 -0.024030542308869494 0 -0.00050372128622478459 -0.024005740532290321 0 -0.00036354113223559091 -0.024243298301801171 0 -0.00059091242214233018 -0.024182490084101647 0 -0.00050372128622478459 -0.024005740532290321 0 -0.0006138659174182115 -0.023799697843864449 0 -0.00050372128622478459 -0.024005740532290321 0 -0.00045081212259315663 -0.023810937969673034 0 -0.00032142405265943525 -0.024030542308869494 0 -0.00050372128622478459 -0.024005740532290321 0 -0.00045081212259315663 -0.023810937969673034 0 -0.0002571358936404446 -0.023754247091343404 0 -0.00032142405265943525 -0.024030542308869494 0 -0.00045081212259315663 -0.023810937969673034 0 -2.6867166569728177e-05 -0.024992739903341752 0 1.957394728382133e-06 -0.024998368521703333 0 6.8753632239779338e-06 -0.025002382010488083 0 -0.0002571358936404446 -0.023754247091343404 0 -0.00032142405265943525 -0.024030542308869494 0 -1.7291590226660248e-05 -0.024331102599687054 0 -0.00016931751854974282 -0.024309254583822448 0 -1.2884040459034635e-05 -0.024677927275109587 0 9.5879161578559143e-10 -0.024999994529033915 0 1.957394728382133e-06 -0.024998368521703333 0 2.4932010414969815e-09 -0.02500000531668144 0 1.957394728382133e-06 -0.024998368521703333 0 2.4932010414969815e-09 -0.02500000531668144 0 6.8753632239779338e-06 -0.025002382010488083 0 2.2143497778165808e-05 -0.024956481369549196 0 2.4932010414969815e-09 -0.02500000531668144 0 6.8753632239779338e-06 -0.025002382010488083 0 -0.00036354113223559091 -0.024243298301801171 0 -0.00026960863839762086 -0.024549346735201129 0 -1.7291590226660248e-05 -0.024331102599687054 0 -0.00036354113223559091 -0.024243298301801171 0 -0.00032142405265943525 -0.024030542308869494 0 -1.7291590226660248e-05 -0.024331102599687054 0 -9.2393173569053886e-05 -0.024697941471735582 0 -0.00026960863839762086 -0.024549346735201129 0 -1.7291590226660248e-05 -0.024331102599687054 0 -2.0719472753312591e-05 -0.024964600338742465 0 -1.1169741888772107e-09 -0.024999957355947608 0 -4.169057489378668e-08 -0.024999986360455372 0 -2.0719472753312591e-05 -0.024964600338742465 0 -1.754351057172958e-05 -0.024978340901279195 0 -4.169057489378668e-08 -0.024999986360455372 0 -2.0719472753312591e-05 -0.024964600338742465 0 -1.1169741888772107e-09 -0.024999957355947608 0 -2.3021955431395572e-05 -0.024971345242436098 0 -2.0719472753312591e-05 -0.024964600338742465 0 -4.5522055612875784e-05 -0.024926897845491399 0 -2.3021955431395572e-05 -0.024971345242436098 0 -6.7327062472222546e-05 -0.024922632547129314 0 -4.5522055612875784e-05 -0.024926897845491399 0 -2.3021955431395572e-05 -0.024971345242436098 0 -6.7327062472222546e-05 -0.024922632547129314 0 -4.5522055612875784e-05 -0.024926897845491399 0 -9.0987403844136979e-05 -0.024883274424611995 0 -4.5522055612875784e-05 -0.024926897845491399 0 -7.865516861158178e-05 -0.024882603611425431 0 -9.0987403844136979e-05 -0.024883274424611995 0 -2.0719472753312591e-05 -0.024964600338742465 0 -4.5522055612875784e-05 -0.024926897845491399 0 -2.7779743391284514e-05 -0.024943013649872052 0 -4.5522055612875784e-05 -0.024926897845491399 0 -2.7779743391284514e-05 -0.024943013649872052 0 -7.865516861158178e-05 -0.024882603611425431 0 -0.00034337128911771136 -0.025211164019464806 0 -0.00055527961152701446 -0.025091396371012174 0 -0.00066247938682010199 -0.025325163424237927 0 -0.00018355972510033421 -0.025072340968706943 0 -0.00039715111282706805 -0.025122626043944146 0 -0.00034337128911771136 -0.025211164019464806 0 -0.00055527961152701446 -0.025091396371012174 0 -0.00032172495097484695 -0.024901358372489038 0 -0.00034337128911771136 -0.025211164019464806 0 -0.00018843523363363068 -0.025033553904288887 0 -0.00032172495097484695 -0.024901358372489038 0 -0.00034337128911771136 -0.025211164019464806 0 -0.00018843523363363068 -0.025033553904288887 0 -2.4093188039711482e-05 -0.025024121885006769 0 -0.00018843523363363068 -0.025033553904288887 0 -2.4093188039711482e-05 -0.025024121885006769 0 -2.8088892254097366e-06 -0.02499652341462014 0 -0.00018355972510033421 -0.025072340968706943 0 -4.1809893813123842e-05 -0.025030557942131337 0 -2.0719472753312591e-05 -0.024964600338742465 0 -2.7779743391284514e-05 -0.024943013649872052 0 -1.754351057172958e-05 -0.024978340901279195 0 -2.7779743391284514e-05 -0.024943013649872052 0 -1.754351057172958e-05 -0.024978340901279195 0 -2.4093188039711482e-05 -0.025024121885006769 0 -1.754351057172958e-05 -0.024978340901279195 0 -1.6190439032962985e-05 -0.025005667154777835 0 -2.4093188039711482e-05 -0.025024121885006769 0 -1.754351057172958e-05 -0.024978340901279195 0 -4.169057489378668e-08 -0.024999986360455372 0 -1.6190439032962985e-05 -0.025005667154777835 0 -4.169057489378668e-08 -0.024999986360455372 0 -1.6190439032962985e-05 -0.025005667154777835 0 9.2950320250230392e-09 -0.025000003705656908 0 -2.4093188039711482e-05 -0.025024121885006769 0 -2.8088892254097366e-06 -0.02499652341462014 0 9.2950320250230392e-09 -0.025000003705656908 0 -1.6190439032962985e-05 -0.025005667154777835 0 -2.4093188039711482e-05 -0.025024121885006769 0 9.2950320250230392e-09 -0.025000003705656908 0 -2.8088892254097366e-06 -0.02499652341462014 0 9.2950320250230392e-09 -0.025000003705656908 0 5.6399199631307163e-07 -0.024982775638967399 0 9.2950320250230392e-09 -0.025000003705656908 0 5.6399199631307163e-07 -0.024982775638967399 0 1.4366897004087769e-08 -0.024999936331096494 0 -0.00018843523363363068 -0.025033553904288887 0 -2.8088892254097366e-06 -0.02499652341462014 0 -0.00032172495097484695 -0.024901358372489038 0 -2.8088892254097366e-06 -0.02499652341462014 0 5.6399199631307163e-07 -0.024982775638967399 0 -4.8379752091227084e-05 -0.025034361514900426 0 -1.3592659856860404e-05 -0.024996490438086827 0 -0.00018618528747042158 -0.024970516729603376 0 5.6399199631307163e-07 -0.024982775638967399 0 -2.7670970018928609e-05 -0.024874147983658432 0 -4.8379752091227084e-05 -0.025034361514900426 0 5.6399199631307163e-07 -0.024982775638967399 0 -7.5663648216909471e-06 -0.024939857142931645 0 -2.7670970018928609e-05 -0.024874147983658432 0 5.6399199631307163e-07 -0.024982775638967399 0 1.4366897004087769e-08 -0.024999936331096494 0 -7.5663648216909471e-06 -0.024939857142931645 0 1.4366897004087769e-08 -0.024999936331096494 0 -7.5663648216909471e-06 -0.024939857142931645 0 -2.0120805572420617e-08 -0.024999879282023376 0 -7.5663648216909471e-06 -0.024939857142931645 0 -3.300388922725398e-05 -0.024865890586018676 0 -2.7670970018928609e-05 -0.024874147983658432 0 -2.4213011207599156e-05 -0.024948703951465492 0 -3.300388922725398e-05 -0.024865890586018676 0 -2.0120805572420617e-08 -0.024999879282023376 0 -7.5663648216909471e-06 -0.024939857142931645 0 -3.300388922725398e-05 -0.024865890586018676 0 -2.0120805572420617e-08 -0.024999879282023376 0 -8.6284980039955564e-05 -0.0246170140503124 0 -2.7670970018928609e-05 -0.024874147983658432 0 -0.00031387912685391293 -0.025031047779767376 0 -1.3069739096299614e-05 -0.024322203487377347 0 -6.0590014230904643e-05 -0.024585468996754008 0 -4.1162340089627275e-07 -0.023765186694069705 0 -8.6284980039955564e-05 -0.0246170140503124 0 -0.00040521988310225594 -0.024209428367627756 0 -4.7773832752708071e-05 -0.024867122103700734 0 -3.300388922725398e-05 -0.024865890586018676 0 -8.6284980039955564e-05 -0.0246170140503124 0 -3.300388922725398e-05 -0.024865890586018676 0 -8.6284980039955564e-05 -0.0246170140503124 0 -2.7670970018928609e-05 -0.024874147983658432 0 -2.7670970018928609e-05 -0.024874147983658432 0 -4.8379752091227084e-05 -0.025034361514900426 0 -0.00031387912685391293 -0.025031047779767376 0 -0.00018618528747042158 -0.024970516729603376 0 -0.00050482450287183821 -0.024939946013241988 0 -0.00055527961152701446 -0.025091396371012174 0 -0.00032172495097484695 -0.024901358372489038 0 -0.00068060221990019266 -0.024855818632240595 0 -0.00097188494341761791 -0.024968640427215683 0 -0.00068060221990019266 -0.024855818632240595 0 -0.00090983042532904416 -0.025107975109044403 0 -0.00097188494341761791 -0.024968640427215683 0 -0.00097418812466573961 -0.02484498660861419 0 -0.00068060221990019266 -0.024855818632240595 0 -0.00094597082316994884 -0.024846680398854203 0 -0.00050482450287183821 -0.024939946013241988 0 -0.00097418812466573961 -0.02484498660861419 0 -0.00031387912685391293 -0.025031047779767376 0 -0.00057148245166530303 -0.024755531423070874 0 -8.6284980039955564e-05 -0.0246170140503124 0 -0.00057148245166530303 -0.024755531423070874 0 -0.00069907516759959247 -0.02443331018140666 0 -8.6284980039955564e-05 -0.0246170140503124 0 -0.00031387912685391293 -0.025031047779767376 0 -0.00057148245166530303 -0.024755531423070874 0 -0.00057148245166530303 -0.024755531423070874 0 -0.00085489083425274259 -0.024644294676213364 0 -0.00069907516759959247 -0.02443331018140666 0 -0.00097418812466573961 -0.02484498660861419 0 -0.00057148245166530303 -0.024755531423070874 0 -0.00085489083425274259 -0.024644294676213364 0 -0.00085489083425274259 -0.024644294676213364 0 -0.00069907516759959247 -0.02443331018140666 0 -0.0010341332415401549 -0.024390781895957923 0 -0.00073988774751450098 -0.023865247521331078 0 -0.00069907516759959247 -0.02443331018140666 0 -0.00097831146534917753 -0.024086597703056684 0 -0.00069907516759959247 -0.02443331018140666 0 -0.00097831146534917753 -0.024086597703056684 0 -0.0010341332415401549 -0.024390781895957923 0 -0.00073988774751450098 -0.023865247521331078 0 -0.00069907516759959247 -0.02443331018140666 0 -0.00040521988310225594 -0.024209428367627756 0 -8.6284980039955564e-05 -0.0246170140503124 0 -0.00069907516759959247 -0.02443331018140666 0 -0.00040521988310225594 -0.024209428367627756 0 -0.0016489110140670584 -0.023900148151736061 0 -0.0013540304611695303 -0.023983447239867599 0 -0.0016116454689817715 -0.024107380889184224 0 -0.0018555148648220522 -0.024019540246800662 0 -0.0016489110140670584 -0.023900148151736061 0 -0.0016116454689817715 -0.024107380889184224 0 -0.0018555148648220522 -0.024019540246800662 0 -0.0016116454689817715 -0.024107380889184224 0 -0.0018540234860544484 -0.024146093489880296 0 -0.0019362798122623814 -0.023700655821435393 0 -0.0018555148648220522 -0.024019540246800662 0 -0.0016489110140670584 -0.023900148151736061 0 -0.0013540304611695303 -0.023983447239867599 0 -0.0012608029708126979 -0.024669997479230238 0 -0.0010341332415401549 -0.024390781895957923 0 -0.0013540304611695303 -0.023983447239867599 0 -0.0016082193234163292 -0.024121768721330417 0 -0.0016116454689817715 -0.024107380889184224 0 -0.0013618058646880065 -0.024018756912413401 0 -0.0014113507789476178 -0.024293084899320236 0 -0.0011203732455005576 -0.023786014265609595 0 -0.00097831146534917753 -0.024086597703056684 0 -0.0013540304611695303 -0.023983447239867599 0 -0.00097831146534917753 -0.024086597703056684 0 -0.0013540304611695303 -0.023983447239867599 0 -0.0010341332415401549 -0.024390781895957923 0 -0.00097418812466573961 -0.02484498660861419 0 -0.00085489083425274259 -0.024644294676213364 0 -0.0012608029708126979 -0.024669997479230238 0 -0.00085489083425274259 -0.024644294676213364 0 -0.0012608029708126979 -0.024669997479230238 0 -0.0010341332415401549 -0.024390781895957923 0 -0.0016116454689817715 -0.024107380889184224 0 -0.0019879891456511325 -0.024610874942957647 0 -0.0019142299478315959 -0.024296642201554357 0 -0.0016116454689817715 -0.024107380889184224 0 -0.0015697082132795457 -0.024047411572439375 0 -0.00147729692852007 -0.024007690444226834 0 -0.0017855554194875897 -0.024966050599604887 0 -0.0016727093493425352 -0.022147196028051416 0 -0.0016082193234163292 -0.024121768721330417 0 -0.0016116454689817715 -0.024107380889184224 0 -0.0015697082132795457 -0.024047411572439375 0 -0.0016116454689817715 -0.024107380889184224 0 -0.0018540234860544484 -0.024146093489880296 0 -0.0019142299478315959 -0.024296642201554357 0 -0.0015697082132795457 -0.024047411572439375 0 -0.0016183104713036226 -0.023924628940623863 0 -0.00147729692852007 -0.024007690444226834 0 -0.0016082193234163292 -0.024121768721330417 0 -0.0015697082132795457 -0.024047411572439375 0 -0.0016183104713036226 -0.023924628940623863 0 -0.00097418812466573961 -0.02484498660861419 0 -0.0012608029708126979 -0.024669997479230238 0 -0.0011852289375494441 -0.024957957082798323 0 -0.0014113507789476178 -0.024293084899320236 0 -0.0014486960114430357 -0.024748705258341209 0 -0.00097188494341761791 -0.024968640427215683 0 -0.00097418812466573961 -0.02484498660861419 0 -0.0011852289375494441 -0.024957957082798323 0 -0.00097188494341761791 -0.024968640427215683 0 -0.0011852289375494441 -0.024957957082798323 0 -0.0010621692908637393 -0.025084508336271169 0 -0.0015118598496416927 -0.023839631836535258 0 -0.0016183104713036226 -0.023924628940623863 0 -0.00147729692852007 -0.024007690444226834 0 -0.0015118598496416927 -0.023839631836535258 0 -0.0016183104713036226 -0.023924628940623863 0 -0.0015799134585502007 -0.023653358598497772 0 -0.0014486960114430357 -0.024748705258341209 0 -0.0012761952050534694 -0.02291838953839636 0 -0.0015240308668720798 -0.022142636275896695 0 -0.0012761952050534694 -0.02291838953839636 0 -0.0014619775029130044 -0.020622158759371411 0 -0.0015556593090206901 -0.020355660587617119 0 -0.0012546109342499814 -0.020411748115323435 0 -0.0012761952050534694 -0.02291838953839636 0 -0.0004880442011587344 -0.024631094015307602 0 -0.0012761952050534694 -0.02291838953839636 0 -0.00067454229006971443 -0.022329097891526643 0 -0.0015556593090206901 -0.020355660587617119 0 -0.0014571604818452977 -0.019896714612745205 0 -0.0013708768170182938 -0.020190108080547949 0 -0.00087572467584186558 -0.022992571097480357 0 -0.00095422770855729854 -0.023435280574363074 0 -0.00070156195431035954 -0.02341421750173878 0 -0.0011958821256105058 -0.025144319120787274 0 -0.0010350547183088225 -0.025242119739938826 0 -0.0010845857336537019 -0.025408933119566258 0 -0.00099977828779295873 -0.025343825389245046 0 -0.0010350547183088225 -0.025242119739938826 0 -0.0010845857336537019 -0.025408933119566258 0 -0.00099977828779295873 -0.025343825389245046 0 -0.0010350547183088225 -0.025242119739938826 0 -0.00095139223291073867 -0.025316763405691643 0 -0.0011958821256105058 -0.025144319120787274 0 -0.0010350547183088225 -0.025242119739938826 0 -0.0010621692908637393 -0.025084508336271169 0 -0.0010350547183088225 -0.025242119739938826 0 -0.0010621692908637393 -0.025084508336271169 0 -0.00090983042532904416 -0.025107975109044403 0 -0.0011852289375494441 -0.024957957082798323 0 -0.0011958821256105058 -0.025144319120787274 0 -0.0010621692908637393 -0.025084508336271169 0 -0.00097188494341761791 -0.024968640427215683 0 -0.0010621692908637393 -0.025084508336271169 0 -0.00090983042532904416 -0.025107975109044403 0 -0.00090983042532904416 -0.025107975109044403 0 -0.00074576259009538463 -0.025164788024802976 0 -0.00087650849898894296 -0.025265006565182241 0 -0.00055527961152701446 -0.025091396371012174 0 -0.00068060221990019266 -0.024855818632240595 0 -0.00074576259009538463 -0.025164788024802976 0 -0.00055527961152701446 -0.025091396371012174 0 -0.00074576259009538463 -0.025164788024802976 0 -0.00066247938682010199 -0.025325163424237927 0 -0.00068060221990019266 -0.024855818632240595 0 -0.00090983042532904416 -0.025107975109044403 0 -0.00074576259009538463 -0.025164788024802976 0 -0.00074576259009538463 -0.025164788024802976 0 -0.00066247938682010199 -0.025325163424237927 0 -0.00087650849898894296 -0.025265006565182241 0 -0.00066247938682010199 -0.025325163424237927 0 -0.00087650849898894296 -0.025265006565182241 0 -0.00093855698745160671 -0.025403999633604915 0 -0.0010350547183088225 -0.025242119739938826 0 -0.00090983042532904416 -0.025107975109044403 0 -0.00087650849898894296 -0.025265006565182241 0 -0.0010350547183088225 -0.025242119739938826 0 -0.00087650849898894296 -0.025265006565182241 0 -0.00095139223291073867 -0.025316763405691643 0 -0.00087650849898894296 -0.025265006565182241 0 -0.00095139223291073867 -0.025316763405691643 0 -0.00093855698745160671 -0.025403999633604915 0 -0.00099977828779295873 -0.025343825389245046 0 -0.00095139223291073867 -0.025316763405691643 0 -0.00093855698745160671 -0.025403999633604915 0 -7.865516861158178e-05 -0.024882603611425431 0 -0.00015228896983621209 -0.024824445261866741 0 -0.00014190331978315189 -0.024833403667504958 0 -0.00015442113527025893 -0.024826242810205835 0 -0.00014190331978315189 -0.024833403667504958 0 -0.00014704199915387855 -0.024833036894593222 0 -0.00045261152287739807 -0.025004241134434668 0 -0.00032299499948369921 -0.024972290159636947 0 -0.00012335219428333456 -0.024855541903810542 0 -0.00014704199915387855 -0.024833036894593222 0 -0.00014763402761326121 -0.024833452577075858 0 -0.00014190331978315189 -0.024833403667504958 0 -0.00012335219428333456 -0.024855541903810542 0 -0.00014704199915387855 -0.024833036894593222 0 -0.00015442113527025893 -0.024826242810205835 0 -0.00016399161370978584 -0.024818793287198902 0 -0.00016627105985057451 -0.024821654680461679 0 -0.00016399161370978584 -0.024818793287198902 0 -0.00014704199915387855 -0.024833036894593222 0 -0.00014763402761326121 -0.024833452577075858 0 -0.00015442113527025893 -0.024826242810205835 0 -0.00016399161370978584 -0.024818793287198902 0 -0.00014704199915387855 -0.024833036894593222 0 -0.00039715111282706805 -0.025122626043944146 0 -0.00045261152287739807 -0.025004241134434668 0 -7.865516861158178e-05 -0.024882603611425431 0 -0.00014190331978315189 -0.024833403667504958 0 -9.0987403844136979e-05 -0.024883274424611995 0 -0.00014190331978315189 -0.024833403667504958 0 -0.00012335219428333456 -0.024855541903810542 0 -9.0987403844136979e-05 -0.024883274424611995 0 -6.7327062472222546e-05 -0.024922632547129314 0 -9.0987403844136979e-05 -0.024883274424611995 0 -0.00011210869776718045 -0.024876864542085295 0 -6.7327062472222546e-05 -0.024922632547129314 0 -0.00011210869776718045 -0.024876864542085295 0 -0.00011485766547693021 -0.024906782739730651 0 -0.00012335219428333456 -0.024855541903810542 0 -9.0987403844136979e-05 -0.024883274424611995 0 -0.00011210869776718045 -0.024876864542085295 0 -0.00014763402761326121 -0.024833452577075858 0 -0.00014821538903967273 -0.024856981339065918 0 -0.00018536035614753686 -0.024766580156785595 0 -0.00016399161370978584 -0.024818793287198902 0 -0.00014763402761326121 -0.024833452577075858 0 -0.00018536035614753686 -0.024766580156785595 0 -0.00011210869776718045 -0.024876864542085295 0 -0.00014763402761326121 -0.024833452577075858 0 -0.00014821538903967273 -0.024856981339065918 0 -0.00012335219428333456 -0.024855541903810542 0 -0.00011210869776718045 -0.024876864542085295 0 -0.00014763402761326121 -0.024833452577075858 0 -0.00011210869776718045 -0.024876864542085295 0 -0.00014821538903967273 -0.024856981339065918 0 -0.00011485766547693021 -0.024906782739730651 0 -0.00014821538903967273 -0.024856981339065918 0 -0.00018536035614753686 -0.024766580156785595 0 -0.00019404966376881561 -0.024938873004962784 0 -0.00018536035614753686 -0.024766580156785595 0 -0.00037203582522202971 -0.024640866710593907 0 -0.00046742000632094373 -0.024837048363407027 0 -0.00045719572605069274 -0.024645924589676006 0 -0.00037203582522202971 -0.024640866710593907 0 -0.00046742000632094373 -0.024837048363407027 0 -0.00052028910103201886 -0.024645399648195003 0 -0.00045719572605069274 -0.024645924589676006 0 -0.00046742000632094373 -0.024837048363407027 0 -0.00045719572605069274 -0.024645924589676006 0 -0.00037203582522202971 -0.024640866710593907 0 -0.0004803715442673347 -0.024529083953035869 0 -0.00052028910103201886 -0.024645399648195003 0 -0.00045719572605069274 -0.024645924589676006 0 -0.00049563665398374664 -0.024597519623359022 0 -0.00052028910103201886 -0.024645399648195003 0 -0.00049563665398374664 -0.024597519623359022 0 -0.00052377684047019918 -0.024568494707547864 0 -0.00045719572605069274 -0.024645924589676006 0 -0.00049563665398374664 -0.024597519623359022 0 -0.0004803715442673347 -0.024529083953035869 0 -0.00037203582522202971 -0.024640866710593907 0 -0.00047735137120947808 -0.024496766339922937 0 -0.00024784450512407028 -0.024506709019368324 0 -0.00067454229006971443 -0.022329097891526643 0 -0.0004880442011587344 -0.024631094015307602 0 -0.00037203582522202971 -0.024640866710593907 0 -0.0004803715442673347 -0.024529083953035869 0 -0.00047735137120947808 -0.024496766339922937 0 -0.00049563665398374664 -0.024597519623359022 0 -0.00052377684047019918 -0.024568494707547864 0 -0.0004803715442673347 -0.024529083953035869 0 -0.00052377684047019918 -0.024568494707547864 0 -0.0004803715442673347 -0.024529083953035869 0 -0.0004710355632508184 -0.024488702760508765 0 -0.0007305479889490134 -0.022849777301311318 0 -0.00067454229006971443 -0.022329097891526643 0 -0.00099977828779295873 -0.025343825389245046 0 -0.00093855698745160671 -0.025403999633604915 0 -0.0010845857336537019 -0.025408933119566258 0 -0.00020696881144132144 -0.024838558867833399 0 -0.00013548107427458435 -0.024827522138953905 0 -0.00016627105985057451 -0.024821654680461679 0 -0.00045261152287739807 -0.025004241134434668 0 -0.0004880442011587344 -0.024631094015307602 0 -0.00045261152287739807 -0.025004241134434668 0 -0.0001540217538025875 -0.024854883770414074 0 -0.00018536035614753686 -0.024766580156785595 0 -0.00013548107427458435 -0.024827522138953905 0 -0.00016627105985057451 -0.024821654680461679 0 -0.00016399161370978584 -0.024818793287198902 0 -0.00018536035614753686 -0.024766580156785595 0 -0.00016627105985057451 -0.024821654680461679 0 -0.00018536035614753686 -0.024766580156785595 0 -0.00037203582522202971 -0.024640866710593907 0 -0.00024784450512407028 -0.024506709019368324 0 -0.00018914283105176972 -0.024795743739580177 0 -0.0004880442011587344 -0.024631094015307602 0 -0.0004710355632508184 -0.024488702760508765 0 -0.00084545680930347099 -0.024424961762807184 0 -0.00065722272235835396 -0.024582198937479968 0 -0.00067454229006971443 -0.022329097891526643 0 -0.0010867479231910667 -0.022753086698058044 0 -0.0014571604818452977 -0.019896714612745205 0 -0.0010748372940566761 -0.01982478687482583 0 -0.001213519612565397 -0.020100569245202992 0 -0.00052377684047019918 -0.024568494707547864 0 -0.0004710355632508184 -0.024488702760508765 0 -0.00065722272235835396 -0.024582198937479968 0 9.6370069372622935e-05 -0.024023781986904597 0 -0.00096313190067624365 -0.022880008444865284 0 -0.00065722272235835396 -0.024582198937479968 0 -0.00085175826515949894 -0.024643763985734979 0 -0.00046742000632094373 -0.024837048363407027 0 -0.00052028910103201886 -0.024645399648195003 0 -0.00052377684047019918 -0.024568494707547864 0 -0.00065722272235835396 -0.024582198937479968 0 -0.00052028910103201886 -0.024645399648195003 0 -0.00065722272235835396 -0.024582198937479968 0 -0.00046742000632094373 -0.024837048363407027 0 -0.00084545680930347099 -0.024424961762807184 0 -0.00085175826515949894 -0.024643763985734979 0 -0.0012984256318083313 -0.024334843481050725 0 -0.00084545680930347099 -0.024424961762807184 0 -0.00065722272235835396 -0.024582198937479968 0 -0.00085175826515949894 -0.024643763985734979 0 0.00014396923716142478 -0.021509403186507747 0 0.0015138646607639672 -0.021844227410081945 0 0.0010487573330924494 -0.020537756138458031 0 9.6370069372622935e-05 -0.024023781986904597 0 -0.00097053621029519405 -0.016355201707586926 0 -0.0016271670213275891 -0.0075251163021337131 0 -0.0017713664076888791 -0.0074944308450478007 0 -0.0016731423361163896 -0.0076996395940619137 0 -0.00097053621029519405 -0.016355201707586926 0 0.00047632936042597341 -0.013645607581421309 0 0.0015138646607639672 -0.021844227410081945 0 0.0021947843475052537 -0.020689129563135046 0 0.0010487573330924494 -0.020537756138458031 0 -0.0016271670213275891 -0.0075251163021337131 0 -0.0015862524144347053 -0.00756494976213849 0 -0.0016731423361163896 -0.0076996395940619137 0 -0.0016271670213275891 -0.0075251163021337131 0 -0.0015437684529242843 -0.007571441861948908 0 -0.0017606392897049133 -0.0072974937184896223 0 -0.00097053621029519405 -0.016355201707586926 0 -0.002156867230483789 -0.01024906966301877 0 -0.0021698787799094327 -0.014016810600554933 0 -0.0021445790438709899 -0.014380878055636113 0 -0.0017497457673692257 -0.014146972175356683 0 -0.0016271670213275891 -0.0075251163021337131 0 -0.0017606392897049133 -0.0072974937184896223 0 -0.0017713664076888791 -0.0074944308450478007 0 -0.001059429581230924 -0.013016595029560769 0 -0.00097053621029519405 -0.016355201707586926 0 -0.0010867479231910667 -0.022753086698058044 0 -0.00097053621029519405 -0.016355201707586926 0 -0.0010748372940566761 -0.01982478687482583 0 -0.00065971208331846727 -0.01973595642189814 0 -0.00090581748513660781 -0.020126703139869827 0 -0.00097053621029519405 -0.016355201707586926 0 -0.001786917203029454 -0.017398690247341177 0 -0.0021698787799094327 -0.014016810600554933 0 -0.0024948509703608397 -0.014516441616180998 0 -0.0021445790438709899 -0.014380878055636113 0 -0.0024948509703608397 -0.014516441616180998 0 -0.0021445790438709899 -0.014380878055636113 0 -0.0023629048332204695 -0.014925767680053551 0 -0.0021445790438709899 -0.014380878055636113 0 -0.0016371340489301973 -0.014651078362590135 0 -0.0017497457673692257 -0.014146972175356683 0 -0.0021445790438709899 -0.014380878055636113 0 -0.0023629048332204695 -0.014925767680053551 0 -0.0019573284573950679 -0.015009576125121219 0 -0.0021445790438709899 -0.014380878055636113 0 -0.0019573284573950679 -0.015009576125121219 0 -0.0016371340489301973 -0.014651078362590135 0 -0.00090581748513660781 -0.020126703139869827 0 -0.0011301719046767852 -0.020488641077316669 0 -0.0012546109342499814 -0.020411748115323435 0 -0.001786917203029454 -0.017398690247341177 0 -0.0017994286393239771 -0.018004695920834295 0 -0.0024948509703608397 -0.014516441616180998 0 -0.0023629048332204695 -0.014925767680053551 0 -0.0027878551303128604 -0.015015034092729494 0 -0.00090581748513660781 -0.020126703139869827 0 -0.001213519612565397 -0.020100569245202992 0 -0.0012546109342499814 -0.020411748115323435 0 -0.0010748372940566761 -0.01982478687482583 0 -0.00090581748513660781 -0.020126703139869827 0 -0.001213519612565397 -0.020100569245202992 0 -0.0014571604818452977 -0.019896714612745205 0 -0.001213519612565397 -0.020100569245202992 0 -0.0013708768170182938 -0.020190108080547949 0 -0.001213519612565397 -0.020100569245202992 0 -0.0013708768170182938 -0.020190108080547949 0 -0.0012546109342499814 -0.020411748115323435 0 -0.0015556593090206901 -0.020355660587617119 0 -0.0013708768170182938 -0.020190108080547949 0 -0.0012546109342499814 -0.020411748115323435 0 -0.0014619775029130044 -0.020622158759371411 0 -0.0011121534846399526 -0.020507036102039241 0 -0.0012546109342499814 -0.020411748115323435 0 -0.0017994286393239771 -0.018004695920834295 0 -0.00069308369578864311 -0.019979017537797319 0 -0.0015240308668720798 -0.022142636275896695 0 -0.0016727093493425352 -0.022147196028051416 0 -0.0017994286393239771 -0.018004695920834295 0 -0.0016727093493425352 -0.022147196028051416 0 -0.0022064792763312716 -0.018076968798189298 0 -0.002177527407475806 -0.018192902774491836 0 -0.002300353107901847 -0.018244234220419417 0 -0.0014619775029130044 -0.020622158759371411 0 -0.0011121534846399526 -0.020507036102039241 0 -0.0013513825218331079 -0.020914532189652568 0 -0.0022064792763312716 -0.018076968798189298 0 -0.002177527407475806 -0.018192902774491836 0 -0.0020468221810726692 -0.018167876600639357 0 -0.0017994286393239771 -0.018004695920834295 0 -0.0027858558197184588 -0.014818958283155994 0 -0.002177527407475806 -0.018192902774491836 0 -0.0021376535878606362 -0.018287625134426593 0 -0.0020468221810726692 -0.018167876600639357 0 -0.002177527407475806 -0.018192902774491836 0 -0.0021376535878606362 -0.018287625134426593 0 -0.002300353107901847 -0.018244234220419417 0 -0.0019879891456511325 -0.024610874942957647 0 -0.0019142299478315959 -0.024296642201554357 0 -0.0022247102378172203 -0.024101938118568984 0 -0.0021376535878606362 -0.018287625134426593 0 -0.002300353107901847 -0.018244234220419417 0 -0.0022339532391583779 -0.018405718513288826 0 -0.0016727093493425352 -0.022147196028051416 0 -0.0022641303334939799 -0.018852062059191418 0 -0.0019142299478315959 -0.024296642201554357 0 -0.0020339955962548574 -0.02416204296074673 0 -0.0022247102378172203 -0.024101938118568984 0 -0.0018540234860544484 -0.024146093489880296 0 -0.0019142299478315959 -0.024296642201554357 0 -0.0020339955962548574 -0.02416204296074673 0 -0.0018555148648220522 -0.024019540246800662 0 -0.0018540234860544484 -0.024146093489880296 0 -0.0020339955962548574 -0.02416204296074673 0 -0.0020339955962548574 -0.02416204296074673 0 -0.0022247102378172203 -0.024101938118568984 0 -0.0021231344236661213 -0.024097499938955734 0 -0.0027756306136007742 -0.015690215886030225 0 -0.0022641303334939799 -0.018852062059191418 0 -0.0035330134047716079 -0.013464607639495684 0 -0.003977337732711762 -0.01395874339892735 0 -0.003501604408718135 -0.014158065432399333 0 -0.0032219612234881834 -0.019089117024318727 0 -0.0022641303334939799 -0.018852062059191418 0 -0.0037004873816399077 -0.014679483448724705 0 -0.003977337732711762 -0.01395874339892735 0 -0.003501604408718135 -0.014158065432399333 0 -0.0019362798122623814 -0.023700655821435393 0 -0.0025372065589343998 -0.023570737122931135 0 -0.0021103846872365627 -0.023947540566972007 0 -0.0025372065589343998 -0.023570737122931135 0 -0.0022247102378172203 -0.024101938118568984 0 -0.0021103846872365627 -0.023947540566972007 0 -0.0019362798122623814 -0.023700655821435393 0 -0.0018555148648220522 -0.024019540246800662 0 -0.0021103846872365627 -0.023947540566972007 0 -0.0018555148648220522 -0.024019540246800662 0 -0.0020339955962548574 -0.02416204296074673 0 -0.0021103846872365627 -0.023947540566972007 0 -0.0020339955962548574 -0.02416204296074673 0 -0.0021231344236661213 -0.024097499938955734 0 -0.0021103846872365627 -0.023947540566972007 0 -0.0022247102378172203 -0.024101938118568984 0 -0.0021231344236661213 -0.024097499938955734 0 -0.0021103846872365627 -0.023947540566972007 0 -0.0025446186452586523 -0.014597086220702361 0 -0.0029836445398575516 -0.013955254293936542 0 -0.0024072890929281508 -0.013987237096809565 0 -0.0031558573480370386 -0.014729567428454856 0 -0.0025446186452586523 -0.014597086220702361 0 -0.0029836445398575516 -0.013955254293936542 0 -0.0031558573480370386 -0.014729567428454856 0 -0.003501604408718135 -0.014158065432399333 0 -0.0029836445398575516 -0.013955254293936542 0 -0.0035330134047716079 -0.013464607639495684 0 -0.003501604408718135 -0.014158065432399333 0 -0.0029836445398575516 -0.013955254293936542 0 -0.0035330134047716079 -0.013464607639495684 0 -0.0029836445398575516 -0.013955254293936542 0 -0.0030459284469970681 -0.013471041300687027 0 -0.0029836445398575516 -0.013955254293936542 0 -0.0024733156829618483 -0.013398934526492871 0 -0.0024072890929281508 -0.013987237096809565 0 -0.0029836445398575516 -0.013955254293936542 0 -0.0030459284469970681 -0.013471041300687027 0 -0.0024733156829618483 -0.013398934526492871 0 -0.0027934978927255934 -0.012911134195066972 0 -0.0027858558197184588 -0.014818958283155994 0 -0.0027118803910552072 -0.013063943755446488 0 -0.0035313762305382032 -0.012481401707084658 0 -0.0025325956776189296 -0.012405215894005986 0 -0.0030459284469970681 -0.013471041300687027 0 -0.0024733156829618483 -0.013398934526492871 0 -0.003095291427060397 -0.013004331196989858 0 -0.0027756306136007742 -0.015690215886030225 0 -0.0027858558197184588 -0.014818958283155994 0 -0.0035330134047716079 -0.013464607639495684 0 -0.0030459284469970681 -0.013471041300687027 0 -0.003095291427060397 -0.013004331196989858 0 -0.0023629048332204695 -0.014925767680053551 0 -0.0022772806545645935 -0.015354554377179176 0 -0.0019573284573950679 -0.015009576125121219 0 -0.0023629048332204695 -0.014925767680053551 0 -0.0027878551303128604 -0.015015034092729494 0 -0.0022772806545645935 -0.015354554377179176 0 -0.0035313762305382032 -0.012481401707084658 0 -0.0029096279827564627 -0.011817693560064544 0 -0.0025325956776189296 -0.012405215894005986 0 -0.0027858558197184588 -0.014818958283155994 0 -0.0023601600210125914 -0.013259204280415406 0 -0.0029096279827564627 -0.011817693560064544 0 -0.0025325956776189296 -0.012405215894005986 0 -0.0018205329216082115 -0.01205165472945938 0 -0.0018205329216082115 -0.01205165472945938 0 -0.0018331094265287673 -0.012858415514486628 0 -0.0010098437125121895 -0.012582096241283187 0 -0.0027118803910552072 -0.013063943755446488 0 -0.0025325956776189296 -0.012405215894005986 0 -0.0018331094265287673 -0.012858415514486628 0 -0.0025325956776189296 -0.012405215894005986 0 -0.0018205329216082115 -0.01205165472945938 0 -0.0018331094265287673 -0.012858415514486628 0 -0.0027118803910552072 -0.013063943755446488 0 -0.0018331094265287673 -0.012858415514486628 0 -0.0018302150842212316 -0.013718307966447107 0 -0.0024733156829618483 -0.013398934526492871 0 -0.0018302150842212316 -0.013718307966447107 0 -0.0024072890929281508 -0.013987237096809565 0 -0.0027934978927255934 -0.012911134195066972 0 -0.0017701227714596907 -0.013807095451260635 0 -0.0018331094265287673 -0.012858415514486628 0 -0.0018302150842212316 -0.013718307966447107 0 -0.0011557261442292262 -0.013387275199352644 0 -0.0018302150842212316 -0.013718307966447107 0 -0.0013757805990186258 -0.013989095556486694 0 -0.0011557261442292262 -0.013387275199352644 0 -0.0011440799070436861 -0.01452723427502369 0 -0.0018159686139590909 -0.014466102664504193 0 -0.0013757805990186258 -0.013989095556486694 0 -0.0018159686139590909 -0.014466102664504193 0 -0.0018302150842212316 -0.013718307966447107 0 -0.0013757805990186258 -0.013989095556486694 0 -0.0018159686139590909 -0.014466102664504193 0 -0.0018302150842212316 -0.013718307966447107 0 -0.0024072890929281508 -0.013987237096809565 0 -0.0018159686139590909 -0.014466102664504193 0 -0.0025446186452586523 -0.014597086220702361 0 -0.0024072890929281508 -0.013987237096809565 0 0.0004480110076261289 -0.007383733563018826 0 0.00022896382669566605 -0.0086531829396655248 0 -0.00031678611681884458 -0.0078941662112915131 0 -0.00062968097433573761 -0.0070021335105510422 0 0.0004480110076261289 -0.007383733563018826 0 -0.00031678611681884458 -0.0078941662112915131 0 -0.0017046829779737468 -0.007329142172741861 0 -0.00083074621915612949 -0.010896396209883419 0 -0.00058372399763457279 -0.01416392578829174 0 -0.00092825306382034981 -0.014059732305782223 0 -0.00038003243605477387 -0.013228446238273503 0 -0.0013757805990186258 -0.013989095556486694 0 -0.00092825306382034981 -0.014059732305782223 0 -0.0011557261442292262 -0.013387275199352644 0 -0.00083074621915612949 -0.010896396209883419 0 -0.00033823412522929414 -0.012663492773530174 0 -0.0011440799070436861 -0.01452723427502369 0 -0.00063552289756320227 -0.014147715757316118 0 -0.00092825306382034981 -0.014059732305782223 0 -0.0011440799070436861 -0.01452723427502369 0 -0.0013757805990186258 -0.013989095556486694 0 -0.00092825306382034981 -0.014059732305782223 0 -0.00092825306382034981 -0.014059732305782223 0 -0.0011557261442292262 -0.013387275199352644 0 -0.00038003243605477387 -0.013228446238273503 0 -0.00083074621915612949 -0.010896396209883419 0 9.1824690169619694e-06 -0.010876518821168496 0 9.1824690169619694e-06 -0.010876518821168496 0 -0.00025498690644705393 -0.011210107839787731 0 0.00022896382669566605 -0.0086531829396655248 0 -1.3233535636595152e-05 -0.0099765760135545646 0 -0.00079250799195181444 -0.0092254357428775864 0 -0.00038003243605477387 -0.013228446238273503 0 -0.0010098437125121895 -0.012582096241283187 0 -0.00018896530542255729 -0.012232435497019257 0 -0.0018331094265287673 -0.012858415514486628 0 -0.0011557261442292262 -0.013387275199352644 0 -0.0010098437125121895 -0.012582096241283187 0 -0.0011557261442292262 -0.013387275199352644 0 -0.00038003243605477387 -0.013228446238273503 0 -0.0010098437125121895 -0.012582096241283187 0 -0.0018205329216082115 -0.01205165472945938 0 -0.0010098437125121895 -0.012582096241283187 0 -0.00081383843193208189 -0.011667274306238391 0 -0.00081383843193208189 -0.011667274306238391 0 -0.00045875672812268627 -0.011959949434550371 0 -0.0003856271340519729 -0.011316218921214732 0 -0.0010098437125121895 -0.012582096241283187 0 -0.00081383843193208189 -0.011667274306238391 0 -0.00018896530542255729 -0.012232435497019257 0 -0.00025498690644705393 -0.011210107839787731 0 -0.00038706547016555717 -0.011373530191876343 0 -0.00063568271685201128 -0.01185387668972993 0 -0.00025498690644705393 -0.011210107839787731 0 -0.00081383843193208189 -0.011667274306238391 0 -0.00067219772712503122 -0.011278936076148318 0 -0.0003856271340519729 -0.011316218921214732 0 -0.00067219772712503122 -0.011278936076148318 0 -0.0003856271340519729 -0.011316218921214732 0 -0.00038718672048236873 -0.01134781432737321 0 -0.001725376015183056 -0.0087710751653091602 0 -0.0013372121228970933 -0.0092640459904800073 0 -0.0024022941108612938 -0.0069436539905358948 0 -0.0023941949846863651 -0.006947644144666123 0 -0.0023265957280415926 -0.0071974127978446777 0 -0.0024022941108612938 -0.0069436539905358948 0 -0.0023941949846863651 -0.006947644144666123 0 -0.0023992188892684382 -0.006963318289274204 0 -0.00067219772712503122 -0.011278936076148318 0 -0.0008378385993078446 -0.010923092820595897 0 -0.00038718672048236873 -0.01134781432737321 0 -0.0008378385993078446 -0.010923092820595897 0 -0.0013196120558374054 -0.011273018734129656 0 -0.0016693266691787244 -0.010559744184933032 0 -0.0023941949846863651 -0.006947644144666123 0 -0.0020823129477484667 -0.0070729742802050233 0 -0.0022509022142275493 -0.0070664565357928923 0 -0.001725376015183056 -0.0087710751653091602 0 -0.0016812001457914968 -0.010561546746817035 0 -0.0023941949846863651 -0.006947644144666123 0 -0.002047974061297351 -0.0070411479596635927 0 -0.0020823129477484667 -0.0070729742802050233 0 -0.00067219772712503122 -0.011278936076148318 0 -0.0008378385993078446 -0.010923092820595897 0 -0.0013196120558374054 -0.011273018734129656 0 -0.0018205329216082115 -0.01205165472945938 0 -0.00081383843193208189 -0.011667274306238391 0 -0.0013196120558374054 -0.011273018734129656 0 -0.00081383843193208189 -0.011667274306238391 0 -0.00067219772712503122 -0.011278936076148318 0 -0.0013196120558374054 -0.011273018734129656 0 -0.0018205329216082115 -0.01205165472945938 0 -0.0013196120558374054 -0.011273018734129656 0 -0.0022802465756857327 -0.011169820620075479 0 -0.0029096279827564627 -0.011817693560064544 0 -0.0018205329216082115 -0.01205165472945938 0 -0.0022802465756857327 -0.011169820620075479 0 -0.0023601600210125914 -0.013259204280415406 0 -0.002074150002514541 -0.013174709037737584 0 -0.0016371340489301973 -0.014651078362590135 0 -0.0013179136895402825 -0.014282057168724957 0 -0.0017497457673692257 -0.014146972175356683 0 -0.0013196120558374054 -0.011273018734129656 0 -0.0022802465756857327 -0.011169820620075479 0 -0.0016693266691787244 -0.010559744184933032 0 -0.002074150002514541 -0.013174709037737584 0 -0.0016812001457914968 -0.010561546746817035 0 -0.0021370425765691783 -0.0071355878587551075 0 -0.0020823129477484667 -0.0070729742802050233 0 -0.0022509022142275493 -0.0070664565357928923 0 -0.0020418794252864639 -0.0070498595049286001 0 -0.0020823129477484667 -0.0070729742802050233 0 -0.0020538751324483233 -0.0071940188460654182 0 -0.0021370425765691783 -0.0071355878587551075 0 -0.0020823129477484667 -0.0070729742802050233 0 -0.0020538751324483233 -0.0071940188460654182 0 -0.0016812001457914968 -0.010561546746817035 0 -0.0013654440562076338 -0.0098536661325905068 0 -0.0020418794252864639 -0.0070498595049286001 0 -0.0020538751324483233 -0.0071940188460654182 0 -0.0019184184335274469 -0.0072890238327121774 0 -0.0020538751324483233 -0.0071940188460654182 0 -0.0019184184335274469 -0.0072890238327121774 0 -0.0019887346750383232 -0.0073745334200700863 0 -0.0020538751324483233 -0.0071940188460654182 0 -0.0019887346750383232 -0.0073745334200700863 0 -0.0021574437727724183 -0.007202556665715629 0 -0.0021370425765691783 -0.0071355878587551075 0 -0.0020538751324483233 -0.0071940188460654182 0 -0.0021574437727724183 -0.007202556665715629 0 -0.0020418794252864639 -0.0070498595049286001 0 -0.0017606392897049133 -0.0072974937184896223 0 -0.0019184184335274469 -0.0072890238327121774 0 -0.0016812001457914968 -0.010561546746817035 0 -0.002156867230483789 -0.01024906966301877 0 -0.0017606392897049133 -0.0072974937184896223 0 -0.0019184184335274469 -0.0072890238327121774 0 -0.0017713664076888791 -0.0074944308450478007 0 -0.0019184184335274469 -0.0072890238327121774 0 -0.0017713664076888791 -0.0074944308450478007 0 -0.0019887346750383232 -0.0073745334200700863 0 -0.0017713664076888791 -0.0074944308450478007 0 -0.0018501795051178917 -0.0075679428798499275 0 -0.0019887346750383232 -0.0073745334200700863 0 -0.0017713664076888791 -0.0074944308450478007 0 -0.0018501795051178917 -0.0075679428798499275 0 -0.0016731423361163896 -0.0076996395940619137 0 -0.0019887346750383232 -0.0073745334200700863 0 -0.0021607436035005869 -0.0073473420016684143 0 -0.0021574437727724183 -0.007202556665715629 0 -0.0018501795051178917 -0.0075679428798499275 0 -0.0019887346750383232 -0.0073745334200700863 0 -0.0020147987344725504 -0.007503180028986446 0 -0.0020147987344725504 -0.007503180028986446 0 -0.0021607436035005869 -0.0073473420016684143 0 -0.002171534570639613 -0.0075229448316873858 0 -0.0019887346750383232 -0.0073745334200700863 0 -0.0020147987344725504 -0.007503180028986446 0 -0.0021607436035005869 -0.0073473420016684143 0 -0.0021607436035005869 -0.0073473420016684143 0 -0.002322987133134028 -0.0073288256359668544 0 -0.002171534570639613 -0.0075229448316873858 0 -0.0021607436035005869 -0.0073473420016684143 0 -0.0021574437727724183 -0.007202556665715629 0 -0.0022939494597041033 -0.0071304602953222223 0 -0.0021607436035005869 -0.0073473420016684143 0 -0.002322987133134028 -0.0073288256359668544 0 -0.0022939494597041033 -0.0071304602953222223 0 -0.002322987133134028 -0.0073288256359668544 0 -0.0023956254740515512 -0.0070605704408561844 0 -0.0025854618043826064 -0.0073861239438408133 0 -0.0023956254740515512 -0.0070605704408561844 0 -0.0025854618043826064 -0.0073861239438408133 0 -0.0024887428036986818 -0.0067293106026594263 0 -0.002322987133134028 -0.0073288256359668544 0 -0.0023956254740515512 -0.0070605704408561844 0 -0.0022939494597041033 -0.0071304602953222223 0 -0.0023956254740515512 -0.0070605704408561844 0 -0.0023992188892684382 -0.006963318289274204 0 -0.0022939494597041033 -0.0071304602953222223 0 -0.0023956254740515512 -0.0070605704408561844 0 -0.0023992188892684382 -0.006963318289274204 0 -0.0024887428036986818 -0.0067293106026594263 0 -0.0024022941108612938 -0.0069436539905358948 0 -0.0023992188892684382 -0.006963318289274204 0 -0.0024887428036986818 -0.0067293106026594263 0 -0.0023941949846863651 -0.006947644144666123 0 -0.0023992188892684382 -0.006963318289274204 0 -0.0022509022142275493 -0.0070664565357928923 0 -0.0022509022142275493 -0.0070664565357928923 0 -0.0021574437727724183 -0.007202556665715629 0 -0.0022939494597041033 -0.0071304602953222223 0 -0.0021370425765691783 -0.0071355878587551075 0 -0.0022509022142275493 -0.0070664565357928923 0 -0.0021574437727724183 -0.007202556665715629 0 -0.0023992188892684382 -0.006963318289274204 0 -0.0022509022142275493 -0.0070664565357928923 0 -0.0022939494597041033 -0.0071304602953222223 0 -0.0021830000179161218 -0.0076823991589142536 0 -0.0022329485535757115 -0.0077964247120083366 0 -0.0020009910560183117 -0.0078124402847628326 0 -0.001742116551590199 -0.0089626628141286063 0 -0.0015149700281421679 -0.0096436098058733377 0 -0.0013425879566933872 -0.010140687252688105 0 -0.00016087650305120628 -0.010209778454818578 0 -0.00072084711110855665 -0.011047328613605526 0 -0.0021830000179161218 -0.0076823991589142536 0 -0.0022329485535757115 -0.0077964247120083366 0 -0.0023292294218252131 -0.0075991893191431582 0 -0.0022329485535757115 -0.0077964247120083366 0 -0.0024795088581289291 -0.0077500895986513654 0 -0.0023292294218252131 -0.0075991893191431582 0 -0.0014075926341365925 -0.0077557168723341816 0 -0.001474942999285315 -0.0077519306496522822 0 -0.0012595994839388069 -0.0084674762892225641 0 -0.0022329485535757115 -0.0077964247120083366 0 -0.0024736398990876599 -0.0077778598507096649 0 -0.0024795088581289291 -0.0077500895986513654 0 -0.001742116551590199 -0.0089626628141286063 0 -0.0023281737400884525 -0.0076801387298055784 0 -0.0023281737400884525 -0.0076801387298055784 0 -0.0023035250698526404 -0.0066435246433252885 0 -0.0028295846964599435 -0.0047698922584472692 0 -0.0029013976427677492 -0.0048410836616865887 0 -0.0025315987906470907 -0.0051373263304936925 0 -0.0023035250698526404 -0.0066435246433252885 0 -0.0024483067777180687 -0.0069283266677791578 0 -0.0030236988163239984 -0.0068204200872396268 0 -0.0024709067042432719 -0.0068449915728085418 0 -0.0029260914676463873 -0.0072968649273695207 0 -0.0023281737400884525 -0.0076801387298055784 0 -0.0024483067777180687 -0.0069283266677791578 0 -0.0024483067777180687 -0.0069283266677791578 0 -0.0025245841823375204 -0.007691927064299167 0 -0.002515021212477079 -0.0077746755855996452 0 -0.0023292294218252131 -0.0075991893191431582 0 -0.0025854618043826064 -0.0073861239438408133 0 -0.0024483067777180687 -0.0069283266677791578 0 -0.0026841140166530583 -0.0063993652151932675 0 -0.0029013976427677492 -0.0048410836616865887 0 -0.002759222032567375 -0.005661699348742417 0 -0.0025315987906470907 -0.0051373263304936925 0 -0.002322987133134028 -0.0073288256359668544 0 -0.0023292294218252131 -0.0075991893191431582 0 -0.0025854618043826064 -0.0073861239438408133 0 -0.0021830000179161218 -0.0076823991589142536 0 -0.002171534570639613 -0.0075229448316873858 0 -0.0020009910560183117 -0.0078124402847628326 0 -0.002322987133134028 -0.0073288256359668544 0 -0.0023292294218252131 -0.0075991893191431582 0 -0.002171534570639613 -0.0075229448316873858 0 -0.0021830000179161218 -0.0076823991589142536 0 -0.0023292294218252131 -0.0075991893191431582 0 -0.002171534570639613 -0.0075229448316873858 0 -0.0024401219927168679 -0.0068767789806103629 0 -0.0015149700281421679 -0.0096436098058733377 0 -0.002171534570639613 -0.0075229448316873858 0 -0.0019119432433843185 -0.0077065035031301321 0 -0.0020225574808783106 -0.0079615316435538413 0 -0.0020147987344725504 -0.007503180028986446 0 -0.002171534570639613 -0.0075229448316873858 0 -0.0019119432433843185 -0.0077065035031301321 0 -0.0018501795051178917 -0.0075679428798499275 0 -0.0020147987344725504 -0.007503180028986446 0 -0.0019119432433843185 -0.0077065035031301321 0 -0.0019119432433843185 -0.0077065035031301321 0 -0.0017994055178362043 -0.0079786681275602744 0 -0.0016731423361163896 -0.0076996395940619137 0 -0.0018501795051178917 -0.0075679428798499275 0 -0.0019119432433843185 -0.0077065035031301321 0 -0.0016731423361163896 -0.0076996395940619137 0 0.0011499319492722503 -0.015103053261214442 0 0.00047632936042597341 -0.013645607581421309 0 0.0029010150921474119 -0.019519499131167451 0 0.0023415374225275042 -0.019518400124652752 0 0.0021947843475052537 -0.020689129563135046 0 0.0011499319492722503 -0.015103053261214442 0 0.0027881418845254443 -0.017941857726297195 0 0.0029054428189359731 -0.019516401495837131 0 0.0025309461805315178 -0.018946764863123026 0 0.0023415374225275042 -0.019518400124652752 0 -0.0019119432433843185 -0.0077065035031301321 0 -0.0017994055178362043 -0.0079786681275602744 0 -0.0020225574808783106 -0.0079615316435538413 0 0.0011499319492722503 -0.015103053261214442 0 -0.0015149700281421679 -0.0096436098058733377 0 0.0011985237832505434 -0.012774577080925772 0 -0.00058385112454806558 -0.012678247429351096 0 0.00026369823533010255 -0.014268102415648789 0 -0.00016087650305120628 -0.010209778454818578 0 0.00032923556223554088 -0.011135323455990984 0 -0.00072084711110855665 -0.011047328613605526 0 -0.0015149700281421679 -0.0096436098058733377 0 0.0010488326339047013 -0.014980923155563855 0 0.0010488326339047013 -0.014980923155563855 0 7.9075231404275066e-05 -0.013581004831651578 0 0.00032923556223554088 -0.011135323455990984 0 -0.00024004538285781003 -0.012042355830386722 0 -0.00072084711110855665 -0.011047328613605526 0 0.0033118691051777231 -0.018849465116524019 0 0.0025309461805315178 -0.018946764863123026 0 0.0028755079351885609 -0.018019837525756727 0 0.0025309461805315178 -0.018946764863123026 0 0.0028755079351885609 -0.018019837525756727 0 0.0018235567598412737 -0.018621269798078457 0 0.0029054428189359731 -0.019516401495837131 0 0.0033118691051777231 -0.018849465116524019 0 0.0025309461805315178 -0.018946764863123026 0 0.0011499319492722503 -0.015103053261214442 0 0.0010488326339047013 -0.014980923155563855 0 0.0010488326339047013 -0.014980923155563855 0 0.0011305290773897202 -0.016995814861132587 0 0.00075055679088755118 -0.014782922722694321 0 0.0011128241665056306 -0.015467352841286483 0 0.0003947040494043245 -0.015344333431703498 0 -0.00021233725782996178 -0.016742430863754501 0 0.00010390030988666503 -0.016825247517358029 0 -7.102941726519897e-05 -0.016511320277196873 0 0.00010390030988666503 -0.016825247517358029 0 0.00045220253703562302 -0.016353362235504591 0 -7.102941726519897e-05 -0.016511320277196873 0 0.0011305290773897202 -0.016995814861132587 0 7.9075231404275066e-05 -0.013581004831651578 0 0.00079251127690322895 -0.011125715019611957 0 -0.00071275367312913273 -0.010861956485453126 0 -0.00057689767667498182 -0.011511650179942209 0 7.9075231404275066e-05 -0.013581004831651578 0 -0.001120957303180931 -0.010524006055505582 0 0.00079251127690322895 -0.011125715019611957 0 -0.00057689767667498182 -0.011511650179942209 0 0.00012116023617240875 -0.01222889651926904 0 7.9075231404275066e-05 -0.013581004831651578 0 0.00025328095141698376 -0.014480992845835173 0 -0.00024004538285781003 -0.012042355830386722 0 -0.00072084711110855665 -0.011047328613605526 0 -0.002188794937335268 -0.011708311156445047 0 -0.0013425879566933872 -0.010140687252688105 0 -0.00072084711110855665 -0.011047328613605526 0 -0.002188794937335268 -0.011708311156445047 0 -0.0023281737400884525 -0.0076801387298055784 0 -0.001120957303180931 -0.010524006055505582 0 -0.0013425879566933872 -0.010140687252688105 0 -0.0025266433002736756 -0.010070435140916371 0 -0.002188794937335268 -0.011708311156445047 0 -0.00071789656045218595 -0.01074739015558651 0 -0.00057689767667498182 -0.011511650179942209 0 -0.0015828088907677369 -0.01108753194986617 0 -0.00057689767667498182 -0.011511650179942209 0 -0.0015828088907677369 -0.01108753194986617 0 -0.0014747964774869679 -0.012025349668138684 0 -0.001120957303180931 -0.010524006055505582 0 -0.00067258505304636771 -0.011454351806107488 0 -0.00062545834929154563 -0.012290773276194033 0 -0.00058233300252177043 -0.013399305760132292 0 -0.0014747964774869679 -0.012025349668138684 0 -0.00057689767667498182 -0.011511650179942209 0 -0.00062545834929154563 -0.012290773276194033 0 -0.0014747964774869679 -0.012025349668138684 0 -0.00062545834929154563 -0.012290773276194033 0 0.00012116023617240875 -0.01222889651926904 0 -0.00058233300252177043 -0.013399305760132292 0 -0.00057689767667498182 -0.011511650179942209 0 -0.00062545834929154563 -0.012290773276194033 0 0.00012116023617240875 -0.01222889651926904 0 0.00032522521192173548 -0.015642547636785145 0 0.00099312770778014299 -0.015524790465090315 0 0.00070324085856967916 -0.015026747677609364 0 0.00045220253703562302 -0.016353362235504591 0 0.00032522521192173548 -0.015642547636785145 0 0.00099312770778014299 -0.015524790465090315 0 0.00025328095141698376 -0.014480992845835173 0 0.00037017842600056889 -0.013652554462106397 0 0.0011229662451503085 -0.01149540541729605 0 0.0001761493439584526 -0.010917763801119532 0 0.00010359584857448085 -0.0098514613683243352 0 0.0011229662451503085 -0.01149540541729605 0 -0.00019525375823338561 -0.011592514556540329 0 0.0001761493439584526 -0.010917763801119532 0 0.00037017842600056889 -0.013652554462106397 0 -0.00074463433982045898 -0.011089385157022945 0 0.00037017842600056889 -0.013652554462106397 0 0.00072989864270840091 -0.012706902939662078 0 0.0020816526595647893 -0.014520741179324068 0 0.00070324085856967916 -0.015026747677609364 0 0.00019070867928370106 -0.014082626057452717 0 0.00072989864270840091 -0.012706902939662078 0 0.00045437250427840319 -0.014182264698800519 0 0.0011229662451503085 -0.01149540541729605 0 0.00048308237038742876 -0.012505068137073654 0 -0.00019525375823338561 -0.011592514556540329 0 0.0012369545968306667 -0.015853669331894884 0 0.0020816526595647893 -0.014520741179324068 0 0.00070324085856967916 -0.015026747677609364 0 0.00037017842600056889 -0.013652554462106397 0 0.0010939953050771649 -0.015370435066040123 0 0.00032522521192173548 -0.015642547636785145 0 0.00070324085856967916 -0.015026747677609364 0 0.00015835643450538714 -0.014968474009518107 0 0.00015835643450538714 -0.014968474009518107 0 0.00019070867928370106 -0.014082626057452717 0 -2.3023997345890966e-05 -0.014657619061565411 0 0.00070324085856967916 -0.015026747677609364 0 0.00015835643450538714 -0.014968474009518107 0 0.00019070867928370106 -0.014082626057452717 0 0.00019070867928370106 -0.014082626057452717 0 2.9455338931464925e-07 -0.013203136069194876 0 -3.9328937620724266e-07 -0.014372702618259866 0 0.0001607009358744592 -0.013395442047569123 0 2.9455338931464925e-07 -0.013203136069194876 0 5.5331269212207454e-07 -0.012033159628920929 0 0.0001607009358744592 -0.013395442047569123 0 0.00019070867928370106 -0.014082626057452717 0 2.9455338931464925e-07 -0.013203136069194876 0 0.00010758766111118592 -0.015880559430382593 0 6.9968393438474969e-07 -0.01437487788404013 0 -2.0450626834256645e-07 -0.015717423400255885 0 -0.00040574588497959118 -0.01496637592089867 0 -3.9328937620724266e-07 -0.014372702618259866 0 -2.3023997345890966e-05 -0.014657619061565411 0 -0.00019548158212536699 -0.015440009410624424 0 -9.1911452598095596e-08 -0.014374228775325749 0 0.00019070867928370106 -0.014082626057452717 0 -3.9328937620724266e-07 -0.014372702618259866 0 -2.3023997345890966e-05 -0.014657619061565411 0 -0.00040574588497959118 -0.01496637592089867 0 -2.3023997345890966e-05 -0.014657619061565411 0 -7.2214196814232768e-05 -0.015377753585490291 0 0.00015835643450538714 -0.014968474009518107 0 -2.3023997345890966e-05 -0.014657619061565411 0 -7.2214196814232768e-05 -0.015377753585490291 0 0.00032522521192173548 -0.015642547636785145 0 0.00015835643450538714 -0.014968474009518107 0 -7.2214196814232768e-05 -0.015377753585490291 0 -0.00040574588497959118 -0.01496637592089867 0 -0.00033801581715852107 -0.015830212429452137 0 -0.0006267845997585612 -0.015977884058683382 0 -0.00040574588497959118 -0.01496637592089867 0 -7.2214196814232768e-05 -0.015377753585490291 0 -0.00033801581715852107 -0.015830212429452137 0 -0.00033801581715852107 -0.015830212429452137 0 -7.0885116377240022e-05 -0.016058445052558459 0 -0.00037961833132326404 -0.016560913887875874 0 0.00045220253703562302 -0.016353362235504591 0 0.00032522521192173548 -0.015642547636785145 0 -7.0885116377240022e-05 -0.016058445052558459 0 0.00032522521192173548 -0.015642547636785145 0 -7.2214196814232768e-05 -0.015377753585490291 0 -7.0885116377240022e-05 -0.016058445052558459 0 -7.2214196814232768e-05 -0.015377753585490291 0 -0.00033801581715852107 -0.015830212429452137 0 -7.0885116377240022e-05 -0.016058445052558459 0 0.00045220253703562302 -0.016353362235504591 0 -7.0885116377240022e-05 -0.016058445052558459 0 -7.102941726519897e-05 -0.016511320277196873 0 -7.0885116377240022e-05 -0.016058445052558459 0 -7.102941726519897e-05 -0.016511320277196873 0 -0.00037961833132326404 -0.016560913887875874 0 -0.00021233725782996178 -0.016742430863754501 0 -7.102941726519897e-05 -0.016511320277196873 0 -0.00037961833132326404 -0.016560913887875874 0 0.0011305290773897202 -0.016995814861132587 0 -0.00066152685224507178 -0.016385019290319738 0 -0.00037961833132326404 -0.016560913887875874 0 -0.00047059685410490501 -0.016842620583405632 0 -0.00048337337205078585 -0.016917476632347304 0 -0.00047059685410490501 -0.016842620583405632 0 -0.0004171857401535149 -0.016898410204036263 0 -0.00028206397654613387 -0.017492224423513593 0 -0.00047059685410490501 -0.016842620583405632 0 -0.00028206397654613387 -0.017492224423513593 0 -0.00048337337205078585 -0.016917476632347304 0 -0.00040751539104219196 -0.016773677048394497 0 -0.00034695368005769635 -0.016325276201241464 0 -0.00047059685410490501 -0.016842620583405632 0 -0.0004171857401535149 -0.016898410204036263 0 -0.0006267845997585612 -0.015977884058683382 0 -0.00037961833132326404 -0.016560913887875874 0 -0.00047059685410490501 -0.016842620583405632 0 -0.0006267845997585612 -0.015977884058683382 0 -0.00033801581715852107 -0.015830212429452137 0 -0.00037961833132326404 -0.016560913887875874 0 -0.0006267845997585612 -0.015977884058683382 0 0.00010758766111118592 -0.015880559430382593 0 -0.00012304634258050869 -0.016765878944238564 0 -0.00013678042417626364 -0.016520909808369708 0 -0.00019548158212536699 -0.015440009410624424 0 -0.00034695368005769635 -0.016325276201241464 0 -0.0004171857401535149 -0.016898410204036263 0 -0.00012304634258050869 -0.016765878944238564 0 -0.00028278270747717909 -0.016994958334193497 0 -0.00012304634258050869 -0.016765878944238564 0 -0.00028278270747717909 -0.016994958334193497 0 -0.00013678042417626364 -0.016520909808369708 0 -0.00028278270747717909 -0.016994958334193497 0 -6.060361009129034e-07 -0.017060467859207184 0 -0.00013678042417626364 -0.016520909808369708 0 0.00010758766111118592 -0.015880559430382593 0 -2.0450626834256645e-07 -0.015717423400255885 0 -0.00013678042417626364 -0.016520909808369708 0 -6.060361009129034e-07 -0.017060467859207184 0 -2.0450626834256645e-07 -0.015717423400255885 0 -0.00013678042417626364 -0.016520909808369708 0 -6.8747514597220984e-07 -0.01840377515440092 0 -0.00029505895808708662 -0.0175463031258432 0 -4.8926859675425084e-05 -0.018548641194673705 0 -0.00028278270747717909 -0.016994958334193497 0 -6.060361009129034e-07 -0.017060467859207184 0 -0.00029505895808708662 -0.0175463031258432 0 -6.060361009129034e-07 -0.017060467859207184 0 -6.8747514597220984e-07 -0.01840377515440092 0 -0.00029505895808708662 -0.0175463031258432 0 -0.00028278270747717909 -0.016994958334193497 0 -0.00029505895808708662 -0.0175463031258432 0 -0.00041713056120438763 -0.017202962398942694 0 -0.00029505895808708662 -0.0175463031258432 0 -0.00057292643938519541 -0.017374820731720031 0 -0.00041713056120438763 -0.017202962398942694 0 -0.00057292643938519541 -0.017374820731720031 0 -0.00041713056120438763 -0.017202962398942694 0 -0.00070789713611986394 -0.017521459265438619 0 -0.0004171857401535149 -0.016898410204036263 0 -0.00028278270747717909 -0.016994958334193497 0 -0.00041713056120438763 -0.017202962398942694 0 -0.0004171857401535149 -0.016898410204036263 0 -0.00041713056120438763 -0.017202962398942694 0 -0.00028206397654613387 -0.017492224423513593 0 -0.00041713056120438763 -0.017202962398942694 0 -0.00070789713611986394 -0.017521459265438619 0 -0.00028206397654613387 -0.017492224423513593 0 -0.00070789713611986394 -0.017521459265438619 0 -0.00074195999172571234 -0.017856340666141245 0 -0.00028206397654613387 -0.017492224423513593 0 -0.00074195999172571234 -0.017856340666141245 0 -0.00041484999161818824 -0.018484151209956265 0 -0.00028206397654613387 -0.017492224423513593 0 -0.00074195999172571234 -0.017856340666141245 0 -0.00041484999161818824 -0.018484151209956265 0 -0.00097857643772088589 -0.018442966395897861 0 -0.00041484999161818824 -0.018484151209956265 0 -0.00085461626391782118 -0.01913232532090299 0 9.4662045225123555e-05 -0.019555129857255809 0 -0.00041484999161818824 -0.018484151209956265 0 -0.00085461626391782118 -0.01913232532090299 0 -0.00097857643772088589 -0.018442966395897861 0 -0.00041484999161818824 -0.018484151209956265 0 0.00063127971079413492 -0.018543565124886297 0 9.4662045225123555e-05 -0.019555129857255809 0 -0.00041484999161818824 -0.018484151209956265 0 -0.00028206397654613387 -0.017492224423513593 0 0.00063127971079413492 -0.018543565124886297 0 -0.00029323657032025104 -0.017424579113064234 0 0.00051546088405679796 -0.017431309371841279 0 -0.00028206397654613387 -0.017492224423513593 0 0.0014386893363917742 -0.017771336935330131 0 0.00063127971079413492 -0.018543565124886297 0 0.0014386893363917742 -0.017771336935330131 0 0.0018235567598412737 -0.018621269798078457 0 0.00063127971079413492 -0.018543565124886297 0 0.0028755079351885609 -0.018019837525756727 0 0.0014386893363917742 -0.017771336935330131 0 0.0018235567598412737 -0.018621269798078457 0 -0.00015934832824436397 -0.016905977182325626 0 -0.00037961833132326404 -0.016560913887875874 0 -0.00048337337205078585 -0.016917476632347304 0 0.0011305290773897202 -0.016995814861132587 0 0.00051546088405679796 -0.017431309371841279 0 0.0018235567598412737 -0.018621269798078457 0 0.0019193794831522857 -0.01918823684392949 0 0.0013421219105436305 -0.019351524828453801 0 0.0025309461805315178 -0.018946764863123026 0 0.0018235567598412737 -0.018621269798078457 0 0.0019193794831522857 -0.01918823684392949 0 0.0025309461805315178 -0.018946764863123026 0 0.0019193794831522857 -0.01918823684392949 0 0.0023415374225275042 -0.019518400124652752 0 0.00063127971079413492 -0.018543565124886297 0 0.0013421219105436305 -0.019351524828453801 0 9.4662045225123555e-05 -0.019555129857255809 0 0.0018235567598412737 -0.018621269798078457 0 0.00063127971079413492 -0.018543565124886297 0 0.0013421219105436305 -0.019351524828453801 0 0.0013421219105436305 -0.019351524828453801 0 0.0010487573330924494 -0.020537756138458031 0 9.4662045225123555e-05 -0.019555129857255809 0 0.0013421219105436305 -0.019351524828453801 0 0.0017351866094634666 -0.020001886932571836 0 0.0010487573330924494 -0.020537756138458031 0 0.0023415374225275042 -0.019518400124652752 0 0.0017351866094634666 -0.020001886932571836 0 0.0021947843475052537 -0.020689129563135046 0 0.0019193794831522857 -0.01918823684392949 0 0.0023415374225275042 -0.019518400124652752 0 0.0017351866094634666 -0.020001886932571836 0 0.0019193794831522857 -0.01918823684392949 0 0.0013421219105436305 -0.019351524828453801 0 0.0017351866094634666 -0.020001886932571836 0 0.0017351866094634666 -0.020001886932571836 0 0.0021947843475052537 -0.020689129563135046 0 0.0010487573330924494 -0.020537756138458031 0 0.0010487573330924494 -0.020537756138458031 0 -0.00037835576649502303 -0.020733927209399792 0 9.4662045225123555e-05 -0.019555129857255809 0 0.00014396923716142478 -0.021509403186507747 0 0.0010487573330924494 -0.020537756138458031 0 -0.00037835576649502303 -0.020733927209399792 0 -0.00037835576649502303 -0.020733927209399792 0 -0.0012502686520900223 -0.02113819157470586 0 -0.0012250552937997413 -0.021190812318166694 0 0.00014396923716142478 -0.021509403186507747 0 -0.00037835576649502303 -0.020733927209399792 0 -0.0012250552937997413 -0.021190812318166694 0 -0.00037835576649502303 -0.020733927209399792 0 -0.00086208288809934885 -0.020400114142959436 0 -0.0012502686520900223 -0.02113819157470586 0 -0.00085461626391782118 -0.01913232532090299 0 -0.0006191752121247736 -0.019872003429954353 0 9.4662045225123555e-05 -0.019555129857255809 0 -0.00037835576649502303 -0.020733927209399792 0 -0.0006191752121247736 -0.019872003429954353 0 9.4662045225123555e-05 -0.019555129857255809 0 -0.00086208288809934885 -0.020400114142959436 0 -0.0006191752121247736 -0.019872003429954353 0 -0.0010945025266786094 -0.019809785980082061 0 -0.00037835576649502303 -0.020733927209399792 0 -0.00086208288809934885 -0.020400114142959436 0 -0.0006191752121247736 -0.019872003429954353 0 -0.00085461626391782118 -0.01913232532090299 0 -0.0006191752121247736 -0.019872003429954353 0 -0.0010945025266786094 -0.019809785980082061 0 -0.0011177394342971859 -0.021842465376705582 0 -0.0011259925688499668 -0.021519273225843561 0 -0.0010837928693689907 -0.022331269053298547 0 -0.0011177394342971859 -0.021842465376705582 0 -0.0011779524273071822 -0.021398232993712449 0 -0.0010827079530150168 -0.021536746528035614 0 -0.0011177394342971859 -0.021842465376705582 0 -0.0011259925688499668 -0.021519273225843561 0 -0.0011779524273071822 -0.021398232993712449 0 -0.0010945025266786094 -0.019809785980082061 0 -0.0012502686520900223 -0.02113819157470586 0 -0.0015368658441749538 -0.019085735329388179 0 -0.0012455823990881194 -0.021084266356695126 0 -0.001247498924646262 -0.020247659979223717 0 -0.0011259925688499668 -0.021519273225843561 0 -0.0011779524273071822 -0.021398232993712449 0 -0.0012502686520900223 -0.02113819157470586 0 -0.00086208288809934885 -0.020400114142959436 0 -0.0010945025266786094 -0.019809785980082061 0 -0.0012502686520900223 -0.02113819157470586 0 -0.0011259925688499668 -0.021519273225843561 0 -0.0012502686520900223 -0.02113819157470586 0 -0.0010266859196767445 -0.021436168462547808 0 -0.00085461626391782118 -0.01913232532090299 0 -0.0010945025266786094 -0.019809785980082061 0 -0.0015368658441749538 -0.019085735329388179 0 -0.00096313190067624365 -0.022880008444865284 0 -0.00063382529639266158 -0.023262746185567184 0 -0.0011779524273071822 -0.021398232993712449 0 -0.0012250552937997413 -0.021190812318166694 0 -0.0010827079530150168 -0.021536746528035614 0 -0.0011779524273071822 -0.021398232993712449 0 -0.0012502686520900223 -0.02113819157470586 0 -0.0012250552937997413 -0.021190812318166694 0 -0.00018536035614753686 -0.024766580156785595 0 -0.00046742000632094373 -0.024837048363407027 0 -0.00019404966376881561 -0.024938873004962784 0 -0.00014821538903967273 -0.024856981339065918 0 -0.00019404966376881561 -0.024938873004962784 0 -0.00011485766547693021 -0.024906782739730651 0 -0.00019404966376881561 -0.024938873004962784 0 -0.00011485766547693021 -0.024906782739730651 0 -9.9224542797688047e-05 -0.024958207529574207 0 -6.7327062472222546e-05 -0.024922632547129314 0 -0.00011485766547693021 -0.024906782739730651 0 -9.9224542797688047e-05 -0.024958207529574207 0 -0.0011177394342971859 -0.021842465376705582 0 -0.0010827079530150168 -0.021536746528035614 0 -0.00078052471727645036 -0.022249170824130297 0 -0.00063382529639266158 -0.023262746185567184 0 -0.00047552331912862537 -0.023591863659757198 0 -0.0011177394342971859 -0.021842465376705582 0 -0.00078052471727645036 -0.022249170824130297 0 -0.0010837928693689907 -0.022331269053298547 0 -0.001545589868554075 -0.021741278919816715 0 -0.002475456607768775 -0.021665521253682818 0 -0.00078052471727645036 -0.022249170824130297 0 -0.0010837928693689907 -0.022331269053298547 0 -0.00076505532485856046 -0.023104964267748773 0 -0.00078052471727645036 -0.022249170824130297 0 -0.00076505532485856046 -0.023104964267748773 0 -0.00053740863428549388 -0.023307022531236125 0 -0.0036176578838343289 -0.020526304041362235 0 -0.0024047238410886515 -0.019346744583786511 0 -0.0041912709505165886 -0.018992571665956321 0 -0.0022407458055117551 -0.021089491175113554 0 -0.0036176578838343289 -0.020526304041362235 0 -0.0024047238410886515 -0.019346744583786511 0 -0.0015008896992070636 -0.020682834343069802 0 -0.00086830950574682468 -0.01966937932702266 0 -0.0024047238410886515 -0.019346744583786511 0 -0.0022407458055117551 -0.021089491175113554 0 -0.0015008896992070636 -0.020682834343069802 0 -0.0024047238410886515 -0.019346744583786511 0 -0.0011259925688499668 -0.021519273225843561 0 -0.0022407458055117551 -0.021089491175113554 0 -0.0015008896992070636 -0.020682834343069802 0 -0.001173206750088547 -0.021586976229198696 0 -0.001545589868554075 -0.021741278919816715 0 -0.0015368658441749538 -0.019085735329388179 0 -0.00097857643772088589 -0.018442966395897861 0 -0.001234297826599169 -0.017862351969474638 0 -0.0015008896992070636 -0.020682834343069802 0 -0.0010266859196767445 -0.021436168462547808 0 -0.00086830950574682468 -0.01966937932702266 0 -0.001247498924646262 -0.020247659979223717 0 -0.0010835259556873035 -0.018775011248542049 0 -0.0011259925688499668 -0.021519273225843561 0 -0.0015008896992070636 -0.020682834343069802 0 -0.0010266859196767445 -0.021436168462547808 0 -0.00085461626391782118 -0.01913232532090299 0 -0.0015368658441749538 -0.019085735329388179 0 -0.00097857643772088589 -0.018442966395897861 0 -0.00074195999172571234 -0.017856340666141245 0 -0.00097857643772088589 -0.018442966395897861 0 -0.001234297826599169 -0.017862351969474638 0 -0.00070789713611986394 -0.017521459265438619 0 -0.001234297826599169 -0.017862351969474638 0 -0.0010864093637235044 -0.017711528022587769 0 -0.0010835259556873035 -0.018775011248542049 0 -0.0010952049522559675 -0.017773745873500252 0 -0.00070789713611986394 -0.017521459265438619 0 -0.00074195999172571234 -0.017856340666141245 0 -0.001234297826599169 -0.017862351969474638 0 -0.00086830950574682468 -0.01966937932702266 0 -0.0010864093637235044 -0.017711528022587769 0 -0.0024047238410886515 -0.019346744583786511 0 -0.0010864093637235044 -0.017711528022587769 0 -0.0021938272824958563 -0.017926991698596753 0 -0.0024047238410886515 -0.019346744583786511 0 -0.0016272320965445045 -0.017370599888108355 0 -0.0010864093637235044 -0.017711528022587769 0 -0.0021938272824958563 -0.017926991698596753 0 -0.00057292643938519541 -0.017374820731720031 0 -0.00070789713611986394 -0.017521459265438619 0 -0.0010864093637235044 -0.017711528022587769 0 -0.00057292643938519541 -0.017374820731720031 0 -0.0010864093637235044 -0.017711528022587769 0 -0.00094276111035118996 -0.017002716888831128 0 -0.00029505895808708662 -0.0175463031258432 0 -0.00057292643938519541 -0.017374820731720031 0 -0.00094276111035118996 -0.017002716888831128 0 -0.00029505895808708662 -0.0175463031258432 0 7.4588491002929366e-05 -0.018408205196511023 0 -4.8926859675425084e-05 -0.018548641194673705 0 -0.00035837712237094704 -0.017661383540687199 0 -0.00055868730643115648 -0.017356820257916523 0 -0.0016272320965445045 -0.017370599888108355 0 -0.00094276111035118996 -0.017002716888831128 0 -0.0024134727312473134 -0.016902672587040722 0 7.4588491002929366e-05 -0.018408205196511023 0 0.00076072577911617117 -0.018957551998036025 0 0.0011880797913863066 -0.018442135964797234 0 -0.0016272320965445045 -0.017370599888108355 0 -0.0010864093637235044 -0.017711528022587769 0 -0.00094276111035118996 -0.017002716888831128 0 -0.00055868730643115648 -0.017356820257916523 0 -0.000127257093172409 -0.020559253754553107 0 7.4588491002929366e-05 -0.018408205196511023 0 0.00076072577911617117 -0.018957551998036025 0 1.4020986564904133e-06 -0.019745118292233722 0 0.0004244312067646331 -0.019822634066619674 0 1.032608598680798e-07 -0.019747598749493878 0 -6.8747514597220984e-07 -0.01840377515440092 0 1.4020986564904133e-06 -0.019745118292233722 0 -4.8926859675425084e-05 -0.018548641194673705 0 7.4588491002929366e-05 -0.018408205196511023 0 1.4020986564904133e-06 -0.019745118292233722 0 -4.8926859675425084e-05 -0.018548641194673705 0 7.0209745499339471e-05 -0.020839032825502712 0 9.3281205459494189e-05 -0.021618423924253578 0 2.0286525818657904e-05 -0.022513226152270201 0 7.0209745499339471e-05 -0.020839032825502712 0 2.0286525818657904e-05 -0.022513226152270201 0 -3.8861060564889961e-07 -0.022775873045731702 0 7.0209745499339471e-05 -0.020839032825502712 0 1.0897609638604702e-06 -0.019749862722849263 0 -3.8861060564889961e-07 -0.022775873045731702 0 0.0004244312067646331 -0.019822634066619674 0 -0.000127257093172409 -0.020559253754553107 0 0.00071468878822495481 -0.024246100630022995 0 0.000435811409485881 -0.024326407458506026 0 0.00054720704951458023 -0.024491326701352189 0 -0.000127257093172409 -0.020559253754553107 0 0.00026017702572211205 -0.023543943051248399 0 9.3281205459494189e-05 -0.021618423924253578 0 4.4340964574103451e-05 -0.022418391432165303 0 2.0286525818657904e-05 -0.022513226152270201 0 0.000435811409485881 -0.024326407458506026 0 0.00054720704951458023 -0.024491326701352189 0 0.00034885314181999747 -0.024488997479955175 0 0.00054720704951458023 -0.024491326701352189 0 0.00036664102705047548 -0.024670896710064758 0 0.00034885314181999747 -0.024488997479955175 0 -0.0016272320965445045 -0.017370599888108355 0 -0.0024134727312473134 -0.016902672587040722 0 -0.0021938272824958563 -0.017926991698596753 0 -0.000127257093172409 -0.020559253754553107 0 -0.0014682320057495301 -0.021250120008797193 0 -0.0024134727312473134 -0.016902672587040722 0 -0.0033544508051362369 -0.017906015636119019 0 -0.0021938272824958563 -0.017926991698596753 0 -0.0033544508051362369 -0.017906015636119019 0 -0.0021938272824958563 -0.017926991698596753 0 -0.0024047238410886515 -0.019346744583786511 0 -0.0014682320057495301 -0.021250120008797193 0 -0.0019896836616011804 -0.021873844299275857 0 -0.0033544508051362369 -0.017906015636119019 0 -0.0024047238410886515 -0.019346744583786511 0 -0.0041912709505165886 -0.018992571665956321 0 0.00054720704951458023 -0.024491326701352189 0 0.00037063320973881024 -0.02472964563235466 0 0.00036664102705047548 -0.024670896710064758 0 0.00037063320973881024 -0.02472964563235466 0 0.00022336356078092473 -0.024776307489792527 0 0.00023737933371672512 -0.024900162757962176 0 0.00037063320973881024 -0.02472964563235466 0 0.00036664102705047548 -0.024670896710064758 0 0.00022336356078092473 -0.024776307489792527 0 0.00036664102705047548 -0.024670896710064758 0 0.00022336356078092473 -0.024776307489792527 0 9.5857787011363509e-05 -0.024802233038274588 0 0.00036122374257207396 -0.024677368784960383 0 9.3060360741617642e-05 -0.024746400119946475 0 0.00036664102705047548 -0.024670896710064758 0 0.00022068786975440135 -0.024543817617532833 0 8.0854028567303344e-05 -0.024663280462888286 0 0.00022336356078092473 -0.024776307489792527 0 6.4479576598296592e-05 -0.024877104603573067 0 9.5857787011363509e-05 -0.024802233038274588 0 0.00011091331298006053 -0.024503881850847255 0 0.00020163422207854031 -0.024396203992971845 0 -2.9836075709763447e-05 -0.024407192860866567 0 0.00022068786975440135 -0.024543817617532833 0 0.00011091331298006053 -0.024503881850847255 0 8.0854028567303344e-05 -0.024663280462888286 0 0.00022068786975440135 -0.024543817617532833 0 0.00011091331298006053 -0.024503881850847255 0 0.00020163422207854031 -0.024396203992971845 0 0.00036664102705047548 -0.024670896710064758 0 0.00022068786975440135 -0.024543817617532833 0 0.00034885314181999747 -0.024488997479955175 0 0.00022068786975440135 -0.024543817617532833 0 0.00034885314181999747 -0.024488997479955175 0 0.00020163422207854031 -0.024396203992971845 0 0.00026017702572211205 -0.023543943051248399 0 3.5412584861553203e-05 -0.02388652900046424 0 0.000435811409485881 -0.024326407458506026 0 0.00034885314181999747 -0.024488997479955175 0 0.00020163422207854031 -0.024396203992971845 0 4.4340964574103451e-05 -0.022418391432165303 0 2.0286525818657904e-05 -0.022513226152270201 0 8.2311663723636309e-06 -0.023363510942311084 0 3.5412584861553203e-05 -0.02388652900046424 0 -8.576051492169665e-05 -0.024289002564287922 0 2.0286525818657904e-05 -0.022513226152270201 0 8.2311663723636309e-06 -0.023363510942311084 0 -1.4248762769141054e-05 -0.023648489587247891 0 8.2311663723636309e-06 -0.023363510942311084 0 -1.4248762769141054e-05 -0.023648489587247891 0 -2.9836075709763447e-05 -0.024407192860866567 0 2.0286525818657904e-05 -0.022513226152270201 0 -1.4248762769141054e-05 -0.023648489587247891 0 -3.8861060564889961e-07 -0.022775873045731702 0 -1.4248762769141054e-05 -0.023648489587247891 0 -2.9127610772829757e-08 -0.024998782783955838 0 -2.9836075709763447e-05 -0.024407192860866567 0 -2.9127610772829757e-08 -0.024998782783955838 0 -2.9836075709763447e-05 -0.024407192860866567 0 -3.0844641155916895e-07 -0.024998830699297373 0 -1.4248762769141054e-05 -0.023648489587247891 0 -3.8861060564889961e-07 -0.022775873045731702 0 -2.9127610772829757e-08 -0.024998782783955838 0 0.00011091331298006053 -0.024503881850847255 0 -2.9836075709763447e-05 -0.024407192860866567 0 8.0854028567303344e-05 -0.024663280462888286 0 -2.9836075709763447e-05 -0.024407192860866567 0 8.0854028567303344e-05 -0.024663280462888286 0 -3.0844641155916895e-07 -0.024998830699297373 0 6.4479576598296592e-05 -0.024877104603573067 0 9.5857787011363509e-05 -0.024802233038274588 0 -4.5794230367452964e-08 -0.024999899085553851 0 9.3060360741617642e-05 -0.024746400119946475 0 -2.7981517545218853e-08 -0.024999897965117091 0 0.00029936950820974714 -0.025013964472040247 0 -3.9912378802511338e-07 -0.02499968692136903 0 6.4479576598296592e-05 -0.024877104603573067 0 5.03111039995734e-08 -0.02499999469355435 0 -4.5794230367452964e-08 -0.024999899085553851 0 -2.9846068110184873e-05 -0.024642034708548595 0 -2.9715421974777232e-07 -0.025000420425361158 0 5.7392888229262815e-07 -0.024998530955624623 0 -1.0727028166162345e-07 -0.024999772251754634 0 -8.8464451273273333e-05 -0.0244945276260784 0 -8.9013350928145176e-09 -0.025000019389211408 0 -1.8098979070283162e-05 -0.024999322598565264 0 -3.9141613312908542e-09 -0.02499998293852233 0 -5.2804747469980034e-05 -0.024018597670655655 0 -0.0001025014306714444 -0.024267337261357609 0 -0.00035652291570582813 -0.023806529065630355 0 5.7392888229262815e-07 -0.024998530955624623 0 -5.2804747469980034e-05 -0.024018597670655655 0 -0.0001025014306714444 -0.024267337261357609 0 -2.9846068110184873e-05 -0.024642034708548595 0 5.7392888229262815e-07 -0.024998530955624623 0 -0.0001025014306714444 -0.024267337261357609 0 -0.0001025014306714444 -0.024267337261357609 0 -0.00057438233622747188 -0.024159883333575209 0 -0.00035652291570582813 -0.023806529065630355 0 0.00022336356078092473 -0.024776307489792527 0 6.4479576598296592e-05 -0.024877104603573067 0 0.00023737933371672512 -0.024900162757962176 0 -2.9846068110184873e-05 -0.024642034708548595 0 -0.0001025014306714444 -0.024267337261357609 0 -0.00057438233622747188 -0.024159883333575209 0 0.00029936950820974714 -0.025013964472040247 0 -0.0012822125945327601 -0.022779655392638567 0 -0.0012822125945327601 -0.022779655392638567 0 -0.00079253630838881052 -0.023541290592039559 0 -0.002475456607768775 -0.021665521253682818 0 -0.0012822125945327601 -0.022779655392638567 0 -0.0036176578838343289 -0.020526304041362235 0 -0.0041912709505165886 -0.018992571665956321 0 -0.0049680567940391072 -0.020006481778173414 0 -0.00076505532485856046 -0.023104964267748773 0 -0.00042518158818129437 -0.023702377101757061 0 -0.00053740863428549388 -0.023307022531236125 0 -0.0019896836616011804 -0.021873844299275857 0 -0.0012822125945327601 -0.022779655392638567 0 -0.00042518158818129437 -0.023702377101757061 0 -0.00053740863428549388 -0.023307022531236125 0 -0.00035652291570582813 -0.023806529065630355 0 -0.00053740863428549388 -0.023307022531236125 0 -0.00035652291570582813 -0.023806529065630355 0 -0.00042238663134957913 -0.023068102705610077 0 -5.2804747469980034e-05 -0.024018597670655655 0 -0.00035652291570582813 -0.023806529065630355 0 -0.00042238663134957913 -0.023068102705610077 0 -8.8464451273273333e-05 -0.0244945276260784 0 -0.00026417401130665076 -0.024019942066205949 0 -5.1787851898010397e-05 -0.024982785334361511 0 -5.3304883744755927e-05 -0.024958606671182174 0 -2.3021955431395572e-05 -0.024971345242436098 0 -1.8098979070283162e-05 -0.024999322598565264 0 -5.1787851898010397e-05 -0.024982785334361511 0 -2.3021955431395572e-05 -0.024971345242436098 0 -9.9224542797688047e-05 -0.024958207529574207 0 -5.1787851898010397e-05 -0.024982785334361511 0 -5.3304883744755927e-05 -0.024958606671182174 0 -0.00047552331912862537 -0.023591863659757198 0 -0.00026417401130665076 -0.024019942066205949 0 -0.00078052471727645036 -0.022249170824130297 0 -0.00053740863428549388 -0.023307022531236125 0 -0.00042238663134957913 -0.023068102705610077 0 -6.7327062472222546e-05 -0.024922632547129314 0 -9.9224542797688047e-05 -0.024958207529574207 0 -5.3304883744755927e-05 -0.024958606671182174 0 -6.7327062472222546e-05 -0.024922632547129314 0 -5.3304883744755927e-05 -0.024958606671182174 0 -2.3021955431395572e-05 -0.024971345242436098 0 -1.8098979070283162e-05 -0.024999322598565264 0 -2.3021955431395572e-05 -0.024971345242436098 0 -3.9141613312908542e-09 -0.02499998293852233 0 -1.1169741888772107e-09 -0.024999957355947608 0 -2.3021955431395572e-05 -0.024971345242436098 0 -3.9141613312908542e-09 -0.02499998293852233 0 -0.00013598559672674761 -0.0018358859787229805 0 7.7381069154432326e-05 -0.0021863698042519746 0 -0.00018725656598728716 -0.0019904767067666818 0 -8.9433579105025146e-05 -0.0018657180434255183 0 -0.00013598559672674761 -0.0018358859787229805 0 -0.00018725656598728716 -0.0019904767067666818 0 0.00022316873763329761 -0.0019847857448535527 0 -1.3489539676122041e-05 -0.0018672850682044354 0 0.00019584593576312198 -0.0017772145700809447 0 5.4997035389326034e-05 -0.0019097951032175456 0 -1.102999238889457e-05 -0.0018744139856485935 0 -8.9433579105025146e-05 -0.0018657180434255183 0 -0.00013598559672674761 -0.0018358859787229805 0 -1.3489539676122041e-05 -0.0018672850682044354 0 5.4997035389326034e-05 -0.0019097951032175456 0 0.00036058908833668413 -0.0019907124871973618 0 0.00022316873763329761 -0.0019847857448535527 0 0.0005154050535904457 -0.0021057319033832315 0 0.0004391921484733877 -0.0018400486296877394 0 0.0005154050535904457 -0.0021057319033832315 0 0.00076956600204807206 -0.0018848756799208037 0 0.0004391921484733877 -0.0018400486296877394 0 0.0005154050535904457 -0.0021057319033832315 0 0.00076956600204807206 -0.0018848756799208037 0 0.00087793843052525388 -0.0022177984161509648 0 0.00036058908833668413 -0.0019907124871973618 0 0.00083913966693276881 -0.0021283521679354932 0 0.00019477847967817359 -0.0018695435193002753 0 7.7381069154432326e-05 -0.0021863698042519746 0 0.00079829020215705293 -0.0020294237661397747 0 -0.00013598559672674761 -0.0018358859787229805 0 0.00019477847967817359 -0.0018695435193002753 0 7.7381069154432326e-05 -0.0021863698042519746 0 7.7381069154432326e-05 -0.0021863698042519746 0 0.00050695539354911345 -0.0026662326333466218 0 -0.00021539534185830651 -0.0029229930013430511 0 7.7381069154432326e-05 -0.0021863698042519746 0 0.00050695539354911345 -0.0026662326333466218 0 0.00079829020215705293 -0.0020294237661397747 0 0.00050695539354911345 -0.0026662326333466218 0 0.00064381360436519648 -0.0032065007385717503 0 0.00029356214843939807 -0.003305919749456107 0 0.00050695539354911345 -0.0026662326333466218 0 0.00064381360436519648 -0.0032065007385717503 0 0.00085590436059483383 -0.0028644079362890053 0 0.00050695539354911345 -0.0026662326333466218 0 -0.00021539534185830651 -0.0029229930013430511 0 0.00029356214843939807 -0.003305919749456107 0 -9.956651961750083e-05 -0.0024027374260659892 0 -0.00018196311022046811 -0.0020565301419773006 0 -2.6998616597285486e-05 -0.001827403293740381 0 -0.00018725656598728716 -0.0019904767067666818 0 -0.00010145135893032507 -0.0017792858712920385 0 7.7381069154432326e-05 -0.0021863698042519746 0 -0.00021539534185830651 -0.0029229930013430511 0 -0.00018725656598728716 -0.0019904767067666818 0 -0.00018725656598728716 -0.0019904767067666818 0 -0.00010145135893032507 -0.0017792858712920385 0 5.4441538883281066e-06 -0.0015925239206352323 0 -8.9433579105025146e-05 -0.0018657180434255183 0 -0.00018725656598728716 -0.0019904767067666818 0 5.4441538883281066e-06 -0.0015925239206352323 0 -0.00010145135893032507 -0.0017792858712920385 0 5.4441538883281066e-06 -0.0015925239206352323 0 -0.00016384588687619577 -0.0018006485807838782 0 -0.00018725806392111278 -0.0014505798162902941 0 5.4441538883281066e-06 -0.0015925239206352323 0 -0.00016384588687619577 -0.0018006485807838782 0 -0.00018725806392111278 -0.0014505798162902941 0 -8.5644099813041088e-05 -0.0010710816724692623 0 -0.00042680367564322514 -0.0011783790317453518 0 -8.5644099813041088e-05 -0.0010710816724692623 0 5.4441538883281066e-06 -0.0015925239206352323 0 0.0002864127738326529 -0.0004970805910505078 0 -0.00018725806392111278 -0.0014505798162902941 0 -8.5644099813041088e-05 -0.0010710816724692623 0 5.4441538883281066e-06 -0.0015925239206352323 0 1.7949165872632274e-05 -0.0015065169180555414 0 0.00010236776552119361 -0.0011516150147168989 0 -0.00072474444773921564 -0.0012564075969796174 0 -0.00074748500377963892 -0.00098958426960538961 0 -0.00081471807962440925 -0.0010607901899553158 0 -0.00072474444773921564 -0.0012564075969796174 0 -0.00042680367564322514 -0.0011783790317453518 0 -0.00074748500377963892 -0.00098958426960538961 0 -0.00018725806392111278 -0.0014505798162902941 0 -0.00042680367564322514 -0.0011783790317453518 0 -0.00049097855896651076 -0.0014695180865881383 0 -0.00072474444773921564 -0.0012564075969796174 0 -0.00042680367564322514 -0.0011783790317453518 0 -0.00049097855896651076 -0.0014695180865881383 0 -8.5644099813041088e-05 -0.0010710816724692623 0 -0.00042680367564322514 -0.0011783790317453518 0 -0.00034065608318281827 -0.00049404623900893628 0 -0.00042680367564322514 -0.0011783790317453518 0 -0.00074748500377963892 -0.00098958426960538961 0 -0.00034065608318281827 -0.00049404623900893628 0 -0.00074748500377963892 -0.00098958426960538961 0 -0.00034065608318281827 -0.00049404623900893628 0 -0.0010595364211829694 -0.00062999651107728755 0 -0.00034065608318281827 -0.00049404623900893628 0 -0.0011137537449015791 0.00061148866912713248 0 -0.0010595364211829694 -0.00062999651107728755 0 -0.00034065608318281827 -0.00049404623900893628 0 0.00022418037011938231 0.00087560573658494202 0 0.0002864127738326529 -0.0004970805910505078 0 -0.00034065608318281827 -0.00049404623900893628 0 0.00022418037011938231 0.00087560573658494202 0 -0.0011137537449015791 0.00061148866912713248 0 0.00022418037011938231 0.00087560573658494202 0 -0.0011137537449015791 0.00061148866912713248 0 -0.0012152696136913774 0.0019076206916189592 0 -8.9433579105025146e-05 -0.0018657180434255183 0 5.4441538883281066e-06 -0.0015925239206352323 0 -1.1758131189236673e-05 -0.0018740309143602061 0 -8.9433579105025146e-05 -0.0018657180434255183 0 -1.1758131189236673e-05 -0.0018740309143602061 0 -1.3489539676122041e-05 -0.0018672850682044354 0 -8.5644099813041088e-05 -0.0010710816724692623 0 -0.00034065608318281827 -0.00049404623900893628 0 0.0002864127738326529 -0.0004970805910505078 0 -0.00016204786290843957 -0.0018158282138759281 0 -1.1758131189236673e-05 -0.0018740309143602061 0 -1.3489539676122041e-05 -0.0018672850682044354 0 -2.8624853838300412e-06 -0.00042828272798091767 0 0.00010236776552119361 -0.0011516150147168989 0 -0.00016204786290843957 -0.0018158282138759281 0 1.0959475417400725e-06 -0.0016971063167823207 0 -0.00010508498720179588 -0.0016434311563115467 0 -0.00016204786290843957 -0.0018158282138759281 0 -1.3489539676122041e-05 -0.0018672850682044354 0 1.0959475417400725e-06 -0.0016971063167823207 0 1.0959475417400725e-06 -0.0016971063167823207 0 -0.00010508498720179588 -0.0016434311563115467 0 2.0090086992261856e-05 -0.0014844994800137659 0 1.0959475417400725e-06 -0.0016971063167823207 0 2.0090086992261856e-05 -0.0014844994800137659 0 7.2701387427674436e-05 -0.0015279214640515355 0 0.00022418037011938231 0.00087560573658494202 0 -0.00040859884494524922 0.0027580826688041473 0 -0.0012152696136913774 0.0019076206916189592 0 -0.00016204786290843957 -0.0018158282138759281 0 -0.00022419996139322839 -0.0015899284374143573 0 -0.00037659411191039871 -0.0016205605800360329 0 -2.8624853838300412e-06 -0.00042828272798091767 0 -0.00039813426501188236 0.00054838762497479892 0 -0.00016204786290843957 -0.0018158282138759281 0 -0.00010508498720179588 -0.0016434311563115467 0 -0.00022419996139322839 -0.0015899284374143573 0 -0.00010508498720179588 -0.0016434311563115467 0 -0.00022419996139322839 -0.0015899284374143573 0 -0.00015030229520903663 -0.0014962451511910779 0 -0.00022419996139322839 -0.0015899284374143573 0 -0.00037659411191039871 -0.0016205605800360329 0 -0.00035724052494205075 -0.0014884621423232036 0 -0.00039813426501188236 0.00054838762497479892 0 -0.0011221501919118496 0.0017620167978570336 0 -3.6098151196230448e-05 -0.0022485983097876527 0 -0.0011221501919118496 0.0017620167978570336 0 -0.00037659411191039871 -0.0016205605800360329 0 -0.00035724052494205075 -0.0014884621423232036 0 -0.00059534075222889883 -0.0013235153007576052 0 -0.00035724052494205075 -0.0014884621423232036 0 -0.00023965300699941189 -0.0014153409724105863 0 -0.00059534075222889883 -0.0013235153007576052 0 -0.00023965300699941189 -0.0014153409724105863 0 -0.00068623698970017794 -0.0010395711938195448 0 -0.0008397913238389937 -0.001316713089950305 0 -0.00022419996139322839 -0.0015899284374143573 0 -0.00035724052494205075 -0.0014884621423232036 0 -0.00023965300699941189 -0.0014153409724105863 0 -0.00022419996139322839 -0.0015899284374143573 0 -0.00023965300699941189 -0.0014153409724105863 0 -0.00015030229520903663 -0.0014962451511910779 0 -0.00023965300699941189 -0.0014153409724105863 0 -0.00015030229520903663 -0.0014962451511910779 0 -0.00023536371988780374 -0.0012545978188760285 0 -0.00023965300699941189 -0.0014153409724105863 0 -0.00023536371988780374 -0.0012545978188760285 0 -0.00068623698970017794 -0.0010395711938195448 0 0.00031486305751758702 -0.0015783112782177728 0 0.00025155678857418252 -0.0017227694816151838 0 0.00046607365419935821 -0.0017886727711492669 0 0.00038621668899314914 -0.001880648297865822 0 0.00025155678857418252 -0.0017227694816151838 0 0.00046607365419935821 -0.0017886727711492669 0 -3.6817121117679718e-05 -0.0013822214333665819 0 0.00026857126723490749 -0.0016787961341544694 0 0.00031486305751758702 -0.0015783112782177728 0 0.00046607365419935821 -0.0017886727711492669 0 0.0006952902130642173 -0.0017437368693077676 0 0.00059523104296960215 -0.0019364362289642514 0 0.00046607365419935821 -0.0017886727711492669 0 0.0006952902130642173 -0.0017437368693077676 0 0.00059523104296960215 -0.0019364362289642514 0 0.0006952902130642173 -0.0017437368693077676 0 0.00075094939600810467 -0.0018646086550551748 0 2.0090086992261856e-05 -0.0014844994800137659 0 4.0791418848795555e-05 -0.0014872186038914403 0 7.2701387427674436e-05 -0.0015279214640515355 0 -0.00010508498720179588 -0.0016434311563115467 0 -0.00015030229520903663 -0.0014962451511910779 0 2.0090086992261856e-05 -0.0014844994800137659 0 -0.00015030229520903663 -0.0014962451511910779 0 -0.00023536371988780374 -0.0012545978188760285 0 2.0090086992261856e-05 -0.0014844994800137659 0 -3.6817121117679718e-05 -0.0013822214333665819 0 4.616286122839634e-05 -0.0014783095441974542 0 9.0944085956876466e-05 -0.0017524157417844386 0 0.00025155678857418252 -0.0017227694816151838 0 2.0090086992261856e-05 -0.0014844994800137659 0 0.00031486305751758702 -0.0015783112782177728 0 0.00025155678857418252 -0.0017227694816151838 0 2.0090086992261856e-05 -0.0014844994800137659 0 0.00017167205326111979 -0.002012720761891081 0 -6.9098488114220898e-05 -0.0018507647664877964 0 9.0944085956876466e-05 -0.0017524157417844386 0 2.0090086992261856e-05 -0.0014844994800137659 0 4.0791418848795555e-05 -0.0014872186038914403 0 -6.9098488114220898e-05 -0.0018507647664877964 0 -0.00014146695328141215 -0.0017917796343845712 0 -0.000443437598737694 -0.00236319181126544 0 -0.00020285554133192768 -0.0022045224042956178 0 -0.00059273369171841304 -0.0021147174256091858 0 -0.0006940522693455281 -0.0024548344244423293 0 -0.000443437598737694 -0.00236319181126544 0 -0.00059273369171841304 -0.0021147174256091858 0 4.0791418848795555e-05 -0.0014872186038914403 0 0.00030167162687739948 -0.0014249890922117569 0 7.2701387427674436e-05 -0.0015279214640515355 0 0.00030167162687739948 -0.0014249890922117569 0 7.2701387427674436e-05 -0.0015279214640515355 0 0.00016906231502571774 -0.001627364437838172 0 1.0959475417400725e-06 -0.0016971063167823207 0 7.2701387427674436e-05 -0.0015279214640515355 0 0.00016906231502571774 -0.001627364437838172 0 0.00016906231502571774 -0.001627364437838172 0 0.00019584593576312198 -0.0017772145700809447 0 0.00039661555919961848 -0.0016310930656545531 0 0.00030167162687739948 -0.0014249890922117569 0 0.00016906231502571774 -0.001627364437838172 0 0.00039661555919961848 -0.0016310930656545531 0 0.00022316873763329761 -0.0019847857448535527 0 0.00019584593576312198 -0.0017772145700809447 0 0.0004391921484733877 -0.0018400486296877394 0 0.00019584593576312198 -0.0017772145700809447 0 0.0004391921484733877 -0.0018400486296877394 0 0.00039661555919961848 -0.0016310930656545531 0 -1.3489539676122041e-05 -0.0018672850682044354 0 1.0959475417400725e-06 -0.0016971063167823207 0 0.00019584593576312198 -0.0017772145700809447 0 1.0959475417400725e-06 -0.0016971063167823207 0 0.00016906231502571774 -0.001627364437838172 0 0.00019584593576312198 -0.0017772145700809447 0 0.00076956600204807206 -0.0018848756799208037 0 0.00061249379936368113 -0.001668833213306265 0 0.00081353808135153926 -0.001657573926215129 0 0.00076956600204807206 -0.0018848756799208037 0 0.0004391921484733877 -0.0018400486296877394 0 0.00061249379936368113 -0.001668833213306265 0 0.0004391921484733877 -0.0018400486296877394 0 0.00039661555919961848 -0.0016310930656545531 0 0.00061249379936368113 -0.001668833213306265 0 0.00039661555919961848 -0.0016310930656545531 0 0.00061249379936368113 -0.001668833213306265 0 0.00065597577615769784 -0.0014559605796890527 0 0.00061249379936368113 -0.001668833213306265 0 0.00065597577615769784 -0.0014559605796890527 0 0.00081353808135153926 -0.001657573926215129 0 -0.00095804035357705995 -0.0020197869711869542 0 -0.00083945324263381299 -0.0022120050970863211 0 -0.0011428992005175691 -0.0021348279514950882 0 -0.00059273369171841304 -0.0021147174256091858 0 -0.00095804035357705995 -0.0020197869711869542 0 -0.00083945324263381299 -0.0022120050970863211 0 -0.00014146695328141215 -0.0017917796343845712 0 -0.00011073658921590467 -0.0016085583705026643 0 0.00030167162687739948 -0.0014249890922117569 0 0.00039661555919961848 -0.0016310930656545531 0 0.00065597577615769784 -0.0014559605796890527 0 -0.0006940522693455281 -0.0024548344244423293 0 -0.00059273369171841304 -0.0021147174256091858 0 -0.00083945324263381299 -0.0022120050970863211 0 -0.0010301862301788308 -0.0023934851396633637 0 -0.0006940522693455281 -0.0024548344244423293 0 -0.00083945324263381299 -0.0022120050970863211 0 -0.0010301862301788308 -0.0023934851396633637 0 -0.00083945324263381299 -0.0022120050970863211 0 -0.0011428992005175691 -0.0021348279514950882 0 -0.00096934182112410239 -0.0029044912148844379 0 -0.0009250608142302929 -0.0029634371844202479 0 -0.00097310239213386693 -0.0030856709352060246 0 -0.00097645527948393425 -0.0026761787423537301 0 -0.0011339987031575636 -0.0025516568571912293 0 -0.00095804035357705995 -0.0020197869711869542 0 -0.0011428992005175691 -0.0021348279514950882 0 -0.0012539606994616773 -0.0019299314952794589 0 -0.0011339987031575636 -0.0025516568571912293 0 -0.00040324231104742442 -0.0027308320500719603 0 -0.00097310239213386693 -0.0030856709352060246 0 -0.00083282165609613811 -0.003049167764638407 0 -0.00091471055996080787 -0.0032610257661385604 0 -0.00083282165609613811 -0.003049167764638407 0 -0.00071235762759521955 -0.0032129513932823437 0 -0.00091471055996080787 -0.0032610257661385604 0 -0.0009250608142302929 -0.0029634371844202479 0 -0.00097310239213386693 -0.0030856709352060246 0 -0.00083282165609613811 -0.003049167764638407 0 -0.0008652134891833686 -0.0029353504503461529 0 -0.0009250608142302929 -0.0029634371844202479 0 -0.00083282165609613811 -0.003049167764638407 0 -0.00078974767704989915 -0.0029338977040088885 0 -0.00083282165609613811 -0.003049167764638407 0 -0.00066295890264491395 -0.0029996897521762781 0 -0.00083282165609613811 -0.003049167764638407 0 -0.00066295890264491395 -0.0029996897521762781 0 -0.00071235762759521955 -0.0032129513932823437 0 -0.0018695706543289802 -0.0051273932194086554 0 -0.0017607100953837445 -0.0049728476581280727 0 -0.00066295890264491395 -0.0029996897521762781 0 -0.00071235762759521955 -0.0032129513932823437 0 -0.0005490652557833737 -0.0032269533768360761 0 -0.00045168681396540731 -0.0034827423472971069 0 -0.00040324231104742442 -0.0027308320500719603 0 -0.00071235762759521955 -0.0032129513932823437 0 -0.00071789016769973008 -0.0033958258419456897 0 -0.00091471055996080787 -0.0032610257661385604 0 -0.00071235762759521955 -0.0032129513932823437 0 -0.00057369015931378066 -0.0033866749190910742 0 -0.0005490652557833737 -0.0032269533768360761 0 -0.00071235762759521955 -0.0032129513932823437 0 -0.00057369015931378066 -0.0033866749190910742 0 -0.00071789016769973008 -0.0033958258419456897 0 -0.00045168681396540731 -0.0034827423472971069 0 -0.0007871251440743016 -0.0057292425257397571 0 -0.00057369015931378066 -0.0033866749190910742 0 -0.00071789016769973008 -0.0033958258419456897 0 -0.00047913334658199007 -0.0035457637051586094 0 -0.00022545681468730445 -0.003895595035784447 0 -8.7999586619724553e-05 -0.0039847442667029862 0 -0.00022136586923315874 -0.0040013624398543722 0 -0.00022545681468730445 -0.003895595035784447 0 -0.00032755623432505172 -0.0039490470302822695 0 -0.00022136586923315874 -0.0040013624398543722 0 0.001269185768204702 -0.0018192094174385315 0 0.001006620550533991 -0.0017859605598275431 0 0.001126862056746925 -0.0020246587457575203 0 0.00058711314477466058 -0.0029142902854027517 0 -0.00040324231104742442 -0.0027308320500719603 0 -0.00022545681468730445 -0.003895595035784447 0 -0.00032755623432505172 -0.0039490470302822695 0 -0.00041169597900175955 -0.0037941683937596994 0 0.001269185768204702 -0.0018192094174385315 0 0.001006620550533991 -0.0017859605598275431 0 0.0010595140251961786 -0.0015514948338280561 0 0.00076956600204807206 -0.0018848756799208037 0 0.001006620550533991 -0.0017859605598275431 0 0.00081353808135153926 -0.001657573926215129 0 0.001006620550533991 -0.0017859605598275431 0 0.00081353808135153926 -0.001657573926215129 0 0.0010595140251961786 -0.0015514948338280561 0 0.00065597577615769784 -0.0014559605796890527 0 0.00081353808135153926 -0.001657573926215129 0 0.0010595140251961786 -0.0015514948338280561 0 -0.00011073658921590467 -0.0016085583705026643 0 -0.00040324231104742442 -0.0027308320500719603 0 0.00022896382669566605 -0.0086531829396655248 0 -0.00071840404201590818 -0.0084496943293095525 0 -0.00079250799195181444 -0.0092254357428775864 0 0.00022896382669566605 -0.0086531829396655248 0 -0.00071840404201590818 -0.0084496943293095525 0 -0.00031678611681884458 -0.0078941662112915131 0 -0.00071840404201590818 -0.0084496943293095525 0 -0.0015694870433238105 -0.0084735779923394618 0 -0.00079250799195181444 -0.0092254357428775864 0 -0.00071840404201590818 -0.0084496943293095525 0 -0.00031678611681884458 -0.0078941662112915131 0 -0.0011647977111107111 -0.0080169246144105224 0 -0.00062968097433573761 -0.0070021335105510422 0 -0.00031678611681884458 -0.0078941662112915131 0 -0.0011647977111107111 -0.0080169246144105224 0 -0.0015971136843661389 -0.0074736604301918318 0 -0.0015167673490044107 -0.008398176460200581 0 -0.0022157036562386345 -0.0076755221911421305 0 -0.0016552644723196125 -0.0066539902111350064 0 -0.0015971136843661389 -0.0074736604301918318 0 -0.0023286776999731124 -0.0071000390809069121 0 -0.00062968097433573761 -0.0070021335105510422 0 -0.0015971136843661389 -0.0074736604301918318 0 -0.0011647977111107111 -0.0080169246144105224 0 -0.0015971136843661389 -0.0074736604301918318 0 -0.0011647977111107111 -0.0080169246144105224 0 -0.0015167673490044107 -0.008398176460200581 0 -0.0014700814942620992 -0.0083454225689435259 0 -0.0024811042628234896 -0.0072997416364437443 0 -0.00071840404201590818 -0.0084496943293095525 0 -0.0011647977111107111 -0.0080169246144105224 0 -0.0015694870433238105 -0.0084735779923394618 0 -0.0012747310136365204 -0.0081334667044411779 0 -0.0014700814942620992 -0.0083454225689435259 0 -0.0014700814942620992 -0.0083454225689435259 0 -0.00065000455426699876 -0.0098207343495586921 0 -0.0026398706042000978 -0.0072912713398231481 0 -0.002922932481898617 -0.0073488322781582009 0 -0.0025598392562893413 -0.0075423420336070655 0 -0.0023523556454844979 -0.0073207781284075259 0 -0.0026398706042000978 -0.0072912713398231481 0 -0.0025702520149225444 -0.0071141468755016304 0 -0.0023523556454844979 -0.0073207781284075259 0 -0.0026398706042000978 -0.0072912713398231481 0 -0.0025598392562893413 -0.0075423420336070655 0 -0.0026398706042000978 -0.0072912713398231481 0 -0.0025702520149225444 -0.0071141468755016304 0 -0.0027896473851335619 -0.0071274138413034644 0 -0.0015971136843661389 -0.0074736604301918318 0 -0.0022157036562386345 -0.0076755221911421305 0 -0.0023286776999731124 -0.0071000390809069121 0 -0.0027171076140687965 -0.0070179784120317223 0 -0.0024811042628234896 -0.0072997416364437443 0 -0.0027887511239988267 -0.0069187374088023794 0 -0.0022157036562386345 -0.0076755221911421305 0 -0.0023286776999731124 -0.0071000390809069121 0 -0.0027887511239988267 -0.0069187374088023794 0 -0.0025702520149225444 -0.0071141468755016304 0 -0.0027896473851335619 -0.0071274138413034644 0 -0.0027887511239988267 -0.0069187374088023794 0 -0.0031349730556230913 -0.0069092311448843754 0 -0.0027896473851335619 -0.0071274138413034644 0 -0.0031349730556230913 -0.0069092311448843754 0 -0.0027896473851335619 -0.0071274138413034644 0 -0.002922932481898617 -0.0073488322781582009 0 -0.0026398706042000978 -0.0072912713398231481 0 -0.0027896473851335619 -0.0071274138413034644 0 -0.002922932481898617 -0.0073488322781582009 0 -0.00057369015931378066 -0.0033866749190910742 0 -0.0005490652557833737 -0.0032269533768360761 0 -0.00044523371488446354 -0.0035093715013496114 0 -0.002922932481898617 -0.0073488322781582009 0 -0.0027509595569565706 -0.0077534039051852209 0 -0.0025598392562893413 -0.0075423420336070655 0 -0.0017607100953837445 -0.0049728476581280727 0 -0.0017601801383807637 -0.0069932453747870542 0 -0.00057369015931378066 -0.0033866749190910742 0 -0.00047913334658199007 -0.0035457637051586094 0 -0.00044523371488446354 -0.0035093715013496114 0 -0.00088570447680096824 -0.007886386628668406 0 -0.0007871251440743016 -0.0057292425257397571 0 -0.0007871251440743016 -0.0057292425257397571 0 -0.0017601801383807637 -0.0069932453747870542 0 -0.00088570447680096824 -0.007886386628668406 0 -0.0017601801383807637 -0.0069932453747870542 0 -0.0012397748634057095 -0.0069175660007386374 0 -0.0016104520916008585 -0.0067738615601236089 0 -0.0013894785382680985 -0.0065249874770007031 0 -0.0016017394685871372 -0.010936899624480627 0 -0.0013038492260663078 -0.010778428078929989 0 -0.0010074607819601557 -0.011186332601389484 0 -0.0016582961148367372 -0.010779802870353745 0 -0.0013038492260663078 -0.010778428078929989 0 -0.0013138669798325095 -0.010403347904051853 0 -0.0016017394685871372 -0.010936899624480627 0 -0.0016582961148367372 -0.010779802870353745 0 -0.0013038492260663078 -0.010778428078929989 0 -0.0013038492260663078 -0.010778428078929989 0 -0.0013138669798325095 -0.010403347904051853 0 -0.00093623031309806551 -0.010591024085959317 0 -0.0017601801383807637 -0.0069932453747870542 0 -0.0021848157340439637 -0.0093311469388930521 0 -0.00096078652302475874 -0.0099910590856128832 0 -0.00093623031309806551 -0.010591024085959317 0 -0.00058442564631831719 -0.010355203509326096 0 -0.00096078652302475874 -0.0099910590856128832 0 -0.0013138669798325095 -0.010403347904051853 0 -0.00093623031309806551 -0.010591024085959317 0 -0.0014700814942620992 -0.0083454225689435259 0 -0.0021848157340439637 -0.0093311469388930521 0 -0.00093623031309806551 -0.010591024085959317 0 -0.00058887933493006605 -0.010955456311221497 0 -0.0010074607819601557 -0.011186332601389484 0 -0.0013038492260663078 -0.010778428078929989 0 -0.00093623031309806551 -0.010591024085959317 0 -0.0010074607819601557 -0.011186332601389484 0 -0.0002121969116673737 -0.010732233039933032 0 -0.00058887933493006605 -0.010955456311221497 0 -0.0003856271340519729 -0.011316218921214732 0 -0.00093623031309806551 -0.010591024085959317 0 -0.00058887933493006605 -0.010955456311221497 0 -0.00058442564631831719 -0.010355203509326096 0 -0.0002121969116673737 -0.010732233039933032 0 -0.00058887933493006605 -0.010955456311221497 0 -0.00058442564631831719 -0.010355203509326096 0 -0.00025498690644705393 -0.011210107839787731 0 -0.00065000455426699876 -0.0098207343495586921 0 -0.0023265957280415926 -0.0071974127978446777 0 -0.0020395185503957573 -0.006877729828442372 0 -0.0018477778954929156 -0.0071575461017386139 0 -0.0024022941108612938 -0.0069436539905358948 0 -0.0023265957280415926 -0.0071974127978446777 0 -0.0020395185503957573 -0.006877729828442372 0 -0.0013372121228970933 -0.0092640459904800073 0 -0.001390354885917669 -0.0094938143490207114 0 -0.00058887933493006605 -0.010955456311221497 0 -0.0003856271340519729 -0.011316218921214732 0 -0.00038718672048236873 -0.01134781432737321 0 -0.00058887933493006605 -0.010955456311221497 0 -0.00038718672048236873 -0.01134781432737321 0 -0.0010074607819601557 -0.011186332601389484 0 -0.0023265957280415926 -0.0071974127978446777 0 -0.0017443590323428211 -0.0075455600308998146 0 -0.0018477778954929156 -0.0071575461017386139 0 -0.0017443590323428211 -0.0075455600308998146 0 -0.0018477778954929156 -0.0071575461017386139 0 -0.0014373912550958092 -0.0072740026299788711 0 -0.0020395185503957573 -0.006877729828442372 0 -0.0013572791649046094 -0.0069319189030691824 0 -0.0014030312950709608 -0.0064874741862527329 0 -0.0020395185503957573 -0.006877729828442372 0 -0.0018477778954929156 -0.0071575461017386139 0 -0.0013572791649046094 -0.0069319189030691824 0 -0.0013572791649046094 -0.0069319189030691824 0 -0.0011136527068798994 -0.0072216043084473228 0 -0.00084908766311963819 -0.006975473341747437 0 -0.0018477778954929156 -0.0071575461017386139 0 -0.0013572791649046094 -0.0069319189030691824 0 -0.0014373912550958092 -0.0072740026299788711 0 -0.0013572791649046094 -0.0069319189030691824 0 -0.0011136527068798994 -0.0072216043084473228 0 -0.0014373912550958092 -0.0072740026299788711 0 -0.0017443590323428211 -0.0075455600308998146 0 -0.0014373912550958092 -0.0072740026299788711 0 -0.0011151580137152082 -0.0075439971515319868 0 -0.0010008305494619495 -0.0078493984567004089 0 -0.0017443590323428211 -0.0075455600308998146 0 -0.0011151580137152082 -0.0075439971515319868 0 -0.00088570447680096824 -0.007886386628668406 0 -0.001390354885917669 -0.0094938143490207114 0 -0.00088570447680096824 -0.007886386628668406 0 -0.0010422987402396321 -0.0076168961464497791 0 -0.0011136527068798994 -0.0072216043084473228 0 -0.0014373912550958092 -0.0072740026299788711 0 -0.0011151580137152082 -0.0075439971515319868 0 -0.0011136527068798994 -0.0072216043084473228 0 -0.0011151580137152082 -0.0075439971515319868 0 -0.00079372914715737034 -0.0073910291313311104 0 -0.00099635461863651037 -0.0078469494325103268 0 -0.0008038390157122724 -0.0079176960979288943 0 -0.00079372914715737034 -0.0073910291313311104 0 -0.00099635461863651037 -0.0078469494325103268 0 -0.0011151580137152082 -0.0075439971515319868 0 -0.00079372914715737034 -0.0073910291313311104 0 -0.0007871251440743016 -0.0057292425257397571 0 -0.00017695243553208386 -0.0056846349688439721 0 -0.0008038390157122724 -0.0079176960979288943 0 -0.00079372914715737034 -0.0073910291313311104 0 -0.00030224516685695369 -0.007368397106137744 0 -0.00079372914715737034 -0.0073910291313311104 0 -0.00030224516685695369 -0.007368397106137744 0 -0.00036659085824005473 -0.0068583115637078571 0 -0.00079372914715737034 -0.0073910291313311104 0 -0.00084908766311963819 -0.006975473341747437 0 -0.00036659085824005473 -0.0068583115637078571 0 -0.0011136527068798994 -0.0072216043084473228 0 -0.00079372914715737034 -0.0073910291313311104 0 -0.00084908766311963819 -0.006975473341747437 0 -0.0013572791649046094 -0.0069319189030691824 0 -0.00084908766311963819 -0.006975473341747437 0 -0.00084101430481548899 -0.0065885032803997068 0 -0.00084908766311963819 -0.006975473341747437 0 -0.00084101430481548899 -0.0065885032803997068 0 -0.00036659085824005473 -0.0068583115637078571 0 -0.00084101430481548899 -0.0065885032803997068 0 -0.00036659085824005473 -0.0068583115637078571 0 -0.00034024371389676809 -0.0062574381428086119 0 -0.00084101430481548899 -0.0065885032803997068 0 -0.00095653119231433389 -0.0061655336272571169 0 -0.00034024371389676809 -0.0062574381428086119 0 -0.00095653119231433389 -0.0061655336272571169 0 -0.00060803370062585986 -0.0057500163249426467 0 -0.0010051337590318847 -0.005530090135611768 0 -0.00095653119231433389 -0.0061655336272571169 0 -0.00060803370062585986 -0.0057500163249426467 0 -0.00034024371389676809 -0.0062574381428086119 0 -0.00060803370062585986 -0.0057500163249426467 0 -0.0010051337590318847 -0.005530090135611768 0 -0.00049576101837165711 -0.0052872716104087076 0 -0.0013424804348484327 -0.0060465148047333115 0 -0.0015731615327677223 -0.0057079575458008651 0 -0.0010051337590318847 -0.005530090135611768 0 -0.00095653119231433389 -0.0061655336272571169 0 -0.0013424804348484327 -0.0060465148047333115 0 -0.0010051337590318847 -0.005530090135611768 0 -0.00084101430481548899 -0.0065885032803997068 0 -0.00095653119231433389 -0.0061655336272571169 0 -0.0014030312950709608 -0.0064874741862527329 0 -0.0013424804348484327 -0.0060465148047333115 0 -0.0014030312950709608 -0.0064874741862527329 0 -0.0017892003301639443 -0.0063279674861350232 0 -0.0013572791649046094 -0.0069319189030691824 0 -0.00084101430481548899 -0.0065885032803997068 0 -0.0014030312950709608 -0.0064874741862527329 0 -0.00095653119231433389 -0.0061655336272571169 0 -0.0013424804348484327 -0.0060465148047333115 0 -0.0014030312950709608 -0.0064874741862527329 0 -0.0020395185503957573 -0.006877729828442372 0 -0.0014030312950709608 -0.0064874741862527329 0 -0.0017892003301639443 -0.0063279674861350232 0 -0.0013424804348484327 -0.0060465148047333115 0 -0.0017892003301639443 -0.0063279674861350232 0 -0.0015731615327677223 -0.0057079575458008651 0 -0.0015731615327677223 -0.0057079575458008651 0 -0.0021150153022026922 -0.0060167717176458288 0 -0.0020523415172243372 -0.0054630151396767813 0 -0.0017892003301639443 -0.0063279674861350232 0 -0.0015731615327677223 -0.0057079575458008651 0 -0.0021150153022026922 -0.0060167717176458288 0 -0.0026841140166530583 -0.0063993652151932675 0 -0.0025164409767420839 -0.0067789484427377023 0 -0.002759222032567375 -0.005661699348742417 0 -0.0021150153022026922 -0.0060167717176458288 0 -0.0024887428036986818 -0.0067293106026594263 0 -0.0017892003301639443 -0.0063279674861350232 0 -0.0021150153022026922 -0.0060167717176458288 0 -0.0024887428036986818 -0.0067293106026594263 0 -0.002759222032567375 -0.005661699348742417 0 -0.0021150153022026922 -0.0060167717176458288 0 -0.0020523415172243372 -0.0054630151396767813 0 -0.0020395185503957573 -0.006877729828442372 0 -0.0017892003301639443 -0.0063279674861350232 0 -0.0024887428036986818 -0.0067293106026594263 0 -0.0024022941108612938 -0.0069436539905358948 0 -0.0020395185503957573 -0.006877729828442372 0 -0.0024887428036986818 -0.0067293106026594263 0 0.0013237381676892862 -0.0022943451022877683 0 0.001126862056746925 -0.0020246587457575203 0 0.0014889107212960376 -0.0020932301873198183 0 0.0013237381676892862 -0.0022943451022877683 0 0.00087793843052525388 -0.0022177984161509648 0 0.001126862056746925 -0.0020246587457575203 0 0.0012854223459419765 -0.0022726659966935889 0 0.00083913966693276881 -0.0021283521679354932 0 0.0013237381676892862 -0.0022943451022877683 0 0.00079829020215705293 -0.0020294237661397747 0 0.001006677626686875 -0.0025474205519254848 0 0.00076956600204807206 -0.0018848756799208037 0 0.00087793843052525388 -0.0022177984161509648 0 0.001126862056746925 -0.0020246587457575203 0 0.00076956600204807206 -0.0018848756799208037 0 0.001006620550533991 -0.0017859605598275431 0 0.001126862056746925 -0.0020246587457575203 0 0.001269185768204702 -0.0018192094174385315 0 0.001126862056746925 -0.0020246587457575203 0 0.0014889107212960376 -0.0020932301873198183 0 -0.00032755623432505172 -0.0039490470302822695 0 -0.00022136586923315874 -0.0040013624398543722 0 -0.00024607650481814493 -0.0040707327740247745 0 0.00058711314477466058 -0.0029142902854027517 0 0.00024174965946862324 -0.0031987386424973357 0 -0.00027258658253979414 -0.0042326165561532569 0 0.00024174965946862324 -0.0031987386424973357 0 0.00024174965946862324 -0.0031987386424973357 0 0.00025657782214828751 -0.0034294493868323337 0 -0.00022857771970894239 -0.0040633323734391982 0 -0.0001600046549447038 -0.0040591626221487855 0 -0.0002170631609187814 -0.0040783865059005183 0 -8.7999586619724553e-05 -0.0039847442667029862 0 -0.00022136586923315874 -0.0040013624398543722 0 -0.0001600046549447038 -0.0040591626221487855 0 -0.00022136586923315874 -0.0040013624398543722 0 -0.00022857771970894239 -0.0040633323734391982 0 -0.0001600046549447038 -0.0040591626221487855 0 -0.00030224516685695369 -0.007368397106137744 0 -0.00036659085824005473 -0.0068583115637078571 0 0.00021986362050054907 -0.0067757838367325327 0 -0.00036659085824005473 -0.0068583115637078571 0 0.00021986362050054907 -0.0067757838367325327 0 -0.00034024371389676809 -0.0062574381428086119 0 -0.0001600046549447038 -0.0040591626221487855 0 -0.0002170631609187814 -0.0040783865059005183 0 -0.00020840608164562612 -0.0041075596004682838 0 -0.00017695243553208386 -0.0056846349688439721 0 -0.00013260598220504101 -0.0056277394441696191 0 -0.00022295925152769646 -0.00406957461172908 0 -0.00020840608164562612 -0.0041075596004682838 0 -0.0002175697834375838 -0.0041468014059979665 0 0.00024174965946862324 -0.0031987386424973357 0 0.00075315893049581666 -0.0040120372968971167 0 0.0013237381676892862 -0.0022943451022877683 0 0.0014889107212960376 -0.0020932301873198183 0 0.0014107538752193998 -0.0025822847410208643 0 -0.00022295925152769646 -0.00406957461172908 0 -0.0002170631609187814 -0.0040783865059005183 0 -0.00020840608164562612 -0.0041075596004682838 0 0.00021986362050054907 -0.0067757838367325327 0 0.00018655188340536744 -0.0060637586649151132 0 0.00076292436510417237 -0.0061113421275255332 0 -0.00013260598220504101 -0.0056277394441696191 0 0.00075315893049581666 -0.0040120372968971167 0 0.00021986362050054907 -0.0067757838367325327 0 0.00018655188340536744 -0.0060637586649151132 0 -0.00034024371389676809 -0.0062574381428086119 0 0.00018655188340536744 -0.0060637586649151132 0 -0.00034024371389676809 -0.0062574381428086119 0 -0.00012687847965130812 -0.0055288117234163475 0 -0.00060803370062585986 -0.0057500163249426467 0 -0.00034024371389676809 -0.0062574381428086119 0 -0.00012687847965130812 -0.0055288117234163475 0 -0.00060803370062585986 -0.0057500163249426467 0 -0.00012687847965130812 -0.0055288117234163475 0 -0.00049576101837165711 -0.0052872716104087076 0 0.00018655188340536744 -0.0060637586649151132 0 0.00043620412011823566 -0.0055460291326976429 0 0.00076292436510417237 -0.0061113421275255332 0 0.00018655188340536744 -0.0060637586649151132 0 -0.00012687847965130812 -0.0055288117234163475 0 0.00043620412011823566 -0.0055460291326976429 0 -0.00012687847965130812 -0.0055288117234163475 0 0.00043620412011823566 -0.0055460291326976429 0 0.00020392030706865494 -0.0052157840994615954 0 0.00043620412011823566 -0.0055460291326976429 0 0.00095648911261125434 -0.0052479757323098493 0 0.00058060095573770135 -0.0049864701815954286 0 0.0014107538752193998 -0.0025822847410208643 0 0.001006677626686875 -0.0025474205519254848 0 0.0011871428809344948 -0.0031000729991495488 0 0.00093886098312683539 -0.0040390725996003792 0 0.0010250539598163546 -0.003802361096654923 0 0.00081999798705870944 -0.0040256665534406386 0 0.00043620412011823566 -0.0055460291326976429 0 0.00095648911261125434 -0.0052479757323098493 0 0.00076292436510417237 -0.0061113421275255332 0 0.00088070179282486968 -0.0048121664024484015 0 0.00075315893049581666 -0.0040120372968971167 0 0.00075315893049581666 -0.0040120372968971167 0 0.0011023070387589969 -0.0034158544693999315 0 0.0013237381676892862 -0.0022943451022877683 0 0.0014107538752193998 -0.0025822847410208643 0 0.001006677626686875 -0.0025474205519254848 0 0.00050695539354911345 -0.0026662326333466218 0 0.00079829020215705293 -0.0020294237661397747 0 0.001006677626686875 -0.0025474205519254848 0 0.00050695539354911345 -0.0026662326333466218 0 0.001006677626686875 -0.0025474205519254848 0 0.00085590436059483383 -0.0028644079362890053 0 0.00064381360436519648 -0.0032065007385717503 0 0.00085590436059483383 -0.0028644079362890053 0 0.0011871428809344948 -0.0031000729991495488 0 0.001006677626686875 -0.0025474205519254848 0 0.00085590436059483383 -0.0028644079362890053 0 0.0011871428809344948 -0.0031000729991495488 0 0.0011023070387589969 -0.0034158544693999315 0 0.00059096836352128164 -0.0040731488382231198 0 0.00064381360436519648 -0.0032065007385717503 0 0.0011871428809344948 -0.0031000729991495488 0 0.00063257920514688687 -0.0040298706727575516 0 0.00081999798705870944 -0.0040256665534406386 0 0.00084402257067765372 -0.0043089530949196268 0 0.00063257920514688687 -0.0040298706727575516 0 0.00063645352640682182 -0.004383995817604373 0 0.00049260379836075824 -0.0043976589928469458 0 0.00063257920514688687 -0.0040298706727575516 0 0.00084402257067765372 -0.0043089530949196268 0 0.00063645352640682182 -0.004383995817604373 0 0.00063257920514688687 -0.0040298706727575516 0 0.00084402257067765372 -0.0043089530949196268 0 0.00069684928035166824 -0.004380385332400912 0 0.00057743091512687497 -0.0045150816324846417 0 0.00084402257067765372 -0.0043089530949196268 0 0.00069684928035166824 -0.004380385332400912 0 0.00063645352640682182 -0.004383995817604373 0 0.00095648911261125434 -0.0052479757323098493 0 0.00084402257067765372 -0.0043089530949196268 0 0.00058060095573770135 -0.0049864701815954286 0 0.00088070179282486968 -0.0048121664024484015 0 0.00090134845478450655 -0.0043248296943837776 0 0.00093886098312683539 -0.0040390725996003792 0 0.00081999798705870944 -0.0040256665534406386 0 0.00084402257067765372 -0.0043089530949196268 0 0.00084402257067765372 -0.0043089530949196268 0 0.00058060095573770135 -0.0049864701815954286 0 0.00057743091512687497 -0.0045150816324846417 0 0.00058060095573770135 -0.0049864701815954286 0 0.00020392030706865494 -0.0052157840994615954 0 0.00057743091512687497 -0.0045150816324846417 0 0.00043620412011823566 -0.0055460291326976429 0 0.00058060095573770135 -0.0049864701815954286 0 0.00020392030706865494 -0.0052157840994615954 0 0.00020392030706865494 -0.0052157840994615954 0 -0.00011331984504243778 -0.0049035808099193974 0 0.00057743091512687497 -0.0045150816324846417 0 -0.00011331984504243778 -0.0049035808099193974 0 -0.00049576101837165711 -0.0052872716104087076 0 -0.00067065326214998467 -0.0048333889390109758 0 -0.00012687847965130812 -0.0055288117234163475 0 -0.00011331984504243778 -0.0049035808099193974 0 -0.00049576101837165711 -0.0052872716104087076 0 -0.00012687847965130812 -0.0055288117234163475 0 0.00020392030706865494 -0.0052157840994615954 0 -0.00011331984504243778 -0.0049035808099193974 0 -0.00011331984504243778 -0.0049035808099193974 0 -0.00017694426169454139 -0.0042974307603316636 0 -0.00067065326214998467 -0.0048333889390109758 0 -0.00011331984504243778 -0.0049035808099193974 0 -0.00017694426169454139 -0.0042974307603316636 0 0.00057743091512687497 -0.0045150816324846417 0 0.0010587012968341911 -0.0042988648212357915 0 0.00057743091512687497 -0.0045150816324846417 0 0.00072224582141596915 -0.0044179369641746515 0 0.00069684928035166824 -0.004380385332400912 0 0.00057743091512687497 -0.0045150816324846417 0 0.00072224582141596915 -0.0044179369641746515 0 0.00048259225386708659 -0.0043555466672850606 0 0.00060077657743074679 -0.0044998672062284998 0 0.0010587012968341911 -0.0042988648212357915 0 0.00085849522670878686 -0.0046225760052149819 0 0.00072224582141596915 -0.0044179369641746515 0 0.00085849522670878686 -0.0046225760052149819 0 0.00072224582141596915 -0.0044179369641746515 0 0.00060812343024479391 -0.0044968218344296285 0 0.0010587012968341911 -0.0042988648212357915 0 0.00085849522670878686 -0.0046225760052149819 0 0.0013270761345629482 -0.004731910767176088 0 0.0010413285000012251 -0.0050500495378090716 0 0.0013270761345629482 -0.004731910767176088 0 0.0015925612447829525 -0.0050986718144837 0 0.00085849522670878686 -0.0046225760052149819 0 0.0010413285000012251 -0.0050500495378090716 0 0.0013270761345629482 -0.004731910767176088 0 0.00085849522670878686 -0.0046225760052149819 0 0.0010413285000012251 -0.0050500495378090716 0 0.00055040688466049159 -0.0049020870749675784 0 0.00085849522670878686 -0.0046225760052149819 0 0.00055040688466049159 -0.0049020870749675784 0 0.00060812343024479391 -0.0044968218344296285 0 0.00055040688466049159 -0.0049020870749675784 0 0.00039896246999647549 -0.0043201290769493209 0 0.00060812343024479391 -0.0044968218344296285 0 0.00039896246999647549 -0.0043201290769493209 0 0.00063645352640682182 -0.004383995817604373 0 0.00049260379836075824 -0.0043976589928469458 0 0.00039896246999647549 -0.0043201290769493209 0 0.00063645352640682182 -0.004383995817604373 0 0.00060812343024479391 -0.0044968218344296285 0 0.00069684928035166824 -0.004380385332400912 0 0.00063645352640682182 -0.004383995817604373 0 0.00060812343024479391 -0.0044968218344296285 0 0.00069684928035166824 -0.004380385332400912 0 0.00072224582141596915 -0.0044179369641746515 0 0.00060812343024479391 -0.0044968218344296285 0 -0.0025777786758509006 -0.0047989740140115056 0 -0.0021811896346681644 -0.0048015557241239239 0 -0.0020918760469518577 -0.0045601241726152828 0 -0.0028295846964599435 -0.0047698922584472692 0 -0.0021811896346681644 -0.0048015557241239239 0 -0.0025315987906470907 -0.0051373263304936925 0 -0.0023035250698526404 -0.0066435246433252885 0 -0.0024036722190396501 -0.0049064040625658506 0 -0.0021811896346681644 -0.0048015557241239239 0 -0.0025315987906470907 -0.0051373263304936925 0 -0.0020509983011303338 -0.0050781323925245302 0 -0.002759222032567375 -0.005661699348742417 0 -0.0025315987906470907 -0.0051373263304936925 0 -0.0020523415172243372 -0.0054630151396767813 0 -0.0025315987906470907 -0.0051373263304936925 0 -0.0020509983011303338 -0.0050781323925245302 0 -0.0020523415172243372 -0.0054630151396767813 0 -0.0020509983011303338 -0.0050781323925245302 0 -0.0020523415172243372 -0.0054630151396767813 0 -0.0014066766796382649 -0.0049493954209149033 0 -0.0015731615327677223 -0.0057079575458008651 0 -0.0020523415172243372 -0.0054630151396767813 0 -0.0014066766796382649 -0.0049493954209149033 0 -0.0019702342306532014 -0.0047917801941557018 0 -0.0014066766796382649 -0.0049493954209149033 0 -0.0019933428729390643 -0.0041670235928497725 0 -0.0014066766796382649 -0.0049493954209149033 0 -0.0013905188031520168 -0.0043821129430155637 0 -0.0019964782459417417 -0.0040015607524720226 0 -0.0020509983011303338 -0.0050781323925245302 0 -0.0019702342306532014 -0.0047917801941557018 0 -0.0014066766796382649 -0.0049493954209149033 0 -0.0015619941357060737 -0.0043898603906745142 0 -0.0018883378715748883 -0.0054177051579286251 0 -0.0021811896346681644 -0.0048015557241239239 0 -0.0020509983011303338 -0.0050781323925245302 0 -0.0019702342306532014 -0.0047917801941557018 0 -0.0021811896346681644 -0.0048015557241239239 0 -0.0019702342306532014 -0.0047917801941557018 0 -0.0020918760469518577 -0.0045601241726152828 0 -0.0010138455287745484 -0.0045435616146936196 0 -0.0014066766796382649 -0.0049493954209149033 0 -0.00067065326214998467 -0.0048333889390109758 0 -0.0010138455287745484 -0.0045435616146936196 0 -0.0014066766796382649 -0.0049493954209149033 0 -0.0013905188031520168 -0.0043821129430155637 0 -0.0010138455287745484 -0.0045435616146936196 0 -0.0011451052446888163 -0.0043131532552932372 0 -0.0013905188031520168 -0.0043821129430155637 0 -0.0014066766796382649 -0.0049493954209149033 0 -0.0010051337590318847 -0.005530090135611768 0 -0.00067065326214998467 -0.0048333889390109758 0 -0.0015731615327677223 -0.0057079575458008651 0 -0.0014066766796382649 -0.0049493954209149033 0 -0.0010051337590318847 -0.005530090135611768 0 -0.0010051337590318847 -0.005530090135611768 0 -0.00049576101837165711 -0.0052872716104087076 0 -0.00067065326214998467 -0.0048333889390109758 0 -0.0010138455287745484 -0.0045435616146936196 0 -0.00066791457664763635 -0.0044741124942985809 0 -0.00082300970378885758 -0.0041981060033037141 0 -0.0010138455287745484 -0.0045435616146936196 0 -0.00067065326214998467 -0.0048333889390109758 0 -0.00066791457664763635 -0.0044741124942985809 0 -0.00017694426169454139 -0.0042974307603316636 0 -0.00067065326214998467 -0.0048333889390109758 0 -0.00066791457664763635 -0.0044741124942985809 0 -0.00017694426169454139 -0.0042974307603316636 0 -0.00066791457664763635 -0.0044741124942985809 0 -0.00082300970378885758 -0.0041981060033037141 0 -0.00017694426169454139 -0.0042974307603316636 0 -0.00082300970378885758 -0.0041981060033037141 0 -0.00080231470307810327 -0.0040432350215311216 0 0.0010587012968341911 -0.0042988648212357915 0 0.0013270761345629482 -0.004731910767176088 0 0.0018156561355468332 -0.0045657357681282394 0 0.00048259225386708659 -0.0043555466672850606 0 0.00051439713171264328 -0.004120390190836716 0 0.0013270761345629482 -0.004731910767176088 0 0.0018156561355468332 -0.0045657357681282394 0 0.0016832583104331076 -0.0048524844007299013 0 0.0013270761345629482 -0.004731910767176088 0 0.0016832583104331076 -0.0048524844007299013 0 0.0015925612447829525 -0.0050986718144837 0 0.0016832583104331076 -0.0048524844007299013 0 0.0015925612447829525 -0.0050986718144837 0 0.0019962840425643228 -0.005007568936201078 0 0.0018156561355468332 -0.0045657357681282394 0 0.0016832583104331076 -0.0048524844007299013 0 0.0019962840425643228 -0.005007568936201078 0 0.0018156561355468332 -0.0045657357681282394 0 0.0019962840425643228 -0.005007568936201078 0 0.0025125473798793996 -0.005027292286492499 0 -0.00080231470307810327 -0.0040432350215311216 0 -0.0010808028939434684 -0.0039201267679306777 0 -0.0010514581617760697 -0.0041573779569774646 0 0.00051439713171264328 -0.004120390190836716 0 0.00013170912179699039 -0.0062563984834334398 0 -0.00082300970378885758 -0.0041981060033037141 0 -0.00080231470307810327 -0.0040432350215311216 0 -0.0010514581617760697 -0.0041573779569774646 0 -0.0010138455287745484 -0.0045435616146936196 0 -0.00082300970378885758 -0.0041981060033037141 0 -0.0011451052446888163 -0.0043131532552932372 0 -0.00082300970378885758 -0.0041981060033037141 0 -0.0014102113159797517 -0.0040912126951018635 0 -0.0011451052446888163 -0.0043131532552932372 0 -0.00088299648276324945 -0.0041886727959573201 0 -0.0012233519447414532 -0.0041777676786004386 0 -0.0014102113159797517 -0.0040912126951018635 0 -0.0011451052446888163 -0.0043131532552932372 0 -0.0013905188031520168 -0.0043821129430155637 0 -0.0014102113159797517 -0.0040912126951018635 0 -0.0013905188031520168 -0.0043821129430155637 0 -0.0019964782459417417 -0.0040015607524720226 0 -0.0019931380916494222 -0.004322540112987586 0 -0.0018883378715748883 -0.0054177051579286251 0 -0.0019702342306532014 -0.0047917801941557018 0 -0.0020918760469518577 -0.0045601241726152828 0 -0.0020237260109304388 -0.0043218006397858239 0 -0.0010514581617760697 -0.0041573779569774646 0 -0.0012608319761267036 -0.004145083403401334 0 -0.0012779328391147801 -0.0041196374955842141 0 -0.0020918760469518577 -0.0045601241726152828 0 -0.0020237260109304388 -0.0043218006397858239 0 -0.0020894232980493499 -0.0043108317022428969 0 -0.0018883378715748883 -0.0054177051579286251 0 -0.0011653558992426993 -0.0071986134510957896 0 -0.00051792950095767669 -0.0064876783390231951 0 -0.001564185681832 -0.0063248610571624989 0 -0.00098752950919330797 -0.0057519960287599889 0 -0.0018883378715748883 -0.0054177051579286251 0 -0.0016446750275818703 -0.006885715164750777 0 -0.0016446750275818703 -0.006885715164750777 0 -0.0011653558992426993 -0.0071986134510957896 0 -0.0012233519447414532 -0.0041777676786004386 0 -0.0018883378715748883 -0.0054177051579286251 0 0.00013170912179699039 -0.0062563984834334398 0 -0.0011653558992426993 -0.0071986134510957896 0 -0.00079360483269896647 -0.0076781085649233315 0 -0.00032816609211125023 -0.0072109610719556707 0 -0.00029104788568150449 -0.0080359813296203148 0 -0.0010808028939434684 -0.0039201267679306777 0 -0.0010514581617760697 -0.0041573779569774646 0 -0.0012779328391147801 -0.0041196374955842141 0 -0.0011653558992426993 -0.0071986134510957896 0 -0.00028865937906771767 -0.009314965671670835 0 -0.0011653558992426993 -0.0071986134510957896 0 -0.00074463433982045898 -0.011089385157022945 0 -0.00097482471006626751 -0.0081335119772129507 0 0.00010359584857448085 -0.0098514613683243352 0 -0.00090037902031214452 -0.0099068906365211481 0 -0.0023988570352292665 -0.010560220852247209 0 -0.0015828088907677369 -0.01108753194986617 0 -0.0014747964774869679 -0.012025349668138684 0 -0.0025777786758509006 -0.0047989740140115056 0 -0.0020918760469518577 -0.0045601241726152828 0 -0.0020894232980493499 -0.0043108317022428969 0 -0.0023035250698526404 -0.0066435246433252885 0 -0.0016446750275818703 -0.006885715164750777 0 -0.00071789656045218595 -0.01074739015558651 0 -0.0023006343893793857 -0.010463072383619725 0 -0.0015828088907677369 -0.01108753194986617 0 -0.001474942999285315 -0.0077519306496522822 0 -0.0012595994839388069 -0.0084674762892225641 0 -0.0020510652048749498 -0.0083246250879619125 0 -0.001120957303180931 -0.010524006055505582 0 -0.0016446750275818703 -0.006885715164750777 0 -0.0023006343893793857 -0.010463072383619725 0 -0.0023988570352292665 -0.010560220852247209 0 -0.0015828088907677369 -0.01108753194986617 0 -0.00029771043586944559 -0.010199067386907101 0 9.5401874613874411e-05 -0.010461019198182661 0 -0.00019525375823338561 -0.011592514556540329 0 -0.00080711810523164773 -0.011055907173202465 0 -0.00073395178353661877 -0.012183135273574524 0 -0.00032485649124277215 -0.010724516296091476 0 -0.00052656235377179707 -0.010162865196876252 0 -0.00080711810523164773 -0.011055907173202465 0 -0.00019525375823338561 -0.011592514556540329 0 -0.00032485649124277215 -0.010724516296091476 0 -0.00080711810523164773 -0.011055907173202465 0 -0.00019525375823338561 -0.011592514556540329 0 -0.00032485649124277215 -0.010724516296091476 0 0.0001761493439584526 -0.010917763801119532 0 -0.00052656235377179707 -0.010162865196876252 0 -0.00088110347076969975 -0.0099143485264819621 0 -0.00080711810523164773 -0.011055907173202465 0 -0.00032485649124277215 -0.010724516296091476 0 0.00010359584857448085 -0.0098514613683243352 0 -0.00052656235377179707 -0.010162865196876252 0 -0.00032485649124277215 -0.010724516296091476 0 0.0001761493439584526 -0.010917763801119532 0 0.00010359584857448085 -0.0098514613683243352 0 0.00010359584857448085 -0.0098514613683243352 0 -0.00052656235377179707 -0.010162865196876252 0 -0.00090037902031214452 -0.0099068906365211481 0 -0.0003480246850982294 -0.0095864753640275899 0 -0.00028865937906771767 -0.009314965671670835 0 -0.00028865937906771767 -0.009314965671670835 0 -0.00029771043586944559 -0.010199067386907101 0 0.00018506919777105813 -0.0091097527619683136 0 0.0001865658931143854 -0.0092041658584729909 0 0.000106330797389613 -0.009163265349121083 0 0.00010625689552999335 -0.009043042765910175 0 0.00018506919777105813 -0.0091097527619683136 0 0.000106330797389613 -0.009163265349121083 0 0.00013170912179699039 -0.0062563984834334398 0 -0.00028865937906771767 -0.009314965671670835 0 0.0001865658931143854 -0.0092041658584729909 0 8.7595804255835273e-05 -0.0092519024889428977 0 0.00019200344243338929 -0.0092945583612005136 0 0.0001865658931143854 -0.0092041658584729909 0 0.000106330797389613 -0.009163265349121083 0 8.7595804255835273e-05 -0.0092519024889428977 0 -3.0756388557864969e-05 -0.0092782562534126957 0 1.1238408759746266e-05 -0.0094640957590983732 0 5.5933143463161409e-05 -0.0091936942991484669 0 1.632853761020369e-05 -0.0091998003530272075 0 8.7595804255835273e-05 -0.0092519024889428977 0 5.5933143463161409e-05 -0.0091936942991484669 0 0.000106330797389613 -0.009163265349121083 0 8.7595804255835273e-05 -0.0092519024889428977 0 5.5933143463161409e-05 -0.0091936942991484669 0 0.000106330797389613 -0.009163265349121083 0 3.4051342486934629e-05 -0.0091511262649092966 0 0.00010625689552999335 -0.009043042765910175 0 0.000106330797389613 -0.009163265349121083 0 3.4051342486934629e-05 -0.0091511262649092966 0 0.00013170912179699039 -0.0062563984834334398 0 0.0011684778085459372 -0.0073807565201130963 0 0.0019962840425643228 -0.005007568936201078 0 0.0025125473798793996 -0.005027292286492499 0 0.0020732852677198387 -0.0055462423603879416 0 0.0015925612447829525 -0.0050986718144837 0 0.0020732852677198387 -0.0055462423603879416 0 0.0013894894148155481 -0.0055611438289993416 0 0.0020732852677198387 -0.0055462423603879416 0 0.0017497090991685754 -0.0062407479510155472 0 0.0013894894148155481 -0.0055611438289993416 0 0.0015925612447829525 -0.0050986718144837 0 0.0019962840425643228 -0.005007568936201078 0 0.0020732852677198387 -0.0055462423603879416 0 3.4051342486934629e-05 -0.0091511262649092966 0 1.632853761020369e-05 -0.0091998003530272075 0 0.00010512262257369312 -0.0092340184749142781 0 5.5933143463161409e-05 -0.0091936942991484669 0 3.4051342486934629e-05 -0.0091511262649092966 0 1.632853761020369e-05 -0.0091998003530272075 0 0.0011684778085459372 -0.0073807565201130963 0 0.00084866922618121669 -0.0077348215094123025 0 1.632853761020369e-05 -0.0091998003530272075 0 0.00010512262257369312 -0.0092340184749142781 0 0.00013833776426714066 -0.0087564567476325853 0 1.632853761020369e-05 -0.0091998003530272075 0 -1.44899029678605e-05 -0.0095799948432500181 0 0.00013833776426714066 -0.0087564567476325853 0 -1.44899029678605e-05 -0.0095799948432500181 0 -8.038121290285792e-07 -0.010589082633304556 0 6.7506079272153027e-07 -0.0091459598774150924 0 -1.44899029678605e-05 -0.0095799948432500181 0 0.00013833776426714066 -0.0087564567476325853 0 6.7506079272153027e-07 -0.0091459598774150924 0 -1.44899029678605e-05 -0.0095799948432500181 0 -8.038121290285792e-07 -0.010589082633304556 0 -7.633629758546768e-06 -0.010323517519533743 0 1.632853761020369e-05 -0.0091998003530272075 0 -1.44899029678605e-05 -0.0095799948432500181 0 -2.565041115925258e-05 -0.0097972940975070717 0 -1.44899029678605e-05 -0.0095799948432500181 0 -2.565041115925258e-05 -0.0097972940975070717 0 -7.633629758546768e-06 -0.010323517519533743 0 1.1238408759746266e-05 -0.0094640957590983732 0 9.5401874613874411e-05 -0.010461019198182661 0 -7.633629758546768e-06 -0.010323517519533743 0 1.591568593784979e-05 -0.011226862459716554 0 0.00027278969180722582 -0.010287326108241502 0 -2.565041115925258e-05 -0.0097972940975070717 0 -7.633629758546768e-06 -0.010323517519533743 0 0.00027278969180722582 -0.010287326108241502 0 -8.038121290285792e-07 -0.010589082633304556 0 1.926628558813127e-06 -0.012029180454284224 0 1.591568593784979e-05 -0.011226862459716554 0 -8.038121290285792e-07 -0.010589082633304556 0 -7.633629758546768e-06 -0.010323517519533743 0 1.591568593784979e-05 -0.011226862459716554 0 0.0012319667105940659 -0.010448800338745352 0 1.926628558813127e-06 -0.012029180454284224 0 1.591568593784979e-05 -0.011226862459716554 0 0.00072989864270840091 -0.012706902939662078 0 4.8983649445758561e-07 -0.012030980315957356 0 0.0012319667105940659 -0.010448800338745352 0 1.591568593784979e-05 -0.011226862459716554 0 -4.2252981210870944e-05 -0.010122822755653361 0 0.00048308237038742876 -0.012505068137073654 0 -0.00019525375823338561 -0.011592514556540329 0 -0.00073395178353661877 -0.012183135273574524 0 0.00072989864270840091 -0.012706902939662078 0 9.5401874613874411e-05 -0.010461019198182661 0 5.9588211276046049e-05 -0.010980179243429623 0 9.5401874613874411e-05 -0.010461019198182661 0 0.00026181671481109562 -0.0055107639998747291 0 0.00040171137305110858 -0.006453209826673475 0 9.2850561654026707e-05 -0.0065760183387135367 0 0.00026181671481109562 -0.0055107639998747291 0 9.2850561654026707e-05 -0.0065760183387135367 0 7.1159697664277363e-07 -0.0052471075726588457 0 0.00026181671481109562 -0.0055107639998747291 0 7.1159697664277363e-07 -0.0052471075726588457 0 9.0646452228113978e-05 -0.0044855888117248744 0 0.00039896246999647549 -0.0043201290769493209 0 0.00026181671481109562 -0.0055107639998747291 0 9.0646452228113978e-05 -0.0044855888117248744 0 0.00055040688466049159 -0.0049020870749675784 0 0.00039896246999647549 -0.0043201290769493209 0 0.00026181671481109562 -0.0055107639998747291 0 0.0010413285000012251 -0.0050500495378090716 0 0.00055040688466049159 -0.0049020870749675784 0 0.0007627001385965 -0.0057941284920653572 0 0.00055040688466049159 -0.0049020870749675784 0 0.00026181671481109562 -0.0055107639998747291 0 0.0007627001385965 -0.0057941284920653572 0 0.0010413285000012251 -0.0050500495378090716 0 0.0015925612447829525 -0.0050986718144837 0 0.0013894894148155481 -0.0055611438289993416 0 0.0010413285000012251 -0.0050500495378090716 0 0.0013894894148155481 -0.0055611438289993416 0 0.0007627001385965 -0.0057941284920653572 0 0.0017497090991685754 -0.0062407479510155472 0 0.0013894894148155481 -0.0055611438289993416 0 0.0012251545367401374 -0.0059849900456933796 0 0.0012251545367401374 -0.0059849900456933796 0 0.00086006457169227209 -0.0064647501362274842 0 0.0007627001385965 -0.0057941284920653572 0 0.0013894894148155481 -0.0055611438289993416 0 0.0012251545367401374 -0.0059849900456933796 0 0.0007627001385965 -0.0057941284920653572 0 0.0017497090991685754 -0.0062407479510155472 0 0.00086006457169227209 -0.0064647501362274842 0 0.00050358267085870911 -0.0078906571518452956 0 0.0017497090991685754 -0.0062407479510155472 0 0.0012251545367401374 -0.0059849900456933796 0 0.00086006457169227209 -0.0064647501362274842 0 0.00026181671481109562 -0.0055107639998747291 0 0.0007627001385965 -0.0057941284920653572 0 0.00040171137305110858 -0.006453209826673475 0 0.00086006457169227209 -0.0064647501362274842 0 0.0007627001385965 -0.0057941284920653572 0 0.00040171137305110858 -0.006453209826673475 0 0.00040171137305110858 -0.006453209826673475 0 0.00050358267085870911 -0.0078906571518452956 0 9.2850561654026707e-05 -0.0065760183387135367 0 0.00086006457169227209 -0.0064647501362274842 0 0.00040171137305110858 -0.006453209826673475 0 0.00050358267085870911 -0.0078906571518452956 0 0.00084866922618121669 -0.0077348215094123025 0 0.00052351230890741827 -0.0079485546292459748 0 0.00010512262257369312 -0.0092340184749142781 0 0.00013833776426714066 -0.0087564567476325853 0 0.00050358267085870911 -0.0078906571518452956 0 0.00013833776426714066 -0.0087564567476325853 0 0.00050358267085870911 -0.0078906571518452956 0 6.7506079272153027e-07 -0.0091459598774150924 0 0.00050358267085870911 -0.0078906571518452956 0 6.7506079272153027e-07 -0.0091459598774150924 0 2.8130179406920424e-07 -0.0077039303984747388 0 0.00050358267085870911 -0.0078906571518452956 0 2.8130179406920424e-07 -0.0077039303984747388 0 9.2850561654026707e-05 -0.0065760183387135367 0 2.8130179406920424e-07 -0.0077039303984747388 0 9.2850561654026707e-05 -0.0065760183387135367 0 -1.4695951578776211e-07 -0.0062614401340499422 0 9.2850561654026707e-05 -0.0065760183387135367 0 -1.4695951578776211e-07 -0.0062614401340499422 0 7.1159697664277363e-07 -0.0052471075726588457 0 -1.4695951578776211e-07 -0.0062614401340499422 0 -1.9134005424449111e-07 -0.0048191727415393638 0 -8.9020064426491606e-05 -0.0048143953903153347 0 -1.9134005424449111e-07 -0.0048191727415393638 0 -8.9020064426491606e-05 -0.0048143953903153347 0 -0.00014447621632202815 -0.0039752603709042435 0 -8.9020064426491606e-05 -0.0048143953903153347 0 7.1159697664277363e-07 -0.0052471075726588457 0 -0.00018018381035395537 -0.00392419657943656 0 -8.9020064426491606e-05 -0.0048143953903153347 0 -0.00014447621632202815 -0.0039752603709042435 0 -0.00018018381035395537 -0.00392419657943656 0 -1.4695951578776211e-07 -0.0062614401340499422 0 -8.9020064426491606e-05 -0.0048143953903153347 0 7.1159697664277363e-07 -0.0052471075726588457 0 -3.4833415033399675e-07 -0.0033768617188333116 0 -0.00014447621632202815 -0.0039752603709042435 0 -0.00030575861511856014 -0.0028622273292014545 0 -1.9134005424449111e-07 -0.0048191727415393638 0 -3.4833415033399675e-07 -0.0033768617188333116 0 -0.00014447621632202815 -0.0039752603709042435 0 -0.00018018381035395537 -0.00392419657943656 0 -0.00033513774393213768 -0.0029684520982727557 0 -0.00030575861511856014 -0.0028622273292014545 0 -0.00014447621632202815 -0.0039752603709042435 0 -0.00018018381035395537 -0.00392419657943656 0 -0.00030575861511856014 -0.0028622273292014545 0 -0.00018018381035395537 -0.00392419657943656 0 -0.00033513774393213768 -0.0029684520982727557 0 -0.00024601876284426511 -0.0031629669037981744 0 -0.00018018381035395537 -0.00392419657943656 0 -1.9195558796317183e-05 -0.0035438083748137368 0 -0.00024601876284426511 -0.0031629669037981744 0 7.1159697664277363e-07 -0.0052471075726588457 0 -0.00018018381035395537 -0.00392419657943656 0 9.0646452228113978e-05 -0.0044855888117248744 0 -0.00018018381035395537 -0.00392419657943656 0 9.0646452228113978e-05 -0.0044855888117248744 0 -1.9195558796317183e-05 -0.0035438083748137368 0 0.00039896246999647549 -0.0043201290769493209 0 9.0646452228113978e-05 -0.0044855888117248744 0 -1.9195558796317183e-05 -0.0035438083748137368 0 0.00043463905203233516 -0.0042216237332453766 0 0.00040510532606206765 -0.0036954390234201248 0 0.00039896246999647549 -0.0043201290769493209 0 0.00040881060715852703 -0.002995776441366965 0 -1.9195558796317183e-05 -0.0035438083748137368 0 4.6089419323695421e-05 -0.0026966279499911188 0 -1.9195558796317183e-05 -0.0035438083748137368 0 -0.0002092518011994323 -0.0027551232347322284 0 0.00040881060715852703 -0.002995776441366965 0 4.6089419323695421e-05 -0.0026966279499911188 0 -1.9195558796317183e-05 -0.0035438083748137368 0 -1.9195558796317183e-05 -0.0035438083748137368 0 -0.00024601876284426511 -0.0031629669037981744 0 -0.0002092518011994323 -0.0027551232347322284 0 -0.00024601876284426511 -0.0031629669037981744 0 -0.00036037375336297865 -0.0026271423941041979 0 -0.0002092518011994323 -0.0027551232347322284 0 -0.00033513774393213768 -0.0029684520982727557 0 -0.00024601876284426511 -0.0031629669037981744 0 -0.00036037375336297865 -0.0026271423941041979 0 -0.00036037375336297865 -0.0026271423941041979 0 -0.0002092518011994323 -0.0027551232347322284 0 -0.0002865507706338162 -0.002251116395594954 0 4.6089419323695421e-05 -0.0026966279499911188 0 -0.0002092518011994323 -0.0027551232347322284 0 -0.00012470300048352407 -0.0021345785995474857 0 -0.0002092518011994323 -0.0027551232347322284 0 -0.00012470300048352407 -0.0021345785995474857 0 -0.0002865507706338162 -0.002251116395594954 0 -0.00012470300048352407 -0.0021345785995474857 0 -0.0002865507706338162 -0.002251116395594954 0 -0.00016384588687619577 -0.0018006485807838782 0 -0.00010145135893032507 -0.0017792858712920385 0 -0.00012470300048352407 -0.0021345785995474857 0 -0.00016384588687619577 -0.0018006485807838782 0 -2.6998616597285486e-05 -0.001827403293740381 0 -0.00010145135893032507 -0.0017792858712920385 0 -0.00012470300048352407 -0.0021345785995474857 0 -0.00021539534185830651 -0.0029229930013430511 0 0.00029356214843939807 -0.003305919749456107 0 0.00011088584874072078 -0.0039204210409759035 0 -9.956651961750083e-05 -0.0024027374260659892 0 0.00016349577815088357 -0.0030642182180341542 0 -2.6998616597285486e-05 -0.001827403293740381 0 -0.00012470300048352407 -0.0021345785995474857 0 0.00020913291118916481 -0.002228084656273964 0 0.00064381360436519648 -0.0032065007385717503 0 0.00029356214843939807 -0.003305919749456107 0 0.00063257920514688687 -0.0040298706727575516 0 0.00029356214843939807 -0.003305919749456107 0 0.00063257920514688687 -0.0040298706727575516 0 0.00011088584874072078 -0.0039204210409759035 0 0.00049260379836075824 -0.0043976589928469458 0 0.00063257920514688687 -0.0040298706727575516 0 0.00011088584874072078 -0.0039204210409759035 0 0.00040510532606206765 -0.0036954390234201248 0 0.00016349577815088357 -0.0030642182180341542 0 0.00040881060715852703 -0.002995776441366965 0 4.6089419323695421e-05 -0.0026966279499911188 0 0.00020913291118916481 -0.002228084656273964 0 4.6089419323695421e-05 -0.0026966279499911188 0 -0.00012470300048352407 -0.0021345785995474857 0 0.00020913291118916481 -0.002228084656273964 0 -0.00050565225461397161 -0.0018274109602105508 0 -0.00081412549639126508 -0.0013208259566050956 0 -0.00049097855896651076 -0.0014695180865881383 0 -0.00081412549639126508 -0.0013208259566050956 0 -0.00070365405843938133 0.00051389431194921221 0 -0.00046400908381215192 -0.0010746270190383508 0 -0.00050565225461397161 -0.0018274109602105508 0 -0.00081412549639126508 -0.0013208259566050956 0 -0.00050601962323426597 -0.0019799060176275696 0 -0.0007937358772430904 -0.0012307660929596774 0 -0.00055416393855466832 -0.00072163900982058038 0 -0.00072474444773921564 -0.0012564075969796174 0 -0.00081412549639126508 -0.0013208259566050956 0 -0.00049097855896651076 -0.0014695180865881383 0 -0.00072474444773921564 -0.0012564075969796174 0 -0.00081412549639126508 -0.0013208259566050956 0 -0.00046400908381215192 -0.0010746270190383508 0 -0.00018725806392111278 -0.0014505798162902941 0 -0.00049097855896651076 -0.0014695180865881383 0 -0.00031971838345799282 -0.0018710893157714281 0 -0.00018725806392111278 -0.0014505798162902941 0 -0.00016384588687619577 -0.0018006485807838782 0 -0.00031971838345799282 -0.0018710893157714281 0 -0.0002865507706338162 -0.002251116395594954 0 -0.00031971838345799282 -0.0018710893157714281 0 -0.00041579728055459949 -0.0021863656776566491 0 -0.0002865507706338162 -0.002251116395594954 0 -0.00016384588687619577 -0.0018006485807838782 0 -0.00031971838345799282 -0.0018710893157714281 0 -0.00050565225461397161 -0.0018274109602105508 0 -0.00049097855896651076 -0.0014695180865881383 0 -0.00031971838345799282 -0.0018710893157714281 0 -0.00050565225461397161 -0.0018274109602105508 0 -0.00031971838345799282 -0.0018710893157714281 0 -0.00041579728055459949 -0.0021863656776566491 0 -0.00050565225461397161 -0.0018274109602105508 0 -0.00041579728055459949 -0.0021863656776566491 0 -0.00051009434698258166 -0.0020222326620286933 0 -0.00036037375336297865 -0.0026271423941041979 0 -0.0002865507706338162 -0.002251116395594954 0 -0.00041579728055459949 -0.0021863656776566491 0 -0.00036037375336297865 -0.0026271423941041979 0 -0.00041579728055459949 -0.0021863656776566491 0 -0.0004666577566216 -0.002319656623393927 0 -0.00041579728055459949 -0.0021863656776566491 0 -0.00051009434698258166 -0.0020222326620286933 0 -0.0004666577566216 -0.002319656623393927 0 -0.00051009434698258166 -0.0020222326620286933 0 -0.00045748182088748053 -0.0017672480087037087 0 -0.0004666577566216 -0.002319656623393927 0 -0.00050565225461397161 -0.0018274109602105508 0 -0.00051009434698258166 -0.0020222326620286933 0 -0.00050601962323426597 -0.0019799060176275696 0 -0.00051009434698258166 -0.0020222326620286933 0 -0.00050601962323426597 -0.0019799060176275696 0 -0.00045748182088748053 -0.0017672480087037087 0 -0.00050601962323426597 -0.0019799060176275696 0 -0.00045748182088748053 -0.0017672480087037087 0 6.0395682481682883e-05 -0.0015218002590910425 0 -0.00045748182088748053 -0.0017672480087037087 0 -0.0002666801313721099 -0.0010341401123263635 0 6.0395682481682883e-05 -0.0015218002590910425 0 -0.00045748182088748053 -0.0017672480087037087 0 -0.00039589094848562785 -0.0017382875502785608 0 -0.0002666801313721099 -0.0010341401123263635 0 -0.00045748182088748053 -0.0017672480087037087 0 -0.00039589094848562785 -0.0017382875502785608 0 -0.0004666577566216 -0.002319656623393927 0 -0.00039589094848562785 -0.0017382875502785608 0 -0.0002666801313721099 -0.0010341401123263635 0 -0.00013977858798670605 -0.00054276436748648509 0 -0.00039589094848562785 -0.0017382875502785608 0 -0.0004666577566216 -0.002319656623393927 0 -0.00030575861511856014 -0.0028622273292014545 0 -0.00033513774393213768 -0.0029684520982727557 0 -0.00036037375336297865 -0.0026271423941041979 0 -0.0004666577566216 -0.002319656623393927 0 -0.00033513774393213768 -0.0029684520982727557 0 -0.0004666577566216 -0.002319656623393927 0 -0.00030575861511856014 -0.0028622273292014545 0 -3.4833415033399675e-07 -0.0033768617188333116 0 -0.00030575861511856014 -0.0028622273292014545 0 -0.00023202689266015923 -0.002170960725515187 0 -0.00039589094848562785 -0.0017382875502785608 0 -0.00030575861511856014 -0.0028622273292014545 0 -0.00023202689266015923 -0.002170960725515187 0 -0.00039589094848562785 -0.0017382875502785608 0 -0.00023202689266015923 -0.002170960725515187 0 -0.00015813026416033928 -0.0012871722945691339 0 -0.00023202689266015923 -0.002170960725515187 0 -3.4752500499221897e-07 -0.0019345913146093245 0 -0.00015813026416033928 -0.0012871722945691339 0 -3.4833415033399675e-07 -0.0033768617188333116 0 -0.00023202689266015923 -0.002170960725515187 0 -3.4752500499221897e-07 -0.0019345913146093245 0 -0.00039589094848562785 -0.0017382875502785608 0 -0.00013977858798670605 -0.00054276436748648509 0 -0.00015813026416033928 -0.0012871722945691339 0 -3.4752500499221897e-07 -0.0019345913146093245 0 -0.00015813026416033928 -0.0012871722945691339 0 -2.8353442546780302e-07 -0.0004921456613103417 0 -0.00013977858798670605 -0.00054276436748648509 0 -0.00015813026416033928 -0.0012871722945691339 0 -2.8353442546780302e-07 -0.0004921456613103417 0 -0.00013977858798670605 -0.00054276436748648509 0 9.9852763214962643e-08 0.00095013155259251526 0 0.00016325673125820492 0.00049879079849365513 0 9.9852763214962643e-08 0.00095013155259251526 0 -2.7320416857269782e-05 0.00138287087587465 0 0.00016325673125820492 0.00049879079849365513 0 -0.00013977858798670605 -0.00054276436748648509 0 -2.8353442546780302e-07 -0.0004921456613103417 0 9.9852763214962643e-08 0.00095013155259251526 0 -2.4398973233438853e-07 0.0023925160540022986 0 -0.00010687355440954977 0.0019440381537454282 0 -2.7320416857269782e-05 0.00138287087587465 0 9.9852763214962643e-08 0.00095013155259251526 0 -2.4398973233438853e-07 0.0023925160540022986 0 -2.7320416857269782e-05 0.00138287087587465 0 -2.4398973233438853e-07 0.0023925160540022986 0 -0.00010687355440954977 0.0019440381537454282 0 -6.2793499457847713e-05 0.0028879221536603195 0 -0.00010687355440954977 0.0019440381537454282 0 -6.2793499457847713e-05 0.0028879221536603195 0 -0.00010385318058188844 0.0021497862637136745 0 -0.00010687355440954977 0.0019440381537454282 0 -2.7320416857269782e-05 0.00138287087587465 0 -8.8408473281942891e-05 0.0013738530024677788 0 -2.7320416857269782e-05 0.00138287087587465 0 -8.8408473281942891e-05 0.0013738530024677788 0 0.00016325673125820492 0.00049879079849365513 0 -0.00010687355440954977 0.0019440381537454282 0 -8.8408473281942891e-05 0.0013738530024677788 0 -0.00010327501484148368 0.0017340232647938849 0 -0.00010687355440954977 0.0019440381537454282 0 -0.00010327501484148368 0.0017340232647938849 0 -0.00010385318058188844 0.0021497862637136745 0 -8.8408473281942891e-05 0.0013738530024677788 0 -0.00010327501484148368 0.0017340232647938849 0 4.6610338238470401e-06 0.0015538486401922536 0 -0.00010327501484148368 0.0017340232647938849 0 -4.7718742446823835e-05 0.0016889624672864992 0 -4.847125058847032e-05 0.0018053120959325799 0 -0.00010327501484148368 0.0017340232647938849 0 4.6610338238470401e-06 0.0015538486401922536 0 -4.7718742446823835e-05 0.0016889624672864992 0 -8.8408473281942891e-05 0.0013738530024677788 0 4.6610338238470401e-06 0.0015538486401922536 0 7.1105085925157551e-05 0.0014154840866259814 0 7.1105085925157551e-05 0.0014154840866259814 0 0.00010191101275629371 0.0014320035636954166 0 0.00016325673125820492 0.00049879079849365513 0 -0.0002666801313721099 -0.0010341401123263635 0 -0.00013977858798670605 -0.00054276436748648509 0 0.00016325673125820492 0.00049879079849365513 0 -0.0002666801313721099 -0.0010341401123263635 0 6.0395682481682883e-05 -0.0015218002590910425 0 0.00016325673125820492 0.00049879079849365513 0 1.9443291759777206e-05 -5.7180513002864531e-05 0 0.00016494141926414111 0.00041056157942114332 0 -8.8408473281942891e-05 0.0013738530024677788 0 7.1105085925157551e-05 0.0014154840866259814 0 0.00016325673125820492 0.00049879079849365513 0 0.00021395270674504619 0.004098339568268149 0 3.9513703224193808e-05 0.0046438806169697101 0 0.00064198615004579923 0.0048239329347563543 0 1.6570566210692446e-06 0.0059745700668486857 0 3.9513703224193808e-05 0.0046438806169697101 0 0.00064198615004579923 0.0048239329347563543 0 1.6570566210692446e-06 0.0059745700668486857 0 3.9513703224193808e-05 0.0046438806169697101 0 -4.9710874799629629e-07 0.005277698434549314 0 3.9513703224193808e-05 0.0046438806169697101 0 -4.9710874799629629e-07 0.005277698434549314 0 -1.3257296027031708e-06 0.0041781542301858069 0 -1.3257296027031708e-06 0.0041781542301858069 0 1.0368511368176019e-05 0.0039258773018736436 0 4.1504046141526114e-05 0.0037563260116144901 0 3.9513703224193808e-05 0.0046438806169697101 0 -1.3257296027031708e-06 0.0041781542301858069 0 1.0368511368176019e-05 0.0039258773018736436 0 0.00021395270674504619 0.004098339568268149 0 3.9513703224193808e-05 0.0046438806169697101 0 1.0368511368176019e-05 0.0039258773018736436 0 1.0368511368176019e-05 0.0039258773018736436 0 4.1504046141526114e-05 0.0037563260116144901 0 1.9667994019218811e-05 0.0037105156491322139 0 0.00017263844450327701 0.0033119904622913253 0 4.1504046141526114e-05 0.0037563260116144901 0 1.9667994019218811e-05 0.0037105156491322139 0 0.00017263844450327701 0.0033119904622913253 0 4.1504046141526114e-05 0.0037563260116144901 0 3.421009129044659e-05 0.0036201036540988787 0 0.00017263844450327701 0.0033119904622913253 0 3.421009129044659e-05 0.0036201036540988787 0 -6.2793499457847713e-05 0.0028879221536603195 0 -1.3257296027031708e-06 0.0041781542301858069 0 4.1504046141526114e-05 0.0037563260116144901 0 3.421009129044659e-05 0.0036201036540988787 0 -4.9710874799629629e-07 0.005277698434549314 0 -1.3257296027031708e-06 0.0041781542301858069 0 1.0811680800215555e-07 0.0038346078273766172 0 -1.3257296027031708e-06 0.0041781542301858069 0 3.421009129044659e-05 0.0036201036540988787 0 1.0811680800215555e-07 0.0038346078273766172 0 3.421009129044659e-05 0.0036201036540988787 0 1.0811680800215555e-07 0.0038346078273766172 0 -6.2793499457847713e-05 0.0028879221536603195 0 -2.4398973233438853e-07 0.0023925160540022986 0 1.0811680800215555e-07 0.0038346078273766172 0 -6.2793499457847713e-05 0.0028879221536603195 0 -6.2793499457847713e-05 0.0028879221536603195 0 -0.00010385318058188844 0.0021497862637136745 0 -1.4033976267694167e-05 0.0024089296812258754 0 0.00017263844450327701 0.0033119904622913253 0 -6.2793499457847713e-05 0.0028879221536603195 0 -1.4033976267694167e-05 0.0024089296812258754 0 -0.00010385318058188844 0.0021497862637136745 0 -1.4033976267694167e-05 0.0024089296812258754 0 -5.4171933855245988e-05 0.0019938587916137332 0 -1.4033976267694167e-05 0.0024089296812258754 0 -5.4171933855245988e-05 0.0019938587916137332 0 0.00010250856463044723 0.0020913647667926178 0 -5.4171933855245988e-05 0.0019938587916137332 0 2.1506403895201816e-05 0.0019172091232196719 0 0.00010250856463044723 0.0020913647667926178 0 -0.00010327501484148368 0.0017340232647938849 0 -0.00010385318058188844 0.0021497862637136745 0 -5.4171933855245988e-05 0.0019938587916137332 0 -0.00010327501484148368 0.0017340232647938849 0 -5.4171933855245988e-05 0.0019938587916137332 0 -4.847125058847032e-05 0.0018053120959325799 0 -4.7718742446823835e-05 0.0016889624672864992 0 -4.847125058847032e-05 0.0018053120959325799 0 -4.1802336924231601e-05 0.0017435058721125727 0 -4.847125058847032e-05 0.0018053120959325799 0 1.5210976182727655e-05 0.0018207085790625714 0 -4.1802336924231601e-05 0.0017435058721125727 0 -4.847125058847032e-05 0.0018053120959325799 0 1.5210976182727655e-05 0.0018207085790625714 0 2.1506403895201816e-05 0.0019172091232196719 0 -5.4171933855245988e-05 0.0019938587916137332 0 -4.847125058847032e-05 0.0018053120959325799 0 2.1506403895201816e-05 0.0019172091232196719 0 0.00020356965054266522 0.0020181857309938649 0 0.00011140226338867615 0.0019319558129007983 0 -1.7401636970319824e-05 0.0017637556551192116 0 2.1506403895201816e-05 0.0019172091232196719 0 0.00011140226338867615 0.0019319558129007983 0 0.00010250856463044723 0.0020913647667926178 0 0.00020356965054266522 0.0020181857309938649 0 0.00040256498632543143 0.0021907597001395536 0 -1.7401636970319824e-05 0.0017637556551192116 0 -0.00010573252019842203 0.0027294284512099942 0 -0.00013050535750876196 0.0020776153214223988 0 0.00020356965054266522 0.0020181857309938649 0 0.00011140226338867615 0.0019319558129007983 0 0.00010250856463044723 0.0020913647667926178 0 1.5210976182727655e-05 0.0018207085790625714 0 2.1506403895201816e-05 0.0019172091232196719 0 0.00011140226338867615 0.0019319558129007983 0 1.5210976182727655e-05 0.0018207085790625714 0 0.00011140226338867615 0.0019319558129007983 0 -1.7401636970319824e-05 0.0017637556551192116 0 0.00020356965054266522 0.0020181857309938649 0 0.00040256498632543143 0.0021907597001395536 0 0.00024684905507296837 0.0021619740055740925 0 0.00020356965054266522 0.0020181857309938649 0 0.00010250856463044723 0.0020913647667926178 0 0.00024684905507296837 0.0021619740055740925 0 -1.4033976267694167e-05 0.0024089296812258754 0 0.00010250856463044723 0.0020913647667926178 0 0.00013707511741182265 0.0023105619738247062 0 0.00010250856463044723 0.0020913647667926178 0 0.00024684905507296837 0.0021619740055740925 0 0.00013707511741182265 0.0023105619738247062 0 0.00040256498632543143 0.0021907597001395536 0 0.00024684905507296837 0.0021619740055740925 0 0.00013707511741182265 0.0023105619738247062 0 0.00010078252127629922 0.0033137636326786924 0 -0.00010573252019842203 0.0027294284512099942 0 0.00017263844450327701 0.0033119904622913253 0 -1.4033976267694167e-05 0.0024089296812258754 0 0.00013707511741182265 0.0023105619738247062 0 0.00017263844450327701 0.0033119904622913253 0 0.00040256498632543143 0.0021907597001395536 0 0.00013707511741182265 0.0023105619738247062 0 0.00017263844450327701 0.0033119904622913253 0 7.2900646454176753e-05 0.0039074305551356527 0 1.9667994019218811e-05 0.0037105156491322139 0 7.2900646454176753e-05 0.0039074305551356527 0 1.9667994019218811e-05 0.0037105156491322139 0 1.214410417995626e-05 0.0038416984423556466 0 0.00021395270674504619 0.004098339568268149 0 3.9225085697625115e-05 0.0038644253247778555 0 6.8926372077814899e-05 0.0038139164563600154 0 7.2900646454176753e-05 0.0039074305551356527 0 3.9225085697625115e-05 0.0038644253247778555 0 6.8926372077814899e-05 0.0038139164563600154 0 -0.00010573252019842203 0.0027294284512099942 0 -0.00026107845436160074 0.0031579460854562931 0 0.00021395270674504619 0.004098339568268149 0 1.0368511368176019e-05 0.0039258773018736436 0 3.9225085697625115e-05 0.0038644253247778555 0 1.0368511368176019e-05 0.0039258773018736436 0 1.9667994019218811e-05 0.0037105156491322139 0 1.214410417995626e-05 0.0038416984423556466 0 1.0368511368176019e-05 0.0039258773018736436 0 1.214410417995626e-05 0.0038416984423556466 0 3.9225085697625115e-05 0.0038644253247778555 0 7.2900646454176753e-05 0.0039074305551356527 0 1.214410417995626e-05 0.0038416984423556466 0 3.9225085697625115e-05 0.0038644253247778555 0 -0.0003009395255281772 0.0022465920071004738 0 -0.00056781573366415314 0.0024099759240065353 0 -0.00037729773288209807 0.0025759675519259595 0 6.8926372077814899e-05 0.0038139164563600154 0 0.00025769874545439542 0.0038737058729187662 0 0.00029501713228153274 0.0037237825639779036 0 -0.00026107845436160074 0.0031579460854562931 0 -0.00028538750962639188 0.0031479636663261602 0 0.00021395270674504619 0.004098339568268149 0 6.8926372077814899e-05 0.0038139164563600154 0 0.00025769874545439542 0.0038737058729187662 0 -0.00061785718679585751 0.002687081965820117 0 -0.00045389056857322472 0.0029246765943923793 0 -0.00086546908417149508 0.0029187051898466971 0 -0.00056071062643616636 0.0024810961620900492 0 -0.00091897573452966999 0.0029380963994083027 0 -0.00056781573366415314 0.0024099759240065353 0 -0.00061785718679585751 0.002687081965820117 0 -0.00084925816231943966 0.0025770378001307645 0 -0.00061785718679585751 0.002687081965820117 0 -0.00084925816231943966 0.0025770378001307645 0 -0.00086546908417149508 0.0029187051898466971 0 -0.00056781573366415314 0.0024099759240065353 0 -0.00061785718679585751 0.002687081965820117 0 -0.00037729773288209807 0.0025759675519259595 0 -0.00061785718679585751 0.002687081965820117 0 -0.00045389056857322472 0.0029246765943923793 0 -0.00037729773288209807 0.0025759675519259595 0 -0.00056071062643616636 0.0024810961620900492 0 -0.00013050535750876196 0.0020776153214223988 0 -0.00020126118105626817 0.0019188338016628559 0 -0.00012904096234304019 0.0018631861526936127 0 -0.00017902836106200925 0.0020110268667524181 0 -0.00020126118105626817 0.0019188338016628559 0 -0.00012904096234304019 0.0018631861526936127 0 -1.7401636970319824e-05 0.0017637556551192116 0 -0.00056071062643616636 0.0024810961620900492 0 -0.00015750905105125891 0.0019699431101351124 0 -0.00012904096234304019 0.0018631861526936127 0 -6.1127024633065078e-05 0.0017669769013358219 0 -0.00017902836106200925 0.0020110268667524181 0 -0.00012904096234304019 0.0018631861526936127 0 -1.7401636970319824e-05 0.0017637556551192116 0 -6.1127024633065078e-05 0.0017669769013358219 0 1.5210976182727655e-05 0.0018207085790625714 0 -1.7401636970319824e-05 0.0017637556551192116 0 -6.1127024633065078e-05 0.0017669769013358219 0 1.5210976182727655e-05 0.0018207085790625714 0 -6.1127024633065078e-05 0.0017669769013358219 0 -4.1802336924231601e-05 0.0017435058721125727 0 -6.1127024633065078e-05 0.0017669769013358219 0 -4.1802336924231601e-05 0.0017435058721125727 0 -3.4670002429490289e-05 0.0017205459681860658 0 -4.7718742446823835e-05 0.0016889624672864992 0 -4.1802336924231601e-05 0.0017435058721125727 0 -3.4670002429490289e-05 0.0017205459681860658 0 -6.1127024633065078e-05 0.0017669769013358219 0 -3.4670002429490289e-05 0.0017205459681860658 0 -0.00017902836106200925 0.0020110268667524181 0 -3.4670002429490289e-05 0.0017205459681860658 0 -0.00017902836106200925 0.0020110268667524181 0 -3.3723678195537444e-05 0.0020448411559406648 0 -3.3723678195537444e-05 0.0020448411559406648 0 -0.00025072763312924566 0.0023739524587327518 0 -0.00011491856211510774 0.0025642568844363718 0 -0.00017902836106200925 0.0020110268667524181 0 -3.3723678195537444e-05 0.0020448411559406648 0 -0.00025072763312924566 0.0023739524587327518 0 -0.00025072763312924566 0.0023739524587327518 0 -0.00011491856211510774 0.0025642568844363718 0 -0.00049165480166944785 0.0027648940836741132 0 -0.00011491856211510774 0.0025642568844363718 0 -0.00049165480166944785 0.0027648940836741132 0 -0.00036796889471955548 0.0029917427383866191 0 -0.00011491856211510774 0.0025642568844363718 0 7.4300507055369877e-05 0.0026802940033277957 0 -0.00010671302719726516 0.0028737765478201935 0 -0.00011491856211510774 0.0025642568844363718 0 -0.00010671302719726516 0.0028737765478201935 0 -0.00036796889471955548 0.0029917427383866191 0 -0.00049165480166944785 0.0027648940836741132 0 -0.00036796889471955548 0.0029917427383866191 0 -0.00068047594648641663 0.0031251001070493082 0 -0.00049165480166944785 0.0027648940836741132 0 -0.00050341765835677809 0.0024619828592707736 0 -0.00081023547623399318 0.0027247223230829755 0 -0.00079289676088756895 0.0022061911507960004 0 -0.00017902836106200925 0.0020110268667524181 0 -0.00050341765835677809 0.0024619828592707736 0 -0.00025072763312924566 0.0023739524587327518 0 -0.00049165480166944785 0.0027648940836741132 0 -0.00050341765835677809 0.0024619828592707736 0 -0.00017902836106200925 0.0020110268667524181 0 -0.00025072763312924566 0.0023739524587327518 0 -0.00050341765835677809 0.0024619828592707736 0 -0.00077465531003409764 0.0027372629363097787 0 -0.00081023547623399318 0.0027247223230829755 0 -0.00088365619777970778 0.0029484193480491376 0 -0.00056071062643616636 0.0024810961620900492 0 -0.00076822312881031653 0.002680143809723833 0 -0.00079289676088756895 0.0022061911507960004 0 -0.00050341765835677809 0.0024619828592707736 0 -0.00081023547623399318 0.0027247223230829755 0 -0.00073753219288253302 0.0029403789339926506 0 -0.00089285514283278674 0.0031056853741965756 0 -0.00068047594648641663 0.0031251001070493082 0 -0.00049165480166944785 0.0027648940836741132 0 -0.00073753219288253302 0.0029403789339926506 0 -0.00068047594648641663 0.0031251001070493082 0 -0.00049165480166944785 0.0027648940836741132 0 -0.00081023547623399318 0.0027247223230829755 0 -0.00073753219288253302 0.0029403789339926506 0 -0.00073753219288253302 0.0029403789339926506 0 -0.00084240607301959891 0.0029222897288309732 0 -0.00089285514283278674 0.0031056853741965756 0 -0.00081023547623399318 0.0027247223230829755 0 -0.00073753219288253302 0.0029403789339926506 0 -0.00084240607301959891 0.0029222897288309732 0 -0.00084240607301959891 0.0029222897288309732 0 -0.00089285514283278674 0.0031056853741965756 0 -0.00088365619777970778 0.0029484193480491376 0 -0.00089285514283278674 0.0031056853741965756 0 -0.0010188352447623407 0.0033457400127099336 0 -0.00098272649582881611 0.0032376062846025985 0 -0.00089285514283278674 0.0031056853741965756 0 -0.00088365619777970778 0.0029484193480491376 0 -0.00098272649582881611 0.0032376062846025985 0 -0.00081023547623399318 0.0027247223230829755 0 -0.00084240607301959891 0.0029222897288309732 0 -0.00088365619777970778 0.0029484193480491376 0 -0.00077465531003409764 0.0027372629363097787 0 -0.00088365619777970778 0.0029484193480491376 0 -0.00094696692055419704 0.0028667576545618181 0 0.00037258322774017129 0.0011535105469226968 0 0.0010488812222698462 -0.0004944572837358315 0 3.2665627426057932e-06 4.7884703215963512e-05 0 0.00042246657512017298 0.0011567260430155049 0 0.00069420644751603373 0.0008437441386955017 0 -0.00070365405843938133 0.00051389431194921221 0 0.00037258322774017129 0.0011535105469226968 0 3.2665627426057932e-06 4.7884703215963512e-05 0 -0.00055416393855466832 -0.00072163900982058038 0 1.9443291759777206e-05 -5.7180513002864531e-05 0 -0.00070365405843938133 0.00051389431194921221 0 0.00010191101275629371 0.0014320035636954166 0 0.00037258322774017129 0.0011535105469226968 0 7.1105085925157551e-05 0.0014154840866259814 0 0.00010191101275629371 0.0014320035636954166 0 0.00037258322774017129 0.0011535105469226968 0 7.1105085925157551e-05 0.0014154840866259814 0 0.00037258322774017129 0.0011535105469226968 0 0.00017190598914964178 0.0014185236118908612 0 4.6610338238470401e-06 0.0015538486401922536 0 0.00017190598914964178 0.0014185236118908612 0 0.00012621289218305839 0.0016433233358229184 0 4.6610338238470401e-06 0.0015538486401922536 0 7.1105085925157551e-05 0.0014154840866259814 0 0.00017190598914964178 0.0014185236118908612 0 4.6610338238470401e-06 0.0015538486401922536 0 -4.7718742446823835e-05 0.0016889624672864992 0 -3.4670002429490289e-05 0.0017205459681860658 0 4.6610338238470401e-06 0.0015538486401922536 0 -3.4670002429490289e-05 0.0017205459681860658 0 0.00012621289218305839 0.0016433233358229184 0 -3.4670002429490289e-05 0.0017205459681860658 0 -3.3723678195537444e-05 0.0020448411559406648 0 0.00012621289218305839 0.0016433233358229184 0 0.00037258322774017129 0.0011535105469226968 0 0.00012621289218305839 0.0016433233358229184 0 0.00045507347771874045 0.0020875586343092668 0 0.00037258322774017129 0.0011535105469226968 0 0.00017190598914964178 0.0014185236118908612 0 0.00012621289218305839 0.0016433233358229184 0 0.00012621289218305839 0.0016433233358229184 0 0.00045507347771874045 0.0020875586343092668 0 0.00016947005614476661 0.0023121171758198325 0 -3.3723678195537444e-05 0.0020448411559406648 0 0.00012621289218305839 0.0016433233358229184 0 0.00016947005614476661 0.0023121171758198325 0 -3.3723678195537444e-05 0.0020448411559406648 0 -0.00011491856211510774 0.0025642568844363718 0 0.00016947005614476661 0.0023121171758198325 0 0.00016947005614476661 0.0023121171758198325 0 7.4300507055369877e-05 0.0026802940033277957 0 0.00035710516075367294 0.0027546973601235559 0 -0.00011491856211510774 0.0025642568844363718 0 0.00016947005614476661 0.0023121171758198325 0 7.4300507055369877e-05 0.0026802940033277957 0 0.00069420644751603373 0.0008437441386955017 0 0.0010350386017386976 0.00048958235384107972 0 0.00045507347771874045 0.0020875586343092668 0 0.00016947005614476661 0.0023121171758198325 0 0.00035710516075367294 0.0027546973601235559 0 0.0010488812222698462 -0.0004944572837358315 0 0.0014120341218165 -0.0016399572262028154 0 0.00082328387260703043 -0.0018829222271589893 0 -0.00059068421505472529 -0.00092828475182200215 0 0.00011612609294652554 -0.001860318396613238 0 -0.00046400908381215192 -0.0010746270190383508 0 -0.00081192468196998558 -0.0010377886767055518 0 -0.0010240830462141279 -0.0010563002331758216 0 0.0010488812222698462 -0.0004944572837358315 0 -0.00046400908381215192 -0.0010746270190383508 0 0.00082328387260703043 -0.0018829222271589893 0 0.0010488812222698462 -0.0004944572837358315 0 3.2665627426057932e-06 4.7884703215963512e-05 0 -0.00046400908381215192 -0.0010746270190383508 0 -0.00070365405843938133 0.00051389431194921221 0 3.2665627426057932e-06 4.7884703215963512e-05 0 -0.00046400908381215192 -0.0010746270190383508 0 -0.00072474444773921564 -0.0012564075969796174 0 -0.00046400908381215192 -0.0010746270190383508 0 -0.00081471807962440925 -0.0010607901899553158 0 -0.00046400908381215192 -0.0010746270190383508 0 -0.00081471807962440925 -0.0010607901899553158 0 -0.00081192468196998558 -0.0010377886767055518 0 -0.00081471807962440925 -0.0010607901899553158 0 -0.00081192468196998558 -0.0010377886767055518 0 -0.00097303189590542132 -0.00089054576816165675 0 -0.00081192468196998558 -0.0010377886767055518 0 -0.00097303189590542132 -0.00089054576816165675 0 -0.0010240830462141279 -0.0010563002331758216 0 -0.00097303189590542132 -0.00089054576816165675 0 -0.0010831208984317356 -0.00087570088474151939 0 -0.0010240830462141279 -0.0010563002331758216 0 -0.00081471807962440925 -0.0010607901899553158 0 -0.00099693387422065331 -0.00074874286470509176 0 -0.00097303189590542132 -0.00089054576816165675 0 -0.00099693387422065331 -0.00074874286470509176 0 -0.00097303189590542132 -0.00089054576816165675 0 -0.0010878637304166958 -0.00073720936795857632 0 -0.00081471807962440925 -0.0010607901899553158 0 -0.00099693387422065331 -0.00074874286470509176 0 -0.0010595364211829694 -0.00062999651107728755 0 -0.00074748500377963892 -0.00098958426960538961 0 -0.00081471807962440925 -0.0010607901899553158 0 -0.0010595364211829694 -0.00062999651107728755 0 -0.0011137537449015791 0.00061148866912713248 0 -0.0010595364211829694 -0.00062999651107728755 0 -0.0020707442942010474 -5.988660141031989e-05 0 -0.00099693387422065331 -0.00074874286470509176 0 -0.0010595364211829694 -0.00062999651107728755 0 -0.0010120618473740462 -0.00070133804336524968 0 -0.0009696128120246692 -0.00072697979189648393 0 -0.0016369432076742839 0.00045926195941210974 0 -0.0016369432076742839 0.00045926195941210974 0 -0.001705493102857414 0.00024845047036283743 0 -0.0012271748065251424 0.0018324868705114619 0 -0.0019127983571244789 0.002255467143501476 0 -0.0018941894500107725 0.0014361132217666033 0 -0.00099693387422065331 -0.00074874286470509176 0 -0.0010120618473740462 -0.00070133804336524968 0 -0.0010878637304166958 -0.00073720936795857632 0 -0.00240308270898586 -6.6037783151755948e-05 0 -0.0021165556273451624 0.00096302842508994046 0 -0.0037323104897441007 0.00072908117015541625 0 -0.0021165556273451624 0.00096302842508994046 0 -0.0037323104897441007 0.00072908117015541625 0 -0.0025079471250580303 0.0021204116766702741 0 -0.0016369432076742839 0.00045926195941210974 0 -0.0028676410876455317 0.0015416306928392827 0 -0.0011137537449015791 0.00061148866912713248 0 -0.0021165556273451624 0.00096302842508994046 0 -0.0012152696136913774 0.0019076206916189592 0 -0.0014371401496748764 0.0003956500111432249 0 -0.0016369432076742839 0.00045926195941210974 0 -0.0011137537449015791 0.00061148866912713248 0 -0.00240308270898586 -6.6037783151755948e-05 0 -0.0021165556273451624 0.00096302842508994046 0 -0.0024547878702002031 0.0017597884854072677 0 -0.0031030026067427872 0.0020550667277837407 0 -0.0026123192238229334 0.0026906168266822325 0 -0.0019127983571244789 0.002255467143501476 0 -0.0024547878702002031 0.0017597884854072677 0 -0.0026123192238229334 0.0026906168266822325 0 -0.0028676410876455317 0.0015416306928392827 0 -0.0040004865167816879 0.0021169907928298526 0 -0.0018941894500107725 0.0014361132217666033 0 -0.0024547878702002031 0.0017597884854072677 0 -0.0026026204112707713 0.0010065843882305339 0 -0.0019127983571244789 0.002255467143501476 0 -0.0018941894500107725 0.0014361132217666033 0 -0.0024547878702002031 0.0017597884854072677 0 -0.001032144837691858 0.0019961390932197285 0 -0.0022573627301724583 0.0025371665798305017 0 -0.0024547878702002031 0.0017597884854072677 0 -0.002652034122876032 0.0011109918698144559 0 -0.0031030026067427872 0.0020550667277837407 0 -0.0024547878702002031 0.0017597884854072677 0 -0.002652034122876032 0.0011109918698144559 0 -0.0026026204112707713 0.0010065843882305339 0 4.9537963372191343e-05 0.0033481722045227277 0 7.2278064597770412e-05 0.003296115745824336 0 -0.00017356170399063697 0.0031437440457231609 0 -0.00031403557371138422 0.00051548663688307124 0 0.00039290151280089411 0.0033466373359085462 0 -0.001032144837691858 0.0019961390932197285 0 -0.00031403557371138422 0.00051548663688307124 0 -0.0010878637304166958 -0.00073720936795857632 0 -0.0012794003309781054 -0.00083934888738712696 0 -0.0010831208984317356 -0.00087570088474151939 0 -0.001705493102857414 0.00024845047036283743 0 -0.00031403557371138422 0.00051548663688307124 0 -0.00097303189590542132 -0.00089054576816165675 0 -0.0010878637304166958 -0.00073720936795857632 0 -0.0010831208984317356 -0.00087570088474151939 0 -0.0012794003309781054 -0.00083934888738712696 0 -0.0010831208984317356 -0.00087570088474151939 0 -0.0010240830462141279 -0.0010563002331758216 0 -0.00031403557371138422 0.00051548663688307124 0 0.00011612609294652554 -0.001860318396613238 0 0.0014120341218165 -0.0016399572262028154 0 0.0017782059016150191 -0.0024733534410708836 0 0.00082328387260703043 -0.0018829222271589893 0 0.00035710516075367294 0.0027546973601235559 0 0.00013505513574283906 0.0032968763773832768 0 5.6602512603947107e-05 0.0029513336244793398 0 0.0010350386017386976 0.00048958235384107972 0 -0.00031403557371138422 0.00051548663688307124 0 0.00013505513574283906 0.0032968763773832768 0 5.6602512603947107e-05 0.0029513336244793398 0 -0.00017356170399063697 0.0031437440457231609 0 7.4300507055369877e-05 0.0026802940033277957 0 0.00035710516075367294 0.0027546973601235559 0 5.6602512603947107e-05 0.0029513336244793398 0 7.4300507055369877e-05 0.0026802940033277957 0 5.6602512603947107e-05 0.0029513336244793398 0 -0.00010671302719726516 0.0028737765478201935 0 5.6602512603947107e-05 0.0029513336244793398 0 -0.00010671302719726516 0.0028737765478201935 0 -0.00017356170399063697 0.0031437440457231609 0 -0.00017356170399063697 0.0031437440457231609 0 -0.00036796889471955548 0.0029917427383866191 0 -0.00045743972953799303 0.0033340839704698905 0 -0.00010671302719726516 0.0028737765478201935 0 -0.00017356170399063697 0.0031437440457231609 0 -0.00036796889471955548 0.0029917427383866191 0 -0.00036796889471955548 0.0029917427383866191 0 -0.00045743972953799303 0.0033340839704698905 0 -0.00068047594648641663 0.0031251001070493082 0 4.9537963372191343e-05 0.0033481722045227277 0 -0.00045743972953799303 0.0033340839704698905 0 -0.00036845824428805561 0.0037060001211938259 0 4.9537963372191343e-05 0.0033481722045227277 0 -0.00017356170399063697 0.0031437440457231609 0 -0.00045743972953799303 0.0033340839704698905 0 -0.00089285514283278674 0.0031056853741965756 0 -0.00087681819317688217 0.0032720460344978211 0 -0.0010188352447623407 0.0033457400127099336 0 -0.00087681819317688217 0.0032720460344978211 0 -0.00095687130223260774 0.0034424574783904001 0 -0.0010188352447623407 0.0033457400127099336 0 -0.00089285514283278674 0.0031056853741965756 0 -0.00087681819317688217 0.0032720460344978211 0 -0.00068047594648641663 0.0031251001070493082 0 -0.00087681819317688217 0.0032720460344978211 0 -0.00068047594648641663 0.0031251001070493082 0 -0.00074617710857144848 0.0033555296183633947 0 -0.00045743972953799303 0.0033340839704698905 0 -0.00074617710857144848 0.0033555296183633947 0 -0.00078216830243372842 0.0036343940390102577 0 -0.00045743972953799303 0.0033340839704698905 0 -0.00068047594648641663 0.0031251001070493082 0 -0.00074617710857144848 0.0033555296183633947 0 -0.00074617710857144848 0.0033555296183633947 0 -0.00095687130223260774 0.0034424574783904001 0 -0.00078216830243372842 0.0036343940390102577 0 -0.00087681819317688217 0.0032720460344978211 0 -0.00074617710857144848 0.0033555296183633947 0 -0.00095687130223260774 0.0034424574783904001 0 -0.0010867028682122132 0.0036520344194371683 0 -0.00078216830243372842 0.0036343940390102577 0 -0.0010410000992347648 0.0038871250073763365 0 -0.00095687130223260774 0.0034424574783904001 0 -0.0010867028682122132 0.0036520344194371683 0 -0.00078216830243372842 0.0036343940390102577 0 -0.00078216830243372842 0.0036343940390102577 0 -0.00074353965759938574 0.0040239967471768119 0 -0.0010410000992347648 0.0038871250073763365 0 -0.00078216830243372842 0.0036343940390102577 0 -0.00074353965759938574 0.0040239967471768119 0 -0.00036845824428805561 0.0037060001211938259 0 -0.0030714220555751836 0.006812837669428788 0 -0.0031189002133413099 0.0067230346932187065 0 -0.0030273297384072807 0.0066810435896384876 0 -0.003234270302046636 0.00672695576728022 0 -0.0030714220555751836 0.006812837669428788 0 -0.0031189002133413099 0.0067230346932187065 0 -0.0022068451871201894 0.005138951111329425 0 -0.0020007298413918964 0.005378841487200383 0 -0.001032144837691858 0.0019961390932197285 0 -0.00090554192672818328 0.003341843949870975 0 -0.0008504723837346851 0.0023108846482970038 0 -0.0018554124656554745 0.0031608474236164605 0 -0.0013378908769487521 0.0033902629269884784 0 -0.00045743972953799303 0.0033340839704698905 0 -0.00078216830243372842 0.0036343940390102577 0 -0.00036845824428805561 0.0037060001211938259 0 -0.0028527327748426668 0.004002850521355736 0 -0.0018554124656554745 0.0031608474236164605 0 -0.001827053469670694 0.0044586696559934689 0 -0.0022068451871201894 0.005138951111329425 0 -0.00090554192672818328 0.003341843949870975 0 -0.0031030026067427872 0.0020550667277837407 0 -0.0033272999398457357 0.0031306864807748584 0 -0.0026123192238229334 0.0026906168266822325 0 -0.0018554124656554745 0.0031608474236164605 0 -0.0013378908769487521 0.0033902629269884784 0 -0.001827053469670694 0.0044586696559934689 0 -0.0022573627301724583 0.0025371665798305017 0 -0.0028531123463260291 0.0045157925464622932 0 -0.0031030026067427872 0.0020550667277837407 0 -0.0033272999398457357 0.0031306864807748584 0 -0.0035533204566096507 0.0030317154423472282 0 -0.0040315749861048866 0.003768727061616415 0 -0.0040004865167816879 0.0021169907928298526 0 -0.0040315749861048866 0.003768727061616415 0 -0.0033827568420802122 0.005354712902440128 0 -0.0031730755740984585 0.0044413218998687757 0 -0.003399915793930825 0.0043408397476535788 0 -0.0035479028000796452 0.0046693025262796312 0 -0.0040315749861048866 0.003768727061616415 0 -0.0028531123463260291 0.0045157925464622932 0 -0.0032251505367067099 0.0067019756786027051 0 -0.0033347500784898462 0.0066265083776530691 0 -0.0032549600026886122 0.0066093415984172284 0 -0.0022068451871201894 0.005138951111329425 0 -0.0028531123463260291 0.0045157925464622932 0 -0.0033347500784898462 0.0066265083776530691 0 -0.003317684273028117 0.0065982305918526512 0 -0.0032549600026886122 0.0066093415984172284 0 -0.0028531123463260291 0.0045157925464622932 0 -0.0033827568420802122 0.005354712902440128 0 -0.0031398199650141032 0.0051837993194774178 0 -0.0031011220398571579 0.0053199844366691425 0 -0.0031641123436923374 0.0051376913090750102 0 -0.0033827568420802122 0.005354712902440128 0 -0.0031402685575334373 0.0052219764452419099 0 -0.0031045075887801855 0.0052367297939241442 0 -0.0031011220398571579 0.0053199844366691425 0 -0.0031012755544380247 0.005516487814909681 0 -0.0033827568420802122 0.005354712902440128 0 -0.003130947278491837 0.006108663248512519 0 -0.0031011220398571579 0.0053199844366691425 0 -0.0031641123436923374 0.0051376913090750102 0 -0.003177550679322546 0.0050882124403108849 0 -0.0031742947198264847 0.0051959888390568495 0 -0.0031641123436923374 0.0051376913090750102 0 -0.0033453644319990793 0.0049395208769636651 0 -0.0031641123436923374 0.0051376913090750102 0 -0.003177550679322546 0.0050882124403108849 0 -0.0033453644319990793 0.0049395208769636651 0 -0.0040315749861048866 0.003768727061616415 0 -0.0043525433753273538 0.0040283459116295887 0 -0.0031742947198264847 0.0051959888390568495 0 -0.0031398199650141032 0.0051837993194774178 0 -0.0031641123436923374 0.0051376913090750102 0 -0.0031267958582960917 0.0066578332954502816 0 -0.0030698418999982008 0.0066070980319113924 0 -0.0030273297384072807 0.0066810435896384876 0 -0.0031189002133413099 0.0067230346932187065 0 -0.0031267958582960917 0.0066578332954502816 0 -0.0030273297384072807 0.0066810435896384876 0 -0.0031189002133413099 0.0067230346932187065 0 -0.0031267958582960917 0.0066578332954502816 0 -0.0031821144231408585 0.0066854890574289689 0 -0.0031267958582960917 0.0066578332954502816 0 -0.0032021905955534175 0.0066412330608205039 0 -0.0031821144231408585 0.0066854890574289689 0 -0.0031267958582960917 0.0066578332954502816 0 -0.0032021905955534175 0.0066412330608205039 0 -0.0031570403863450422 0.0066062631695655624 0 -0.0031267958582960917 0.0066578332954502816 0 -0.0031570403863450422 0.0066062631695655624 0 -0.0030698418999982008 0.0066070980319113924 0 -0.0032251505367067099 0.0067019756786027051 0 -0.0032021905955534175 0.0066412330608205039 0 -0.0032549600026886122 0.0066093415984172284 0 -0.003234270302046636 0.00672695576728022 0 -0.0031189002133413099 0.0067230346932187065 0 -0.0031821144231408585 0.0066854890574289689 0 -0.0032251505367067099 0.0067019756786027051 0 -0.0032021905955534175 0.0066412330608205039 0 -0.0031821144231408585 0.0066854890574289689 0 -0.0022068451871201894 0.005138951111329425 0 -0.0033792510833552556 0.0064787625630595615 0 -0.003317684273028117 0.0065982305918526512 0 -0.0032549600026886122 0.0066093415984172284 0 -0.0032553981179234792 0.006537654606285929 0 -0.0032553981179234792 0.006537654606285929 0 -0.0032145984204638746 0.0065894511787020146 0 -0.0031426506137616122 0.00655514494999241 0 -0.0032021905955534175 0.0066412330608205039 0 -0.0032549600026886122 0.0066093415984172284 0 -0.0032145984204638746 0.0065894511787020146 0 -0.0032021905955534175 0.0066412330608205039 0 -0.0032145984204638746 0.0065894511787020146 0 -0.0031570403863450422 0.0066062631695655624 0 -0.0032549600026886122 0.0066093415984172284 0 -0.0032553981179234792 0.006537654606285929 0 -0.0032145984204638746 0.0065894511787020146 0 -0.0032145984204638746 0.0065894511787020146 0 -0.0031570403863450422 0.0066062631695655624 0 -0.0031426506137616122 0.00655514494999241 0 -0.0031570403863450422 0.0066062631695655624 0 -0.0031426506137616122 0.00655514494999241 0 -0.0030698418999982008 0.0066070980319113924 0 -0.0032553981179234792 0.006537654606285929 0 -0.0031426506137616122 0.00655514494999241 0 -0.0029272196459823561 0.0062352802895056991 0 -0.003130947278491837 0.006108663248512519 0 -0.0029243668269151408 0.0061452668451792156 0 -0.0031012755544380247 0.005516487814909681 0 -0.0030389136341945162 0.0058311054500037787 0 -0.0029272196459823561 0.0062352802895056991 0 -0.0031011220398571579 0.0053199844366691425 0 -0.0031012755544380247 0.005516487814909681 0 -0.0030781096339109752 0.0054803275853925314 0 -0.0031012755544380247 0.005516487814909681 0 -0.0030389136341945162 0.0058311054500037787 0 -0.0030671223318183582 0.0056206074127775471 0 -0.0030389136341945162 0.0058311054500037787 0 -0.0030671223318183582 0.0056206074127775471 0 -0.0030681587398478038 0.0056056923463540381 0 -0.0031012755544380247 0.005516487814909681 0 -0.0030671223318183582 0.0056206074127775471 0 -0.0030781096339109752 0.0054803275853925314 0 -0.0030671223318183582 0.0056206074127775471 0 -0.0030781096339109752 0.0054803275853925314 0 -0.0030681587398478038 0.0056056923463540381 0 -0.0030681587398478038 0.0056056923463540381 0 -0.0030243403059082978 0.0057341194925375847 0 -0.0030405326506484798 0.0056149118821941148 0 -0.0030389136341945162 0.0058311054500037787 0 -0.0030681587398478038 0.0056056923463540381 0 -0.0030243403059082978 0.0057341194925375847 0 -0.0030389136341945162 0.0058311054500037787 0 -0.0029494300059534134 0.00587946400512102 0 -0.0029272196459823561 0.0062352802895056991 0 -0.0030389136341945162 0.0058311054500037787 0 -0.0030243403059082978 0.0057341194925375847 0 -0.0029494300059534134 0.00587946400512102 0 -0.003177550679322546 0.0050882124403108849 0 -0.0031043870407064288 0.0053007685484125801 0 -0.0030948851079093892 0.0052263655347073957 0 -0.003177550679322546 0.0050882124403108849 0 -0.0030948851079093892 0.0052263655347073957 0 -0.0032703359481863416 0.0049750020749506421 0 -0.0031011220398571579 0.0053199844366691425 0 -0.003177550679322546 0.0050882124403108849 0 -0.0031043870407064288 0.0053007685484125801 0 -0.0031011220398571579 0.0053199844366691425 0 -0.0030781096339109752 0.0054803275853925314 0 -0.0031043870407064288 0.0053007685484125801 0 -0.0030781096339109752 0.0054803275853925314 0 -0.0031043870407064288 0.0053007685484125801 0 -0.0030883989789314494 0.0054083911151514121 0 -0.0031043870407064288 0.0053007685484125801 0 -0.0030883989789314494 0.0054083911151514121 0 -0.0030948851079093892 0.0052263655347073957 0 -0.0030681587398478038 0.0056056923463540381 0 -0.0030883989789314494 0.0054083911151514121 0 -0.0030645576438883366 0.0055124932762917085 0 -0.0030781096339109752 0.0054803275853925314 0 -0.0030681587398478038 0.0056056923463540381 0 -0.0030883989789314494 0.0054083911151514121 0 -0.0030681587398478038 0.0056056923463540381 0 -0.0030645576438883366 0.0055124932762917085 0 -0.0030405326506484798 0.0056149118821941148 0 -0.0030883989789314494 0.0054083911151514121 0 -0.0030645576438883366 0.0055124932762917085 0 -0.0030443168573491696 0.0054300360066745525 0 -0.0030443168573491696 0.0054300360066745525 0 -0.0030948851079093892 0.0052263655347073957 0 -0.0029883944687940974 0.0053349727530323902 0 -0.0030883989789314494 0.0054083911151514121 0 -0.0030443168573491696 0.0054300360066745525 0 -0.0030948851079093892 0.0052263655347073957 0 -0.0030948851079093892 0.0052263655347073957 0 -0.0029883944687940974 0.0053349727530323902 0 -0.0028679256169118401 0.0052521388054143827 0 -0.0030443168573491696 0.0054300360066745525 0 -0.0029883944687940974 0.0053349727530323902 0 -0.0029462100941001447 0.0053951462108945396 0 -0.0029883944687940974 0.0053349727530323902 0 -0.0028679256169118401 0.0052521388054143827 0 -0.0029462100941001447 0.0053951462108945396 0 -0.0028679256169118401 0.0052521388054143827 0 -0.0028648401299744882 0.0053661865558108741 0 -0.0029462100941001447 0.0053951462108945396 0 -0.0028664867849647942 0.0052494188212070091 0 -0.0025398655969037722 0.0053561879302855319 0 -0.0030948851079093892 0.0052263655347073957 0 -0.0028679256169118401 0.0052521388054143827 0 -0.0026969323484298253 0.0050676575746154574 0 -0.0028679256169118401 0.0052521388054143827 0 -0.0027506519012111129 0.005305878113258021 0 -0.0028648401299744882 0.0053661865558108741 0 -0.0031380778934495808 0.0051610156259449622 0 -0.0030309478904545278 0.0049359644092384298 0 -0.0028679256169118401 0.0052521388054143827 0 -0.0026969323484298253 0.0050676575746154574 0 -0.0024681933350393596 0.0053538608218872885 0 -0.003177550679322546 0.0050882124403108849 0 -0.0032703359481863416 0.0049750020749506421 0 -0.0033762051251560233 0.0047903064302611638 0 -0.0032703359481863416 0.0049750020749506421 0 -0.0034332901160081908 0.0047793896287546492 0 -0.0033762051251560233 0.0047903064302611638 0 -0.0030948851079093892 0.0052263655347073957 0 -0.0032703359481863416 0.0049750020749506421 0 -0.0034332901160081908 0.0047793896287546492 0 -0.0034332901160081908 0.0047793896287546492 0 -0.0033762051251560233 0.0047903064302611638 0 -0.003383799872855068 0.0045966209244909899 0 -0.0033762051251560233 0.0047903064302611638 0 -0.003383799872855068 0.0045966209244909899 0 -0.003415729119322313 0.0041055282340983802 0 -0.0034332901160081908 0.0047793896287546492 0 -0.003383799872855068 0.0045966209244909899 0 -0.0030653418773570616 0.0047914619812976997 0 -0.0030309478904545278 0.0049359644092384298 0 -0.0026065893140329983 0.0050746584824659059 0 -0.003383799872855068 0.0045966209244909899 0 -0.0030653418773570616 0.0047914619812976997 0 -0.003415729119322313 0.0041055282340983802 0 -0.0025398655969037722 0.0053561879302855319 0 -0.0020092945194114171 0.0032895507893551815 0 -0.0026969323484298253 0.0050676575746154574 0 -0.002230572463412944 0.0051923475323388006 0 -0.0024681933350393596 0.0053538608218872885 0 -0.0026969323484298253 0.0050676575746154574 0 -0.002230572463412944 0.0051923475323388006 0 -0.0020236435492411602 0.0048786404424396362 0 -0.002230572463412944 0.0051923475323388006 0 -0.0024681933350393596 0.0053538608218872885 0 -0.0019571394265844012 0.0055084996173917601 0 -0.0019614539389352791 0.0051944513613509371 0 -0.0012591761276949541 0.0047551332974884626 0 -0.0017675110136772443 0.0054495216010279198 0 -0.0019614539389352791 0.0051944513613509371 0 -0.0012591761276949541 0.0047551332974884626 0 -0.0020236435492411602 0.0048786404424396362 0 -0.0019614539389352791 0.0051944513613509371 0 -0.0019571394265844012 0.0055084996173917601 0 -0.0017675110136772443 0.0054495216010279198 0 -0.002230572463412944 0.0051923475323388006 0 -0.0019614539389352791 0.0051944513613509371 0 -0.0019571394265844012 0.0055084996173917601 0 -0.002230572463412944 0.0051923475323388006 0 -0.0019614539389352791 0.0051944513613509371 0 -0.0020236435492411602 0.0048786404424396362 0 -0.00068623698970017794 -0.0010395711938195448 0 -0.0008397913238389937 -0.001316713089950305 0 -0.0011811412715515201 -0.00084119665072722742 0 0.00026857126723490749 -0.0016787961341544694 0 -0.00095704667552201791 0.0012864611182993959 0 0.0006952902130642173 -0.0017437368693077676 0 0.0010159169905788938 -0.0018398789285631999 0 0.00075094939600810467 -0.0018646086550551748 0 -0.0011221501919118496 0.0017620167978570336 0 -0.00095704667552201791 0.0012864611182993959 0 -0.0011221501919118496 0.0017620167978570336 0 -0.0026065893140329983 0.0050746584824659059 0 -0.0014868616196374966 0.0045679931588268208 0 -0.0030653418773570616 0.0047914619812976997 0 -0.0021997758395281225 0.0034761901041588336 0 -0.0030653418773570616 0.0047914619812976997 0 -0.0021997758395281225 0.0034761901041588336 0 -0.003415729119322313 0.0041055282340983802 0 -0.0029495138652802636 0.0030244267637062482 0 -0.0021997758395281225 0.0034761901041588336 0 -0.0025079471250580303 0.0021204116766702741 0 -0.0029495138652802636 0.0030244267637062482 0 -0.0021997758395281225 0.0034761901041588336 0 -0.003415729119322313 0.0041055282340983802 0 -0.00040859884494524922 0.0027580826688041473 0 -0.0021997758395281225 0.0034761901041588336 0 -0.0012152696136913774 0.0019076206916189592 0 -0.00040859884494524922 0.0027580826688041473 0 -0.0014868616196374966 0.0045679931588268208 0 -0.0021997758395281225 0.0034761901041588336 0 -0.0021165556273451624 0.00096302842508994046 0 -0.0012152696136913774 0.0019076206916189592 0 -0.0025079471250580303 0.0021204116766702741 0 -0.0021997758395281225 0.0034761901041588336 0 -0.0012152696136913774 0.0019076206916189592 0 -0.0025079471250580303 0.0021204116766702741 0 -0.0037323104897441007 0.00072908117015541625 0 -0.0025079471250580303 0.0021204116766702741 0 -0.0037998622689873803 0.0023467651547025934 0 -0.0029495138652802636 0.0030244267637062482 0 -0.0025079471250580303 0.0021204116766702741 0 -0.0037998622689873803 0.0023467651547025934 0 -0.0037323104897441007 0.00072908117015541625 0 -0.0037998622689873803 0.0023467651547025934 0 -0.005214694600411812 0.0016105854705312217 0 -0.0037998622689873803 0.0023467651547025934 0 -0.005214694600411812 0.0016105854705312217 0 -0.0051631750942052477 0.0032349856099843713 0 -0.0066975490306674552 0.0025245205399762904 0 -0.005214694600411812 0.0016105854705312217 0 -0.0051631750942052477 0.0032349856099843713 0 -0.003177550679322546 0.0050882124403108849 0 -0.0033762051251560233 0.0047903064302611638 0 -0.0033453644319990793 0.0049395208769636651 0 -0.0029495138652802636 0.0030244267637062482 0 -0.0037998622689873803 0.0023467651547025934 0 -0.003415729119322313 0.0041055282340983802 0 -0.0037998622689873803 0.0023467651547025934 0 -0.0051631750942052477 0.0032349856099843713 0 -0.003415729119322313 0.0041055282340983802 0 -0.0033762051251560233 0.0047903064302611638 0 -0.0033453644319990793 0.0049395208769636651 0 -0.003415729119322313 0.0041055282340983802 0 -0.0043525433753273538 0.0040283459116295887 0 -0.0034070573131974708 0.0042043374193455633 0 -0.0014489883397536399 0.0080351924291589549 0 -0.0010073810813344449 0.0078183092779282714 0 -0.0014224817378125476 0.0078812726641359493 0 -0.00064354324413176689 0.0088588641397587698 0 -0.00090794538904017481 0.0082075343940517121 0 -0.0015117236041524158 0.0076872523888573937 0 -0.0014224817378125476 0.0078812726641359493 0 -0.001898983916548871 0.0076767816400189681 0 -0.0015117236041524158 0.0076872523888573937 0 -0.0014224817378125476 0.0078812726641359493 0 -0.0014336546267652713 0.0076987262488965608 0 -0.0015117236041524158 0.0076872523888573937 0 -0.0014336546267652713 0.0076987262488965608 0 -0.0014371013770586439 0.0075728756117156657 0 -0.0015507548815970164 0.0075820491426002549 0 -0.0017535696596307922 0.0072241593047241452 0 -0.0017773712472148096 0.0075473179138424405 0 -0.0014224817378125476 0.0078812726641359493 0 -0.0015507548815970164 0.0075820491426002549 0 -0.0015194929588603007 0.0073837336894123223 0 -0.0014224817378125476 0.0078812726641359493 0 -0.0015507548815970164 0.0075820491426002549 0 -0.0014336546267652713 0.0076987262488965608 0 -0.0015846695390475704 0.0076660769326998826 0 -0.0015519424966339125 0.0078659875149314443 0 -0.0017773712472148096 0.0075473179138424405 0 -0.0015507548815970164 0.0075820491426002549 0 -0.0015846695390475704 0.0076660769326998826 0 -0.0017773712472148096 0.0075473179138424405 0 -0.0015507548815970164 0.0075820491426002549 0 -0.0015846695390475704 0.0076660769326998826 0 -0.0014336546267652713 0.0076987262488965608 0 -0.0015846695390475704 0.0076660769326998826 0 -0.0014336546267652713 0.0076987262488965608 0 -0.0015519424966339125 0.0078659875149314443 0 -0.0014336546267652713 0.0076987262488965608 0 -0.0014371013770586439 0.0075728756117156657 0 -0.0012958664730415668 0.0075200412237984493 0 -0.0014371013770586439 0.0075728756117156657 0 -0.0013495196384133731 0.0075029401195528108 0 -0.0012958664730415668 0.0075200412237984493 0 -0.0015775363397272854 0.00767379712597105 0 -0.0017478868306424653 0.0072041813030559064 0 -0.0015951635198435876 0.0072633989443877389 0 -0.0017478868306424653 0.0072041813030559064 0 -0.0017478868306424653 0.0072041813030559064 0 -0.0018552012681714984 0.0071493456500075396 0 -0.0012813679006220696 0.0075178339370881569 0 -0.0011329968324183541 0.0072060409189840472 0 -0.001284217037448389 0.007296685285859153 0 -0.0013473737209167207 0.0073888999523557897 0 -0.001460881843160271 0.0074128172385888782 0 -0.0013851020238772242 0.007243677018133195 0 -0.0014371013770586439 0.0075728756117156657 0 -0.0013495196384133731 0.0075029401195528108 0 -0.001460881843160271 0.0074128172385888782 0 -0.0012813679006220696 0.0075178339370881569 0 -0.0013473737209167207 0.0073888999523557897 0 -0.001284217037448389 0.007296685285859153 0 -0.0013495196384133731 0.0075029401195528108 0 -0.0013473737209167207 0.0073888999523557897 0 -0.001460881843160271 0.0074128172385888782 0 -0.0013495196384133731 0.0075029401195528108 0 -0.0012813679006220696 0.0075178339370881569 0 -0.0013473737209167207 0.0073888999523557897 0 -0.0015117236041524158 0.0076872523888573937 0 -0.001571250192419188 0.007541762027844459 0 -0.001898983916548871 0.0076767816400189681 0 -0.001571250192419188 0.007541762027844459 0 -0.001898983916548871 0.0076767816400189681 0 -0.0016133310523657371 0.0073234137596609175 0 -0.001460881843160271 0.0074128172385888782 0 -0.001571250192419188 0.007541762027844459 0 -0.0016133310523657371 0.0073234137596609175 0 -0.0014371013770586439 0.0075728756117156657 0 -0.001460881843160271 0.0074128172385888782 0 -0.001571250192419188 0.007541762027844459 0 -0.0015117236041524158 0.0076872523888573937 0 -0.0014371013770586439 0.0075728756117156657 0 -0.001571250192419188 0.007541762027844459 0 -0.0016026726500208879 0.0046917415128598971 0 -0.0015982475122220451 0.0045416576657649364 0 -0.001787407866185698 0.0047138051827275819 0 -0.0010073810813344449 0.0078183092779282714 0 -0.0017021353411305344 0.0058118921860474239 0 -0.0016026726500208879 0.0046917415128598971 0 -0.0013793213372858405 0.0046351499239658759 0 -0.0015982475122220451 0.0045416576657649364 0 -0.0016026726500208879 0.0046917415128598971 0 -0.0013793213372858405 0.0046351499239658759 0 -0.001479225530388386 0.0047731085469552865 0 -0.00069491917078757181 0.0071639489429817151 0 -0.0010073810813344449 0.0078183092779282714 0 0.00027114868328828411 0.0099832703777604226 0 0.0001448520978667497 0.0097429911980802236 0 -0.00057582150191327864 0.0098444787573848062 0 0.00027114868328828411 0.0099832703777604226 0 0.0001448520978667497 0.0097429911980802236 0 0.00026717503840598366 0.0099651904897655949 0 0.0001448520978667497 0.0097429911980802236 0 -8.3081627273045029e-05 0.0088692423297745977 0 -0.00057582150191327864 0.0098444787573848062 0 0.0001448520978667497 0.0097429911980802236 0 -8.3081627273045029e-05 0.0088692423297745977 0 0.00052288217696492905 0.0097899918727304309 0 -0.00064354324413176689 0.0088588641397587698 0 -0.00090794538904017481 0.0082075343940517121 0 -0.00054685135517083274 0.0083342546658176798 0 -8.3081627273045029e-05 0.0088692423297745977 0 -0.00064354324413176689 0.0088588641397587698 0 -0.00054685135517083274 0.0083342546658176798 0 -0.00029663569818793852 0.009115058687145846 0 -0.0010073810813344449 0.0078183092779282714 0 -0.00090794538904017481 0.0082075343940517121 0 -0.00054685135517083274 0.0083342546658176798 0 -0.00070376318931433758 0.0076676656618287044 0 -0.00090794538904017481 0.0082075343940517121 0 -0.00070376318931433758 0.0076676656618287044 0 -0.0012036278534877365 0.0075297567668981069 0 -0.00054685135517083274 0.0083342546658176798 0 -0.00070376318931433758 0.0076676656618287044 0 -3.3034060989404278e-05 0.0074960974564361399 0 -0.00032778491246683318 0.0080005467957184571 0 4.195148106572662e-05 0.0094557962101641212 0 -0.00070376318931433758 0.0076676656618287044 0 -0.00099007974906097215 0.007104985173651393 0 -0.0012036278534877365 0.0075297567668981069 0 4.195148106572662e-05 0.0094557962101641212 0 0.00073691960552365395 0.0097308420601516284 0 -8.3081627273045029e-05 0.0088692423297745977 0 -3.3034060989404278e-05 0.0074960974564361399 0 0.00052288217696492905 0.0097899918727304309 0 0.0015343033715369387 0.011287820198214719 0 0.00052288217696492905 0.0097899918727304309 0 0.00055939863691359631 0.010970191232867334 0 -8.3081627273045029e-05 0.0088692423297745977 0 -0.00054685135517083274 0.0083342546658176798 0 -3.3034060989404278e-05 0.0074960974564361399 0 -0.0004504580168719821 0.011400316985447044 0 -0.00047082649976207009 0.011482753784801117 0 -0.00044422923564122743 0.011502921073528741 0 4.195148106572662e-05 0.0094557962101641212 0 -0.0001615012805494819 0.011795257306153349 0 -0.0004504580168719821 0.011400316985447044 0 -0.00053059701657015633 0.011418243350308842 0 -0.00047082649976207009 0.011482753784801117 0 -0.0001704025257549259 0.0074189669998175048 0 -0.00099007974906097215 0.007104985173651393 0 -0.00087504558616012887 0.0064359663770050353 0 -0.00070376318931433758 0.0076676656618287044 0 -0.0001704025257549259 0.0074189669998175048 0 -0.00099007974906097215 0.007104985173651393 0 4.195148106572662e-05 0.0094557962101641212 0 -0.00072545479450872861 0.0089519037527468395 0 -0.00099007974906097215 0.007104985173651393 0 -0.0012810057513637 0.0066650264236007882 0 -0.00087504558616012887 0.0064359663770050353 0 -0.0014133070952366423 0.0069995413852131181 0 -0.00099007974906097215 0.007104985173651393 0 -0.0012810057513637 0.0066650264236007882 0 -0.0014133070952366423 0.0069995413852131181 0 -0.00099007974906097215 0.007104985173651393 0 -0.0012036278534877365 0.0075297567668981069 0 -0.0014133070952366423 0.0069995413852131181 0 -0.0012036278534877365 0.0075297567668981069 0 -0.0015194929588603007 0.0073837336894123223 0 -0.0014224817378125476 0.0078812726641359493 0 -0.0012036278534877365 0.0075297567668981069 0 -0.0015194929588603007 0.0073837336894123223 0 -0.0014224817378125476 0.0078812726641359493 0 -0.00090794538904017481 0.0082075343940517121 0 -0.0012036278534877365 0.0075297567668981069 0 -0.0015507548815970164 0.0075820491426002549 0 -0.0015194929588603007 0.0073837336894123223 0 -0.0017535696596307922 0.0072241593047241452 0 -0.0014133070952366423 0.0069995413852131181 0 -0.0015194929588603007 0.0073837336894123223 0 -0.0016683488642422761 0.0069799586771577089 0 -0.0015194929588603007 0.0073837336894123223 0 -0.0016683488642422761 0.0069799586771577089 0 -0.0017535696596307922 0.0072241593047241452 0 -0.0016683488642422761 0.0069799586771577089 0 -0.001955885789763614 0.006733954305430198 0 -0.0016236610353059797 0.0065356779409622857 0 -0.0014133070952366423 0.0069995413852131181 0 -0.0016683488642422761 0.0069799586771577089 0 -0.0016236610353059797 0.0065356779409622857 0 -0.0014133070952366423 0.0069995413852131181 0 -0.0016236610353059797 0.0065356779409622857 0 -0.0012810057513637 0.0066650264236007882 0 -0.001955885789763614 0.006733954305430198 0 -0.002190707239700621 0.0063797318315237748 0 -0.0019670836691270776 0.0062594024018148573 0 -0.002190707239700621 0.0063797318315237748 0 -0.002428071378084012 0.0064823347013644754 0 -0.0023803657352946261 0.0060396501874260336 0 -0.001955885789763614 0.006733954305430198 0 -0.002190707239700621 0.0063797318315237748 0 -0.002428071378084012 0.0064823347013644754 0 -0.001955885789763614 0.006733954305430198 0 -0.0021139616954043493 0.0070852434595291376 0 -0.002428071378084012 0.0064823347013644754 0 -0.001955885789763614 0.006733954305430198 0 -0.0021139616954043493 0.0070852434595291376 0 -0.0017535696596307922 0.0072241593047241452 0 -0.0016683488642422761 0.0069799586771577089 0 -0.001955885789763614 0.006733954305430198 0 -0.0017535696596307922 0.0072241593047241452 0 -0.0029494300059534134 0.00587946400512102 0 -0.0029272196459823561 0.0062352802895056991 0 -0.0027242058985997809 0.0059891681491807758 0 -0.002428071378084012 0.0064823347013644754 0 -0.0029272196459823561 0.0062352802895056991 0 -0.0027242058985997809 0.0059891681491807758 0 -0.0021139616954043493 0.0070852434595291376 0 -0.002428071378084012 0.0064823347013644754 0 -0.0026567190170819796 0.0070150384648029127 0 -0.002428071378084012 0.0064823347013644754 0 -0.0029272196459823561 0.0062352802895056991 0 -0.0026567190170819796 0.0070150384648029127 0 -0.0031426506137616122 0.00655514494999241 0 -0.0029272196459823561 0.0062352802895056991 0 -0.0026567190170819796 0.0070150384648029127 0 -0.003114023347032448 0.0065833486720451827 0 -0.0027497391074736226 0.0067828377123304098 0 -0.0031426506137616122 0.00655514494999241 0 -0.0030698418999982008 0.0066070980319113924 0 -0.0028899487258529956 0.0065391989053146145 0 -0.0027497391074736226 0.0067828377123304098 0 -0.0023924198779182964 0.0070523169751700717 0 -0.0028899487258529956 0.0065391989053146145 0 -0.0027050256920375846 0.0067428969943488393 0 -0.0028934407704372346 0.0067581267064832336 0 -0.0028899487258529956 0.0065391989053146145 0 -0.0026121593504637342 0.0065880862810299545 0 -0.0027050256920375846 0.0067428969943488393 0 -0.0030698418999982008 0.0066070980319113924 0 -0.0028899487258529956 0.0065391989053146145 0 -0.0030273297384072807 0.0066810435896384876 0 -0.0028899487258529956 0.0065391989053146145 0 -0.0030273297384072807 0.0066810435896384876 0 -0.0028934407704372346 0.0067581267064832336 0 -0.0021139616954043493 0.0070852434595291376 0 -0.0017535696596307922 0.0072241593047241452 0 -0.0017773712472148096 0.0075473179138424405 0 -0.0021139616954043493 0.0070852434595291376 0 -0.0017773712472148096 0.0075473179138424405 0 -0.0021180696921638273 0.0075137818744292007 0 -0.0021139616954043493 0.0070852434595291376 0 -0.0026567190170819796 0.0070150384648029127 0 -0.0021180696921638273 0.0075137818744292007 0 -0.0026121593504637342 0.0065880862810299545 0 -0.0025299784080595284 0.0067174209362706339 0 -0.0027050256920375846 0.0067428969943488393 0 -0.0023481027477413258 0.0066542674624297605 0 -0.0026121593504637342 0.0065880862810299545 0 -0.0025299784080595284 0.0067174209362706339 0 -0.0015519424966339125 0.0078659875149314443 0 -0.0017773712472148096 0.0075473179138424405 0 -0.0021180696921638273 0.0075137818744292007 0 -0.0023481027477413258 0.0066542674624297605 0 -0.0025299784080595284 0.0067174209362706339 0 -0.0024231477085617861 0.0067936641265192764 0 -0.0017478868306424653 0.0072041813030559064 0 -0.0023924198779182964 0.0070523169751700717 0 -0.0025636852471136607 0.0068068221250197963 0 -0.0026469345266498341 0.0068635127454569483 0 -0.0024917078235576814 0.0069247398113606844 0 -0.0024231477085617861 0.0067936641265192764 0 -0.0025636852471136607 0.0068068221250197963 0 -0.0024917078235576814 0.0069247398113606844 0 -0.0011329968324183541 0.0072060409189840472 0 -0.00098923866354842793 0.0068906028770056018 0 -0.0012733337434838131 0.0071282857676417928 0 -0.0018552012681714984 0.0071493456500075396 0 -0.0016726510360721709 0.0057036700322818049 0 -0.0025299784080595284 0.0067174209362706339 0 -0.0024231477085617861 0.0067936641265192764 0 -0.0025636852471136607 0.0068068221250197963 0 -0.0025299784080595284 0.0067174209362706339 0 -0.0025636852471136607 0.0068068221250197963 0 -0.0027050256920375846 0.0067428969943488393 0 -0.0027050256920375846 0.0067428969943488393 0 -0.0026469345266498341 0.0068635127454569483 0 -0.0027673271202525948 0.0068478397044326152 0 -0.0025636852471136607 0.0068068221250197963 0 -0.0027050256920375846 0.0067428969943488393 0 -0.0026469345266498341 0.0068635127454569483 0 -0.00096835284230320897 0.0035178655122624037 0 -0.0010577258078688608 0.0035255571269891947 0 -0.0010133766099449635 0.0034872600151321736 0 -0.0026469345266498341 0.0068635127454569483 0 -0.0026970994899432168 0.0069671473411765271 0 -0.0024917078235576814 0.0069247398113606844 0 -0.0016377171484135511 0.0042719448909065852 0 -0.0016726510360721709 0.0057036700322818049 0 -0.0026469345266498341 0.0068635127454569483 0 -0.0026970994899432168 0.0069671473411765271 0 -0.0027673271202525948 0.0068478397044326152 0 -0.0016377171484135511 0.0042719448909065852 0 -0.0010188226850589344 0.0036574628230139914 0 -0.0016148318459247343 0.0055382115853866353 0 -0.0017212702557460647 0.0050436176701902802 0 -0.0022023787076580455 0.0056718859822431555 0 -0.0030714220555751836 0.006812837669428788 0 -0.0030273297384072807 0.0066810435896384876 0 -0.0028934407704372346 0.0067581267064832336 0 -0.0020007298413918964 0.005378841487200383 0 -0.0021792024997460933 0.0053750317472310589 0 -0.0030714220555751836 0.006812837669428788 0 -0.0028934407704372346 0.0067581267064832336 0 -0.002887904205864981 0.0068932680204138652 0 -0.0027050256920375846 0.0067428969943488393 0 -0.0028934407704372346 0.0067581267064832336 0 -0.0027673271202525948 0.0068478397044326152 0 -0.0028934407704372346 0.0067581267064832336 0 -0.0027673271202525948 0.0068478397044326152 0 -0.002887904205864981 0.0068932680204138652 0 -0.0016912414928619804 0.0036198966923385776 0 -0.0013589654798650489 0.0037590440704464659 0 -0.001329346214720755 0.0035273265450814898 0 -0.0016377171484135511 0.0042719448909065852 0 -0.0021792024997460933 0.0053750317472310589 0 -0.0016377171484135511 0.0042719448909065852 0 -0.0010972935194859487 0.0034289203174520896 0 -0.0026970994899432168 0.0069671473411765271 0 -0.0027673271202525948 0.0068478397044326152 0 -0.002887904205864981 0.0068932680204138652 0 -0.0010867028682122132 0.0036520344194371683 0 -0.0010410000992347648 0.0038871250073763365 0 -0.0013589654798650489 0.0037590440704464659 0 -0.00095687130223260774 0.0034424574783904001 0 -0.0010867028682122132 0.0036520344194371683 0 -0.001329346214720755 0.0035273265450814898 0 -0.0010867028682122132 0.0036520344194371683 0 -0.0013589654798650489 0.0037590440704464659 0 -0.001329346214720755 0.0035273265450814898 0 -0.00095687130223260774 0.0034424574783904001 0 -0.001035422834153971 0.0034534899646443316 0 -0.0010360303486887125 0.0034191696687238668 0 -0.0010087139612379363 0.0034588641330998617 0 -0.0010972935194859487 0.0034289203174520896 0 -0.00095687130223260774 0.0034424574783904001 0 -0.0010360303486887125 0.0034191696687238668 0 -0.0010188352447623407 0.0033457400127099336 0 -0.001027276200247182 0.0034536303465663278 0 -0.001035422834153971 0.0034534899646443316 0 -0.0010394461882748853 0.0034480409574802378 0 -0.0010360303486887125 0.0034191696687238668 0 -0.0010394461882748853 0.0034480409574802378 0 -0.0010499590952673847 0.0034518015981260704 0 -0.001035422834153971 0.0034534899646443316 0 -0.0010360303486887125 0.0034191696687238668 0 -0.0010394461882748853 0.0034480409574802378 0 -0.001027276200247182 0.0034536303465663278 0 -0.0010394461882748853 0.0034480409574802378 0 -0.0010184204336783317 0.0034556868907584652 0 -0.0010394461882748853 0.0034480409574802378 0 -0.0010499590952673847 0.0034518015981260704 0 -0.0010184204336783317 0.0034556868907584652 0 -0.0010499590952673847 0.0034518015981260704 0 -0.0010351531877924793 0.0034221182633969822 0 -0.0009983161328680362 0.0036639082176503465 0 -0.0010360303486887125 0.0034191696687238668 0 -0.0010499590952673847 0.0034518015981260704 0 -0.0010188352447623407 0.0033457400127099336 0 -0.0010499590952673847 0.0034518015981260704 0 -0.0010188352447623407 0.0033457400127099336 0 -0.0010351531877924793 0.0034221182633969822 0 -0.0016726510360721709 0.0057036700322818049 0 -0.0010153482448075827 0.0038615399173358889 0 -0.0016148318459247343 0.0055382115853866353 0 -0.0017212702557460647 0.0050436176701902802 0 -0.001212913267881674 0.0047869585754243072 0 -0.0010577258078688608 0.0035255571269891947 0 -0.0010133766099449635 0.0034872600151321736 0 -0.00098465577688394354 0.0034594617110250856 0 -0.0017212702557460647 0.0050436176701902802 0 -0.001212913267881674 0.0047869585754243072 0 -0.0016261039977633353 0.0046156275253381477 0 -0.0017212702557460647 0.0050436176701902802 0 -0.0016261039977633353 0.0046156275253381477 0 -0.0018735768514417338 0.0048998559008280916 0 -0.0010133766099449635 0.0034872600151321736 0 -0.0010184204336783317 0.0034556868907584652 0 -0.00098465577688394354 0.0034594617110250856 0 -0.0010499590952673847 0.0034518015981260704 0 -0.0010184204336783317 0.0034556868907584652 0 -0.00098465577688394354 0.0034594617110250856 0 -0.001027276200247182 0.0034536303465663278 0 -0.0010133766099449635 0.0034872600151321736 0 -0.0010184204336783317 0.0034556868907584652 0 -0.0010499590952673847 0.0034518015981260704 0 -0.00098465577688394354 0.0034594617110250856 0 -0.0009983161328680362 0.0036639082176503465 0 -0.001212913267881674 0.0047869585754243072 0 -0.0013821355689291668 0.0041513382466593267 0 -0.0009983161328680362 0.0036639082176503465 0 -0.0010153482448075827 0.0038615399173358889 0 -0.0010441542965635093 0.0038250826226486384 0 -0.0013821355689291668 0.0041513382466593267 0 -0.0016261039977633353 0.0046156275253381477 0 -0.0016369227025874657 0.0041233928259239907 0 -0.0016261039977633353 0.0046156275253381477 0 -0.0018751290263413014 0.0045666611841657682 0 -0.0016369227025874657 0.0041233928259239907 0 -0.001212913267881674 0.0047869585754243072 0 -0.0013821355689291668 0.0041513382466593267 0 -0.0016261039977633353 0.0046156275253381477 0 -0.0018751290263413014 0.0045666611841657682 0 -0.0021752245500149489 0.0051233649542547222 0 -0.0018735768514417338 0.0048998559008280916 0 -0.0016261039977633353 0.0046156275253381477 0 -0.0018751290263413014 0.0045666611841657682 0 -0.0018735768514417338 0.0048998559008280916 0 -0.0021752245500149489 0.0051233649542547222 0 -0.0018536969417154653 0.0049962873671997336 0 -0.0019694626645300386 0.0050140132175893028 0 -0.0017212702557460647 0.0050436176701902802 0 -0.0018735768514417338 0.0048998559008280916 0 -0.0019694626645300386 0.0050140132175893028 0 -0.0021752245500149489 0.0051233649542547222 0 -0.0018735768514417338 0.0048998559008280916 0 -0.0019694626645300386 0.0050140132175893028 0 -0.0017212702557460647 0.0050436176701902802 0 -0.0019694626645300386 0.0050140132175893028 0 -0.0019224384901242186 0.0050003970762883413 0 -0.00098923866354842793 0.0068906028770056018 0 -0.0013439474764212168 0.0069819580174068658 0 -0.0012733337434838131 0.0071282857676417928 0 -0.0017212702557460647 0.0050436176701902802 0 -0.0019592884838980046 0.0049579218240688536 0 -0.0019224384901242186 0.0050003970762883413 0 -0.0017726153017447266 0.0049158277930791043 0 -0.0018002047441395704 0.0057758686651820006 0 -0.0016726510360721709 0.0057036700322818049 0 -0.0018002047441395704 0.0057758686651820006 0 -0.0019158927851642368 0.0049676283331795603 0 -0.0019592884838980046 0.0049579218240688536 0 -0.0018684126961992561 0.0049086938002258244 0 -0.0019158927851642368 0.0049676283331795603 0 -0.0019592884838980046 0.0049579218240688536 0 -0.0019224384901242186 0.0050003970762883413 0 -0.0019694626645300386 0.0050140132175893028 0 -0.0019224384901242186 0.0050003970762883413 0 -0.0018992578660016269 0.004973420150371324 0 -0.0019158927851642368 0.0049676283331795603 0 -0.0019224384901242186 0.0050003970762883413 0 -0.0018992578660016269 0.004973420150371324 0 -0.0018536969417154653 0.0049962873671997336 0 -0.0019694626645300386 0.0050140132175893028 0 -0.0018992578660016269 0.004973420150371324 0 -0.0018536969417154653 0.0049962873671997336 0 -0.0018992578660016269 0.004973420150371324 0 -0.0017721490508004856 0.0048937184399443475 0 -0.0019158927851642368 0.0049676283331795603 0 -0.0018992578660016269 0.004973420150371324 0 -0.0018684126961992561 0.0049086938002258244 0 -0.0018992578660016269 0.004973420150371324 0 -0.0017721490508004856 0.0048937184399443475 0 -0.0018684126961992561 0.0049086938002258244 0 -0.0013439474764212168 0.0069819580174068658 0 -0.0016133310523657371 0.0073234137596609175 0 -0.0013851020238772242 0.007243677018133195 0 -0.0018002047441395704 0.0057758686651820006 0 -0.0017021353411305344 0.0058118921860474239 0 -0.0019592884838980046 0.0049579218240688536 0 -0.0018684126961992561 0.0049086938002258244 0 -0.001787407866185698 0.0047138051827275819 0 -0.0017721490508004856 0.0048937184399443475 0 -0.0018684126961992561 0.0049086938002258244 0 -0.001787407866185698 0.0047138051827275819 0 -0.001460881843160271 0.0074128172385888782 0 -0.0016133310523657371 0.0073234137596609175 0 -0.0013851020238772242 0.007243677018133195 0 -0.0013851020238772242 0.007243677018133195 0 -0.001284217037448389 0.007296685285859153 0 -0.0012733337434838131 0.0071282857676417928 0 -0.0013473737209167207 0.0073888999523557897 0 -0.0013851020238772242 0.007243677018133195 0 -0.001284217037448389 0.007296685285859153 0 -0.0011329968324183541 0.0072060409189840472 0 -0.001284217037448389 0.007296685285859153 0 -0.0012733337434838131 0.0071282857676417928 0 -0.0013439474764212168 0.0069819580174068658 0 -0.0013851020238772242 0.007243677018133195 0 -0.0012733337434838131 0.0071282857676417928 0 -0.0013793213372858405 0.0046351499239658759 0 -0.001479225530388386 0.0047731085469552865 0 -0.0013359163107417096 0.0048377713782024132 0 -0.001479225530388386 0.0047731085469552865 0 -0.0015918907033748704 0.0048182328507505963 0 -0.0014263697577678088 0.0049672537709918516 0 -0.001479225530388386 0.0047731085469552865 0 -0.0014263697577678088 0.0049672537709918516 0 -0.0013359163107417096 0.0048377713782024132 0 -0.0017721490508004856 0.0048937184399443475 0 -0.001787407866185698 0.0047138051827275819 0 -0.0015918907033748704 0.0048182328507505963 0 -0.0016026726500208879 0.0046917415128598971 0 -0.001479225530388386 0.0047731085469552865 0 -0.0015918907033748704 0.0048182328507505963 0 -0.0016026726500208879 0.0046917415128598971 0 -0.001787407866185698 0.0047138051827275819 0 -0.0015918907033748704 0.0048182328507505963 0 -0.0015918907033748704 0.0048182328507505963 0 -0.0015420276973036576 0.0049376746952760082 0 -0.0012535301075047541 0.0048115099073014842 0 -0.0017721490508004856 0.0048937184399443475 0 -0.0015918907033748704 0.0048182328507505963 0 -0.0015420276973036576 0.0049376746952760082 0 -0.0018536969417154653 0.0049962873671997336 0 -0.0017721490508004856 0.0048937184399443475 0 -0.0015420276973036576 0.0049376746952760082 0 -0.0014263697577678088 0.0049672537709918516 0 -0.0013359163107417096 0.0048377713782024132 0 -0.0012481400455701432 0.0050788141401637097 0 -0.0015420276973036576 0.0049376746952760082 0 -0.0012535301075047541 0.0048115099073014842 0 -0.0011985651063229938 0.0050547167548853468 0 -0.0014884697784010193 0.0048515060783533952 0 -0.001494856171182925 0.0048227564537250672 0 -0.0012535301075047541 0.0048115099073014842 0 -0.0011985651063229938 0.0050547167548853468 0 -0.00084976354186305065 0.0049546362113996349 0 -0.001494856171182925 0.0048227564537250672 0 -0.00034305566270513961 0.0059935265670323784 0 -0.0011985651063229938 0.0050547167548853468 0 -0.0014990014466484535 0.0052104874246689031 0 -0.00089290965873254789 0.005428362746435488 0 -0.0015420276973036576 0.0049376746952760082 0 -0.0011985651063229938 0.0050547167548853468 0 -0.0014990014466484535 0.0052104874246689031 0 -0.0018536969417154653 0.0049962873671997336 0 -0.0015420276973036576 0.0049376746952760082 0 -0.0014990014466484535 0.0052104874246689031 0 -0.0021752245500149489 0.0051233649542547222 0 -0.0018536969417154653 0.0049962873671997336 0 -0.0014990014466484535 0.0052104874246689031 0 -0.0021752245500149489 0.0051233649542547222 0 -0.0014990014466484535 0.0052104874246689031 0 -0.0015542663201831141 0.00587832901601893 0 -0.0014990014466484535 0.0052104874246689031 0 -0.0015542663201831141 0.00587832901601893 0 -0.0012329758092618722 0.0056699037195635949 0 -0.0012329758092618722 0.0056699037195635949 0 -0.00094468274949119368 0.0062155821358841155 0 -0.00089290965873254789 0.005428362746435488 0 -0.0014990014466484535 0.0052104874246689031 0 -0.0012329758092618722 0.0056699037195635949 0 -0.00089290965873254789 0.005428362746435488 0 -0.00096078859161958402 0.006220867467767917 0 -0.00073496414891807617 0.0053105415852415412 0 -0.0015542663201831141 0.00587832901601893 0 -0.0012329758092618722 0.0056699037195635949 0 -0.00094468274949119368 0.0062155821358841155 0 -0.0015542663201831141 0.00587832901601893 0 -0.00094468274949119368 0.0062155821358841155 0 -0.0012710308734066975 0.0068666123881911505 0 -0.00094468274949119368 0.0062155821358841155 0 -0.0012710308734066975 0.0068666123881911505 0 -0.00071093043679596108 0.0072163215417038766 0 -0.0012710308734066975 0.0068666123881911505 0 -0.00098886163931950505 0.0072730287878443947 0 -0.00071093043679596108 0.0072163215417038766 0 -0.0012710308734066975 0.0068666123881911505 0 -0.00098886163931950505 0.0072730287878443947 0 -0.0012552269436085103 0.0073181571383833409 0 -0.0012710308734066975 0.0068666123881911505 0 -0.001665261271515605 0.0072872277678915189 0 -0.0018407642957383951 0.0064484818282981209 0 -0.0012710308734066975 0.0068666123881911505 0 -0.001665261271515605 0.0072872277678915189 0 -0.0012552269436085103 0.0073181571383833409 0 -0.0021752245500149489 0.0051233649542547222 0 -0.0015542663201831141 0.00587832901601893 0 -0.0018407642957383951 0.0064484818282981209 0 -0.0015542663201831141 0.00587832901601893 0 -0.0012710308734066975 0.0068666123881911505 0 -0.0018407642957383951 0.0064484818282981209 0 -0.0021752245500149489 0.0051233649542547222 0 -0.0018407642957383951 0.0064484818282981209 0 -0.0025746934792438801 0.0066545696645833969 0 -0.0021878757255881375 0.0051568175561783267 0 -0.0024399443172456632 0.0050993457966059929 0 -0.0018751290263413014 0.0045666611841657682 0 -0.0021885125356180951 0.0037801372526154748 0 -0.0016369227025874657 0.0041233928259239907 0 -0.0021885125356180951 0.0037801372526154748 0 -0.0016369227025874657 0.0041233928259239907 0 -0.0016462036248849963 0.0036529654319433619 0 -0.0018751290263413014 0.0045666611841657682 0 -0.0021752245500149489 0.0051233649542547222 0 -0.0021885125356180951 0.0037801372526154748 0 -0.0024399443172456632 0.0050993457966059929 0 -0.0017656086166202938 0.006024244722242009 0 -0.0021885125356180951 0.0037801372526154748 0 -0.0016934175424533071 0.0032336482714873651 0 -0.0016462036248849963 0.0036529654319433619 0 -0.001665261271515605 0.0072872277678915189 0 -0.0018407642957383951 0.0064484818282981209 0 -0.0025746934792438801 0.0066545696645833969 0 -0.001665261271515605 0.0072872277678915189 0 -0.0025746934792438801 0.0066545696645833969 0 -0.0028250965395068555 0.0079498184196110169 0 -0.0016593062520811703 0.0075231987018887017 0 -0.0018966896943437563 0.00755580041030146 0 -0.0017772741585436 0.0076193668945973543 0 -0.001665261271515605 0.0072872277678915189 0 -0.0016593062520811703 0.0075231987018887017 0 -0.0018966896943437563 0.00755580041030146 0 -0.0020456779534467721 0.0078877999982868447 0 -0.0017656086166202938 0.006024244722242009 0 -0.0021885125356180951 0.0037801372526154748 0 -0.0016934175424533071 0.0032336482714873651 0 -0.001792185989822948 0.0030711065734687756 0 -0.0021885125356180951 0.0037801372526154748 0 -0.0019639739063622183 0.0029749013201496319 0 -0.001792185989822948 0.0030711065734687756 0 -0.0016934175424533071 0.0032336482714873651 0 -0.001792185989822948 0.0030711065734687756 0 -0.0017979380227743709 0.0028827220679361405 0 -0.0019639739063622183 0.0029749013201496319 0 -0.001792185989822948 0.0030711065734687756 0 -0.0017979380227743709 0.0028827220679361405 0 -0.00074919936528431623 0.0059318526823314722 0 0.00061793224649001391 0.0057583783969332916 0 0.0023352986222232382 0.0035185217607291643 0 0.002206099702127816 0.0036794615024835333 0 0.0022921197266443406 0.0039086015072886931 0 -0.0012723017958945931 0.0079230073617039282 0 -0.0012297591329310767 0.007712299821071582 0 -0.0013569029307911665 0.0077995271439583449 0 0.002262130817738029 0.0034754410137518331 0 0.0023352986222232382 0.0035185217607291643 0 0.002206099702127816 0.0036794615024835333 0 7.9977742711864676e-05 0.0042849928732271066 0 -0.00074919936528431623 0.0059318526823314722 0 -0.0011575186790781496 0.0053622951186299431 0 -0.0007387575181534309 0.0051110981822931273 0 -0.0010609764655483921 0.0049366534108457628 0 -0.0017656086166202938 0.006024244722242009 0 7.9977742711864676e-05 0.0042849928732271066 0 -0.0018966896943437563 0.00755580041030146 0 -0.0019339747826897606 0.0076401615717919535 0 -0.0017772741585436 0.0076193668945973543 0 -0.0017656086166202938 0.006024244722242009 0 -0.00074919936528431623 0.0059318526823314722 0 -0.0012723017958945931 0.0079230073617039282 0 -0.0015317880380911557 0.0078087518857366898 0 -0.0013569029307911665 0.0077995271439583449 0 -0.0019339747826897606 0.0076401615717919535 0 -0.0017772741585436 0.0076193668945973543 0 -0.0015317880380911557 0.0078087518857366898 0 -0.00074919936528431623 0.0059318526823314722 0 -0.0016828780587667166 0.0081851519263404539 0 -0.0016593062520811703 0.0075231987018887017 0 -0.001666864761939981 0.0076479173859921677 0 -0.0015705574377244329 0.0076731975538715629 0 -0.0016593062520811703 0.0075231987018887017 0 -0.001666864761939981 0.0076479173859921677 0 -0.0017772741585436 0.0076193668945973543 0 -0.001666864761939981 0.0076479173859921677 0 -0.0015705574377244329 0.0076731975538715629 0 -0.0015317880380911557 0.0078087518857366898 0 -0.001666864761939981 0.0076479173859921677 0 -0.0017772741585436 0.0076193668945973543 0 -0.0015317880380911557 0.0078087518857366898 0 -0.00086320784629580693 0.0072144125570720759 0 -0.00098150677564002708 0.0073968004455269507 0 -0.0010611559629340435 0.0073745850973204177 0 -0.0014056992354117626 0.0076960436645503354 0 -0.0011661616025039712 0.0076520212819157496 0 -0.0015372746307155646 0.0078177015426939157 0 -0.0010132261551856049 0.0074344959824459902 0 -0.0012804594175983249 0.0075893363930739071 0 -0.0015079098631607946 0.0077412426117316408 0 -0.0015372746307155646 0.0078177015426939157 0 -0.0015317880380911557 0.0078087518857366898 0 -0.0015079098631607946 0.0077412426117316408 0 -0.0014056992354117626 0.0076960436645503354 0 -0.0015372746307155646 0.0078177015426939157 0 -0.0015079098631607946 0.0077412426117316408 0 -0.0015705574377244329 0.0076731975538715629 0 -0.0015317880380911557 0.0078087518857366898 0 -0.0016593062520811703 0.0075231987018887017 0 -0.0015705574377244329 0.0076731975538715629 0 -0.0014765205622038128 0.0076364275270534359 0 -0.0015079098631607946 0.0077412426117316408 0 -0.0015705574377244329 0.0076731975538715629 0 -0.0014765205622038128 0.0076364275270534359 0 -0.0015079098631607946 0.0077412426117316408 0 -0.0014765205622038128 0.0076364275270534359 0 -0.0014056992354117626 0.0076960436645503354 0 -0.0014765205622038128 0.0076364275270534359 0 -0.0014056992354117626 0.0076960436645503354 0 -0.0013305269397300287 0.0076090300779792716 0 -0.00087749656771387934 0.0073338815046669918 0 -0.00075727895406780231 0.0069210539386765991 0 -0.00083979385347398574 0.0072268964788324459 0 -0.00086320784629580693 0.0072144125570720759 0 -0.00090093876790780126 0.0073776557873511993 0 -0.00083979385347398574 0.0072268964788324459 0 -0.00081052378703441773 0.0070984998544290192 0 -0.00086335971166495371 0.0071412453850695128 0 -0.00086320784629580693 0.0072144125570720759 0 -0.00090093876790780126 0.0073776557873511993 0 -0.00098150677564002708 0.0073968004455269507 0 -0.00083979385347398574 0.0072268964788324459 0 -0.00086320784629580693 0.0072144125570720759 0 -0.00084895162865971849 0.0072620948972680994 0 -0.0014056992354117626 0.0076960436645503354 0 -0.0011661616025039712 0.0076520212819157496 0 -0.0013305269397300287 0.0076090300779792716 0 -0.00098886163931950505 0.0072730287878443947 0 -0.0011299682892739716 0.0074557989163552257 0 -0.00078367490185216266 0.0073412112542473613 0 -0.0011661616025039712 0.0076520212819157496 0 -0.0011299682892739716 0.0074557989163552257 0 -0.00078367490185216266 0.0073412112542473613 0 -0.0010132261551856049 0.0074344959824459902 0 -0.00081330934453248047 0.0073387141227470214 0 -0.0011661616025039712 0.0076520212819157496 0 -0.0011299682892739716 0.0074557989163552257 0 -0.0013305269397300287 0.0076090300779792716 0 -0.0012552269436085103 0.0073181571383833409 0 -0.0011299682892739716 0.0074557989163552257 0 -0.0014337747822656555 0.0074931158513165995 0 -0.00098886163931950505 0.0072730287878443947 0 -0.0012552269436085103 0.0073181571383833409 0 -0.0011299682892739716 0.0074557989163552257 0 -0.001665261271515605 0.0072872277678915189 0 -0.0012552269436085103 0.0073181571383833409 0 -0.0014337747822656555 0.0074931158513165995 0 -0.001665261271515605 0.0072872277678915189 0 -0.0016593062520811703 0.0075231987018887017 0 -0.0014337747822656555 0.0074931158513165995 0 -0.0016593062520811703 0.0075231987018887017 0 -0.0014765205622038128 0.0076364275270534359 0 -0.0014337747822656555 0.0074931158513165995 0 -0.0011299682892739716 0.0074557989163552257 0 -0.0014337747822656555 0.0074931158513165995 0 -0.0013305269397300287 0.0076090300779792716 0 -0.0014765205622038128 0.0076364275270534359 0 -0.0014337747822656555 0.0074931158513165995 0 -0.0013305269397300287 0.0076090300779792716 0 -0.0010140506684155634 0.0031948201589494457 0 -0.0011283974769820959 0.00299287828727714 0 -0.00094696692055419704 0.0028667576545618181 0 -0.00088365619777970778 0.0029484193480491376 0 -0.0010140506684155634 0.0031948201589494457 0 -0.00094696692055419704 0.0028667576545618181 0 -0.00088365619777970778 0.0029484193480491376 0 -0.0010140506684155634 0.0031948201589494457 0 -0.00098272649582881611 0.0032376062846025985 0 -0.0010188352447623407 0.0033457400127099336 0 -0.00098272649582881611 0.0032376062846025985 0 -0.0010351531877924793 0.0034221182633969822 0 -0.0010140506684155634 0.0031948201589494457 0 -0.00098272649582881611 0.0032376062846025985 0 -0.0010351531877924793 0.0034221182633969822 0 -0.0010351531877924793 0.0034221182633969822 0 -0.0010065992353635728 0.0034093925323398491 0 -0.0009983161328680362 0.0036639082176503465 0 -0.0010140506684155634 0.0031948201589494457 0 -0.0011283974769820959 0.00299287828727714 0 -0.001231258144186487 0.0030388400350439943 0 -0.0010140506684155634 0.0031948201589494457 0 -0.0010351531877924793 0.0034221182633969822 0 -0.0010065992353635728 0.0034093925323398491 0 -0.00098847725214616438 0.0032361446136438946 0 -0.00119187271669374 0.0031767118753892837 0 -0.0011283974769820959 0.00299287828727714 0 -0.001231258144186487 0.0030388400350439943 0 -0.0013027005720027247 0.0028997083806308393 0 -0.0010065992353635728 0.0034093925323398491 0 -0.0011385607759088741 0.0035426253227969174 0 -0.0009983161328680362 0.0036639082176503465 0 -0.00119187271669374 0.0031767118753892837 0 -0.00077117740638250865 0.0031269905074973359 0 -0.0010065992353635728 0.0034093925323398491 0 -0.0011385607759088741 0.0035426253227969174 0 -0.0011875174245239914 0.0033183364132330167 0 -0.0014035207330873258 0.003467101360581655 0 -0.00077117740638250865 0.0031269905074973359 0 -0.0011385607759088741 0.0035426253227969174 0 -0.0013891267407810817 0.0034343131769197319 0 -0.0011875174245239914 0.0033183364132330167 0 -0.0011385607759088741 0.0035426253227969174 0 -0.0013402551993776737 0.0037642593166092755 0 -0.0013891267407810817 0.0034343131769197319 0 -0.0013821355689291668 0.0041513382466593267 0 -0.0009983161328680362 0.0036639082176503465 0 -0.0013402551993776737 0.0037642593166092755 0 -0.0011385607759088741 0.0035426253227969174 0 -0.0009983161328680362 0.0036639082176503465 0 -0.0013402551993776737 0.0037642593166092755 0 -0.0013821355689291668 0.0041513382466593267 0 -0.0013402551993776737 0.0037642593166092755 0 -0.0016369227025874657 0.0041233928259239907 0 -0.0013402551993776737 0.0037642593166092755 0 -0.0016369227025874657 0.0041233928259239907 0 -0.0016462036248849963 0.0036529654319433619 0 -0.0013402551993776737 0.0037642593166092755 0 -0.0016462036248849963 0.0036529654319433619 0 -0.0013891267407810817 0.0034343131769197319 0 -0.0016934175424533071 0.0032336482714873651 0 -0.0016462036248849963 0.0036529654319433619 0 -0.0013891267407810817 0.0034343131769197319 0 7.9977742711864676e-05 0.0042849928732271066 0 -0.00077117740638250865 0.0031269905074973359 0 -0.0016934175424533071 0.0032336482714873651 0 -0.0013891267407810817 0.0034343131769197319 0 -0.0011004605182457464 0.0032560421194558569 0 -0.0016934175424533071 0.0032336482714873651 0 -0.0017979380227743709 0.0028827220679361405 0 -0.0011004605182457464 0.0032560421194558569 0 0.00063458502929623775 0.003684686042490181 0 0.00056559379787648025 0.0036831741900481747 0 0.00052226932808276181 0.0036140499289756892 0 7.9977742711864676e-05 0.0042849928732271066 0 0.001462488960313662 0.0035595614941419003 0 0.00063458502929623775 0.003684686042490181 0 0.00056559379787648025 0.0036831741900481747 0 0.00054068143326374345 0.0037524698807559279 0 0.002262130817738029 0.0034754410137518331 0 0.002206099702127816 0.0036794615024835333 0 0.0017718538365610287 0.0037033112221048492 0 0.00050733079928373843 0.0036893519304648649 0 0.00044562429838377568 0.0037400044415884549 0 0.00054068143326374345 0.0037524698807559279 0 0.00056559379787648025 0.0036831741900481747 0 0.00050733079928373843 0.0036893519304648649 0 0.00054068143326374345 0.0037524698807559279 0 0.00050733079928373843 0.0036893519304648649 0 0.00052226932808276181 0.0036140499289756892 0 0.00042870066198996373 0.0036637551142863403 0 0.00056559379787648025 0.0036831741900481747 0 0.00050733079928373843 0.0036893519304648649 0 0.00052226932808276181 0.0036140499289756892 0 -0.001231258144186487 0.0030388400350439943 0 -0.0014359630791189542 0.0029389819460440463 0 -0.0013027005720027247 0.0028997083806308393 0 -0.0014359630791189542 0.0029389819460440463 0 -0.0013027005720027247 0.0028997083806308393 0 -0.0011502559076689489 0.0027557316890126525 0 -0.0011283974769820959 0.00299287828727714 0 -0.0013027005720027247 0.0028997083806308393 0 -0.00094696692055419704 0.0028667576545618181 0 -0.00077117740638250865 0.0031269905074973359 0 -0.00031616549812916875 0.0032124813080499567 0 -0.0012771798081526364 0.0028848891929881063 0 -0.00091897573452966999 0.0029380963994083027 0 -0.0013027005720027247 0.0028997083806308393 0 -0.0011502559076689489 0.0027557316890126525 0 -0.00086546908417149508 0.0029187051898466971 0 0.00050733079928373843 0.0036893519304648649 0 0.00044562429838377568 0.0037400044415884549 0 0.00042870066198996373 0.0036637551142863403 0 -0.00031616549812916875 0.0032124813080499567 0 -0.00028538750962639188 0.0031479636663261602 0 -0.0011502559076689489 0.0027557316890126525 0 -0.00084925816231943966 0.0025770378001307645 0 -0.00086546908417149508 0.0029187051898466971 0 0.00044562429838377568 0.0037400044415884549 0 0.00042870066198996373 0.0036637551142863403 0 0.00029501713228153274 0.0037237825639779036 0 0.00021395270674504619 0.004098339568268149 0 0.0011075115088762764 0.0039324431881981228 0 0.0010438583244586973 0.0044282876371764396 0 0.00021395270674504619 0.004098339568268149 0 0.00025769874545439542 0.0038737058729187662 0 0.00041794335128603975 0.0038781117192656337 0 0.00026392266434765587 0.0040916711080035608 0 0.00066561850625950761 0.0039523696929418843 0 0.00025769874545439542 0.0038737058729187662 0 0.00029501713228153274 0.0037237825639779036 0 0.00041794335128603975 0.0038781117192656337 0 0.00044562429838377568 0.0037400044415884549 0 0.00029501713228153274 0.0037237825639779036 0 0.00041794335128603975 0.0038781117192656337 0 0.00066561850625950761 0.0039523696929418843 0 0.001462488960313662 0.0035595614941419003 0 0.00044562429838377568 0.0037400044415884549 0 0.00041794335128603975 0.0038781117192656337 0 0.00054068143326374345 0.0037524698807559279 0 0.0011075115088762764 0.0039324431881981228 0 0.001568853032488613 0.0042739633974636145 0 0.0017718538365610287 0.0037033112221048492 0 0.0011075115088762764 0.0039324431881981228 0 0.001568853032488613 0.0042739633974636145 0 0.0010438583244586973 0.0044282876371764396 0 0.001568853032488613 0.0042739633974636145 0 0.0019444502096150301 0.0041276285057561223 0 0.0019242323607113437 0.0045387577311130807 0 0.001568853032488613 0.0042739633974636145 0 0.0017718538365610287 0.0037033112221048492 0 0.0019444502096150301 0.0041276285057561223 0 0.0017718538365610287 0.0037033112221048492 0 0.0019444502096150301 0.0041276285057561223 0 0.0022921197266443406 0.0039086015072886931 0 0.002206099702127816 0.0036794615024835333 0 0.0017718538365610287 0.0037033112221048492 0 0.0022921197266443406 0.0039086015072886931 0 0.002251946571368465 0.0043839738885330711 0 0.0019444502096150301 0.0041276285057561223 0 0.0022921197266443406 0.0039086015072886931 0 0.002251946571368465 0.0043839738885330711 0 0.0019444502096150301 0.0041276285057561223 0 0.0019242323607113437 0.0045387577311130807 0 0.00054022998522615612 0.0058913912701808397 0 0.00040335110459008923 0.0067459585399532963 0 0.002251946571368465 0.0043839738885330711 0 0.0019242323607113437 0.0045387577311130807 0 0.0021777165461636231 0.0049138012809635812 0 0.0019242323607113437 0.0045387577311130807 0 0.0021777165461636231 0.0049138012809635812 0 0.0018950025549734203 0.0048225067723088539 0 0.00019474192097031413 0.0087007865557016933 0 -0.00024695605849869135 0.0090802265061668587 0 0.0021777165461636231 0.0049138012809635812 0 0.0017772395163582044 0.005058045552449166 0 0.0018950025549734203 0.0048225067723088539 0 0.00025349156383055701 0.0086184417850997258 0 0.00052359603202218577 0.0083963793550256606 0 -0.00031606380943688546 0.0085503250435759043 0 4.4283678863192099e-06 0.0087484422240811828 0 8.3723966611516904e-08 0.0081998939627592297 0 -2.4645602431061754e-07 0.0096801553167518532 0 0.00025349156383055701 0.0086184417850997258 0 0.00052359603202218577 0.0083963793550256606 0 0.00080010586111820892 0.0084278993096582478 0 0.00040335110459008923 0.0067459585399532963 0 0.0015382904648935081 0.0066917585395287098 0 0.0017772395163582044 0.005058045552449166 0 0.0016913931021798137 0.0047299904351273091 0 0.0018950025549734203 0.0048225067723088539 0 0.00019474192097031413 0.0087007865557016933 0 0.00062220946873094965 0.0070524757979535694 0 4.4283678863192099e-06 0.0087484422240811828 0 8.3723966611516904e-08 0.0081998939627592297 0 4.0832865251398804e-06 0.0074065258328636007 0 0.00052359603202218577 0.0083963793550256606 0 0.00080010586111820892 0.0084278993096582478 0 0.0013371756555170097 0.0082390382375284385 0 0.0017772395163582044 0.005058045552449166 0 0.0016913931021798137 0.0047299904351273091 0 0.0015024048967910019 0.0049413986758803461 0 0.0019242323607113437 0.0045387577311130807 0 0.0016913931021798137 0.0047299904351273091 0 0.0018950025549734203 0.0048225067723088539 0 0.001568853032488613 0.0042739633974636145 0 0.0016913931021798137 0.0047299904351273091 0 0.0014017190004178236 0.0046470819916202459 0 0.001568853032488613 0.0042739633974636145 0 0.0019242323607113437 0.0045387577311130807 0 0.0016913931021798137 0.0047299904351273091 0 0.001568853032488613 0.0042739633974636145 0 0.0014017190004178236 0.0046470819916202459 0 0.0010438583244586973 0.0044282876371764396 0 0.0012066832412556852 0.0048285792997784585 0 0.0014017190004178236 0.0046470819916202459 0 0.0010438583244586973 0.0044282876371764396 0 0.0012066832412556852 0.0048285792997784585 0 0.0014017190004178236 0.0046470819916202459 0 0.0015024048967910019 0.0049413986758803461 0 0.0016913931021798137 0.0047299904351273091 0 0.0014017190004178236 0.0046470819916202459 0 0.0015024048967910019 0.0049413986758803461 0 0.0017772395163582044 0.005058045552449166 0 0.0015024048967910019 0.0049413986758803461 0 0.0013767116269308979 0.005354690845597386 0 0.0015382904648935081 0.0066917585395287098 0 0.00062220946873094965 0.0070524757979535694 0 8.3723966611516904e-08 0.0081998939627592297 0 4.0832865251398804e-06 0.0074065258328636007 0 3.1680124799927714e-08 0.0067205728129561115 0 0.00062220946873094965 0.0070524757979535694 0 -2.8530672951856834e-07 0.0067206542700568488 0 0.0012066832412556852 0.0048285792997784585 0 0.0015024048967910019 0.0049413986758803461 0 0.0013767116269308979 0.005354690845597386 0 -2.2057104865686489e-08 0.0059776134506062421 0 1.5735815115223036e-06 0.0073496260171846076 0 3.1954996786430145e-08 0.0067196231794239853 0 -3.4166159291608771e-05 0.0058790343575801929 0 0.00062220946873094965 0.0070524757979535694 0 1.6570566210692446e-06 0.0059745700668486857 0 0.0013767116269308979 0.005354690845597386 0 0.00064198615004579923 0.0048239329347563543 0 0.0012066832412556852 0.0048285792997784585 0 0.0013767116269308979 0.005354690845597386 0 0.00064198615004579923 0.0048239329347563543 0 0.00021395270674504619 0.004098339568268149 0 0.00064198615004579923 0.0048239329347563543 0 0.0010438583244586973 0.0044282876371764396 0 0.0012066832412556852 0.0048285792997784585 0 0.00064198615004579923 0.0048239329347563543 0 0.0010438583244586973 0.0044282876371764396 0 -0.0010555757245834061 0.0075357442103564367 0 -0.0010260043919047741 0.0075316228328443742 0 -0.0010534730334772386 0.0075962830678387551 0 -0.0013110500441489965 0.0090937640799377897 0 -0.0009783395045337962 0.010367521044425378 0 -0.0010550187666166827 0.0074708299289715395 0 -0.0010555757245834061 0.0075357442103564367 0 -0.0011630867402127039 0.0075141399496744003 0 -0.00078988334278467306 0.0081631835717153375 0 -0.0013110500441489965 0.0090937640799377897 0 -0.0010550187666166827 0.0074708299289715395 0 -0.0010555757245834061 0.0075357442103564367 0 -0.00097567114013172144 0.007522936695346749 0 -0.0010597704852402699 0.01366169044432141 0 -0.0011130317711482624 0.01387565586064558 0 -0.00092170548359701593 0.013845636305077952 0 -0.0010597704852402699 0.01366169044432141 0 -0.00092170548359701593 0.013845636305077952 0 -0.00077688861252123652 0.013555302763778523 0 -0.0013110500441489965 0.0090937640799377897 0 -0.00082131690898933258 0.010401294718339123 0 -0.0013110500441489965 0.0090937640799377897 0 -0.00075727895406780231 0.0069210539386765991 0 -0.00097567114013172144 0.007522936695346749 0 -0.00090093876790780126 0.0073776557873511993 0 -0.00098150677564002708 0.0073968004455269507 0 -0.00079437741678100812 0.0070358349689412531 0 -0.00081052378703441773 0.0070984998544290192 0 -0.00090526909630265378 0.0070375103947979724 0 -0.00081052378703441773 0.0070984998544290192 0 -0.00090526909630265378 0.0070375103947979724 0 -0.00086335971166495371 0.0071412453850695128 0 -0.0010550187666166827 0.0074708299289715395 0 -0.0010611559629340435 0.0073745850973204177 0 -0.0011630867402127039 0.0075141399496744003 0 -0.0010550187666166827 0.0074708299289715395 0 -0.00098150677564002708 0.0073968004455269507 0 -0.0010611559629340435 0.0073745850973204177 0 -0.0010550187666166827 0.0074708299289715395 0 -0.00097567114013172144 0.007522936695346749 0 -0.00098150677564002708 0.0073968004455269507 0 -0.0015372746307155646 0.0078177015426939157 0 -0.0015317880380911557 0.0078087518857366898 0 -0.0014127897790575938 0.0077231509233240698 0 -0.0012804594175983249 0.0075893363930739071 0 -0.0012789419557132618 0.0075669655281190165 0 -0.0015372746307155646 0.0078177015426939157 0 -0.0014127897790575938 0.0077231509233240698 0 -0.0013984876738028277 0.0076095135721116706 0 -0.0015317880380911557 0.0078087518857366898 0 -0.0014127897790575938 0.0077231509233240698 0 -0.0013569029307911665 0.0077995271439583449 0 -0.0014127897790575938 0.0077231509233240698 0 -0.0012297591329310767 0.007712299821071582 0 -0.00127249160298671 0.0076215726045513917 0 -0.0014127897790575938 0.0077231509233240698 0 -0.0012297591329310767 0.007712299821071582 0 -0.0013569029307911665 0.0077995271439583449 0 0.00054022998522615612 0.0058913912701808397 0 0.00061793224649001391 0.0057583783969332916 0 -0.00127249160298671 0.0076215726045513917 0 -0.0013984876738028277 0.0076095135721116706 0 -0.0012033879939197115 0.0075309829338779822 0 -0.0011891200467926708 0.0075619873526701301 0 -0.00127249160298671 0.0076215726045513917 0 -0.0012033879939197115 0.0075309829338779822 0 -0.0011891200467926708 0.0075619873526701301 0 -0.0012297591329310767 0.007712299821071582 0 -0.00127249160298671 0.0076215726045513917 0 -0.0010555757245834061 0.0075357442103564367 0 -0.0011630867402127039 0.0075141399496744003 0 -0.0011145215841677064 0.0075547397542894135 0 -0.0014127897790575938 0.0077231509233240698 0 -0.00127249160298671 0.0076215726045513917 0 -0.0013984876738028277 0.0076095135721116706 0 -0.0011630867402127039 0.0075141399496744003 0 -0.0011758735798310439 0.0075650267750934095 0 -0.0012033879939197115 0.0075309829338779822 0 -0.0011630867402127039 0.0075141399496744003 0 -0.0011145215841677064 0.0075547397542894135 0 -0.0011758735798310439 0.0075650267750934095 0 0.00040335110459008923 0.0067459585399532963 0 -0.0010449847030044753 0.0081642964905602987 0 -0.0011891200467926708 0.0075619873526701301 0 -0.0011961485743527654 0.0075119889816051269 0 -0.0012033879939197115 0.0075309829338779822 0 -0.0011961485743527654 0.0075119889816051269 0 -0.0011758735798310439 0.0075650267750934095 0 -0.0012033879939197115 0.0075309829338779822 0 -0.0012789419557132618 0.0075669655281190165 0 -0.0012178729507099245 0.0075342582588887328 0 0.00025349156383055701 0.0086184417850997258 0 -0.00051598704642922589 0.0088801275733280775 0 -0.00031606380943688546 0.0085503250435759043 0 4.4283678863192099e-06 0.0087484422240811828 0 -4.0907546940197762e-05 0.010074707938796125 0 -2.4645602431061754e-07 0.0096801553167518532 0 -0.00051598704642922589 0.0088801275733280775 0 -0.00031606380943688546 0.0085503250435759043 0 -0.0011718231068560386 0.0086854555256548026 0 -4.0907546940197762e-05 0.010074707938796125 0 -2.4645602431061754e-07 0.0096801553167518532 0 2.9854626656734891e-07 0.011157723889630189 0 -0.00024695605849869135 0.0090802265061668587 0 -0.00039163393442545564 0.011481125216776942 0 -4.0907546940197762e-05 0.010074707938796125 0 2.9854626656734891e-07 0.011157723889630189 0 7.6325677212469925e-05 0.010917247750319414 0 -6.3263974278756334e-08 0.01115933716292253 0 -0.00039163393442545564 0.011481125216776942 0 -0.0010449847030044753 0.0081642964905602987 0 -0.0009783395045337962 0.010367521044425378 0 -0.0011145215841677064 0.0075547397542894135 0 -0.0011758735798310439 0.0075650267750934095 0 -0.0010534730334772386 0.0075962830678387551 0 -0.00051598704642922589 0.0088801275733280775 0 -0.0011718231068560386 0.0086854555256548026 0 -0.0013064379036145254 0.0091177588014075515 0 -0.00039163393442545564 0.011481125216776942 0 -0.0009783395045337962 0.010367521044425378 0 -0.0010555757245834061 0.0075357442103564367 0 -0.0011145215841677064 0.0075547397542894135 0 -0.0010534730334772386 0.0075962830678387551 0 -0.0011617784904651609 0.014037699429594434 0 -0.0011130317711482624 0.01387565586064558 0 -0.00092170548359701593 0.013845636305077952 0 -0.0011617784904651609 0.014037699429594434 0 -0.00092170548359701593 0.013845636305077952 0 -0.00086699796424296129 0.014054391292419881 0 5.0970421240612413e-07 0.011161092797027023 0 3.206138345820117e-05 0.011799610248798926 0 -1.3423943778251136e-07 0.012659539968688516 0 -0.00039163393442545564 0.011481125216776942 0 -0.00054020793033769578 0.013537104330337632 0 3.206138345820117e-05 0.011799610248798926 0 -1.3423943778251136e-07 0.012659539968688516 0 8.9094213340979571e-06 0.012726398136919321 0 -1.3423943778251136e-07 0.012659539968688516 0 8.9094213340979571e-06 0.012726398136919321 0 -5.6274469848701209e-05 0.013744425574003565 0 -1.3423943778251136e-07 0.012659539968688516 0 -5.6274469848701209e-05 0.013744425574003565 0 -6.6114025880732207e-07 0.014160588564340845 0 -0.00052669256178836099 0.014112627437782584 0 -0.00046538709202022119 0.013719521309425872 0 -0.00028636492607705694 0.01395585107286864 0 -0.00052669256178836099 0.014112627437782584 0 -0.00072150972062735993 0.013864046124491986 0 -0.00046538709202022119 0.013719521309425872 0 -0.00086699796424296129 0.014054391292419881 0 -0.00052669256178836099 0.014112627437782584 0 -0.00072150972062735993 0.013864046124491986 0 -0.00054020793033769578 0.013537104330337632 0 -0.00032622918234420076 0.013910476934340393 0 -0.00092170548359701593 0.013845636305077952 0 -0.00086699796424296129 0.014054391292419881 0 -0.00072150972062735993 0.013864046124491986 0 -0.00072150972062735993 0.013864046124491986 0 -0.00046538709202022119 0.013719521309425872 0 -0.00077688861252123652 0.013555302763778523 0 -0.00092170548359701593 0.013845636305077952 0 -0.00072150972062735993 0.013864046124491986 0 -0.00077688861252123652 0.013555302763778523 0 -0.00046538709202022119 0.013719521309425872 0 -0.00043417958197068213 0.013392871807876098 0 -0.00077688861252123652 0.013555302763778523 0 -0.00080680175958052467 0.010208497725034573 0 -0.00082131690898933258 0.010401294718339123 0 -0.0011311296612156198 0.0070174771055398558 0 -0.00090526909630265378 0.0070375103947979724 0 -0.00093157408741821536 0.0071297456360441304 0 -0.00090526909630265378 0.0070375103947979724 0 -0.00093157408741821536 0.0071297456360441304 0 -0.00086335971166495371 0.0071412453850695128 0 0.00013583020498346914 0.013543191405825293 0 -0.00016776164939091951 0.013539350912080573 0 -1.540819810473719e-05 0.013194562561383847 0 0.00013583020498346914 0.013543191405825293 0 0.00052668827220463501 0.013409744044571369 0 -1.540819810473719e-05 0.013194562561383847 0 -0.00046538709202022119 0.013719521309425872 0 -0.00043417958197068213 0.013392871807876098 0 -0.00016776164939091951 0.013539350912080573 0 -0.00043417958197068213 0.013392871807876098 0 -0.00016776164939091951 0.013539350912080573 0 -1.540819810473719e-05 0.013194562561383847 0 -0.00080680175958052467 0.010208497725034573 0 -0.00068906097087109643 0.010054606113299632 0 -0.00046538709202022119 0.013719521309425872 0 -2.7845758929594172e-05 0.01386187454709893 0 -0.00028636492607705694 0.01395585107286864 0 -0.00046538709202022119 0.013719521309425872 0 -0.00016776164939091951 0.013539350912080573 0 1.3444650209049332e-05 0.013833149175244341 0 -0.00042834155329849849 0.01377540686137228 0 -2.4070069849226309e-05 0.01364741032038245 0 0.00013583020498346914 0.013543191405825293 0 -0.00016776164939091951 0.013539350912080573 0 1.3444650209049332e-05 0.013833149175244341 0 0.00013583020498346914 0.013543191405825293 0 1.3444650209049332e-05 0.013833149175244341 0 0.0003380775660842757 0.013730045900542857 0 -0.00011488523742997921 0.014313094019389988 0 0.00044894719319552479 0.01437450647962433 0 0.00022488905867268383 0.014131067233392906 0 -0.00012408113839825052 0.01420575235378446 0 0.00047357587891784828 0.014389429952924058 0 -0.00012774083827774005 0.014486329642059141 0 -1.454636706153557e-05 0.014845710475511815 0 0.00047357587891784828 0.014389429952924058 0 -2.7845758929594172e-05 0.01386187454709893 0 0.00022488905867268383 0.014131067233392906 0 -0.00012408113839825052 0.01420575235378446 0 -0.00052669256178836099 0.014112627437782584 0 -0.00028636492607705694 0.01395585107286864 0 -0.00012408113839825052 0.01420575235378446 0 -2.7845758929594172e-05 0.01386187454709893 0 -0.00028636492607705694 0.01395585107286864 0 -0.00012408113839825052 0.01420575235378446 0 -0.00032622918234420076 0.013910476934340393 0 -0.00011488523742997921 0.014313094019389988 0 -5.6274469848701209e-05 0.013744425574003565 0 -0.00012774083827774005 0.014486329642059141 0 -6.6114025880732207e-07 0.014160588564340845 0 -0.00012774083827774005 0.014486329642059141 0 -6.6114025880732207e-07 0.014160588564340845 0 -1.454636706153557e-05 0.014845710475511815 0 -6.6114025880732207e-07 0.014160588564340845 0 -1.454636706153557e-05 0.014845710475511815 0 1.0793305061876645e-06 0.015658452444514397 0 1.5979293132818937e-06 0.01566262487568407 0 0.00016263175666459201 0.01756728146770924 0 0.00044920905892977919 0.017276702327815467 0 -1.454636706153557e-05 0.014845710475511815 0 1.0793305061876645e-06 0.015658452444514397 0 0.00047738375465072381 0.014622437646875647 0 2.2007302618250127e-07 0.015660936362748738 0 0.0003650100830226071 0.015989617009913273 0 1.5979293132818937e-06 0.01566262487568407 0 -4.7052725730057697e-08 0.017057519512728513 0 0.00016263175666459201 0.01756728146770924 0 -4.7052725730057697e-08 0.017057519512728513 0 0.00016263175666459201 0.01756728146770924 0 0.00037454853187417149 0.018838421182327276 0 0.00016263175666459201 0.01756728146770924 0 0.00027503017209110932 0.017997687333420921 0 0.00037454853187417149 0.018838421182327276 0 0.00027503017209110932 0.017997687333420921 0 0.00037454853187417149 0.018838421182327276 0 0.0002733743478981073 0.017824547998716949 0 0.00041630232538752808 0.018968707659688094 0 0.0010792788415979566 0.017416062238302062 0 0.00016263175666459201 0.01756728146770924 0 0.00029692971703278642 0.01773784159800566 0 0.00027503017209110932 0.017997687333420921 0 0.00029692971703278642 0.01773784159800566 0 0.00027503017209110932 0.017997687333420921 0 0.00027164787670921393 0.017883173938542014 0 0.00027503017209110932 0.017997687333420921 0 0.00027164787670921393 0.017883173938542014 0 0.0002733743478981073 0.017824547998716949 0 0.00027164787670921393 0.017883173938542014 0 0.00039886934118376602 0.017979049207208744 0 0.00028162906808641561 0.017949323861812565 0 0.001055034740511327 0.017466683880093484 0 0.0010792788415979566 0.017416062238302062 0 0.00029692971703278642 0.01773784159800566 0 0.00044920905892977919 0.017276702327815467 0 0.00039886934118376602 0.017979049207208744 0 0.00029692971703278642 0.01773784159800566 0 0.00027164787670921393 0.017883173938542014 0 0.00039886934118376602 0.017979049207208744 0 0.00016263175666459201 0.01756728146770924 0 0.00029692971703278642 0.01773784159800566 0 0.00044920905892977919 0.017276702327815467 0 0.0003650100830226071 0.015989617009913273 0 0.00049573280747090311 0.015847211124765594 0 0.00047738375465072381 0.014622437646875647 0 0.00047357587891784828 0.014389429952924058 0 0.00065054223672819515 0.014001801458480163 0 0.00022488905867268383 0.014131067233392906 0 0.00047357587891784828 0.014389429952924058 0 0.00065054223672819515 0.014001801458480163 0 -1.454636706153557e-05 0.014845710475511815 0 0.00047738375465072381 0.014622437646875647 0 0.00047357587891784828 0.014389429952924058 0 -4.7052725730057697e-08 0.017057519512728513 0 1.6748508121793694e-07 0.018453515364614672 0 0.00037454853187417149 0.018838421182327276 0 1.6748508121793694e-07 0.018453515364614672 0 0.00037454853187417149 0.018838421182327276 0 -1.9109676965857289e-05 0.019755735990299266 0 0.00037454853187417149 0.018838421182327276 0 0.00023406058769256239 0.019971041479216269 0 -1.9109676965857289e-05 0.019755735990299266 0 0.00037454853187417149 0.018838421182327276 0 0.00023406058769256239 0.019971041479216269 0 0.00070556600219736395 0.020317680324383761 0 0.00037454853187417149 0.018838421182327276 0 0.00070556600219736395 0.020317680324383761 0 0.0012636679883253473 0.019665629850947428 0 0.00070556600219736395 0.020317680324383761 0 0.0012636679883253473 0.019665629850947428 0 0.0014703539448254947 0.02068037474714066 0 0.00070556600219736395 0.020317680324383761 0 0.0014703539448254947 0.02068037474714066 0 0.00068386766415890724 0.02113077484871476 0 0.00070556600219736395 0.020317680324383761 0 0.00033998030435343241 0.020734734984480096 0 0.00068386766415890724 0.02113077484871476 0 0.00023406058769256239 0.019971041479216269 0 0.00070556600219736395 0.020317680324383761 0 0.00033998030435343241 0.020734734984480096 0 -2.7845758929594172e-05 0.01386187454709893 0 0.00022488905867268383 0.014131067233392906 0 0.00065054223672819515 0.014001801458480163 0 1.3444650209049332e-05 0.013833149175244341 0 0.0003380775660842757 0.013730045900542857 0 0.0005473261934022069 0.013963517654070307 0 -2.4070069849226309e-05 0.01364741032038245 0 0.00049573280747090311 0.015847211124765594 0 0.0003380775660842757 0.013730045900542857 0 0.00060433815390121713 0.01381878710005168 0 0.00052668827220463501 0.013409744044571369 0 0.0003380775660842757 0.013730045900542857 0 0.00060433815390121713 0.01381878710005168 0 0.0005473261934022069 0.013963517654070307 0 0.00062526879441023953 0.016607794461840138 0 0.00049573280747090311 0.015847211124765594 0 0.00048670632706970855 0.016622867902996441 0 0.000561277914376145 0.016430098415675831 0 0.00044960693389672505 0.016411651203160842 0 0.00049573280747090311 0.015847211124765594 0 0.0010792788415979566 0.017416062238302062 0 0.00062526879441023953 0.016607794461840138 0 0.0010792788415979566 0.017416062238302062 0 0.0020145762945767945 0.019559356848833913 0 0.0019830862342009709 0.019137672615763466 0 0.0012636679883253473 0.019665629850947428 0 0.0020145762945767945 0.019559356848833913 0 0.0012636679883253473 0.019665629850947428 0 0.0014703539448254947 0.02068037474714066 0 0.00037454853187417149 0.018838421182327276 0 0.0019830862342009709 0.019137672615763466 0 0.0012636679883253473 0.019665629850947428 0 0.00011784948767935635 0.016763212976213675 0 0.00044484649994228174 0.01587413615888001 0 -2.1268089335455331e-05 0.016050313112914005 0 0.00062526879441023953 0.016607794461840138 0 0.00092874166266311304 0.018816143254272898 0 0.00013583020498346914 0.013543191405825293 0 0.0003380775660842757 0.013730045900542857 0 0.00052668827220463501 0.013409744044571369 0 0.00062526879441023953 0.016607794461840138 0 0.00032824548831871301 0.01509983179280661 0 0.00044484649994228174 0.01587413615888001 0 -2.1268089335455331e-05 0.016050313112914005 0 -0.00015271227803714544 0.015333016186732122 0 0.00032824548831871301 0.01509983179280661 0 -0.0010560577438887299 0.010791868838669642 0 0.00052668827220463501 0.013409744044571369 0 0.00044910990002256722 0.012998280751100901 0 -1.540819810473719e-05 0.013194562561383847 0 0.00044484649994228174 0.01587413615888001 0 -0.00015271227803714544 0.015333016186732122 0 0.000772800088776297 0.015000511125290784 0 0.00092874166266311304 0.018816143254272898 0 0.00070880591032167445 0.016703472807091124 0 -0.0010560577438887299 0.010791868838669642 0 0.00070880591032167445 0.016703472807091124 0 -0.0020147705469804513 0.0082284248292459651 0 -0.0021277904491636668 0.0084432615684945193 0 -0.0027538404021177063 0.0084319059233454677 0 -0.0021277904491636668 0.0084432615684945193 0 -0.0027538404021177063 0.0084319059233454677 0 -0.0026173679680402961 0.0089564444333034478 0 -0.0020147705469804513 0.0082284248292459651 0 -0.0021277904491636668 0.0084432615684945193 0 -0.0021230074587633642 0.0083752630124881919 0 -0.0019945466331457674 0.0072070060582579204 0 -0.0019803018072225296 0.0075670639626321473 0 -0.0017854842429245819 0.0073567856271081842 0 -0.0010560577438887299 0.010791868838669642 0 -0.0021491282705569225 0.007375043159527161 0 0.00033998030435343241 0.020734734984480096 0 0.00068386766415890724 0.02113077484871476 0 0.00025375305128753483 0.021358169517825487 0 0.0014703539448254947 0.02068037474714066 0 0.00068386766415890724 0.02113077484871476 0 0.0011523384132534733 0.021362759773465727 0 0.00068386766415890724 0.02113077484871476 0 0.0011523384132534733 0.021362759773465727 0 0.00057454474946935384 0.021570180620109673 0 0.00070880591032167445 0.016703472807091124 0 0.0014637146810359265 0.022180103681316492 0 0.00068386766415890724 0.02113077484871476 0 0.00057454474946935384 0.021570180620109673 0 0.00025375305128753483 0.021358169517825487 0 0.0021732292643600643 0.021772035070400583 0 0.0025246536258426524 0.022277275707106154 0 0.001980405741832249 0.022488467510515489 0 0.00070880591032167445 0.016703472807091124 0 -0.00037106971944620223 0.015534650424979007 0 0.0028281390329136452 0.021421180261037735 0 0.0021732292643600643 0.021772035070400583 0 0.0025246536258426524 0.022277275707106154 0 -0.0027538404021177063 0.0084319059233454677 0 -0.0031738658819352927 0.0095390141020398281 0 -0.0026173679680402961 0.0089564444333034478 0 0.0025246536258426524 0.022277275707106154 0 0.001980405741832249 0.022488467510515489 0 0.0022045041329301477 0.023013868185602613 0 -0.00037106971944620223 0.015534650424979007 0 -0.0005766994974219507 0.01673019561698752 0 -0.0021277904491636668 0.0084432615684945193 0 -0.0021230074587633642 0.0083752630124881919 0 -0.0021786064235144276 0.008144510342024007 0 -0.0021230074587633642 0.0083752630124881919 0 -0.0021786064235144276 0.008144510342024007 0 -0.0019762681737609993 0.0081123255689565452 0 -0.0021491282705569225 0.007375043159527161 0 -0.0019504909323036471 0.0083374908947304888 0 -0.0019803018072225296 0.0075670639626321473 0 -0.0019762681737609993 0.0081123255689565452 0 -0.0016952934285526277 0.0076411090371473174 0 -0.0031738658819352927 0.0095390141020398281 0 -0.0023970155952698965 0.009406194076192937 0 -0.0026173679680402961 0.0089564444333034478 0 -0.0021277904491636668 0.0084432615684945193 0 -0.0023970155952698965 0.009406194076192937 0 -0.0026173679680402961 0.0089564444333034478 0 -0.002146205756636428 0.0084724731957683853 0 -0.0023043370564136416 0.0087837326515216325 0 -0.0031738658819352927 0.0095390141020398281 0 -0.0023970155952698965 0.009406194076192937 0 -0.0027664229573469471 0.010106709003221487 0 -0.0021786064235144276 0.008144510342024007 0 -0.0019674454569243213 0.0084083766289418348 0 -0.0025378163353678997 0.0085624145818809869 0 -0.0023043370564136416 0.0087837326515216325 0 -0.0026495155514405888 0.0093338804267281156 0 -0.0021786064235144276 0.008144510342024007 0 -0.0019762681737609993 0.0081123255689565452 0 -0.0019674454569243213 0.0084083766289418348 0 -0.0019762681737609993 0.0081123255689565452 0 -0.0016079499520232901 0.0082318540507839381 0 -0.0019674454569243213 0.0084083766289418348 0 -0.0019762681737609993 0.0081123255689565452 0 -0.0016079499520232901 0.0082318540507839381 0 -0.0014827515688107926 0.0078473261300120584 0 -0.0019762681737609993 0.0081123255689565452 0 -0.0016952934285526277 0.0076411090371473174 0 -0.0014827515688107926 0.0078473261300120584 0 -0.0016952934285526277 0.0076411090371473174 0 -0.0014827515688107926 0.0078473261300120584 0 -0.0014780496375554866 0.0075528253415269421 0 -0.0013039280775042896 0.00759602511236975 0 -0.001217821184320968 0.0077746987299656053 0 -0.001089238413770548 0.0075352322511616004 0 -0.0013039280775042896 0.00759602511236975 0 -0.0014827515688107926 0.0078473261300120584 0 -0.0014780496375554866 0.0075528253415269421 0 -0.0013039280775042896 0.00759602511236975 0 -0.0014827515688107926 0.0078473261300120584 0 -0.001217821184320968 0.0077746987299656053 0 -0.001217821184320968 0.0077746987299656053 0 -0.0013019076880101455 0.0080810701416826093 0 -0.0011089227118049449 0.0079936838255412496 0 -0.0014827515688107926 0.0078473261300120584 0 -0.001217821184320968 0.0077746987299656053 0 -0.0013019076880101455 0.0080810701416826093 0 -0.0016079499520232901 0.0082318540507839381 0 -0.0014827515688107926 0.0078473261300120584 0 -0.0013019076880101455 0.0080810701416826093 0 -0.0016079499520232901 0.0082318540507839381 0 -0.0013019076880101455 0.0080810701416826093 0 -0.0014062533092103289 0.0083559674462164845 0 -0.0013019076880101455 0.0080810701416826093 0 -0.0011089227118049449 0.0079936838255412496 0 -0.0011689232760324708 0.0083138662142966686 0 -0.0011089227118049449 0.0079936838255412496 0 -0.00078632511027794719 0.0081525055834765093 0 -0.0011689232760324708 0.0083138662142966686 0 -0.0011089227118049449 0.0079936838255412496 0 -0.00099728424369334781 0.0076747438226023356 0 -0.00078632511027794719 0.0081525055834765093 0 -0.001217821184320968 0.0077746987299656053 0 -0.0011089227118049449 0.0079936838255412496 0 -0.00099728424369334781 0.0076747438226023356 0 -0.00094468274949119368 0.0062155821358841155 0 -0.00071093043679596108 0.0072163215417038766 0 -0.00011901616509162304 0.0060271608863835353 0 -0.00071101205958805965 0.0073013699782638209 0 -0.00042896706816943715 0.0069498663849343429 0 -0.00083972428352129479 0.0074374604285049059 0 -0.00099728424369334781 0.0076747438226023356 0 -0.00078632511027794719 0.0081525055834765093 0 -0.00071093043679596108 0.0072163215417038766 0 -0.00083972428352129479 0.0074374604285049059 0 -0.00078632511027794719 0.0081525055834765093 0 -0.00083972428352129479 0.0074374604285049059 0 -0.00078367490185216266 0.0073412112542473613 0 -0.00092075976250951608 0.0074310976212759233 0 -0.00071093043679596108 0.0072163215417038766 0 -0.00083972428352129479 0.0074374604285049059 0 -0.00078367490185216266 0.0073412112542473613 0 -0.00098886163931950505 0.0072730287878443947 0 -0.00071093043679596108 0.0072163215417038766 0 -0.00078367490185216266 0.0073412112542473613 0 -0.001217821184320968 0.0077746987299656053 0 -0.00099728424369334781 0.0076747438226023356 0 -0.001089238413770548 0.0075352322511616004 0 -0.00083972428352129479 0.0074374604285049059 0 -0.00099728424369334781 0.0076747438226023356 0 -0.00092075976250951608 0.0074310976212759233 0 -0.00092075976250951608 0.0074310976212759233 0 -0.001089238413770548 0.0075352322511616004 0 -0.0010029610258405815 0.0073825785305741548 0 -0.00099728424369334781 0.0076747438226023356 0 -0.00092075976250951608 0.0074310976212759233 0 -0.001089238413770548 0.0075352322511616004 0 -0.0013039280775042896 0.00759602511236975 0 -0.001089238413770548 0.0075352322511616004 0 -0.0011498544973420352 0.0073944044356883277 0 -0.001089238413770548 0.0075352322511616004 0 -0.0011498544973420352 0.0073944044356883277 0 -0.0010029610258405815 0.0073825785305741548 0 -0.0011498544973420352 0.0073944044356883277 0 -0.00098915970366190574 0.0072429286918266056 0 -0.0012538070396114617 0.0072672242281032568 0 -0.00092075976250951608 0.0074310976212759233 0 -0.0010029610258405815 0.0073825785305741548 0 -0.00089666659869953251 0.0073247857592580066 0 -0.0010029610258405815 0.0073825785305741548 0 -0.00089666659869953251 0.0073247857592580066 0 -0.00098915970366190574 0.0072429286918266056 0 -0.0011498544973420352 0.0073944044356883277 0 -0.0010029610258405815 0.0073825785305741548 0 -0.00098915970366190574 0.0072429286918266056 0 -0.00086320784629580693 0.0072144125570720759 0 -0.00078367490185216266 0.0073412112542473613 0 -0.00084895162865971849 0.0072620948972680994 0 -0.00078367490185216266 0.0073412112542473613 0 -0.00092075976250951608 0.0074310976212759233 0 -0.00089666659869953251 0.0073247857592580066 0 -0.00078367490185216266 0.0073412112542473613 0 -0.00089666659869953251 0.0073247857592580066 0 -0.00084895162865971849 0.0072620948972680994 0 -0.00089666659869953251 0.0073247857592580066 0 -0.00084895162865971849 0.0072620948972680994 0 -0.00098915970366190574 0.0072429286918266056 0 -0.00083979385347398574 0.0072268964788324459 0 -0.00084895162865971849 0.0072620948972680994 0 -0.0008809677711308756 0.0072008082119935802 0 -0.0008809677711308756 0.0072008082119935802 0 -0.00093157408741821536 0.0071297456360441304 0 -0.00098915970366190574 0.0072429286918266056 0 -0.00084895162865971849 0.0072620948972680994 0 -0.0008809677711308756 0.0072008082119935802 0 -0.00098915970366190574 0.0072429286918266056 0 -0.00083979385347398574 0.0072268964788324459 0 -0.0008809677711308756 0.0072008082119935802 0 -0.00086335971166495371 0.0071412453850695128 0 -0.0008809677711308756 0.0072008082119935802 0 -0.00093157408741821536 0.0071297456360441304 0 -0.00086335971166495371 0.0071412453850695128 0 -0.0011311296612156198 0.0070174771055398558 0 -0.00093157408741821536 0.0071297456360441304 0 -0.00098915970366190574 0.0072429286918266056 0 -0.0011311296612156198 0.0070174771055398558 0 -0.00098915970366190574 0.0072429286918266056 0 -0.0012538070396114617 0.0072672242281032568 0 -0.0015258439269610518 0.0070645255943395987 0 -0.0015303919923507735 0.0073804026383804608 0 -0.0012538070396114617 0.0072672242281032568 0 -0.0011311296612156198 0.0070174771055398558 0 -0.0015258439269610518 0.0070645255943395987 0 -0.0012538070396114617 0.0072672242281032568 0 -0.0019945466331457674 0.0072070060582579204 0 -0.0015258439269610518 0.0070645255943395987 0 -0.0017854842429245819 0.0073567856271081842 0 -0.0015258439269610518 0.0070645255943395987 0 -0.0015303919923507735 0.0073804026383804608 0 -0.0017854842429245819 0.0073567856271081842 0 -0.0010560577438887299 0.010791868838669642 0 -0.00068906097087109643 0.010054606113299632 0 -0.0019803018072225296 0.0075670639626321473 0 -0.0016952934285526277 0.0076411090371473174 0 -0.0017854842429245819 0.0073567856271081842 0 -0.0016952934285526277 0.0076411090371473174 0 -0.0015303919923507735 0.0073804026383804608 0 -0.0017854842429245819 0.0073567856271081842 0 -0.0016952934285526277 0.0076411090371473174 0 -0.0015303919923507735 0.0073804026383804608 0 -0.0014780496375554866 0.0075528253415269421 0 -0.0013039280775042896 0.00759602511236975 0 -0.0014780496375554866 0.0075528253415269421 0 -0.0013355856469105399 0.0074292236330104388 0 -0.0015303919923507735 0.0073804026383804608 0 -0.0014780496375554866 0.0075528253415269421 0 -0.0013355856469105399 0.0074292236330104388 0 -0.0013039280775042896 0.00759602511236975 0 -0.0011498544973420352 0.0073944044356883277 0 -0.0013355856469105399 0.0074292236330104388 0 -0.0011498544973420352 0.0073944044356883277 0 -0.0013355856469105399 0.0074292236330104388 0 -0.0012538070396114617 0.0072672242281032568 0 -0.0015303919923507735 0.0073804026383804608 0 -0.0013355856469105399 0.0074292236330104388 0 -0.0012538070396114617 0.0072672242281032568 0 -3.9187114549742002e-06 0.024988232034253748 0 -2.6269718475686815e-09 0.024999998796813805 0 -2.5644462404268665e-09 0.024999912801942314 0 -0.00079274467272051066 0.021351098615430726 0 -0.00045754780058460549 0.021157779936624131 0 -0.00045517767962396916 0.021651749627335067 0 4.1562995887325981e-05 0.023344160584162346 0 -0.00033370355558633283 0.021006393999414043 0 -0.00045117672569279472 0.023091607682315461 0 4.1562995887325981e-05 0.023344160584162346 0 -0.00079274467272051066 0.021351098615430726 0 -0.00074902070584671645 0.020959745683752806 0 -0.00045754780058460549 0.021157779936624131 0 -3.9187114549742002e-06 0.024988232034253748 0 -2.6269718475686815e-09 0.024999998796813805 0 -2.5009801907362789e-06 0.024989023434283414 0 -2.6269718475686815e-09 0.024999998796813805 0 -9.1523216628288349e-10 0.024999983184509151 0 -2.5009801907362789e-06 0.024989023434283414 0 9.4072013623295242e-07 0.025001347058057913 0 4.1562995887325981e-05 0.023344160584162346 0 -6.3488939464274259e-07 0.024999435529728626 0 6.2427968404731621e-07 0.024040662759812682 0 0.00027129000242124006 0.0251024479577392 0 1.9430597636494322e-09 0.024999068392110118 0 -6.3488939464274259e-07 0.024999435529728626 0 6.2427968404731621e-07 0.024040662759812682 0 4.2043648986544601e-07 0.02403846617434063 0 4.1562995887325981e-05 0.023344160584162346 0 1.9479688714851153e-06 0.024035693431704395 0 0.00070087587422973884 0.022045245937172969 0 -2.6466925820813723e-06 0.022491801946022599 0 0.00070087587422973884 0.022045245937172969 0 -2.6466925820813723e-06 0.022491801946022599 0 2.1382491563199341e-05 0.021393396260024723 0 -2.6466925820813723e-06 0.022491801946022599 0 -0.0001854805851341632 0.021746606493537556 0 2.1382491563199341e-05 0.021393396260024723 0 1.9479688714851153e-06 0.024035693431704395 0 -2.6466925820813723e-06 0.022491801946022599 0 -7.5687015042703435e-07 0.022641937168144489 0 -2.6466925820813723e-06 0.022491801946022599 0 -7.5687015042703435e-07 0.022641937168144489 0 -0.0001854805851341632 0.021746606493537556 0 -7.5687015042703435e-07 0.022641937168144489 0 -0.0001854805851341632 0.021746606493537556 0 -2.6172155617836849e-07 0.021245554477311045 0 -0.0001854805851341632 0.021746606493537556 0 -0.00019893040415985166 0.021294633446981126 0 2.1382491563199341e-05 0.021393396260024723 0 -0.00045754780058460549 0.021157779936624131 0 -0.0001640477162816069 0.021338382926141528 0 -0.00045517767962396916 0.021651749627335067 0 -0.00019893040415985166 0.021294633446981126 0 2.1382491563199341e-05 0.021393396260024723 0 -0.0001640477162816069 0.021338382926141528 0 -0.00033370355558633283 0.021006393999414043 0 -9.3503775172331559e-05 0.021427530912693976 0 -0.00019893040415985166 0.021294633446981126 0 -0.0001640477162816069 0.021338382926141528 0 -8.8228888695869183e-05 0.021124027355506534 0 -8.8228888695869183e-05 0.021124027355506534 0 -1.7022354027618142e-05 0.020733484260959133 0 5.6636467080224491e-05 0.021515568268434527 0 -0.0001770545882409528 0.021002444950608153 0 -0.0001206200361064028 0.02040101455259442 0 -1.7022354027618142e-05 0.020733484260959133 0 -8.8228888695869183e-05 0.021124027355506534 0 -0.0001770545882409528 0.021002444950608153 0 -1.7022354027618142e-05 0.020733484260959133 0 -0.00019893040415985166 0.021294633446981126 0 -8.8228888695869183e-05 0.021124027355506534 0 -0.0001770545882409528 0.021002444950608153 0 -0.0001854805851341632 0.021746606493537556 0 -0.00019893040415985166 0.021294633446981126 0 -0.0001770545882409528 0.021002444950608153 0 -0.0001854805851341632 0.021746606493537556 0 -0.0001770545882409528 0.021002444950608153 0 -2.6172155617836849e-07 0.021245554477311045 0 -0.0001770545882409528 0.021002444950608153 0 -2.6172155617836849e-07 0.021245554477311045 0 -0.0001206200361064028 0.02040101455259442 0 -2.6172155617836849e-07 0.021245554477311045 0 -0.0001206200361064028 0.02040101455259442 0 -2.9182761789387395e-07 0.019849632520068945 0 -0.0001206200361064028 0.02040101455259442 0 -2.9182761789387395e-07 0.019849632520068945 0 -1.9109676965857289e-05 0.019755735990299266 0 1.6748508121793694e-07 0.018453515364614672 0 -2.9182761789387395e-07 0.019849632520068945 0 -1.9109676965857289e-05 0.019755735990299266 0 0.00023406058769256239 0.019971041479216269 0 -1.9109676965857289e-05 0.019755735990299266 0 -1.7022354027618142e-05 0.020733484260959133 0 -0.0001206200361064028 0.02040101455259442 0 -1.9109676965857289e-05 0.019755735990299266 0 -1.7022354027618142e-05 0.020733484260959133 0 0.00023406058769256239 0.019971041479216269 0 0.00033998030435343241 0.020734734984480096 0 -1.7022354027618142e-05 0.020733484260959133 0 0.00033998030435343241 0.020734734984480096 0 -1.7022354027618142e-05 0.020733484260959133 0 0.00025375305128753483 0.021358169517825487 0 -1.7022354027618142e-05 0.020733484260959133 0 0.00025375305128753483 0.021358169517825487 0 5.6636467080224491e-05 0.021515568268434527 0 0.00025375305128753483 0.021358169517825487 0 0.00021684743930490584 0.021800021189232296 0 5.6636467080224491e-05 0.021515568268434527 0 0.00025375305128753483 0.021358169517825487 0 0.00031400826673613986 0.021798723630535078 0 0.00021684743930490584 0.021800021189232296 0 0.00057454474946935384 0.021570180620109673 0 0.00025375305128753483 0.021358169517825487 0 0.00031400826673613986 0.021798723630535078 0 0.0014637146810359265 0.022180103681316492 0 0.00095676279616035075 0.021909783464866158 0 0.0021732292643600643 0.021772035070400583 0 0.001980405741832249 0.022488467510515489 0 0.0015893535809523693 0.022120561592952562 0 0.001980405741832249 0.022488467510515489 0 0.0015893535809523693 0.022120561592952562 0 0.0015279807298826521 0.022882790764896323 0 0.0015893535809523693 0.022120561592952562 0 0.0010233240002596891 0.022453175236767844 0 0.0015279807298826521 0.022882790764896323 0 0.00031400826673613986 0.021798723630535078 0 0.00029008586174708437 0.022163810206063738 0 0.00021684743930490584 0.021800021189232296 0 0.00095676279616035075 0.021909783464866158 0 0.0006331587888805222 0.02234746069487957 0 0.00029008586174708437 0.022163810206063738 0 0.00014955167101424037 0.02214025035697146 0 0.00021684743930490584 0.021800021189232296 0 0.0010233240002596891 0.022453175236767844 0 0.00092669694315823821 0.02310231478909968 0 0.0015279807298826521 0.022882790764896323 0 0.0006331587888805222 0.02234746069487957 0 0.00029942765340703107 0.022761884413433672 0 0.0010233240002596891 0.022453175236767844 0 0.00032274227297465156 0.022837423916568032 0 0.00092669694315823821 0.02310231478909968 0 0.00029008586174708437 0.022163810206063738 0 0.00032274227297465156 0.022837423916568032 0 0.00014955167101424037 0.02214025035697146 0 0.00014955167101424037 0.02214025035697146 0 5.6636467080224491e-05 0.021515568268434527 0 -8.5204883525533787e-05 0.02175436220548253 0 0.00014955167101424037 0.02214025035697146 0 0.00021684743930490584 0.021800021189232296 0 5.6636467080224491e-05 0.021515568268434527 0 -0.0001640477162816069 0.021338382926141528 0 -8.8228888695869183e-05 0.021124027355506534 0 5.6636467080224491e-05 0.021515568268434527 0 -0.0001640477162816069 0.021338382926141528 0 5.6636467080224491e-05 0.021515568268434527 0 -8.5204883525533787e-05 0.02175436220548253 0 -0.0001640477162816069 0.021338382926141528 0 -0.00045517767962396916 0.021651749627335067 0 -8.5204883525533787e-05 0.02175436220548253 0 -0.00045517767962396916 0.021651749627335067 0 -0.0002280856248924051 0.022197074481742692 0 -0.00060673583406132094 0.022321957929631295 0 -0.00045517767962396916 0.021651749627335067 0 -0.0002280856248924051 0.022197074481742692 0 -8.5204883525533787e-05 0.02175436220548253 0 0.00014955167101424037 0.02214025035697146 0 -0.0002280856248924051 0.022197074481742692 0 -8.5204883525533787e-05 0.02175436220548253 0 0.00014955167101424037 0.02214025035697146 0 -0.0002280856248924051 0.022197074481742692 0 -2.2325054888551868e-05 0.022820996899103344 0 0.00032274227297465156 0.022837423916568032 0 -2.2325054888551868e-05 0.022820996899103344 0 6.9584878939253238e-05 0.023585679542604356 0 0.00032274227297465156 0.022837423916568032 0 0.00014955167101424037 0.02214025035697146 0 -2.2325054888551868e-05 0.022820996899103344 0 -2.2325054888551868e-05 0.022820996899103344 0 -0.00036806586156635059 0.022705915455850358 0 -0.00024852756119480451 0.023510475927298768 0 -2.2325054888551868e-05 0.022820996899103344 0 -0.00024852756119480451 0.023510475927298768 0 6.9584878939253238e-05 0.023585679542604356 0 -0.0002280856248924051 0.022197074481742692 0 -0.00036806586156635059 0.022705915455850358 0 -0.00060673583406132094 0.022321957929631295 0 -0.0002280856248924051 0.022197074481742692 0 -2.2325054888551868e-05 0.022820996899103344 0 -0.00036806586156635059 0.022705915455850358 0 -0.00036806586156635059 0.022705915455850358 0 -0.0009435480035406529 0.022825846966567618 0 -0.00060673583406132094 0.022321957929631295 0 -0.00048836419011133545 0.023911874282510841 0 -0.00044723708066748773 0.02347459578251386 0 -0.0009435480035406529 0.022825846966567618 0 -0.00060673583406132094 0.022321957929631295 0 -0.00088590003630457828 0.021900434275913361 0 -0.0009435480035406529 0.022825846966567618 0 -0.00024852756119480451 0.023510475927298768 0 -0.00034809384079499879 0.024541766373245292 0 -0.00036806586156635059 0.022705915455850358 0 -0.0009435480035406529 0.022825846966567618 0 -0.00024852756119480451 0.023510475927298768 0 -0.00048836419011133545 0.023911874282510841 0 -0.00038243362962258595 0.024456931600196578 0 -8.1542171072079476e-05 0.025028767042058166 0 -5.2352070923331366e-08 0.025000302129834204 0 -1.6463118452704639e-07 0.024999184836413616 0 -8.1542171072079476e-05 0.025028767042058166 0 -1.6463118452704639e-07 0.024999184836413616 0 -0.00034809384079499879 0.024541766373245292 0 -8.1542171072079476e-05 0.025028767042058166 0 -5.2352070923331366e-08 0.025000302129834204 0 -1.3860655313257581e-05 0.024997243538069865 0 -5.2352070923331366e-08 0.025000302129834204 0 -1.3860655313257581e-05 0.024997243538069865 0 -2.5644462404268665e-09 0.024999912801942314 0 -0.00045517767962396916 0.021651749627335067 0 -0.00060673583406132094 0.022321957929631295 0 -0.00088590003630457828 0.021900434275913361 0 -0.00045117672569279472 0.023091607682315461 0 -0.00044723708066748773 0.02347459578251386 0 -0.00079274467272051066 0.021351098615430726 0 -0.00045517767962396916 0.021651749627335067 0 -0.00088590003630457828 0.021900434275913361 0 -3.9187114549742002e-06 0.024988232034253748 0 -1.3860655313257581e-05 0.024997243538069865 0 -2.5644462404268665e-09 0.024999912801942314 0 -7.9336891243821867e-05 0.024761191288331166 0 -2.4910668534249097e-07 0.024999346962906434 0 -2.5949625594554568e-08 0.024999798314538482 0 -7.9336891243821867e-05 0.024761191288331166 0 -1.3910465769503497e-05 0.02490422863035759 0 -2.5949625594554568e-08 0.024999798314538482 0 -7.9336891243821867e-05 0.024761191288331166 0 4.4496047502652056e-05 0.024770357798421589 0 -1.3910465769503497e-05 0.02490422863035759 0 -7.9336891243821867e-05 0.024761191288331166 0 4.9029972854515182e-05 0.024516124377226604 0 4.4496047502652056e-05 0.024770357798421589 0 -7.9336891243821867e-05 0.024761191288331166 0 -9.1342935744404089e-05 0.024499777812326148 0 4.9029972854515182e-05 0.024516124377226604 0 -7.9336891243821867e-05 0.024761191288331166 0 -9.1342935744404089e-05 0.024499777812326148 0 -0.00020399135378998629 0.024630822020627982 0 -7.9336891243821867e-05 0.024761191288331166 0 -2.4910668534249097e-07 0.024999346962906434 0 -0.00020399135378998629 0.024630822020627982 0 -2.4910668534249097e-07 0.024999346962906434 0 -0.00020399135378998629 0.024630822020627982 0 -1.6463118452704639e-07 0.024999184836413616 0 -0.00020399135378998629 0.024630822020627982 0 -1.6463118452704639e-07 0.024999184836413616 0 -0.00034809384079499879 0.024541766373245292 0 -0.00024852756119480451 0.023510475927298768 0 -0.00034809384079499879 0.024541766373245292 0 -0.000164040627534253 0.024229710319357049 0 -9.1342935744404089e-05 0.024499777812326148 0 -0.00020399135378998629 0.024630822020627982 0 -0.000164040627534253 0.024229710319357049 0 -0.00020399135378998629 0.024630822020627982 0 -0.00034809384079499879 0.024541766373245292 0 -0.000164040627534253 0.024229710319357049 0 -9.1342935744404089e-05 0.024499777812326148 0 -0.000164040627534253 0.024229710319357049 0 9.2713579122132565e-05 0.02414078297219403 0 -0.000164040627534253 0.024229710319357049 0 9.2713579122132565e-05 0.02414078297219403 0 6.9584878939253238e-05 0.023585679542604356 0 -0.00024852756119480451 0.023510475927298768 0 -0.000164040627534253 0.024229710319357049 0 6.9584878939253238e-05 0.023585679542604356 0 0.00032274227297465156 0.022837423916568032 0 6.9584878939253238e-05 0.023585679542604356 0 0.00052703814185939399 0.023662022506159838 0 9.2713579122132565e-05 0.02414078297219403 0 6.9584878939253238e-05 0.023585679542604356 0 0.00052703814185939399 0.023662022506159838 0 9.2713579122132565e-05 0.02414078297219403 0 0.00035190540175256049 0.024159074287336772 0 0.00052703814185939399 0.023662022506159838 0 0.00035190540175256049 0.024159074287336772 0 0.00023089259983753463 0.024517494913326554 0 0.00063557417326125156 0.024166347885574493 0 0.00035190540175256049 0.024159074287336772 0 4.9029972854515182e-05 0.024516124377226604 0 0.00023089259983753463 0.024517494913326554 0 9.2713579122132565e-05 0.02414078297219403 0 0.00035190540175256049 0.024159074287336772 0 4.9029972854515182e-05 0.024516124377226604 0 -9.1342935744404089e-05 0.024499777812326148 0 9.2713579122132565e-05 0.02414078297219403 0 4.9029972854515182e-05 0.024516124377226604 0 4.9029972854515182e-05 0.024516124377226604 0 0.00023089259983753463 0.024517494913326554 0 4.4496047502652056e-05 0.024770357798421589 0 0.00023089259983753463 0.024517494913326554 0 0.00047358931164266172 0.024537005891251105 0 0.00019217097416224393 0.024737101587111496 0 0.00023089259983753463 0.024517494913326554 0 0.00047358931164266172 0.024537005891251105 0 0.00063557417326125156 0.024166347885574493 0 0.00076657741781247857 0.024385404472594678 0 0.0011053449212046016 0.023989528584024894 0 0.00063557417326125156 0.024166347885574493 0 0.00047358931164266172 0.024537005891251105 0 0.00076657741781247857 0.024385404472594678 0 0.00063557417326125156 0.024166347885574493 0 0.00076657741781247857 0.024385404472594678 0 0.0011053449212046016 0.023989528584024894 0 0.0010702644003440078 0.024653852375006769 0 0.0011053449212046016 0.023989528584024894 0 0.0011107495251175743 0.023579136828564835 0 0.0015334262629035159 0.023669662839987671 0 0.0011053449212046016 0.023989528584024894 0 0.00075050890655373149 0.023867908614085852 0 0.0011107495251175743 0.023579136828564835 0 0.0011053449212046016 0.023989528584024894 0 0.00063557417326125156 0.024166347885574493 0 0.00075050890655373149 0.023867908614085852 0 0.00035190540175256049 0.024159074287336772 0 0.00063557417326125156 0.024166347885574493 0 0.00075050890655373149 0.023867908614085852 0 0.00035190540175256049 0.024159074287336772 0 0.00075050890655373149 0.023867908614085852 0 0.00052703814185939399 0.023662022506159838 0 0.00075050890655373149 0.023867908614085852 0 0.00052703814185939399 0.023662022506159838 0 0.0011107495251175743 0.023579136828564835 0 0.00032274227297465156 0.022837423916568032 0 0.00052703814185939399 0.023662022506159838 0 0.00092669694315823821 0.02310231478909968 0 0.00092669694315823821 0.02310231478909968 0 0.0011107495251175743 0.023579136828564835 0 0.0015279807298826521 0.022882790764896323 0 0.00052703814185939399 0.023662022506159838 0 0.00092669694315823821 0.02310231478909968 0 0.0011107495251175743 0.023579136828564835 0 0.0011107495251175743 0.023579136828564835 0 0.0015279807298826521 0.022882790764896323 0 0.0016721688799668367 0.023353310824065419 0 0.0011107495251175743 0.023579136828564835 0 0.0016721688799668367 0.023353310824065419 0 0.0015334262629035159 0.023669662839987671 0 0.0015279807298826521 0.022882790764896323 0 0.0016721688799668367 0.023353310824065419 0 0.0022045041329301477 0.023013868185602613 0 0.001980405741832249 0.022488467510515489 0 0.0015279807298826521 0.022882790764896323 0 0.0022045041329301477 0.023013868185602613 0 0.0016721688799668367 0.023353310824065419 0 0.0019198040949301792 0.023555879291371509 0 0.0022045041329301477 0.023013868185602613 0 0.0019198040949301792 0.023555879291371509 0 0.0015334262629035159 0.023669662839987671 0 0.0017003945819336003 0.023827430902454618 0 0.0016721688799668367 0.023353310824065419 0 0.0019198040949301792 0.023555879291371509 0 0.0015334262629035159 0.023669662839987671 0 0.0011053449212046016 0.023989528584024894 0 0.0017003945819336003 0.023827430902454618 0 0.0010702644003440078 0.024653852375006769 0 0.0011053449212046016 0.023989528584024894 0 0.0015334262629035159 0.023669662839987671 0 0.0017003945819336003 0.023827430902454618 0 -0.0034654478576012933 0.010648144870110158 0 -0.0037390969500561725 0.011087953876043766 0 -0.003396514614273395 0.010782020990031694 0 -0.00079409766250123856 0.017095865683094399 0 -0.00092098216244020667 0.017342947815970743 0 0.0019198040949301792 0.023555879291371509 0 0.0017003945819336003 0.023827430902454618 0 0.001677463390284663 0.023724656892131116 0 -0.0037390969500561725 0.011087953876043766 0 -0.003877907408662294 0.011574825512541144 0 -0.0034742288018176919 0.011587214442131876 0 0.0016249083250063192 0.023903709595240328 0 0.0016022558531176168 0.024082002267494265 0 0.0017003945819336003 0.023827430902454618 0 0.001677463390284663 0.023724656892131116 0 0.0018808015345468615 0.023652846957840624 0 -0.00092098216244020667 0.017342947815970743 0 -0.0016799172428210477 0.017682258913153857 0 0.001677463390284663 0.023724656892131116 0 0.0017185729089185511 0.023403296770245347 0 0.0018808015345468615 0.023652846957840624 0 -0.00389069782913828 0.012332153663479397 0 -0.0041788974520553055 0.011912530045880458 0 -0.0034560724639440938 0.011925676148205248 0 -0.0016799172428210477 0.017682258913153857 0 -0.0040845915290831144 0.011088740785701571 0 -0.00389069782913828 0.012332153663479397 0 -0.0034986083126411966 0.012455891360579048 0 -0.0037983847439733518 0.012824544610809424 0 -0.00389069782913828 0.012332153663479397 0 -0.0034560724639440938 0.011925676148205248 0 -0.0034986083126411966 0.012455891360579048 0 -0.00389069782913828 0.012332153663479397 0 -0.0044682360226910951 0.012597624478600319 0 -0.0037983847439733518 0.012824544610809424 0 -0.0016799172428210477 0.017682258913153857 0 -0.0024000505594227056 0.018671350052118445 0 -0.00389069782913828 0.012332153663479397 0 -0.0041788974520553055 0.011912530045880458 0 -0.0044682360226910951 0.012597624478600319 0 -0.00015263263914115367 0.024617535045847225 0 -2.5168909241605616e-06 0.024641304104142833 0 6.7096573694206848e-07 0.024717005229856752 0 -0.00015263263914115367 0.024617535045847225 0 -2.5168909241605616e-06 0.024641304104142833 0 -0.00016667871426513783 0.024490816530847611 0 -0.00016667871426513783 0.024490816530847611 0 0.00014389877532263123 0.024602504838723852 0 1.4467887798782295e-05 0.024267086598365611 0 -2.5168909241605616e-06 0.024641304104142833 0 -0.00016667871426513783 0.024490816530847611 0 0.00014389877532263123 0.024602504838723852 0 0.00014389877532263123 0.024602504838723852 0 0.00011350884995676221 0.02470575901492527 0 9.1004989381115309e-05 0.024763301725600644 0 -2.5168909241605616e-06 0.024641304104142833 0 0.00014389877532263123 0.024602504838723852 0 0.00011350884995676221 0.02470575901492527 0 -2.5168909241605616e-06 0.024641304104142833 0 0.00011350884995676221 0.02470575901492527 0 6.7096573694206848e-07 0.024717005229856752 0 0.00011350884995676221 0.02470575901492527 0 0.00010386400155884881 0.024748348067054487 0 6.7096573694206848e-07 0.024717005229856752 0 0.00049427398898973021 0.025040968230958846 0 0.00063314085360064278 0.024667522641168983 0 0.00039683394391647002 0.024773591479404625 0 0.00063825689788723583 0.024445623932156883 0 0.0016022558531176168 0.024082002267494265 0 0.00063825689788723583 0.024445623932156883 0 0.0016270948372501669 0.024419950761196504 0 0.0017185729089185511 0.023403296770245347 0 0.0019004575920965076 0.023470559574868832 0 0.0018808015345468615 0.023652846957840624 0 0.0020485874708113415 0.023513656579681502 0 0.0019004575920965076 0.023470559574868832 0 0.0018808015345468615 0.023652846957840624 0 -0.0016799172428210477 0.017682258913153857 0 0.0016270948372501669 0.024419950761196504 0 0.00076657741781247857 0.024385404472594678 0 0.0010702644003440078 0.024653852375006769 0 0.00063314085360064278 0.024667522641168983 0 0.00049427398898973021 0.025040968230958846 0 0.0010702644003440078 0.024653852375006769 0 0.00063314085360064278 0.024667522641168983 0 0.00047358931164266172 0.024537005891251105 0 0.00076657741781247857 0.024385404472594678 0 0.00063314085360064278 0.024667522641168983 0 0.00047358931164266172 0.024537005891251105 0 0.00063314085360064278 0.024667522641168983 0 0.00039683394391647002 0.024773591479404625 0 0.00039683394391647002 0.024773591479404625 0 0.00019217097416224393 0.024737101587111496 0 0.00020129494630305144 0.024928699602165014 0 0.00047358931164266172 0.024537005891251105 0 0.00039683394391647002 0.024773591479404625 0 0.00019217097416224393 0.024737101587111496 0 0.00023089259983753463 0.024517494913326554 0 0.00019217097416224393 0.024737101587111496 0 4.4496047502652056e-05 0.024770357798421589 0 0.00019217097416224393 0.024737101587111496 0 0.00011035177413577456 0.024863473008448891 0 0.00020129494630305144 0.024928699602165014 0 4.4496047502652056e-05 0.024770357798421589 0 0.00011035177413577456 0.024863473008448891 0 3.6277506798156499e-05 0.024929354163114842 0 0.00019217097416224393 0.024737101587111496 0 4.4496047502652056e-05 0.024770357798421589 0 0.00011035177413577456 0.024863473008448891 0 0.00011035177413577456 0.024863473008448891 0 0.00010515617649323812 0.02492244358273428 0 0.00020129494630305144 0.024928699602165014 0 0.00011035177413577456 0.024863473008448891 0 0.00010515617649323812 0.02492244358273428 0 3.6277506798156499e-05 0.024929354163114842 0 0.00010515617649323812 0.02492244358273428 0 0.00020129494630305144 0.024928699602165014 0 0.00016177566181149172 0.024942962624837722 0 0.00049427398898973021 0.025040968230958846 0 0.00039683394391647002 0.024773591479404625 0 0.00020129494630305144 0.024928699602165014 0 0.00022055045877383405 0.024928813511898473 0 0.00020129494630305144 0.024928699602165014 0 0.00016177566181149172 0.024942962624837722 0 0.00063825689788723583 0.024445623932156883 0 0.00021244600702987994 0.024834658903365319 0 0.00063825689788723583 0.024445623932156883 0 4.713300448451535e-05 0.024901074319029114 0 0.00011350884995676221 0.02470575901492527 0 0.00010386400155884881 0.024748348067054487 0 9.9183033987141242e-05 0.024745072485277745 0 0.00011350884995676221 0.02470575901492527 0 9.9183033987141242e-05 0.024745072485277745 0 8.6154564918733986e-05 0.024797570527676633 0 0.00014389877532263123 0.024602504838723852 0 9.1004989381115309e-05 0.024763301725600644 0 9.2270717453349561e-05 0.024781932024615875 0 0.00011350884995676221 0.02470575901492527 0 8.6154564918733986e-05 0.024797570527676633 0 9.1004989381115309e-05 0.024763301725600644 0 8.6154564918733986e-05 0.024797570527676633 0 9.1004989381115309e-05 0.024763301725600644 0 6.2297094230010883e-05 0.024847398144420059 0 6.2297094230010883e-05 0.024847398144420059 0 3.5624563129166124e-05 0.024916730499921668 0 5.7516783608652192e-05 0.024870502456360733 0 9.1004989381115309e-05 0.024763301725600644 0 6.2297094230010883e-05 0.024847398144420059 0 5.7516783608652192e-05 0.024870502456360733 0 8.6154564918733986e-05 0.024797570527676633 0 6.2297094230010883e-05 0.024847398144420059 0 6.6280215539241941e-05 0.024888488510551844 0 6.2297094230010883e-05 0.024847398144420059 0 6.6280215539241941e-05 0.024888488510551844 0 3.5624563129166124e-05 0.024916730499921668 0 0.00010515617649323812 0.02492244358273428 0 6.6280215539241941e-05 0.024888488510551844 0 3.6277506798156499e-05 0.024929354163114842 0 9.9183033987141242e-05 0.024745072485277745 0 8.6154564918733986e-05 0.024797570527676633 0 6.6280215539241941e-05 0.024888488510551844 0 4.713300448451535e-05 0.024901074319029114 0 0.00011734677228449633 0.024854116093750857 0 0.00010515617649323812 0.02492244358273428 0 0.00016177566181149172 0.024942962624837722 0 6.6280215539241941e-05 0.024888488510551844 0 6.6280215539241941e-05 0.024888488510551844 0 2.6447325771204306e-05 0.024947004301660882 0 3.6277506798156499e-05 0.024929354163114842 0 6.6280215539241941e-05 0.024888488510551844 0 2.6447325771204306e-05 0.024947004301660882 0 3.5624563129166124e-05 0.024916730499921668 0 2.6447325771204306e-05 0.024947004301660882 0 3.5624563129166124e-05 0.024916730499921668 0 2.222138293300473e-08 0.024999907799416264 0 2.6447325771204306e-05 0.024947004301660882 0 2.222138293300473e-08 0.024999907799416264 0 3.9525726716916313e-10 0.024999915254259163 0 2.6447325771204306e-05 0.024947004301660882 0 3.9525726716916313e-10 0.024999915254259163 0 3.6277506798156499e-05 0.024929354163114842 0 3.9525726716916313e-10 0.024999915254259163 0 3.6277506798156499e-05 0.024929354163114842 0 -1.3910465769503497e-05 0.02490422863035759 0 4.4496047502652056e-05 0.024770357798421589 0 3.6277506798156499e-05 0.024929354163114842 0 -1.3910465769503497e-05 0.02490422863035759 0 3.9525726716916313e-10 0.024999915254259163 0 -1.3910465769503497e-05 0.02490422863035759 0 -2.5949625594554568e-08 0.024999798314538482 0 -0.0010132427451989671 0.0094954482275677061 0 -0.00049507439836192556 0.0076774792965869799 0 -0.001071572420128086 0.0097040633731169217 0 -0.00068343035272708317 0.0090694704902841497 0 -0.0010692127605670006 0.0092384845829164026 0 -0.001071572420128086 0.0097040633731169217 0 -0.0010692127605670006 0.0092384845829164026 0 -0.0014107916355003589 0.009336208998188834 0 -0.0015621446539162316 0.0098507000274175999 0 -0.0014107916355003589 0.009336208998188834 0 -0.0019259141608266898 0.00946428721742993 0 -0.001071572420128086 0.0097040633731169217 0 -0.0015621446539162316 0.0098507000274175999 0 -0.0014107916355003589 0.009336208998188834 0 -0.0015621446539162316 0.0098507000274175999 0 -0.0018092686768293375 0.010382987913260916 0 -0.001340783374882171 0.010107244071894016 0 -0.001071572420128086 0.0097040633731169217 0 -0.0015621446539162316 0.0098507000274175999 0 -0.001340783374882171 0.010107244071894016 0 -0.00087705962402225023 0.0089627629267293313 0 -0.00058406227098496948 0.0094833724277830246 0 -0.001340783374882171 0.010107244071894016 0 -0.00058406227098496948 0.0094833724277830246 0 -0.00072834795923617135 0.010073682023704785 0 -0.001340783374882171 0.010107244071894016 0 -0.0010132427451989671 0.0094954482275677061 0 -0.0012937649210860937 0.0099814586050015371 0 -0.00058406227098496948 0.0094833724277830246 0 -6.7460678053233631e-05 0.0097292549602635663 0 -0.0003627186342542781 0.0098324522550781758 0 -0.00058406227098496948 0.0094833724277830246 0 0.00017348720305562223 0.0098174687808190789 0 -1.0972255074093375e-05 0.0091410721950657397 0 -0.00016487999189417646 0.0096776178712362094 0 -0.00045714805606733447 0.0081419158697115246 0 -0.00058406227098496948 0.0094833724277830246 0 -0.00072834795923617135 0.010073682023704785 0 -0.0003627186342542781 0.0098324522550781758 0 -0.00058406227098496948 0.0094833724277830246 0 -1.0972255074093375e-05 0.0091410721950657397 0 -0.00024712705569447733 0.0088328407191791431 0 -0.0011428141760980589 0.0047540160560947484 0 -0.0013359163107417096 0.0048377713782024132 0 -0.0012481400455701432 0.0050788141401637097 0 -0.0013793213372858405 0.0046351499239658759 0 -0.0011428141760980589 0.0047540160560947484 0 -0.0013359163107417096 0.0048377713782024132 0 -0.00045714805606733447 0.0081419158697115246 0 -0.00034305566270513961 0.0059935265670323784 0 0.00017348720305562223 0.0098174687808190789 0 -1.0972255074093375e-05 0.0091410721950657397 0 0.00061165160026146765 0.0084335621923178252 0 -1.0972255074093375e-05 0.0091410721950657397 0 0.00061165160026146765 0.0084335621923178252 0 -0.00024712705569447733 0.0088328407191791431 0 0.00061165160026146765 0.0084335621923178252 0 -0.00024712705569447733 0.0088328407191791431 0 -0.00031589926138216701 0.0079226976121397931 0 -0.00087705962402225023 0.0089627629267293313 0 -0.00024712705569447733 0.0088328407191791431 0 -0.00031589926138216701 0.0079226976121397931 0 -0.00087705962402225023 0.0089627629267293313 0 -0.00058406227098496948 0.0094833724277830246 0 -0.00024712705569447733 0.0088328407191791431 0 -0.00034305566270513961 0.0059935265670323784 0 -0.00049507439836192556 0.0076774792965869799 0 -0.00039085328529102435 0.0048447171912951448 0 0.00028219941713574653 0.005223300324234563 0 -0.00021522786913630805 0.0053898527592990061 0 -0.00034305566270513961 0.0059935265670323784 0 -0.00073496414891807617 0.0053105415852415412 0 -0.0011985651063229938 0.0050547167548853468 0 -0.00084976354186305065 0.0049546362113996349 0 -0.00089290965873254789 0.005428362746435488 0 -0.00039085328529102435 0.0048447171912951448 0 -0.00021522786913630805 0.0053898527592990061 0 -0.00063011286407793567 0.0054927769039604208 0 -0.00021522786913630805 0.0053898527592990061 0 -0.00063011286407793567 0.0054927769039604208 0 -0.00011901616509162304 0.0060271608863835353 0 -0.00094468274949119368 0.0062155821358841155 0 -0.00063011286407793567 0.0054927769039604208 0 -0.00011901616509162304 0.0060271608863835353 0 -0.00049507439836192556 0.0076774792965869799 0 -0.00042896706816943715 0.0069498663849343429 0 -0.0010609083633044119 0.0087180602645258159 0 -0.00078632511027794719 0.0081525055834765093 0 -0.0011689232760324708 0.0083138662142966686 0 0.00028219941713574653 0.005223300324234563 0 -0.00021522786913630805 0.0053898527592990061 0 -0.00011901616509162304 0.0060271608863835353 0 -0.0013019076880101455 0.0080810701416826093 0 -0.0011689232760324708 0.0083138662142966686 0 -0.0014062533092103289 0.0083559674462164845 0 -0.0010609083633044119 0.0087180602645258159 0 -0.0011689232760324708 0.0083138662142966686 0 -0.0013612303630214011 0.0085564507791579744 0 -0.0011910596501537875 0.008674500395631177 0 -0.0015538744935265625 0.0085374318688717591 0 -0.0014062533092103289 0.0083559674462164845 0 -0.0013612303630214011 0.0085564507791579744 0 -0.0015877524962175055 0.0085371847876539193 0 -0.0011689232760324708 0.0083138662142966686 0 -0.0014062533092103289 0.0083559674462164845 0 -0.0013612303630214011 0.0085564507791579744 0 -0.00049507439836192556 0.0076774792965869799 0 -0.0011910596501537875 0.008674500395631177 0 -0.00068343035272708317 0.0090694704902841497 0 -0.0011088804767146248 0.0088258483411784664 0 -0.0010692127605670006 0.0092384845829164026 0 -0.0011088804767146248 0.0088258483411784664 0 -0.0010692127605670006 0.0092384845829164026 0 -0.0014107916355003589 0.009336208998188834 0 -0.0011088804767146248 0.0088258483411784664 0 -0.0017232346147084345 0.0089844900030365601 0 -0.0014107916355003589 0.009336208998188834 0 -0.0017232346147084345 0.0089844900030365601 0 -0.0014107916355003589 0.009336208998188834 0 -0.0019259141608266898 0.00946428721742993 0 -0.0011088804767146248 0.0088258483411784664 0 -0.0017232346147084345 0.0089844900030365601 0 -0.0015877524962175055 0.0085371847876539193 0 -0.0017232346147084345 0.0089844900030365601 0 -0.0015877524962175055 0.0085371847876539193 0 -0.0019674454569243213 0.0084083766289418348 0 -0.0016079499520232901 0.0082318540507839381 0 -0.0014062533092103289 0.0083559674462164845 0 -0.0015877524962175055 0.0085371847876539193 0 -0.0016079499520232901 0.0082318540507839381 0 -0.0015877524962175055 0.0085371847876539193 0 -0.0019674454569243213 0.0084083766289418348 0 -0.002085864171501692 0.0088527588624874257 0 -0.0019674454569243213 0.0084083766289418348 0 -0.0025378163353678997 0.0085624145818809869 0 -0.0017232346147084345 0.0089844900030365601 0 -0.002085864171501692 0.0088527588624874257 0 -0.0019674454569243213 0.0084083766289418348 0 -0.002085864171501692 0.0088527588624874257 0 -0.0025378163353678997 0.0085624145818809869 0 -0.0023797318574918383 0.0091774812216893226 0 -0.0023797318574918383 0.0091774812216893226 0 -0.0029160443653693476 0.0092970936615701383 0 -0.0024530893752809355 0.0098179391278730623 0 -0.0025378163353678997 0.0085624145818809869 0 -0.0023797318574918383 0.0091774812216893226 0 -0.0029160443653693476 0.0092970936615701383 0 -0.0017232346147084345 0.0089844900030365601 0 -0.002085864171501692 0.0088527588624874257 0 -0.0019259141608266898 0.00946428721742993 0 -0.002085864171501692 0.0088527588624874257 0 -0.0023797318574918383 0.0091774812216893226 0 -0.0019259141608266898 0.00946428721742993 0 -0.0027664229573469471 0.010106709003221487 0 -0.0033590967696025364 0.010320948662023762 0 -0.0030608003986561127 0.010471079928605017 0 -0.0031738658819352927 0.0095390141020398281 0 -0.0027664229573469471 0.010106709003221487 0 -0.0033590967696025364 0.010320948662023762 0 -0.0026495155514405888 0.0093338804267281156 0 -0.0029718465590019344 0.0098887771594854974 0 -0.0034654478576012933 0.010648144870110158 0 -0.0033590967696025364 0.010320948662023762 0 -0.0030608003986561127 0.010471079928605017 0 -0.00079409766250123856 0.017095865683094399 0 -0.0005766994974219507 0.01673019561698752 0 -0.0034654478576012933 0.010648144870110158 0 -0.0030608003986561127 0.010471079928605017 0 -0.0031612228857715433 0.010428652088503597 0 -0.0029718465590019344 0.0098887771594854974 0 -0.0031481153201110821 0.010374661579253814 0 -0.0029160443653693476 0.0092970936615701383 0 -0.0031612228857715433 0.010428652088503597 0 -0.0024530893752809355 0.0098179391278730623 0 -0.0031612228857715433 0.010428652088503597 0 -0.0024530893752809355 0.0098179391278730623 0 -0.0026852427989536632 0.010491790529927244 0 -0.0031612228857715433 0.010428652088503597 0 -0.0026852427989536632 0.010491790529927244 0 -0.0031679832051468952 0.011001315995786885 0 -0.0031612228857715433 0.010428652088503597 0 -0.003396514614273395 0.010782020990031694 0 -0.0031679832051468952 0.011001315995786885 0 -0.0034654478576012933 0.010648144870110158 0 -0.0031612228857715433 0.010428652088503597 0 -0.003396514614273395 0.010782020990031694 0 -0.0015621446539162316 0.0098507000274175999 0 -0.0019259141608266898 0.00946428721742993 0 -0.0021317767720334174 0.010145687552849678 0 -0.0019259141608266898 0.00946428721742993 0 -0.0024530893752809355 0.0098179391278730623 0 -0.0021317767720334174 0.010145687552849678 0 -0.0023797318574918383 0.0091774812216893226 0 -0.0019259141608266898 0.00946428721742993 0 -0.0024530893752809355 0.0098179391278730623 0 -0.0024530893752809355 0.0098179391278730623 0 -0.0026852427989536632 0.010491790529927244 0 -0.0021317767720334174 0.010145687552849678 0 -0.0015621446539162316 0.0098507000274175999 0 -0.0021317767720334174 0.010145687552849678 0 -0.0018092686768293375 0.010382987913260916 0 -0.0021317767720334174 0.010145687552849678 0 -0.0018092686768293375 0.010382987913260916 0 -0.0024402374851355455 0.010790102520354975 0 -0.0018092686768293375 0.010382987913260916 0 -0.0024402374851355455 0.010790102520354975 0 -0.0017037100494183624 0.010808295912277036 0 -0.0026852427989536632 0.010491790529927244 0 -0.0021317767720334174 0.010145687552849678 0 -0.0024402374851355455 0.010790102520354975 0 -0.0024402374851355455 0.010790102520354975 0 -0.0023686238062537003 0.011290478583056861 0 -0.0029158779707945709 0.011274035411469792 0 -0.0023686238062537003 0.011290478583056861 0 -0.0017617979902164464 0.011361385253367837 0 -0.0017037100494183624 0.010808295912277036 0 -0.0024402374851355455 0.010790102520354975 0 -0.0023686238062537003 0.011290478583056861 0 -0.0017037100494183624 0.010808295912277036 0 -0.0037390969500561725 0.011087953876043766 0 -0.0031679832051468952 0.011001315995786885 0 -0.0034742288018176919 0.011587214442131876 0 -0.0037390969500561725 0.011087953876043766 0 -0.003396514614273395 0.010782020990031694 0 -0.0031679832051468952 0.011001315995786885 0 -0.0026852427989536632 0.010491790529927244 0 -0.0024402374851355455 0.010790102520354975 0 -0.0031679832051468952 0.011001315995786885 0 -0.0024402374851355455 0.010790102520354975 0 -0.0031679832051468952 0.011001315995786885 0 -0.0029158779707945709 0.011274035411469792 0 -0.0031679832051468952 0.011001315995786885 0 -0.0029158779707945709 0.011274035411469792 0 -0.0034742288018176919 0.011587214442131876 0 -0.0040845915290831144 0.011088740785701571 0 -0.002647471982256437 0.011882100231157718 0 -0.0034560724639440938 0.011925676148205248 0 -0.002729298583172331 0.011929474922583443 0 -0.0030885979560384296 0.012325816105667084 0 -0.0029158779707945709 0.011274035411469792 0 -0.0034742288018176919 0.011587214442131876 0 -0.0029085351996641267 0.011670125206595843 0 -0.0026340342923334881 0.012440258675931938 0 -0.0030885979560384296 0.012325816105667084 0 -0.0032503657212992875 0.012917377256214337 0 -0.002729298583172331 0.011929474922583443 0 -0.0026340342923334881 0.012440258675931938 0 -0.0030885979560384296 0.012325816105667084 0 -0.0030885979560384296 0.012325816105667084 0 -0.0034986083126411966 0.012455891360579048 0 -0.0032503657212992875 0.012917377256214337 0 -0.0034560724639440938 0.011925676148205248 0 -0.0030885979560384296 0.012325816105667084 0 -0.0034986083126411966 0.012455891360579048 0 -0.0023686238062537003 0.011290478583056861 0 -0.0021451360047824814 0.01181055982122838 0 -0.0017617979902164464 0.011361385253367837 0 -0.0021451360047824814 0.01181055982122838 0 -0.0017617979902164464 0.011361385253367837 0 -0.0014929592404671454 0.011840601757246801 0 -0.0023686238062537003 0.011290478583056861 0 -0.0029158779707945709 0.011274035411469792 0 -0.0029085351996641267 0.011670125206595843 0 -0.002647471982256437 0.011882100231157718 0 -0.002244934452465471 0.011805480885878135 0 -0.0023686238062537003 0.011290478583056861 0 -0.0029085351996641267 0.011670125206595843 0 -0.0021451360047824814 0.01181055982122838 0 -0.0026340342923334881 0.012440258675931938 0 -0.0021451360047824814 0.01181055982122838 0 -0.0021754868676157157 0.012359249718541484 0 -0.002729298583172331 0.011929474922583443 0 -0.0026340342923334881 0.012440258675931938 0 -0.0021451360047824814 0.01181055982122838 0 -0.0021451360047824814 0.01181055982122838 0 -0.0014929592404671454 0.011840601757246801 0 -0.0021754868676157157 0.012359249718541484 0 -0.0014929592404671454 0.011840601757246801 0 -0.0006754005442223994 0.011453611597542853 0 -0.00078472669802470132 0.012189392304066597 0 -0.0014929592404671454 0.011840601757246801 0 -0.0010811466443500597 0.01104952148485653 0 -0.0006754005442223994 0.011453611597542853 0 -0.0017617979902164464 0.011361385253367837 0 -0.0014929592404671454 0.011840601757246801 0 -0.0010811466443500597 0.01104952148485653 0 -0.0017617979902164464 0.011361385253367837 0 -0.0010811466443500597 0.01104952148485653 0 -0.0017037100494183624 0.010808295912277036 0 -0.0010811466443500597 0.01104952148485653 0 -0.0017037100494183624 0.010808295912277036 0 -0.0011827557958995975 0.010535053438294846 0 -0.0010811466443500597 0.01104952148485653 0 -0.0011827557958995975 0.010535053438294846 0 -0.00056421944057789299 0.010428652015001904 0 -0.0011827557958995975 0.010535053438294846 0 -0.00072834795923617135 0.010073682023704785 0 -0.001340783374882171 0.010107244071894016 0 -0.0011827557958995975 0.010535053438294846 0 -0.00072834795923617135 0.010073682023704785 0 -0.00056421944057789299 0.010428652015001904 0 -0.0018092686768293375 0.010382987913260916 0 -0.0011827557958995975 0.010535053438294846 0 -0.001340783374882171 0.010107244071894016 0 -0.0018092686768293375 0.010382987913260916 0 -0.0017037100494183624 0.010808295912277036 0 -0.0011827557958995975 0.010535053438294846 0 0.00027114868328828411 0.0099832703777604226 0 5.441553532797791e-05 0.0097439979020909999 0 0.00026717503840598366 0.0099651904897655949 0 5.441553532797791e-05 0.0097439979020909999 0 0.00026717503840598366 0.0099651904897655949 0 -0.00013466216449140687 0.010009793971376562 0 -0.00069491917078757181 0.0071639489429817151 0 -0.00045714805606733447 0.0081419158697115246 0 -0.00045714805606733447 0.0081419158697115246 0 -0.00039379013822925593 0.010189167216735672 0 -6.7460678053233631e-05 0.0097292549602635663 0 -0.0003627186342542781 0.0098324522550781758 0 -0.00013466216449140687 0.010009793971376562 0 -0.00072834795923617135 0.010073682023704785 0 -0.0003627186342542781 0.0098324522550781758 0 -0.00013466216449140687 0.010009793971376562 0 -0.00072834795923617135 0.010073682023704785 0 -0.00013466216449140687 0.010009793971376562 0 -0.00056421944057789299 0.010428652015001904 0 -0.00013466216449140687 0.010009793971376562 0 -3.7143317711697114e-06 0.010179403458898572 0 -0.00056421944057789299 0.010428652015001904 0 -0.0010811466443500597 0.01104952148485653 0 -0.00056421944057789299 0.010428652015001904 0 -0.00022423529292198979 0.010784903412601757 0 -3.7143317711697114e-06 0.010179403458898572 0 -0.00056421944057789299 0.010428652015001904 0 -0.00022423529292198979 0.010784903412601757 0 -3.7143317711697114e-06 0.010179403458898572 0 0.00052288217696492905 0.0097899918727304309 0 -0.00022423529292198979 0.010784903412601757 0 0.00026717503840598366 0.0099651904897655949 0 -0.00013466216449140687 0.010009793971376562 0 -3.7143317711697114e-06 0.010179403458898572 0 0.00026717503840598366 0.0099651904897655949 0 -3.7143317711697114e-06 0.010179403458898572 0 0.00052288217696492905 0.0097899918727304309 0 0.0001448520978667497 0.0097429911980802236 0 0.00026717503840598366 0.0099651904897655949 0 0.00052288217696492905 0.0097899918727304309 0 0.00052288217696492905 0.0097899918727304309 0 0.00055939863691359631 0.010970191232867334 0 -0.00022423529292198979 0.010784903412601757 0 0.00055939863691359631 0.010970191232867334 0 -0.00022423529292198979 0.010784903412601757 0 0.00013697314025322134 0.011761066241564011 0 -0.00022423529292198979 0.010784903412601757 0 -0.0006754005442223994 0.011453611597542853 0 0.00013697314025322134 0.011761066241564011 0 -0.0010811466443500597 0.01104952148485653 0 -0.00022423529292198979 0.010784903412601757 0 -0.0006754005442223994 0.011453611597542853 0 -0.0006754005442223994 0.011453611597542853 0 0.00013697314025322134 0.011761066241564011 0 -0.00078472669802470132 0.012189392304066597 0 -0.0001615012805494819 0.011795257306153349 0 -0.00073426124410439669 0.01178855980288256 0 0.0015343033715369387 0.011287820198214719 0 0.00055939863691359631 0.010970191232867334 0 0.00013697314025322134 0.011761066241564011 0 -0.00053059701657015633 0.011418243350308842 0 -0.00056716022153078464 0.01155675577512014 0 -0.00047082649976207009 0.011482753784801117 0 -0.00053059701657015633 0.011418243350308842 0 -0.00056716022153078464 0.01155675577512014 0 -0.00067674257269991693 0.01142404637999956 0 -0.00056716022153078464 0.01155675577512014 0 -0.00063479699439744543 0.011773550858510493 0 -0.00074954522903278038 0.011620716263358399 0 -0.00056716022153078464 0.01155675577512014 0 -0.00047499212002244162 0.01167768679287156 0 -0.0004564168908654551 0.01155504811010869 0 -0.00056716022153078464 0.01155675577512014 0 -0.00047082649976207009 0.011482753784801117 0 -0.0004564168908654551 0.01155504811010869 0 -0.00047499212002244162 0.01167768679287156 0 -0.0004564168908654551 0.01155504811010869 0 -0.00046005003046747673 0.01158763629184017 0 -0.00047499212002244162 0.01167768679287156 0 -0.00048164817349887043 0.011595490805493424 0 -0.00046005003046747673 0.01158763629184017 0 -0.00056716022153078464 0.01155675577512014 0 -0.00047499212002244162 0.01167768679287156 0 -0.00063479699439744543 0.011773550858510493 0 -0.00047499212002244162 0.01167768679287156 0 -0.00060078299528697632 0.012016348112726716 0 -0.00048307615870523237 0.012132697079258232 0 -0.00047499212002244162 0.01167768679287156 0 -0.00063479699439744543 0.011773550858510493 0 -0.00060078299528697632 0.012016348112726716 0 -0.00047379006985346413 0.011671906099404931 0 -0.00043368569068475099 0.011891689503759122 0 -0.00060078299528697632 0.012016348112726716 0 -0.0007227167344312364 0.01199298463872441 0 -0.00057557629165358752 0.012166387021533148 0 -0.00047499212002244162 0.01167768679287156 0 -0.00048164817349887043 0.011595490805493424 0 -0.00042825013955965374 0.01156628647410772 0 -0.00075531028148100097 0.012087760350399004 0 -0.000788187920476599 0.012263188272187021 0 -0.0006350868546096943 0.012561880057600018 0 -0.00077360513123649857 0.012220676965420268 0 -0.00063609876989133838 0.012320587371695673 0 -0.00083491179733272114 0.011816919293753964 0 -0.0010194994395012736 0.011826151437543404 0 -0.00077360513123649857 0.012220676965420268 0 -0.0007227167344312364 0.01199298463872441 0 -0.00083491179733272114 0.011816919293753964 0 -0.00077360513123649857 0.012220676965420268 0 -0.00063479699439744543 0.011773550858510493 0 -0.00060078299528697632 0.012016348112726716 0 -0.0007227167344312364 0.01199298463872441 0 -0.00063479699439744543 0.011773550858510493 0 -0.00083491179733272114 0.011816919293753964 0 -0.00074954522903278038 0.011620716263358399 0 -0.00063479699439744543 0.011773550858510493 0 -0.0007227167344312364 0.01199298463872441 0 -0.00083491179733272114 0.011816919293753964 0 -0.00083491179733272114 0.011816919293753964 0 -0.0009524873296139967 0.011660978572264547 0 -0.00074954522903278038 0.011620716263358399 0 -0.00083491179733272114 0.011816919293753964 0 -0.0010194994395012736 0.011826151437543404 0 -0.0009524873296139967 0.011660978572264547 0 -0.0009524873296139967 0.011660978572264547 0 -0.00074954522903278038 0.011620716263358399 0 -0.00093919391651190495 0.011479804649202006 0 -0.00056716022153078464 0.01155675577512014 0 -0.00074954522903278038 0.011620716263358399 0 -0.00067674257269991693 0.01142404637999956 0 -0.00074954522903278038 0.011620716263358399 0 -0.00067674257269991693 0.01142404637999956 0 -0.00093919391651190495 0.011479804649202006 0 -0.00073426124410439669 0.01178855980288256 0 -0.0012789686741648241 0.012004030564217677 0 -0.0014929592404671454 0.011840601757246801 0 -0.00078472669802470132 0.012189392304066597 0 -0.0015768811896615135 0.01256535243801016 0 -0.0012789686741648241 0.012004030564217677 0 -0.0015829760622025732 0.012408498009175747 0 -0.0014929592404671454 0.011840601757246801 0 -0.0015768811896615135 0.01256535243801016 0 -0.0021754868676157157 0.012359249718541484 0 -0.0015768811896615135 0.01256535243801016 0 -0.0021754868676157157 0.012359249718541484 0 -0.002233342506168069 0.012816103659558778 0 -0.0026340342923334881 0.012440258675931938 0 -0.0021754868676157157 0.012359249718541484 0 -0.002233342506168069 0.012816103659558778 0 -0.0027045029417601288 0.012641627547447493 0 -0.0015829760622025732 0.012408498009175747 0 -0.0026340342923334881 0.012440258675931938 0 -0.0019432181836399759 0.013269291388446871 0 -0.0027505404714518386 0.013061073399831466 0 -0.00087625664901763939 0.012062562375037984 0 -0.0017853643223617475 0.012214033972298222 0 -0.0011721980361846427 0.012426593457289331 0 -0.0015829760622025732 0.012408498009175747 0 -0.0022585858108540684 0.012898886992053616 0 -0.00087625664901763939 0.012062562375037984 0 -0.00073726250969402573 0.012582817022930832 0 -0.0011721980361846427 0.012426593457289331 0 -0.0009524873296139967 0.011660978572264547 0 -0.00093919391651190495 0.011479804649202006 0 -0.0012039615635003214 0.011576649699444561 0 -0.0010194994395012736 0.011826151437543404 0 -0.0009524873296139967 0.011660978572264547 0 -0.0012039615635003214 0.011576649699444561 0 -0.0032503657212992875 0.012917377256214337 0 -0.0027505404714518386 0.013061073399831466 0 -0.0030600720521087306 0.013273844596176159 0 -0.0026340342923334881 0.012440258675931938 0 -0.0032503657212992875 0.012917377256214337 0 -0.0027505404714518386 0.013061073399831466 0 -0.0019432181836399759 0.013269291388446871 0 -0.0027505404714518386 0.013061073399831466 0 -0.0028012293332237087 0.013584714474214271 0 -0.0027505404714518386 0.013061073399831466 0 -0.0028012293332237087 0.013584714474214271 0 -0.0030600720521087306 0.013273844596176159 0 -0.0032503657212992875 0.012917377256214337 0 -0.003426312717298978 0.013528580819367822 0 -0.0036765765569158055 0.013215784448089204 0 -0.0028012293332237087 0.013584714474214271 0 -0.003426312717298978 0.013528580819367822 0 -0.0034862011035321 0.013871596691899314 0 -0.0028012293332237087 0.013584714474214271 0 -0.0030600720521087306 0.013273844596176159 0 -0.003426312717298978 0.013528580819367822 0 -0.0032503657212992875 0.012917377256214337 0 -0.0030600720521087306 0.013273844596176159 0 -0.003426312717298978 0.013528580819367822 0 -0.0017853643223617475 0.012214033972298222 0 -0.0021130009157514988 0.012985074180410639 0 -0.0028115570602556526 0.012558243410160442 0 -0.0022585858108540684 0.012898886992053616 0 -0.0031752157966125441 0.013513582270597964 0 -0.0033838157541270794 0.013711647272977478 0 -0.0031752157966125441 0.013513582270597964 0 -0.0017853643223617475 0.012214033972298222 0 -0.0021130009157514988 0.012985074180410639 0 -0.0013679524377967116 0.012872055400298831 0 -0.0017853643223617475 0.012214033972298222 0 -0.0013679524377967116 0.012872055400298831 0 -0.0011721980361846427 0.012426593457289331 0 -0.0021130009157514988 0.012985074180410639 0 -0.0013679524377967116 0.012872055400298831 0 -0.0016188356304212524 0.0136632837604283 0 -0.0021130009157514988 0.012985074180410639 0 -0.0022154996597832676 0.013582438174157904 0 -0.0016188356304212524 0.0136632837604283 0 -0.0021130009157514988 0.012985074180410639 0 -0.0028115570602556526 0.012558243410160442 0 -0.0030060909455414116 0.013473496624587735 0 -0.0021130009157514988 0.012985074180410639 0 -0.0022154996597832676 0.013582438174157904 0 -0.0030060909455414116 0.013473496624587735 0 -0.00075531028148100097 0.012087760350399004 0 -0.0015829760622025732 0.012408498009175747 0 -0.0006350868546096943 0.012561880057600018 0 -0.00087625664901763939 0.012062562375037984 0 -0.00073726250969402573 0.012582817022930832 0 -0.00073726250969402573 0.012582817022930832 0 -0.0013679524377967116 0.012872055400298831 0 -0.0011721980361846427 0.012426593457289331 0 -0.0013679524377967116 0.012872055400298831 0 -0.00084200795692050212 0.013465024309071717 0 -0.0016188356304212524 0.0136632837604283 0 -0.00073726250969402573 0.012582817022930832 0 -0.0013679524377967116 0.012872055400298831 0 -0.00084200795692050212 0.013465024309071717 0 -0.00073726250969402573 0.012582817022930832 0 -0.00084200795692050212 0.013465024309071717 0 -7.9465925882929515e-05 0.013679474676152648 0 -0.00070411147812587374 0.01262295653170877 0 -0.00037457720376185322 0.012894847945025968 0 -0.0006350868546096943 0.012561880057600018 0 -0.00073726250969402573 0.012582817022930832 0 -0.00063609876989133838 0.012320587371695673 0 -0.00084200795692050212 0.013465024309071717 0 -0.00050280071909625755 0.014414354315292451 0 -7.9465925882929515e-05 0.013679474676152648 0 -0.00084200795692050212 0.013465024309071717 0 -0.0011003012887690255 0.014068891687008958 0 -0.00050280071909625755 0.014414354315292451 0 -0.00084200795692050212 0.013465024309071717 0 -0.0011003012887690255 0.014068891687008958 0 -0.0016188356304212524 0.0136632837604283 0 -0.0011003012887690255 0.014068891687008958 0 -0.00050280071909625755 0.014414354315292451 0 -0.0015236567149431507 0.014667799863164499 0 -0.00050280071909625755 0.014414354315292451 0 -0.0015236567149431507 0.014667799863164499 0 -0.0010190145687852378 0.015705322793353384 0 -0.00050280071909625755 0.014414354315292451 0 -0.00042258098273930322 0.014681405762848638 0 0.00024440674774467658 0.014439347769312031 0 -0.0022154996597832676 0.013582438174157904 0 -0.0023064706843380607 0.014204125747301271 0 -0.0030060909455414116 0.013473496624587735 0 -0.0023064706843380607 0.014204125747301271 0 -0.0016188356304212524 0.0136632837604283 0 -0.0015236567149431507 0.014667799863164499 0 -0.0011003012887690255 0.014068891687008958 0 -0.0016188356304212524 0.0136632837604283 0 -0.0015236567149431507 0.014667799863164499 0 -0.0022154996597832676 0.013582438174157904 0 -0.0023064706843380607 0.014204125747301271 0 -0.0016188356304212524 0.0136632837604283 0 -0.0023064706843380607 0.014204125747301271 0 -0.0015236567149431507 0.014667799863164499 0 -0.002507962877861163 0.015162112401047373 0 -0.0023064706843380607 0.014204125747301271 0 -0.002507962877861163 0.015162112401047373 0 -0.0032108810288063163 0.014439171156314906 0 -0.002507962877861163 0.015162112401047373 0 -0.0018758669320049252 0.01576358027457914 0 -0.0025857384302103077 0.016300666330334012 0 -0.002507962877861163 0.015162112401047373 0 -0.0025857384302103077 0.016300666330334012 0 -0.0034052156142821218 0.015299560736924251 0 -0.0015236567149431507 0.014667799863164499 0 -0.002507962877861163 0.015162112401047373 0 -0.0018758669320049252 0.01576358027457914 0 -0.0015236567149431507 0.014667799863164499 0 -0.0018758669320049252 0.01576358027457914 0 -0.0010190145687852378 0.015705322793353384 0 -0.0018758669320049252 0.01576358027457914 0 -0.0025857384302103077 0.016300666330334012 0 -0.0016175342996158852 0.016924546708658474 0 -0.0018758669320049252 0.01576358027457914 0 -0.0010190145687852378 0.015705322793353384 0 -0.0016175342996158852 0.016924546708658474 0 -0.00050280071909625755 0.014414354315292451 0 -0.00042258098273930322 0.014681405762848638 0 -0.00051651921871070602 0.014714763287272432 0 -0.00042258098273930322 0.014681405762848638 0 -0.00051651921871070602 0.014714763287272432 0 -0.00046223070994758704 0.014711663523962727 0 -0.00048716712238987606 0.014431663132743203 0 -0.00079868954182930755 0.015279921266957611 0 -0.00079868954182930755 0.015279921266957611 0 -0.0010082302158164239 0.015433973069733497 0 -0.00051651921871070602 0.014714763287272432 0 -0.00047770969705943891 0.014720562389988251 0 -0.00050408940512616839 0.014728838829622972 0 -0.00051651921871070602 0.014714763287272432 0 -0.00046223070994758704 0.014711663523962727 0 -0.00047770969705943891 0.014720562389988251 0 -0.00042258098273930322 0.014681405762848638 0 -0.00046223070994758704 0.014711663523962727 0 -0.00044156168375094848 0.014697743492966146 0 -0.00046223070994758704 0.014711663523962727 0 -0.00044156168375094848 0.014697743492966146 0 -0.00045289382399442342 0.014711067464826423 0 -0.00044156168375094848 0.014697743492966146 0 -0.00043455737184692035 0.014697113994882698 0 -0.00044260547242191078 0.014703196248593484 0 -0.00044156168375094848 0.014697743492966146 0 -0.00042851727226423628 0.014671692758648771 0 -0.00043455737184692035 0.014697113994882698 0 -0.00042258098273930322 0.014681405762848638 0 -0.00042851727226423628 0.014671692758648771 0 -0.00042384568451945013 0.014645936210660399 0 -0.00042258098273930322 0.014681405762848638 0 -0.00044156168375094848 0.014697743492966146 0 -0.00042851727226423628 0.014671692758648771 0 -0.00042851727226423628 0.014671692758648771 0 -0.00037674646787498286 0.014653713194051555 0 -0.00042384568451945013 0.014645936210660399 0 -0.00037674646787498286 0.014653713194051555 0 -0.00085962187697259413 0.013920150454150283 0 -0.00041678602310804883 0.013960989927853886 0 -0.00040260428085545492 0.01478388389301555 0 -0.00050807174509667839 0.013887228505347429 0 -0.0004349111199819184 0.014741668548778127 0 -0.00051961881936622278 0.014078977920730136 0 -0.00042851727226423628 0.014671692758648771 0 -0.00043455737184692035 0.014697113994882698 0 -0.00037674646787498286 0.014653713194051555 0 -0.00043455737184692035 0.014697113994882698 0 -0.00043115015392420676 0.01468902704852325 0 -0.00043312737577502861 0.014696835261113093 0 -0.00043455737184692035 0.014697113994882698 0 -0.00037674646787498286 0.014653713194051555 0 -0.00031428841874179159 0.014707564957770033 0 -0.00069202078494520975 0.013699544611608192 0 -0.00068145798307597328 0.013519529131826042 0 -0.00079218193105796736 0.014145009631452196 0 -0.00051961881936622278 0.014078977920730136 0 -0.00040242468689875014 0.014319687052978409 0 -0.00069202078494520975 0.013699544611608192 0 -0.0002716618831009419 0.013697160455088606 0 -0.00079218193105796736 0.014145009631452196 0 -0.00022050656637391473 0.01397361628217445 0 -0.00040242468689875014 0.014319687052978409 0 -0.00069202078494520975 0.013699544611608192 0 -0.0002716618831009419 0.013697160455088606 0 -0.00053767984060794187 0.013463707113133581 0 -0.00054608853267984416 0.013567251031229586 0 -0.00051961881936622278 0.014078977920730136 0 -0.00069202078494520975 0.013699544611608192 0 -0.00053654719599890998 0.013467155216028788 0 -0.00068145798307597328 0.013519529131826042 0 -0.00061044346846153552 0.01362841100303119 0 -0.00054608853267984416 0.013567251031229586 0 -0.0002716618831009419 0.013697160455088606 0 -0.00053767984060794187 0.013463707113133581 0 0.00020925345379766206 0.013180485077536105 0 -3.6916086214015714e-05 0.014103278557744727 0 8.9205018565078725e-05 0.013983589997498503 0 8.321324326934864e-05 0.014174745762539997 0 -0.00022050656637391473 0.01397361628217445 0 -2.3365181435028325e-05 0.012466354297745546 0 -0.00054608853267984416 0.013567251031229586 0 -9.2845668950281531e-05 0.012290892575761025 0 -0.00073841959137324457 0.012984526030884265 0 2.8074450669026995e-05 0.012700548222174724 0 -0.00027129354357961614 0.012281874331389012 0 -0.0002716618831009419 0.013697160455088606 0 0.00020925345379766206 0.013180485077536105 0 0.00025202839377804208 0.013240214126762099 0 -6.7199995824382798e-05 0.01204868938438851 0 -5.6706801693852778e-05 0.012063356756734384 0 -1.8668754083744502e-05 0.012029752895985832 0 -9.2845668950281531e-05 0.012290892575761025 0 -3.5976174442958418e-06 0.011718873545767561 0 -9.2845668950281531e-05 0.012290892575761025 0 -2.3365181435028325e-05 0.012466354297745546 0 -0.00018595698632303616 0.011177428836911663 0 -0.00019354217105420471 0.011206152583715517 0 -0.00014527574631916824 0.011231848159612303 0 -9.2845668950281531e-05 0.012290892575761025 0 -0.00034167459798047729 0.012021746580542609 0 -0.00019354217105420471 0.011206152583715517 0 -0.00014527574631916824 0.011231848159612303 0 -0.00020256122126554953 0.011228689881696072 0 -0.00018595698632303616 0.011177428836911663 0 -0.00019354217105420471 0.011206152583715517 0 -0.00021241065603977918 0.011185164400028242 0 -0.00037674646787498286 0.014653713194051555 0 -0.00016772238933952484 0.014256626330128964 0 -0.00041678602310804883 0.013960989927853886 0 -0.00054608853267984416 0.013567251031229586 0 -0.00034167459798047729 0.012021746580542609 0 -0.00037674646787498286 0.014653713194051555 0 -0.00031428841874179159 0.014707564957770033 0 -0.00016772238933952484 0.014256626330128964 0 -0.00051961881936622278 0.014078977920730136 0 -0.00037527254246954851 0.013735539056164592 0 -0.00050980617390693434 0.013583847366045234 0 -0.00053860885968563398 0.013055465333963632 0 -9.3081639949768239e-05 0.012956188948318603 0 -0.00050980617390693434 0.013583847366045234 0 -0.0006432700082830299 0.013633292284044189 0 -0.00053860885968563398 0.013055465333963632 0 -0.00037527254246954851 0.013735539056164592 0 -0.00037542086336295915 0.012626320599788549 0 -0.00016772238933952484 0.014256626330128964 0 -7.0289458094126452e-05 0.01373646180074963 0 -0.00041678602310804883 0.013960989927853886 0 -0.00053860885968563398 0.013055465333963632 0 -0.00043357783021999164 0.012481275306704438 0 -9.3081639949768239e-05 0.012956188948318603 0 -0.00058333483835936177 0.011710231632127859 0 -0.00054682990478976306 0.011718802505190124 0 -0.0005507786535212403 0.011685060135296728 0 -7.0289458094126452e-05 0.01373646180074963 0 -0.00022478693713955469 0.013520344978919687 0 -0.00041678602310804883 0.013960989927853886 0 -0.00014527574631916824 0.011231848159612303 0 -0.00021834274084036055 0.011345434124618244 0 -0.00022245456766138141 0.011300512024252706 0 -0.00034167459798047729 0.012021746580542609 0 -0.00030122593208093578 0.011371295081508149 0 -0.00052803851752082111 0.011785680185976326 0 -0.00049665012401269211 0.011674229512302382 0 -0.00052506321906904479 0.011694498800923974 0 -0.00052803851752082111 0.011785680185976326 0 -0.00054682990478976306 0.011718802505190124 0 -0.00052506321906904479 0.011694498800923974 0 -0.00052803851752082111 0.011785680185976326 0 -0.00049665012401269211 0.011674229512302382 0 -0.00045840974615484826 0.011663515677032651 0 -0.00014527574631916824 0.011231848159612303 0 -0.00022224748239296264 0.01125920579279439 0 -0.00022245456766138141 0.011300512024252706 0 -0.00014527574631916824 0.011231848159612303 0 -0.00022224748239296264 0.01125920579279439 0 -0.00020256122126554953 0.011228689881696072 0 -0.00037542086336295915 0.012626320599788549 0 -0.00034167459798047729 0.012021746580542609 0 -0.00058333483835936177 0.011710231632127859 0 -0.00052803851752082111 0.011785680185976326 0 -0.00054682990478976306 0.011718802505190124 0 -0.00046790484042012607 0.01155627892062165 0 -0.00043368569068475099 0.011891689503759122 0 -0.00048164817349887043 0.011595490805493424 0 -0.00052265808215846336 0.011653248506967794 0 -0.00057056239252827403 0.011646890810360142 0 -0.00049665012401269211 0.011674229512302382 0 -0.00045840974615484826 0.011663515677032651 0 -0.0004774187836006161 0.011646473222304686 0 -0.00049665012401269211 0.011674229512302382 0 -0.00052506321906904479 0.011694498800923974 0 -0.00052265808215846336 0.011653248506967794 0 -0.0005507786535212403 0.011685060135296728 0 -0.00052265808215846336 0.011653248506967794 0 -0.00057056239252827403 0.011646890810360142 0 -0.00052506321906904479 0.011694498800923974 0 -0.0005507786535212403 0.011685060135296728 0 -0.00052265808215846336 0.011653248506967794 0 -0.00054682990478976306 0.011718802505190124 0 -0.00052506321906904479 0.011694498800923974 0 -0.0005507786535212403 0.011685060135296728 0 -0.00048164817349887043 0.011595490805493424 0 -0.00052265808215846336 0.011653248506967794 0 -0.0004900904622135696 0.011635420555317659 0 -0.00048164817349887043 0.011595490805493424 0 -0.0004900904622135696 0.011635420555317659 0 -0.00046574785175532705 0.011612991778706573 0 -0.00049665012401269211 0.011674229512302382 0 -0.00052265808215846336 0.011653248506967794 0 -0.0004900904622135696 0.011635420555317659 0 -0.00049665012401269211 0.011674229512302382 0 -0.0004900904622135696 0.011635420555317659 0 -0.0004774187836006161 0.011646473222304686 0 -0.00042483486532870471 0.012478581197761587 0 -0.00056274547632152001 0.012285183942245393 0 -0.00036865821771259953 0.012166160460709516 0 -0.00037542086336295915 0.012626320599788549 0 -0.00048029361147141069 0.012410976552710279 0 -0.00058333483835936177 0.011710231632127859 0 -0.0005507786535212403 0.011685060135296728 0 -0.00057056239252827403 0.011646890810360142 0 -0.00037542086336295915 0.012626320599788549 0 -0.00043368569068475099 0.011891689503759122 0 -0.00048029361147141069 0.012410976552710279 0 -0.00043368569068475099 0.011891689503759122 0 -0.00060078299528697632 0.012016348112726716 0 -0.00057557629165358752 0.012166387021533148 0 -0.00048307615870523237 0.012132697079258232 0 -0.00077709215394620784 0.011927024558102553 0 -0.00048029361147141069 0.012410976552710279 0 -0.0007227167344312364 0.01199298463872441 0 -0.00063755521975772118 0.012265923710484026 0 -0.00077360513123649857 0.012220676965420268 0 -0.00063755521975772118 0.012265923710484026 0 -0.00077360513123649857 0.012220676965420268 0 -0.00076602928724246104 0.012236788777159261 0 -0.00037457720376185322 0.012894847945025968 0 -0.00050807174509667839 0.013887228505347429 0 -0.00077360513123649857 0.012220676965420268 0 -0.00063609876989133838 0.012320587371695673 0 -0.00076602928724246104 0.012236788777159261 0 -0.00050280071909625755 0.014414354315292451 0 -7.9465925882929515e-05 0.013679474676152648 0 0.00024440674774467658 0.014439347769312031 0 -0.00028503005104317931 0.014840577156087597 0 -0.00050807174509667839 0.013887228505347429 0 -0.00022478693713955469 0.013520344978919687 0 -0.00085962187697259413 0.013920150454150283 0 -0.00041678602310804883 0.013960989927853886 0 -0.00048029361147141069 0.012410976552710279 0 -0.00050807174509667839 0.013887228505347429 0 6.7588098993229381e-06 0.024998765486756086 0 2.3532151878177012e-09 0.025000013299979456 0 1.7522771751033023e-05 0.025003688917403816 0 6.7588098993229381e-06 0.024998765486756086 0 2.3532151878177012e-09 0.025000013299979456 0 1.8134991068374734e-09 0.024999992348139849 0 2.6693636386146439e-08 0.025000003078993152 0 -2.1169539503059845e-05 0.024996014282059505 0 6.7588098993229381e-06 0.024998765486756086 0 1.7522771751033023e-05 0.025003688917403816 0 2.0102910428062514e-05 0.02497606339886755 0 1.7522771751033023e-05 0.025003688917403816 0 2.0102910428062514e-05 0.02497606339886755 0 4.9954338074475719e-05 0.0249948164630261 0 2.0102910428062514e-05 0.02497606339886755 0 1.8134991068374734e-09 0.024999992348139849 0 5.219349971142548e-09 0.024999974205849349 0 6.7588098993229381e-06 0.024998765486756086 0 2.0102910428062514e-05 0.02497606339886755 0 1.8134991068374734e-09 0.024999992348139849 0 2.7456707601146438e-05 0.024967636266560934 0 -4.6171024280579635e-09 0.024999953966846199 0 1.8355750569020245e-05 0.02495278104671687 0 2.447686737463475e-05 0.024972879883179797 0 2.1714987440480453e-09 0.02499998736203719 0 3.5624563129166124e-05 0.024916730499921668 0 2.222138293300473e-08 0.024999907799416264 0 1.8355750569020245e-05 0.02495278104671687 0 2.222138293300473e-08 0.024999907799416264 0 -4.6171024280579635e-09 0.024999953966846199 0 1.8355750569020245e-05 0.02495278104671687 0 3.5624563129166124e-05 0.024916730499921668 0 1.8355750569020245e-05 0.02495278104671687 0 5.7516783608652192e-05 0.024870502456360733 0 2.7456707601146438e-05 0.024967636266560934 0 1.8355750569020245e-05 0.02495278104671687 0 5.3642364717381159e-05 0.024940946113704367 0 5.3642364717381159e-05 0.024940946113704367 0 5.7516783608652192e-05 0.024870502456360733 0 8.2115488348220676e-05 0.024926085498516756 0 1.8355750569020245e-05 0.02495278104671687 0 5.3642364717381159e-05 0.024940946113704367 0 5.7516783608652192e-05 0.024870502456360733 0 5.7516783608652192e-05 0.024870502456360733 0 9.2270717453349561e-05 0.024781932024615875 0 8.7356002082327985e-05 0.024836722942737456 0 9.1004989381115309e-05 0.024763301725600644 0 5.7516783608652192e-05 0.024870502456360733 0 9.2270717453349561e-05 0.024781932024615875 0 2.0260951611561183e-05 0.024828474743199099 0 0.00017828763824338515 0.024998418500102811 0 9.2270717453349561e-05 0.024781932024615875 0 8.7356002082327985e-05 0.024836722942737456 0 0.00015537809958024692 0.024814221282104205 0 5.3642364717381159e-05 0.024940946113704367 0 8.2115488348220676e-05 0.024926085498516756 0 7.9128849793070539e-05 0.024945027471640551 0 8.2115488348220676e-05 0.024926085498516756 0 7.9128849793070539e-05 0.024945027471640551 0 9.2695140697786381e-05 0.02494416141974359 0 0.00017828763824338515 0.024998418500102811 0 6.7186638428685681e-05 0.023809951520046658 0 5.3642364717381159e-05 0.024940946113704367 0 7.9128849793070539e-05 0.024945027471640551 0 6.7258609714973794e-05 0.024963666496046154 0 6.7258609714973794e-05 0.024963666496046154 0 8.2725414035218794e-05 0.024979049550841268 0 9.2695140697786381e-05 0.02494416141974359 0 7.9128849793070539e-05 0.024945027471640551 0 6.7258609714973794e-05 0.024963666496046154 0 9.2695140697786381e-05 0.02494416141974359 0 2.0102910428062514e-05 0.02497606339886755 0 6.7258609714973794e-05 0.024963666496046154 0 4.9954338074475719e-05 0.0249948164630261 0 2.447686737463475e-05 0.024972879883179797 0 6.4848666381278364e-05 0.024966179687019079 0 2.7456707601146438e-05 0.024967636266560934 0 5.3642364717381159e-05 0.024940946113704367 0 6.7258609714973794e-05 0.024963666496046154 0 -2.1169539503059845e-05 0.024996014282059505 0 0.00012024319223237946 0.025106094335348036 0 6.7258609714973794e-05 0.024963666496046154 0 4.9954338074475719e-05 0.0249948164630261 0 8.2725414035218794e-05 0.024979049550841268 0 0.00012024319223237946 0.025106094335348036 0 -0.0006221335790469846 0.023434660502871109 0 -0.0018671781194997514 0.018915096931075424 0 -0.0022883045309855347 0.018410856665207757 0 -0.0020371195660092772 0.019354214289297789 0 -0.0014036444246796 0.022555997430690176 0 -0.00083332238157737652 0.022512150030805013 0 -0.00063979906036190214 0.022744644331319595 0 -0.0017637218930407655 0.020184354360050942 0 -0.0016757146912330077 0.020424641688570118 0 -0.0011850862741540431 0.021660463999058108 0 -0.0010580684083456721 0.021486211316884447 0 -0.0013251271974919661 0.02149439280224787 0 -0.0011850862741540431 0.021660463999058108 0 -0.0010580684083456721 0.021486211316884447 0 -0.0011502616171188641 0.021701360395671433 0 -0.0006221335790469846 0.023434660502871109 0 -0.0016757146912330077 0.020424641688570118 0 -0.003524444994593414 0.016949022416412683 0 -0.0023676790976383719 0.018657497182459674 0 -0.0022883045309855347 0.018410856665207757 0 -0.0029672943900410898 0.018448341408773342 0 -0.0020371195660092772 0.019354214289297789 0 -0.0016757146912330077 0.020424641688570118 0 -0.001531505679463901 0.021402994077046881 0 -0.002223634762428082 0.01943314742028374 0 -0.0022652058920217318 0.019283535232774179 0 -0.0021144134094410144 0.019346811724825934 0 -0.0019849961434099134 0.01929901211906657 0 -0.0025689678796504598 0.019326151444546226 0 -0.0022205814162288987 0.019016266234817468 0 -0.0016757146912330077 0.020424641688570118 0 -0.003524444994593414 0.016949022416412683 0 -0.003524444994593414 0.016949022416412683 0 -0.001531505679463901 0.021402994077046881 0 -0.0045140201378689451 0.014675288745903707 0 -0.0045657355260300177 0.013995832038903502 0 -0.0050625492695933628 0.014146910417572215 0 -0.0010580684083456721 0.021486211316884447 0 -0.0011502616171188641 0.021701360395671433 0 -0.0010939627189784748 0.02194064788991882 0 -0.0006221335790469846 0.023434660502871109 0 6.7186638428685681e-05 0.023809951520046658 0 9.0198182391929772e-05 0.022915076351941316 0 0.00043027700700901968 0.023243751232254313 0 0.00017202781654573096 0.023527573908787843 0 -0.0023676790976383719 0.018657497182459674 0 6.7186638428685681e-05 0.023809951520046658 0 -0.0012373874986121426 0.021799752489265124 0 -0.0011502616171188641 0.021701360395671433 0 -0.0010939627189784748 0.02194064788991882 0 -0.0011849280626441432 0.021657831989058227 0 -0.0012373874986121426 0.021799752489265124 0 -0.0011502616171188641 0.021701360395671433 0 -0.0017637218930407655 0.020184354360050942 0 -0.0023676790976383719 0.018657497182459674 0 -0.0017637218930407655 0.020184354360050942 0 -0.0015321685254257196 0.020527415158332278 0 8.7356002082327985e-05 0.024836722942737456 0 0.00014228095683253741 0.024876941288642006 0 0.00015537809958024692 0.024814221282104205 0 6.7186638428685681e-05 0.023809951520046658 0 0.00023396058278792102 0.024441533943695345 0 0.00043027700700901968 0.023243751232254313 0 0.00017202781654573096 0.023527573908787843 0 0.00032820930395143448 0.024000145018085013 0 0.00017202781654573096 0.023527573908787843 0 0.00032820930395143448 0.024000145018085013 0 -0.00017765226055561499 0.023915919653154313 0 0.00017137029343364669 0.024564578216778571 0 0.00023396058278792102 0.024441533943695345 0 0.00014389877532263123 0.024602504838723852 0 9.2270717453349561e-05 0.024781932024615875 0 0.00015537809958024692 0.024814221282104205 0 0.00014389877532263123 0.024602504838723852 0 0.00032820930395143448 0.024000145018085013 0 1.4467887798782295e-05 0.024267086598365611 0 -0.00016667871426513783 0.024490816530847611 0 1.4467887798782295e-05 0.024267086598365611 0 -0.00017765226055561499 0.023915919653154313 0 -0.0024000505594227056 0.018671350052118445 0 -0.0024558607668577746 0.018568111959537354 0 0.00032820930395143448 0.024000145018085013 0 1.4467887798782295e-05 0.024267086598365611 0 -0.00017765226055561499 0.023915919653154313 0 -0.0045657355260300177 0.013995832038903502 0 -0.0047683801377928058 0.013344764700413304 0 -0.0041877582010023291 0.013748105552173038 0 -0.0023676790976383719 0.018657497182459674 0 -0.0024558607668577746 0.018568111959537354 0 9.0198182391929772e-05 0.022915076351941316 0 0.00017202781654573096 0.023527573908787843 0 -0.00017765226055561499 0.023915919653154313 0 -0.0045657355260300177 0.013995832038903502 0 -0.0050625492695933628 0.014146910417572215 0 -0.0047683801377928058 0.013344764700413304 0 -0.0047683801377928058 0.013344764700413304 0 -0.0041877582010023291 0.013748105552173038 0 -0.0041227032248307652 0.013218709429691736 0 -0.0041877582010023291 0.013748105552173038 0 -0.0041227032248307652 0.013218709429691736 0 -0.0037943319461225546 0.013604304857965027 0 -0.0044682360226910951 0.012597624478600319 0 -0.0041227032248307652 0.013218709429691736 0 -0.0037983847439733518 0.012824544610809424 0 -0.0044682360226910951 0.012597624478600319 0 -0.0047683801377928058 0.013344764700413304 0 -0.0041227032248307652 0.013218709429691736 0 -0.0032503657212992875 0.012917377256214337 0 -0.0037983847439733518 0.012824544610809424 0 -0.0036765765569158055 0.013215784448089204 0 -0.0034986083126411966 0.012455891360579048 0 -0.0032503657212992875 0.012917377256214337 0 -0.0037983847439733518 0.012824544610809424 0 -0.0041227032248307652 0.013218709429691736 0 -0.0037983847439733518 0.012824544610809424 0 -0.0036765765569158055 0.013215784448089204 0 -0.003426312717298978 0.013528580819367822 0 -0.0036765765569158055 0.013215784448089204 0 -0.0037943319461225546 0.013604304857965027 0 -0.0041227032248307652 0.013218709429691736 0 -0.0036765765569158055 0.013215784448089204 0 -0.0037943319461225546 0.013604304857965027 0 -0.0041877582010023291 0.013748105552173038 0 -0.0037943319461225546 0.013604304857965027 0 -0.0038405793260236328 0.013900132220752769 0 -0.003426312717298978 0.013528580819367822 0 -0.0037943319461225546 0.013604304857965027 0 -0.0034540516183759443 0.013972709475704101 0 -0.0034540516183759443 0.013972709475704101 0 -0.0037479134136990935 0.014135461926063436 0 -0.0038405793260236328 0.013900132220752769 0 -0.0037943319461225546 0.013604304857965027 0 -0.0034540516183759443 0.013972709475704101 0 -0.0038405793260236328 0.013900132220752769 0 -0.0032766494197933949 0.013951706785726228 0 -0.0037479134136990935 0.014135461926063436 0 -0.003439266152443761 0.014980999680713029 0 -0.0031752157966125441 0.013513582270597964 0 -0.0037365656570875622 0.013971551807933316 0 -0.0037479134136990935 0.014135461926063436 0 -0.003975589805891782 0.014106395469795918 0 -0.0039657613787331524 0.01459972871352937 0 -0.0037479134136990935 0.014135461926063436 0 -0.0038405793260236328 0.013900132220752769 0 -0.003975589805891782 0.014106395469795918 0 -0.0041877582010023291 0.013748105552173038 0 -0.0043112732351956798 0.014132914373063309 0 -0.003975589805891782 0.014106395469795918 0 -0.0045140201378689451 0.014675288745903707 0 -0.0043112732351956798 0.014132914373063309 0 -0.003975589805891782 0.014106395469795918 0 -0.0045140201378689451 0.014675288745903707 0 -0.0045657355260300177 0.013995832038903502 0 -0.0043112732351956798 0.014132914373063309 0 -0.0041877582010023291 0.013748105552173038 0 -0.0038405793260236328 0.013900132220752769 0 -0.003975589805891782 0.014106395469795918 0 -0.0045657355260300177 0.013995832038903502 0 -0.0041877582010023291 0.013748105552173038 0 -0.0043112732351956798 0.014132914373063309 0 -0.004761981498840921 0.014879829474439351 0 -0.003975589805891782 0.014106395469795918 0 -0.0046229694755524292 0.014869347993836953 0 -0.003524444994593414 0.016949022416412683 0 -0.0040913630898214183 0.013680312753466452 0 -0.003975589805891782 0.014106395469795918 0 -0.0046229694755524292 0.014869347993836953 0 -0.0039657613787331524 0.01459972871352937 0 -0.0046229694755524292 0.014869347993836953 0 -0.0040402543654331534 0.014926037475075139 0 -0.0039657613787331524 0.01459972871352937 0 -0.0047603516594498293 0.014878516778989999 0 -0.0046229694755524292 0.014869347993836953 0 -0.0041895716727021019 0.015432808844621261 0 -0.003524444994593414 0.016949022416412683 0 -0.0031389766880821311 0.017480906573601955 0 -0.003524444994593414 0.016949022416412683 0 -0.0038274244311757252 0.016787905899981009 0 -0.0046229694755524292 0.014869347993836953 0 -0.0040402543654331534 0.014926037475075139 0 -0.0041895716727021019 0.015432808844621261 0 -0.0040402543654331534 0.014926037475075139 0 -0.003439266152443761 0.014980999680713029 0 -0.0041895716727021019 0.015432808844621261 0 -0.0040402543654331534 0.014926037475075139 0 -0.003439266152443761 0.014980999680713029 0 -0.0039657613787331524 0.01459972871352937 0 -0.0037479134136990935 0.014135461926063436 0 -0.003439266152443761 0.014980999680713029 0 -0.0039657613787331524 0.01459972871352937 0 -0.0031752157966125441 0.013513582270597964 0 -0.0032165860234200767 0.014051369658147014 0 -0.0023064706843380607 0.014204125747301271 0 -0.0030060909455414116 0.013473496624587735 0 -0.0032108810288063163 0.014439171156314906 0 -0.003439266152443761 0.014980999680713029 0 -0.0041895716727021019 0.015432808844621261 0 -0.0036097409018168536 0.015992943053241154 0 -0.0032165860234200767 0.014051369658147014 0 -0.0030710262500336389 0.015934990500015945 0 -0.0031389766880821311 0.017480906573601955 0 -0.0030710262500336389 0.015934990500015945 0 -0.0024019133406069496 0.019260490119454989 0 -0.0023193518394310081 0.019091234809325858 0 -0.0025876510584367626 0.019076938819427205 0 -0.002223634762428082 0.01943314742028374 0 -0.0024019133406069496 0.019260490119454989 0 -0.0022652058920217318 0.019283535232774179 0 -0.0024019133406069496 0.019260490119454989 0 -0.0022652058920217318 0.019283535232774179 0 -0.0023193518394310081 0.019091234809325858 0 -0.00028814103905613176 0.024616299084169242 0 -0.00063193216812218477 0.024472799056841538 0 -0.00030165413365133625 0.024512935201009087 0 -0.00028814103905613176 0.024616299084169242 0 -0.00030165413365133625 0.024512935201009087 0 -0.00029188942998672015 0.024600464753888072 0 -0.00097880867493072682 0.022395926528680239 0 -0.0024273130283129418 0.018896426384263851 0 -0.0030710262500336389 0.015934990500015945 0 -0.0024273130283129418 0.018896426384263851 0 -0.002507962877861163 0.015162112401047373 0 -0.0032488053146829191 0.014491516396529163 0 -0.0034052156142821218 0.015299560736924251 0 -0.0023193518394310081 0.019091234809325858 0 -0.0025876510584367626 0.019076938819427205 0 -0.0025389516644512391 0.018821179444026042 0 -0.0027875380656145758 0.014716663449277035 0 -0.0030710262500336389 0.015934990500015945 0 -0.0032291623276796862 0.014992649397016699 0 -0.0024273130283129418 0.018896426384263851 0 -0.0025857384302103077 0.016300666330334012 0 -0.0032517521778066866 0.015583275757333415 0 -0.0034713659060618299 0.016615129832953653 0 -0.0024273130283129418 0.018896426384263851 0 -0.0019837481477455133 0.020079633982604397 0 -0.00063193216812218477 0.024472799056841538 0 -0.00060093060923786269 0.023389158079957052 0 -0.00042579531530606172 0.023962087468409322 0 -0.00017700001805545773 0.023429246419738828 0 -0.00060093060923786269 0.023389158079957052 0 -0.00042579531530606172 0.023962087468409322 0 -0.00018882924459964314 0.024094724535037061 0 -0.00029454824878093932 0.024484573272082834 0 -0.00025166033950331382 0.024731059943838115 0 -0.00030165413365133625 0.024512935201009087 0 -0.00030397596853711266 0.024651007415196588 0 -0.00017700001805545773 0.023429246419738828 0 -0.00042579531530606172 0.023962087468409322 0 -0.00030165413365133625 0.024512935201009087 0 -0.00063193216812218477 0.024472799056841538 0 -0.00042579531530606172 0.023962087468409322 0 -0.00030165413365133625 0.024512935201009087 0 -0.00030165413365133625 0.024512935201009087 0 -0.00029947022187295038 0.024600872180798046 0 -0.00030397596853711266 0.024651007415196588 0 -0.00029947022187295038 0.024600872180798046 0 -0.00030397596853711266 0.024651007415196588 0 -0.00032499665717754012 0.02467560869048235 0 -0.00030397596853711266 0.024651007415196588 0 -0.00031293438806878572 0.024702327524131765 0 -0.00032499665717754012 0.02467560869048235 0 -0.00025166033950331382 0.024731059943838115 0 -0.00030397596853711266 0.024651007415196588 0 -0.0002999012554685158 0.024710990666508059 0 -0.00030397596853711266 0.024651007415196588 0 -0.00031293438806878572 0.024702327524131765 0 -0.0002999012554685158 0.024710990666508059 0 -0.00031293438806878572 0.024702327524131765 0 -0.0002999012554685158 0.024710990666508059 0 -0.00030720426848885956 0.024732941456941111 0 -0.0002999012554685158 0.024710990666508059 0 -0.00030720426848885956 0.024732941456941111 0 -0.00028915118622128446 0.024740964961151735 0 -0.00025166033950331382 0.024731059943838115 0 -0.0002999012554685158 0.024710990666508059 0 -0.00028915118622128446 0.024740964961151735 0 -0.00030720426848885956 0.024732941456941111 0 -0.00029444899243303468 0.024767788980551233 0 -0.0003011286961767475 0.024750672270847443 0 -0.00030720426848885956 0.024732941456941111 0 -0.00030541314709739496 0.024742329887411731 0 -0.00029444899243303468 0.024767788980551233 0 -0.00031293438806878572 0.024702327524131765 0 -0.00030720426848885956 0.024732941456941111 0 -0.00030541314709739496 0.024742329887411731 0 -0.00032499665717754012 0.02467560869048235 0 -0.00036344783150039217 0.024633242153886344 0 -0.00047371027547320985 0.024675303123544157 0 -0.00030541314709739496 0.024742329887411731 0 -0.00032499665717754012 0.02467560869048235 0 -0.00025949551200279172 0.024829092879581696 0 -0.00031293438806878572 0.024702327524131765 0 -0.00030541314709739496 0.024742329887411731 0 -0.00032499665717754012 0.02467560869048235 0 -0.00036344783150039217 0.024633242153886344 0 -0.00038536541981413634 0.024592720012092773 0 -0.00032649911666461396 0.024604573367996308 0 -0.00036344783150039217 0.024633242153886344 0 -0.00038764647289099287 0.024603691382035116 0 -0.00038536541981413634 0.024592720012092773 0 -0.0006618758181979518 0.024592800851394824 0 -0.00067495589804570885 0.024595214441223694 0 -0.00032499665717754012 0.02467560869048235 0 -0.00036344783150039217 0.024633242153886344 0 -0.00032649911666461396 0.024604573367996308 0 -0.00029947022187295038 0.024600872180798046 0 -0.00032499665717754012 0.02467560869048235 0 -0.00032649911666461396 0.024604573367996308 0 -0.00029947022187295038 0.024600872180798046 0 -0.00032649911666461396 0.024604573367996308 0 -0.00029188942998672015 0.024600464753888072 0 -0.00030165413365133625 0.024512935201009087 0 -0.00029947022187295038 0.024600872180798046 0 -0.00029188942998672015 0.024600464753888072 0 -0.0022652058920217318 0.019283535232774179 0 -0.0023193518394310081 0.019091234809325858 0 -0.0021144134094410144 0.019346811724825934 0 -0.00028814103905613176 0.024616299084169242 0 -0.00029188942998672015 0.024600464753888072 0 -0.00031053844388665314 0.024510335100127855 0 -0.00097880867493072682 0.022395926528680239 0 -0.001531505679463901 0.021402994077046881 0 -0.00032649911666461396 0.024604573367996308 0 -0.00029188942998672015 0.024600464753888072 0 -0.00031053844388665314 0.024510335100127855 0 -0.0014036444246796 0.022555997430690176 0 -0.001497096232542618 0.023578646046727113 0 -0.00063979906036190214 0.022744644331319595 0 -0.0006221335790469846 0.023434660502871109 0 -0.00067495589804570885 0.024595214441223694 0 -0.00038536541981413634 0.024592720012092773 0 -0.00032649911666461396 0.024604573367996308 0 -0.00031053844388665314 0.024510335100127855 0 -0.00067495589804570885 0.024595214441223694 0 -0.001531505679463901 0.021402994077046881 0 -6.499911857658321e-05 0.02498891615246503 0 -6.0836136308057992e-05 0.0249764422986339 0 -4.719020261845328e-05 0.024986466566021281 0 -4.0833442628938629e-05 0.02500032249001833 0 -6.499911857658321e-05 0.02498891615246503 0 -4.719020261845328e-05 0.024986466566021281 0 -4.0833442628938629e-05 0.02500032249001833 0 -4.719020261845328e-05 0.024986466566021281 0 -2.9618619915278233e-05 0.024988145348790024 0 -1.6387813876687972e-05 0.025005089693712238 0 -4.0833442628938629e-05 0.02500032249001833 0 -2.9618619915278233e-05 0.024988145348790024 0 -4.719020261845328e-05 0.024986466566021281 0 -2.9618619915278233e-05 0.024988145348790024 0 -4.3100561721460962e-05 0.024969093509937899 0 -2.9618619915278233e-05 0.024988145348790024 0 -4.3100561721460962e-05 0.024969093509937899 0 -1.758708863310362e-05 0.024978653650355547 0 -0.00067495589804570885 0.024595214441223694 0 -0.00021989781532242336 0.024850487788508346 0 -0.00038764647289099287 0.024603691382035116 0 -0.00038669483797718122 0.024592734245932064 0 -0.00047371027547320985 0.024675303123544157 0 -6.0836136308057992e-05 0.0249764422986339 0 -4.719020261845328e-05 0.024986466566021281 0 -4.3100561721460962e-05 0.024969093509937899 0 -0.00036344783150039217 0.024633242153886344 0 -0.00038764647289099287 0.024603691382035116 0 -0.00047371027547320985 0.024675303123544157 0 -0.00038115224556764505 0.024660444835076255 0 -0.00021989781532242336 0.024850487788508346 0 -0.00030541314709739496 0.024742329887411731 0 -0.00027026707982349951 0.024801035823974266 0 -0.00025949551200279172 0.024829092879581696 0 -0.00030541314709739496 0.024742329887411731 0 -0.00027026707982349951 0.024801035823974266 0 -0.00029444899243303468 0.024767788980551233 0 -0.00027026707982349951 0.024801035823974266 0 -0.00029444899243303468 0.024767788980551233 0 -0.00023443322123989965 0.024814951932969627 0 -0.00023443322123989965 0.024814951932969627 0 -0.00014295712434732005 0.024907266625933743 0 -0.00017534813394525962 0.024845395979823184 0 -0.00027026707982349951 0.024801035823974266 0 -0.00025949551200279172 0.024829092879581696 0 -0.00014295712434732005 0.024907266625933743 0 -0.00027026707982349951 0.024801035823974266 0 -0.00023443322123989965 0.024814951932969627 0 -0.00014295712434732005 0.024907266625933743 0 -0.00021989781532242336 0.024850487788508346 0 -0.00016816465679332223 0.024924473040939307 0 -0.00026081663998379597 0.02502430811556678 0 -0.00010674614883169833 0.025025878399735947 0 -0.00014295712434732005 0.024907266625933743 0 -0.00021989781532242336 0.024850487788508346 0 -5.1478895247639805e-05 0.025014085888602936 0 -0.00010674614883169833 0.025025878399735947 0 -0.00014295712434732005 0.024907266625933743 0 -4.6533207703032436e-05 0.024964723098305382 0 -0.00014295712434732005 0.024907266625933743 0 -4.6533207703032436e-05 0.024964723098305382 0 -7.5621655285843924e-05 0.02491340874472547 0 -0.00014295712434732005 0.024907266625933743 0 -0.00013737805012438548 0.024869207107039406 0 -7.5621655285843924e-05 0.02491340874472547 0 -0.00014295712434732005 0.024907266625933743 0 -0.00013737805012438548 0.024869207107039406 0 -0.00017534813394525962 0.024845395979823184 0 -5.1828211370378957e-08 0.024999911305493575 0 -4.6533207703032436e-05 0.024964723098305382 0 -1.2450858062162379e-08 0.025000085799635745 0 -5.1828211370378957e-08 0.024999911305493575 0 -4.6533207703032436e-05 0.024964723098305382 0 -3.1032945789533988e-05 0.024964539757985925 0 -4.6533207703032436e-05 0.024964723098305382 0 -3.1032945789533988e-05 0.024964539757985925 0 -7.5621655285843924e-05 0.02491340874472547 0 -0.00010674614883169833 0.025025878399735947 0 -4.6533207703032436e-05 0.024964723098305382 0 -1.2450858062162379e-08 0.025000085799635745 0 -5.1478895247639805e-05 0.025014085888602936 0 -3.9321948848920398e-08 0.024999996982669505 0 -1.758708863310362e-05 0.024978653650355547 0 -1.7949171779929437e-09 0.024999973534916696 0 -6.5069584730961418e-06 0.024993301842728501 0 -6.5088629426874776e-09 0.024999990596873592 0 -6.5069584730961418e-06 0.024993301842728501 0 -1.1438851309686603e-05 0.024995862755802466 0 -1.7949171779929437e-09 0.024999973534916696 0 -6.5088629426874776e-09 0.024999990596873592 0 -6.5069584730961418e-06 0.024993301842728501 0 -2.9618619915278233e-05 0.024988145348790024 0 -1.758708863310362e-05 0.024978653650355547 0 -1.1438851309686603e-05 0.024995862755802466 0 -1.758708863310362e-05 0.024978653650355547 0 -6.5069584730961418e-06 0.024993301842728501 0 -1.1438851309686603e-05 0.024995862755802466 0 -1.6387813876687972e-05 0.025005089693712238 0 -2.9618619915278233e-05 0.024988145348790024 0 -1.1438851309686603e-05 0.024995862755802466 0 -9.6022757284423534e-10 0.02500001786630085 0 -1.6387813876687972e-05 0.025005089693712238 0 -1.1438851309686603e-05 0.024995862755802466 0 -9.6022757284423534e-10 0.02500001786630085 0 -6.5088629426874776e-09 0.024999990596873592 0 -1.1438851309686603e-05 0.024995862755802466 0 1.8883501635681825e-10 0.02499997445873545 0 -5.946178975891971e-06 0.024992906965457442 0 -2.9211911549897525e-06 0.024981355263284336 0 1.8883501635681825e-10 0.02499997445873545 0 -5.946178975891971e-06 0.024992906965457442 0 -1.0525725752399885e-05 0.024988138068567315 0 -2.1176552659970636e-05 0.024881428173780553 0 -4.0600574663402765e-05 0.024798617794648897 0 -5.946178975891971e-06 0.024992906965457442 0 -4.9002594691886365e-06 0.024993532813853005 0 -1.5108292901623737e-05 0.024982760815956684 0 -5.946178975891971e-06 0.024992906965457442 0 -4.9002594691886365e-06 0.024993532813853005 0 -1.0525725752399885e-05 0.024988138068567315 0 -2.1176552659970636e-05 0.024881428173780553 0 -1.7750035202163526e-05 0.02495207874184718 0 -4.9002594691886365e-06 0.024993532813853005 0 -1.0525725752399885e-05 0.024988138068567315 0 -1.9197230092319007e-05 0.024957500839399765 0 1.8883501635681825e-10 0.02499997445873545 0 -1.0525725752399885e-05 0.024988138068567315 0 -1.9652133029563236e-08 0.024999973356911974 0 -1.9652133029563236e-08 0.024999973356911974 0 -1.1140570963266638e-05 0.024978356117828112 0 1.9130284214619737e-08 0.025000000023190173 0 -1.0525725752399885e-05 0.024988138068567315 0 -1.9652133029563236e-08 0.024999973356911974 0 -1.1140570963266638e-05 0.024978356117828112 0 3.2915635544360733e-08 0.024999866193785483 0 -7.5621655285843924e-05 0.02491340874472547 0 -0.0001568931677584549 0.024800910220289185 0 3.2915635544360733e-08 0.024999866193785483 0 -3.1032945789533988e-05 0.024964539757985925 0 -7.5621655285843924e-05 0.02491340874472547 0 -1.1140570963266638e-05 0.024978356117828112 0 1.9130284214619737e-08 0.025000000023190173 0 -3.2610314605317378e-05 0.024975979025405437 0 -1.1179225677209727e-05 0.0249830010418195 0 -9.8533439461615237e-05 0.024893302122226648 0 -5.1828211370378957e-08 0.024999911305493575 0 3.2915635544360733e-08 0.024999866193785483 0 -3.1032945789533988e-05 0.024964539757985925 0 -0.00013737805012438548 0.024869207107039406 0 -0.0001568931677584549 0.024800910220289185 0 -0.00017534813394525962 0.024845395979823184 0 -0.00013737805012438548 0.024869207107039406 0 -7.5621655285843924e-05 0.02491340874472547 0 -0.0001568931677584549 0.024800910220289185 0 -1.1140570963266638e-05 0.024978356117828112 0 -3.2610314605317378e-05 0.024975979025405437 0 -1.9197230092319007e-05 0.024957500839399765 0 -1.0525725752399885e-05 0.024988138068567315 0 -1.1140570963266638e-05 0.024978356117828112 0 -1.9197230092319007e-05 0.024957500839399765 0 -3.3256490579576096e-05 0.024761315384663564 0 -1.9197230092319007e-05 0.024957500839399765 0 -9.4282960909572943e-05 0.024853419623403934 0 -9.4282960909572943e-05 0.024853419623403934 0 -7.7825610723901363e-05 0.024920480374428254 0 -0.00013726361304544114 0.024873267726377841 0 -7.7825610723901363e-05 0.024920480374428254 0 -0.00012404026904401118 0.02491701299723021 0 -0.00013726361304544114 0.024873267726377841 0 -3.2610314605317378e-05 0.024975979025405437 0 -1.9197230092319007e-05 0.024957500839399765 0 -7.7825610723901363e-05 0.024920480374428254 0 -1.9197230092319007e-05 0.024957500839399765 0 -9.4282960909572943e-05 0.024853419623403934 0 -7.7825610723901363e-05 0.024920480374428254 0 -3.2610314605317378e-05 0.024975979025405437 0 -7.7825610723901363e-05 0.024920480374428254 0 -0.00012404026904401118 0.02491701299723021 0 -0.0001568931677584549 0.024800910220289185 0 -0.00025013922212926385 0.02478619478048219 0 -0.00029682711064676101 0.02474563466266445 0 -0.00023443322123989965 0.024814951932969627 0 -0.0001568931677584549 0.024800910220289185 0 -0.00025013922212926385 0.02478619478048219 0 -3.2610314605317378e-05 0.024975979025405437 0 -0.00012404026904401118 0.02491701299723021 0 -0.0001823988237924441 0.02488185528701169 0 -9.8533439461615237e-05 0.024893302122226648 0 -0.00023333265434529585 0.024813849985504823 0 -0.00023443322123989965 0.024814951932969627 0 -0.0001568931677584549 0.024800910220289185 0 -0.00017534813394525962 0.024845395979823184 0 -0.00012404026904401118 0.02491701299723021 0 -0.0001823988237924441 0.02488185528701169 0 -0.00023653559691723148 0.024806772418929847 0 -0.00029444899243303468 0.024767788980551233 0 -0.00023443322123989965 0.024814951932969627 0 -0.00025013922212926385 0.02478619478048219 0 -0.00029444899243303468 0.024767788980551233 0 -0.00025013922212926385 0.02478619478048219 0 -0.00029682711064676101 0.02474563466266445 0 -0.00012404026904401118 0.02491701299723021 0 -0.00018941518831376694 0.024865103724500383 0 -0.00026735670275666027 0.02490003317790639 0 -9.4282960909572943e-05 0.024853419623403934 0 -0.00013726361304544114 0.024873267726377841 0 -0.00017444139020369193 0.024815016521581371 0 -0.00016823265992165951 0.02486572390421703 0 -0.00018935660849632484 0.025026318950504334 0 -0.00012404026904401118 0.02491701299723021 0 -0.00013726361304544114 0.024873267726377841 0 -0.00018941518831376694 0.024865103724500383 0 -0.00018941518831376694 0.024865103724500383 0 -0.00017444139020369193 0.024815016521581371 0 -0.00024605721275801205 0.024816036938834447 0 -0.00013726361304544114 0.024873267726377841 0 -0.00018941518831376694 0.024865103724500383 0 -0.00017444139020369193 0.024815016521581371 0 -0.00017444139020369193 0.024815016521581371 0 -0.00020171937656257376 0.024742655559711477 0 -0.00024605721275801205 0.024816036938834447 0 -9.4282960909572943e-05 0.024853419623403934 0 -0.00017444139020369193 0.024815016521581371 0 -0.00012322093252393093 0.024759575782419458 0 -0.00017444139020369193 0.024815016521581371 0 -0.00012322093252393093 0.024759575782419458 0 -0.00020171937656257376 0.024742655559711477 0 -3.3256490579576096e-05 0.024761315384663564 0 -9.4282960909572943e-05 0.024853419623403934 0 -0.00012322093252393093 0.024759575782419458 0 -3.3256490579576096e-05 0.024761315384663564 0 -0.00010349887080518111 0.024693730522107042 0 -6.7628954131030366e-05 0.02463212529017016 0 -0.00012322093252393093 0.024759575782419458 0 -0.00010349887080518111 0.024693730522107042 0 -0.00016397188812928201 0.024686767406886495 0 -3.3256490579576096e-05 0.024761315384663564 0 -0.00012322093252393093 0.024759575782419458 0 -0.00010349887080518111 0.024693730522107042 0 -0.00010349887080518111 0.024693730522107042 0 -0.00016397188812928201 0.024686767406886495 0 -0.00012777997056192216 0.024637662700228071 0 -0.00016397188812928201 0.024686767406886495 0 -0.00020171937656257376 0.024742655559711477 0 -0.00022491713041777189 0.024674955833859608 0 -0.00012322093252393093 0.024759575782419458 0 -0.00016397188812928201 0.024686767406886495 0 -0.00020171937656257376 0.024742655559711477 0 -0.00024023889631191348 0.024842546590977357 0 -0.00045182899394913587 0.024279747545546741 0 -0.00028540696532758727 0.024728515713654822 0 -0.00022491713041777189 0.024674955833859608 0 -0.00027643087562174312 0.024615148770457347 0 -0.00020171937656257376 0.024742655559711477 0 -0.00028540696532758727 0.024728515713654822 0 -0.00022491713041777189 0.024674955833859608 0 -0.00028540696532758727 0.024728515713654822 0 -0.0003643727300575376 0.024615307520967442 0 -0.00042525876295762104 0.024710137635894351 0 -0.00028540696532758727 0.024728515713654822 0 -0.0003643727300575376 0.024615307520967442 0 -0.0002900095578652833 0.024507276319809441 0 -0.00092047723167258178 0.023561687705611772 0 -0.00092101529766498323 0.023559327845665383 0 -0.00091865947254221375 0.023561339525273513 0 -0.00064968675945701563 0.02408203542472238 0 -0.0011979576967543011 0.023631523194026803 0 -0.00033099096479341928 0.024809766860637437 0 -0.000426907076987366 0.02486413524545875 0 -0.00042525876295762104 0.024710137635894351 0 -0.00028540696532758727 0.024728515713654822 0 -0.00033099096479341928 0.024809766860637437 0 -0.00042525876295762104 0.024710137635894351 0 -0.00028540696532758727 0.024728515713654822 0 -0.00033099096479341928 0.024809766860637437 0 -0.00024605721275801205 0.024816036938834447 0 -0.00020171937656257376 0.024742655559711477 0 -0.00028540696532758727 0.024728515713654822 0 -0.00024605721275801205 0.024816036938834447 0 -0.00018941518831376694 0.024865103724500383 0 -0.00024605721275801205 0.024816036938834447 0 -0.00026735670275666027 0.02490003317790639 0 -0.0001823988237924441 0.02488185528701169 0 -0.00023653559691723148 0.024806772418929847 0 -0.00028657291884287648 0.024764340379105059 0 -0.00033099096479341928 0.024809766860637437 0 -0.00024605721275801205 0.024816036938834447 0 -0.00026735670275666027 0.02490003317790639 0 -0.00023333265434529585 0.024813849985504823 0 -0.00027999887557416363 0.024771620339421988 0 -0.00029682711064676101 0.02474563466266445 0 -0.00029710002937416495 0.024751280793349248 0 -0.00028657291884287648 0.024764340379105059 0 -0.00029682711064676101 0.02474563466266445 0 -0.00029710002937416495 0.024751280793349248 0 -0.0003011286961767475 0.024750672270847443 0 -0.00030720426848885956 0.024732941456941111 0 -0.00029710002937416495 0.024751280793349248 0 -0.0003011286961767475 0.024750672270847443 0 -0.00029444899243303468 0.024767788980551233 0 -0.00029682711064676101 0.02474563466266445 0 -0.0003011286961767475 0.024750672270847443 0 -0.00025166033950331382 0.024731059943838115 0 -0.00028915118622128446 0.024740964961151735 0 -0.00028657291884287648 0.024764340379105059 0 -0.00030720426848885956 0.024732941456941111 0 -0.00029710002937416495 0.024751280793349248 0 -0.00028915118622128446 0.024740964961151735 0 -0.00029710002937416495 0.024751280793349248 0 -0.00028915118622128446 0.024740964961151735 0 -0.00028657291884287648 0.024764340379105059 0 -0.00018935660849632484 0.025026318950504334 0 -0.00052380996634569452 0.023371831121196722 0 -0.00033099096479341928 0.024809766860637437 0 -0.00026735670275666027 0.02490003317790639 0 -0.000426907076987366 0.02486413524545875 0 -0.00023653559691723148 0.024806772418929847 0 -0.00028657291884287648 0.024764340379105059 0 -0.00029961258240969354 0.024748340466268327 0 -0.0020990427303276536 0.020458663962034478 0 -0.0014592856738063164 0.020567098533353423 0 -0.0023373815949028582 0.021825004913193728 0 -0.0011564080855452539 0.021954792405278749 0 -0.0014571044130467735 0.021905176808390211 0 -0.0013409252779265331 0.022983314316804219 0 -0.0019856189254347646 0.020663913243865822 0 -0.0023747850704307996 0.019617728268946383 0 -0.0019856189254347646 0.020663913243865822 0 -0.00052380996634569452 0.023371831121196722 0 -0.00018882924459964314 0.024094724535037061 0 -0.00052380996634569452 0.023371831121196722 0 -0.00025166033950331382 0.024731059943838115 0 -0.00028657291884287648 0.024764340379105059 0 -0.00029961258240969354 0.024748340466268327 0 -0.0019837481477455133 0.020079633982604397 0 -0.0019856189254347646 0.020663913243865822 0 -0.00017700001805545773 0.023429246419738828 0 -0.00060093060923786269 0.023389158079957052 0 -0.00012804706623328806 0.022154123024483205 0 -0.00060093060923786269 0.023389158079957052 0 -0.00040419434133640291 0.022102420862681969 0 -0.00012804706623328806 0.022154123024483205 0 -0.0034713659060618299 0.016615129832953653 0 -0.0036909606272023808 0.017814487445178849 0 -0.0029386218324541111 0.017341947465243399 0 -0.0025857384302103077 0.016300666330334012 0 -0.0034713659060618299 0.016615129832953653 0 -0.0029386218324541111 0.017341947465243399 0 -0.0036909606272023808 0.017814487445178849 0 -0.0029386218324541111 0.017341947465243399 0 -0.0032894131781721564 0.017878929000380479 0 -0.0029386218324541111 0.017341947465243399 0 -0.0032940224092519016 0.017860948742747618 0 -0.0022048913365490027 0.018043362418396807 0 -0.0026399725212043691 0.017399096590811122 0 -0.0023747850704307996 0.019617728268946383 0 -0.0011364061209172558 0.021680950986503401 0 -0.0016020422704904559 0.021780153425926107 0 -0.0012565455555817108 0.022064413158627841 0 -0.0011364061209172558 0.021680950986503401 0 -0.0012565455555817108 0.022064413158627841 0 -0.00079128723641546197 0.021662014095291046 0 -0.0012956042778383037 0.021330429192969368 0 -0.0011364061209172558 0.021680950986503401 0 -0.00075047018547104135 0.021582380629663434 0 -0.0012956042778383037 0.021330429192969368 0 -0.0011364061209172558 0.021680950986503401 0 -0.0016020422704904559 0.021780153425926107 0 -0.0010772137231137861 0.021963383584825968 0 -0.00079361140240062676 0.021692224041142499 0 -0.0014571044130467735 0.021905176808390211 0 -0.0013409252779265331 0.022983314316804219 0 -0.0015327610374607104 0.023255414760428989 0 -0.0019856189254347646 0.020663913243865822 0 -0.0015766368073553915 0.022489956718431035 0 -0.0023747850704307996 0.019617728268946383 0 -0.0015766368073553915 0.022489956718431035 0 -0.00052380996634569452 0.023371831121196722 0 -0.0011979576967543011 0.023631523194026803 0 -0.0015766368073553915 0.022489956718431035 0 -0.0011979576967543011 0.023631523194026803 0 -0.0014034070355207907 0.023015876465651664 0 -0.0013490743306502225 0.022938726254472384 0 -0.0013310928032501683 0.022592753282095975 0 -0.0011979576967543011 0.023631523194026803 0 -0.0012311565531265515 0.022517578350283087 0 -0.0016020422704904559 0.021780153425926107 0 -0.0012565455555817108 0.022064413158627841 0 -0.0017174484528767187 0.022467259261178821 0 -0.0015766368073553915 0.022489956718431035 0 -0.0012311565531265515 0.022517578350283087 0 -0.0010772137231137861 0.021963383584825968 0 -0.0012311565531265515 0.022517578350283087 0 -0.00087948324238058535 0.021931763858546224 0 -0.00085330857110626547 0.022120202348999946 0 -0.00071921831447633948 0.022008418576790145 0 -0.00085330857110626547 0.022120202348999946 0 -0.0007458128829442238 0.022306449671190304 0 -0.00071921831447633948 0.022008418576790145 0 -0.00086344595943909361 0.02222429080394249 0 -0.00085330857110626547 0.022120202348999946 0 -0.0007458128829442238 0.022306449671190304 0 -0.00086344595943909361 0.02222429080394249 0 -0.00085330857110626547 0.022120202348999946 0 -0.00093824191261120007 0.022201003353840291 0 -0.00085330857110626547 0.022120202348999946 0 -0.0010474624465021953 0.022150469945723714 0 -0.00093824191261120007 0.022201003353840291 0 -0.00087948324238058535 0.021931763858546224 0 -0.00085330857110626547 0.022120202348999946 0 -0.0010474624465021953 0.022150469945723714 0 -0.0010474624465021953 0.022150469945723714 0 -0.00093824191261120007 0.022201003353840291 0 -0.0010457194266881053 0.022251778357206081 0 -0.0012311565531265515 0.022517578350283087 0 -0.0011330924801597096 0.022210612053342696 0 -0.00086344595943909361 0.02222429080394249 0 -0.00093824191261120007 0.022201003353840291 0 -0.00089467163553768833 0.02231597858044157 0 -0.0012311565531265515 0.022517578350283087 0 -0.0011012762343265629 0.022427683296317787 0 -0.0010345546216303596 0.022120562031964369 0 -0.0010457194266881053 0.022251778357206081 0 -0.0010941468279556954 0.022379220635952029 0 -0.00094234496888269067 0.022403719393155372 0 -0.0011495516693427181 0.022777411923698688 0 -0.0010941468279556954 0.022379220635952029 0 -0.00093824191261120007 0.022201003353840291 0 -0.00089467163553768833 0.02231597858044157 0 -0.0010457194266881053 0.022251778357206081 0 -0.00089467163553768833 0.02231597858044157 0 -0.0010457194266881053 0.022251778357206081 0 -0.00094234496888269067 0.022403719393155372 0 -0.0010457194266881053 0.022251778357206081 0 -0.00094234496888269067 0.022403719393155372 0 -0.0010941468279556954 0.022379220635952029 0 -0.00089467163553768833 0.02231597858044157 0 -0.00094234496888269067 0.022403719393155372 0 -0.00085627701673606004 0.022421680022248047 0 -0.00089467163553768833 0.02231597858044157 0 -0.00085627701673606004 0.022421680022248047 0 -0.0007458128829442238 0.022306449671190304 0 -0.00082139899724309093 0.022217655144623955 0 -0.00083115170950264687 0.022447811858354903 0 -0.00085627701673606004 0.022421680022248047 0 -0.0007458128829442238 0.022306449671190304 0 -0.0007985527261342337 0.022524287805516633 0 -0.00089872031206788845 0.022134642499070739 0 -0.00087739816778478589 0.022380086866456133 0 -0.00074428011647460855 0.022246291377495307 0 -0.00086344595943909361 0.02222429080394249 0 -0.00089467163553768833 0.02231597858044157 0 -0.0007458128829442238 0.022306449671190304 0 -0.00080128979180691003 0.022621813599623064 0 -0.00087739816778478589 0.022380086866456133 0 -0.00076783785324175595 0.022521976624313551 0 -0.00081573503241182599 0.022599057605219113 0 -0.00083115170950264687 0.022447811858354903 0 -0.00087739816778478589 0.022380086866456133 0 -0.00076783785324175595 0.022521976624313551 0 -0.00071246649051261396 0.022461666255628818 0 -0.00080128979180691003 0.022621813599623064 0 -0.0007985527261342337 0.022524287805516633 0 -0.00084388394368221876 0.022579112418836558 0 -0.00083321509980890918 0.022642776723636057 0 -0.00084388394368221876 0.022579112418836558 0 -0.00089807316552621501 0.022588099998843314 0 -0.00080128979180691003 0.022621813599623064 0 -0.00083321509980890918 0.022642776723636057 0 -0.00084388394368221876 0.022579112418836558 0 -0.00084388394368221876 0.022579112418836558 0 -0.00087128252830814433 0.022515265060269147 0 -0.00089807316552621501 0.022588099998843314 0 -0.00094234496888269067 0.022403719393155372 0 -0.00087128252830814433 0.022515265060269147 0 -0.00089807316552621501 0.022588099998843314 0 -0.00094896909777581059 0.022454973667832882 0 -0.0010021733265816537 0.022735198067311443 0 -0.0007985527261342337 0.022524287805516633 0 -0.00084388394368221876 0.022579112418836558 0 -0.00087128252830814433 0.022515265060269147 0 -0.00094234496888269067 0.022403719393155372 0 -0.00085627701673606004 0.022421680022248047 0 -0.00087128252830814433 0.022515265060269147 0 -0.00085627701673606004 0.022421680022248047 0 -0.0007985527261342337 0.022524287805516633 0 -0.00087128252830814433 0.022515265060269147 0 -0.0012258030710782606 0.022675526468439924 0 -0.0011495516693427181 0.022777411923698688 0 -0.0011302438739627383 0.022557262875286904 0 -0.0012258030710782606 0.022675526468439924 0 -0.0013359431407116288 0.022862673682861556 0 -0.0013095059587665049 0.022525293607801998 0 -0.00094234496888269067 0.022403719393155372 0 -0.0011495516693427181 0.022777411923698688 0 -0.0011630163548165715 0.023033760844003246 0 -0.0011517523625301396 0.022755350353858193 0 -0.0011012762343265629 0.022427683296317787 0 -0.0011385224336707084 0.023999800167707752 0 -0.00084287936921052819 0.023911027450583103 0 -0.0012258030710782606 0.022675526468439924 0 -0.0013359431407116288 0.022862673682861556 0 -0.0011495516693427181 0.022777411923698688 0 -0.0013359431407116288 0.022862673682861556 0 -0.0011495516693427181 0.022777411923698688 0 -0.0011630163548165715 0.023033760844003246 0 -0.00084849474231593342 0.022729060576803281 0 -0.00083321509980890918 0.022642776723636057 0 -0.00089807316552621501 0.022588099998843314 0 -0.00096213319925548505 0.024632879932331531 0 -0.00089264040723505199 0.024987622999560342 0 -0.00083306894245861783 0.024766777966809386 0 -0.0010644135579554904 0.023628978804880012 0 -0.0011385224336707084 0.023999800167707752 0 -0.0013246181279769214 0.023386467438657188 0 -0.0013359431407116288 0.022862673682861556 0 -0.0011630163548165715 0.023033760844003246 0 -0.0010644135579554904 0.023628978804880012 0 -0.0010021733265816537 0.022735198067311443 0 -0.00066206764555036773 0.024710671117941941 0 -0.00071012540663896884 0.024836688313348159 0 -0.00057309388718540977 0.024783699582503912 0 -0.00066206764555036773 0.024710671117941941 0 -0.00071012540663896884 0.024836688313348159 0 -0.00083306894245861783 0.024766777966809386 0 -0.00071012540663896884 0.024836688313348159 0 -0.00083306894245861783 0.024766777966809386 0 -0.00080187398583639183 0.024893915621421087 0 -0.00089264040723505199 0.024987622999560342 0 -0.00080187398583639183 0.024893915621421087 0 -0.00074420446680138427 0.024999389132497718 0 -0.00089264040723505199 0.024987622999560342 0 -0.00083306894245861783 0.024766777966809386 0 -0.00080187398583639183 0.024893915621421087 0 -0.00071012540663896884 0.024836688313348159 0 -0.00080187398583639183 0.024893915621421087 0 -0.00074420446680138427 0.024999389132497718 0 -0.00071012540663896884 0.024836688313348159 0 -0.00074420446680138427 0.024999389132497718 0 -0.00056845049344229404 0.024889814656978867 0 -0.00089264040723505199 0.024987622999560342 0 -0.00074420446680138427 0.024999389132497718 0 -0.0008720279875707456 0.025296522557264361 0 -0.00074420446680138427 0.024999389132497718 0 -0.0008720279875707456 0.025296522557264361 0 -0.00056912506963509031 0.02507195435456885 0 -0.00074420446680138427 0.024999389132497718 0 -0.00056912506963509031 0.02507195435456885 0 -0.00056845049344229404 0.024889814656978867 0 -0.00036290496072465287 0.024432769094547648 0 -0.00043701070420255824 0.024736700578040925 0 -0.0002302002721941456 0.024559104825937549 0 -0.00027643087562174312 0.024615148770457347 0 -0.00019346825353731812 0.024615185425909094 0 -0.00052598327147109338 0.024349119744385458 0 -0.00042054056405158003 0.024311528982578219 0 -0.00062590300647086879 0.024496345562808285 0 -0.00084287936921052819 0.023911027450583103 0 -0.00043701070420255824 0.024736700578040925 0 -0.00052598327147109338 0.024349119744385458 0 -0.00042054056405158003 0.024311528982578219 0 -0.0004252028641899252 0.024203915595077077 0 -0.00036290496072465287 0.024432769094547648 0 -0.00045182899394913587 0.024279747545546741 0 -0.0012258030710782606 0.022675526468439924 0 -0.0011302438739627383 0.022557262875286904 0 -0.0013095059587665049 0.022525293607801998 0 -0.0010929989828066216 0.022352051653941694 0 -0.0011302438739627383 0.022557262875286904 0 -0.0013095059587665049 0.022525293607801998 0 -0.00084287936921052819 0.023911027450583103 0 -0.00045182899394913587 0.024279747545546741 0 -0.00091865947254221375 0.023561339525273513 0 -0.00092354551057249358 0.023573946109942814 0 -0.0009237385459841069 0.023568582653750107 0 -0.0012311565531265515 0.022517578350283087 0 -0.00084287936921052819 0.023911027450583103 0 -0.00092047723167258178 0.023561687705611772 0 -0.00091865947254221375 0.023561339525273513 0 -0.0009237385459841069 0.023568582653750107 0 -0.00064968675945701563 0.02408203542472238 0 -0.00045182899394913587 0.024279747545546741 0 -0.00022491713041777189 0.024674955833859608 0 -0.00027643087562174312 0.024615148770457347 0 -0.00019346825353731812 0.024615185425909094 0 -0.00016397188812928201 0.024686767406886495 0 -0.00019346825353731812 0.024615185425909094 0 -0.00012777997056192216 0.024637662700228071 0 -0.00016397188812928201 0.024686767406886495 0 -0.00022491713041777189 0.024674955833859608 0 -0.00019346825353731812 0.024615185425909094 0 -0.00019346825353731812 0.024615185425909094 0 -0.00012777997056192216 0.024637662700228071 0 -0.00014390654434889367 0.024590888244546225 0 -0.00010349887080518111 0.024693730522107042 0 -0.00012777997056192216 0.024637662700228071 0 -6.7628954131030366e-05 0.02463212529017016 0 -0.00012777997056192216 0.024637662700228071 0 -6.7628954131030366e-05 0.02463212529017016 0 -0.00010955840681060224 0.024587807095196881 0 -0.00012777997056192216 0.024637662700228071 0 -0.00010955840681060224 0.024587807095196881 0 -0.00014390654434889367 0.024590888244546225 0 -0.00010955840681060224 0.024587807095196881 0 -0.00012073459207917696 0.024554004073428701 0 -8.9402769145851659e-05 0.024527176914160169 0 -1.5108292901623737e-05 0.024982760815956684 0 -1.887554801757794e-05 0.024955010408314836 0 -1.6542236165804478e-05 0.024957981404094821 0 -6.7628954131030366e-05 0.02463212529017016 0 -0.00010955840681060224 0.024587807095196881 0 -8.9402769145851659e-05 0.024527176914160169 0 -4.0600574663402765e-05 0.024798617794648897 0 -5.4159449895516465e-05 0.02478423131372386 0 -0.00010955840681060224 0.024587807095196881 0 -0.00012073459207917696 0.024554004073428701 0 -0.00014390654434889367 0.024590888244546225 0 -0.00019346825353731812 0.024615185425909094 0 -0.00014390654434889367 0.024590888244546225 0 -0.00017122623103000171 0.02455068265663593 0 -0.00012073459207917696 0.024554004073428701 0 -0.00017122623103000171 0.02455068265663593 0 -0.00014770267714267764 0.024522724942025436 0 -0.0002302002721941456 0.024559104825937549 0 -0.00019346825353731812 0.024615185425909094 0 -0.00017122623103000171 0.02455068265663593 0 -0.00012073459207917696 0.024554004073428701 0 -0.00014390654434889367 0.024590888244546225 0 -0.00017122623103000171 0.02455068265663593 0 -0.0002302002721941456 0.024559104825937549 0 -0.00017122623103000171 0.02455068265663593 0 -0.00018623888091314706 0.024507823497228742 0 -0.00017122623103000171 0.02455068265663593 0 -0.00014770267714267764 0.024522724942025436 0 -0.00018623888091314706 0.024507823497228742 0 -0.00014770267714267764 0.024522724942025436 0 -0.00018623888091314706 0.024507823497228742 0 -0.00014552652630367218 0.024476065217275026 0 -0.00043701070420255824 0.024736700578040925 0 -0.00022521087907688777 0.024815622081291455 0 -0.00043701070420255824 0.024736700578040925 0 -8.7029676491282761e-05 0.024426134486433743 0 -0.00056912506963509031 0.02507195435456885 0 -0.00056845049344229404 0.024889814656978867 0 -0.00038109396463797588 0.024864300827767725 0 -0.00020084991894022279 0.024519528895974661 0 -0.00014552652630367218 0.024476065217275026 0 -0.00014837532913851705 0.02445658366375195 0 -0.00056845049344229404 0.024889814656978867 0 -0.00038109396463797588 0.024864300827767725 0 -0.00042424484460778611 0.024798438197611662 0 -0.00022521087907688777 0.024815622081291455 0 -0.00029150032434633222 0.02478390432056345 0 -0.00071012540663896884 0.024836688313348159 0 -0.00056845049344229404 0.024889814656978867 0 -0.00057309388718540977 0.024783699582503912 0 -0.00056845049344229404 0.024889814656978867 0 -0.00042424484460778611 0.024798438197611662 0 -0.00057309388718540977 0.024783699582503912 0 -0.00045757439741191623 0.024652354227995051 0 -0.00042424484460778611 0.024798438197611662 0 -0.00057309388718540977 0.024783699582503912 0 -5.2477138044852959e-05 0.024989239987907131 0 -4.8637680793342594e-05 0.024996939680871921 0 -3.2840024999449692e-05 0.024999502277699322 0 -0.00013359234004223252 0.024548598378212688 0 -0.00036201670526118533 0.02488046299514482 0 -0.00042424484460778611 0.024798438197611662 0 -4.8637680793342594e-05 0.024996939680871921 0 -3.0410065254239798e-05 0.025004720594899246 0 -3.2840024999449692e-05 0.024999502277699322 0 -0.0001068885858689562 0.024785483182763267 0 -0.00022521087907688777 0.024815622081291455 0 -0.00014552652630367218 0.024476065217275026 0 -0.00014837532913851705 0.02445658366375195 0 -8.9402769145851659e-05 0.024527176914160169 0 -0.00022521087907688777 0.024815622081291455 0 -5.4159449895516465e-05 0.02478423131372386 0 -3.0410065254239798e-05 0.025004720594899246 0 -2.7137827218934324e-05 0.025005408142379181 0 -3.2840024999449692e-05 0.024999502277699322 0 -0.00014552652630367218 0.024476065217275026 0 -0.00012619144167811525 0.024519854899954709 0 -8.9402769145851659e-05 0.024527176914160169 0 -0.00014770267714267764 0.024522724942025436 0 -0.00014552652630367218 0.024476065217275026 0 -0.00012619144167811525 0.024519854899954709 0 -0.00012073459207917696 0.024554004073428701 0 -0.00012619144167811525 0.024519854899954709 0 -8.9402769145851659e-05 0.024527176914160169 0 -0.00012073459207917696 0.024554004073428701 0 -0.00014770267714267764 0.024522724942025436 0 -0.00012619144167811525 0.024519854899954709 0 -5.4159449895516465e-05 0.02478423131372386 0 -6.3357330636876048e-06 0.024918129467989901 0 -2.7137827218934324e-05 0.025005408142379181 0 -3.2840024999449692e-05 0.024999502277699322 0 -1.0586708426985424e-05 0.025003118071343648 0 -3.2840024999449692e-05 0.024999502277699322 0 -1.5648297276394856e-05 0.025000734607779115 0 -1.0586708426985424e-05 0.025003118071343648 0 -3.4914647321628671e-05 0.024996662748370192 0 -3.2840024999449692e-05 0.024999502277699322 0 -1.5648297276394856e-05 0.025000734607779115 0 -3.9412408775945654e-08 0.025000013257584136 0 -1.5648297276394856e-05 0.025000734607779115 0 -7.3561306838534966e-09 0.025000002683464292 0 -1.5648297276394856e-05 0.025000734607779115 0 -1.0586708426985424e-05 0.025003118071343648 0 -7.3561306838534966e-09 0.025000002683464292 0 -1.0586708426985424e-05 0.025003118071343648 0 -6.5518387993347071e-06 0.025004105447571118 0 -9.1119890728454925e-09 0.025000010522040504 0 -1.0586708426985424e-05 0.025003118071343648 0 -7.3561306838534966e-09 0.025000002683464292 0 -9.1119890728454925e-09 0.025000010522040504 0 -1.5108292901623737e-05 0.024982760815956684 0 -1.6542236165804478e-05 0.024957981404094821 0 -2.9211911549897525e-06 0.024981355263284336 0 -2.7137827218934324e-05 0.025005408142379181 0 -1.0586708426985424e-05 0.025003118071343648 0 -6.5518387993347071e-06 0.025004105447571118 0 -6.3357330636876048e-06 0.024918129467989901 0 -5.733136178371944e-06 0.025002660682561552 0 -5.946178975891971e-06 0.024992906965457442 0 -1.5108292901623737e-05 0.024982760815956684 0 -2.9211911549897525e-06 0.024981355263284336 0 3.2037350731358236e-09 0.025000001325321587 0 -6.5518387993347071e-06 0.025004105447571118 0 -9.1119890728454925e-09 0.025000010522040504 0 -7.5268564090181454e-09 0.024999983775711963 0 -5.733136178371944e-06 0.025002660682561552 0 -0.00025697111707379406 0.014661046897329267 0 -0.0003379626312984293 0.014598719382485281 0 -0.00018801843929807874 0.014511202026975738 0 -0.00025697111707379406 0.014661046897329267 0 -0.0003379626312984293 0.014598719382485281 0 -0.00045992228169928963 0.014711403989620449 0 -0.0003379626312984293 0.014598719382485281 0 -0.0004403847431730288 0.014654200752660091 0 -0.00045992228169928963 0.014711403989620449 0 -0.00019234728682427087 0.018080905081688317 0 -0.0004403113730193219 0.018134052353552723 0 -0.00014480006857166465 0.021531348918564664 0 -0.00018918783052144779 0.021722677202038777 0 -0.00037790717605742859 0.021558144693944407 0 -0.00018918783052144779 0.021722677202038777 0 -0.00037790717605742859 0.021558144693944407 0 -0.00035970931272719613 0.02181550611031351 0 -0.00014480006857166465 0.021531348918564664 0 -0.00018918783052144779 0.021722677202038777 0 0.00011302135188705766 0.02150883624559561 0 0.00011302135188705766 0.02150883624559561 0 0.00013484328210894403 0.021718683305422613 0 -4.2960700354739015e-05 0.021812377418124418 0 -0.00018918783052144779 0.021722677202038777 0 0.00011302135188705766 0.02150883624559561 0 -4.2960700354739015e-05 0.021812377418124418 0 0.00013484328210894403 0.021718683305422613 0 0.00030469208019810143 0.021753784045003152 0 0.00039810092292077504 0.021499316400991276 0 5.7979216940986083e-06 0.018195938658632903 0 0.0005539598113672474 0.016564652624752475 0 0.00011302135188705766 0.02150883624559561 0 0.00013484328210894403 0.021718683305422613 0 0.00039810092292077504 0.021499316400991276 0 3.2673571408084969e-05 0.014462563307788759 0 -2.3198960436438073e-05 0.014591858619476901 0 -5.7704653475747996e-05 0.014438805993497167 0 8.0033997291685145e-05 0.014463935411116119 0 -2.3198960436438073e-05 0.014591858619476901 0 0.00012451497736958486 0.014517990162564755 0 8.0033997291685145e-05 0.014463935411116119 0 3.2673571408084969e-05 0.014462563307788759 0 -2.3198960436438073e-05 0.014591858619476901 0 8.0033997291685145e-05 0.014463935411116119 0 3.2673571408084969e-05 0.014462563307788759 0 0.0001177176352062619 0.014412673509219452 0 -0.00025697111707379406 0.014661046897329267 0 -2.3198960436438073e-05 0.014591858619476901 0 -0.00018801843929807874 0.014511202026975738 0 -2.3198960436438073e-05 0.014591858619476901 0 -5.7704653475747996e-05 0.014438805993497167 0 -0.00018801843929807874 0.014511202026975738 0 -0.00019234728682427087 0.018080905081688317 0 5.7979216940986083e-06 0.018195938658632903 0 -5.7704653475747996e-05 0.014438805993497167 0 -8.4140226070795484e-05 0.014284936030552952 0 -0.00017967671630368662 0.014366220390577984 0 -5.7704653475747996e-05 0.014438805993497167 0 1.2338349493374578e-05 0.014286101433888986 0 -8.4140226070795484e-05 0.014284936030552952 0 -5.7704653475747996e-05 0.014438805993497167 0 -0.00017967671630368662 0.014366220390577984 0 -0.00018801843929807874 0.014511202026975738 0 3.2673571408084969e-05 0.014462563307788759 0 4.1209824699177727e-05 0.014385748491701997 0 0.0001177176352062619 0.014412673509219452 0 3.2673571408084969e-05 0.014462563307788759 0 -5.7704653475747996e-05 0.014438805993497167 0 4.1209824699177727e-05 0.014385748491701997 0 -5.7704653475747996e-05 0.014438805993497167 0 4.1209824699177727e-05 0.014385748491701997 0 1.2338349493374578e-05 0.014286101433888986 0 4.1209824699177727e-05 0.014385748491701997 0 1.2338349493374578e-05 0.014286101433888986 0 0.00012032576947655727 0.014295355266429766 0 4.1209824699177727e-05 0.014385748491701997 0 0.00012032576947655727 0.014295355266429766 0 0.0001177176352062619 0.014412673509219452 0 -3.6916086214015714e-05 0.014103278557744727 0 1.2338349493374578e-05 0.014286101433888986 0 8.321324326934864e-05 0.014174745762539997 0 1.2338349493374578e-05 0.014286101433888986 0 8.321324326934864e-05 0.014174745762539997 0 0.00012032576947655727 0.014295355266429766 0 -3.6916086214015714e-05 0.014103278557744727 0 1.2338349493374578e-05 0.014286101433888986 0 -8.4140226070795484e-05 0.014284936030552952 0 -3.6916086214015714e-05 0.014103278557744727 0 -8.4140226070795484e-05 0.014284936030552952 0 -0.0001676201841802913 0.014227639469247317 0 -0.00040242468689875014 0.014319687052978409 0 -0.000232289095797546 0.014304115923699645 0 -8.4140226070795484e-05 0.014284936030552952 0 -0.0001676201841802913 0.014227639469247317 0 -0.00017967671630368662 0.014366220390577984 0 -0.00043455737184692035 0.014697113994882698 0 -0.00043312737577502861 0.014696835261113093 0 -0.0004404978849419893 0.014699933503255271 0 -0.00043455737184692035 0.014697113994882698 0 -0.0004404978849419893 0.014699933503255271 0 -0.00044260547242191078 0.014703196248593484 0 -0.00016036593450989965 0.01424565871377961 0 -0.00017967671630368662 0.014366220390577984 0 -0.00030710794411624014 0.014400746346235567 0 -0.00043312737577502861 0.014696835261113093 0 -0.0004404978849419893 0.014699933503255271 0 -0.00045003509993043496 0.014701535608336765 0 -0.00040242468689875014 0.014319687052978409 0 -0.00037036769418646647 0.014560855432064271 0 -0.00017967671630368662 0.014366220390577984 0 -0.00030710794411624014 0.014400746346235567 0 -0.00018801843929807874 0.014511202026975738 0 -0.0003379626312984293 0.014598719382485281 0 -0.00030710794411624014 0.014400746346235567 0 -0.00018801843929807874 0.014511202026975738 0 -0.00037036769418646647 0.014560855432064271 0 -0.00043144909268166435 0.014631237610826185 0 -0.0003379626312984293 0.014598719382485281 0 -0.00030710794411624014 0.014400746346235567 0 -0.0004403847431730288 0.014654200752660091 0 -0.00045003509993043496 0.014701535608336765 0 -0.0004403847431730288 0.014654200752660091 0 -0.000445309911675752 0.014701970758733217 0 -0.0004403847431730288 0.014654200752660091 0 -0.000445309911675752 0.014701970758733217 0 -0.00044667769950382263 0.014699532967307546 0 -0.000445309911675752 0.014701970758733217 0 -0.00044260547242191078 0.014703196248593484 0 -0.00045289382399442342 0.014711067464826423 0 -0.00045003509993043496 0.014701535608336765 0 -0.000445309911675752 0.014701970758733217 0 -0.00044260547242191078 0.014703196248593484 0 -0.0004404978849419893 0.014699933503255271 0 -0.00045003509993043496 0.014701535608336765 0 -0.00044260547242191078 0.014703196248593484 0 -0.00044156168375094848 0.014697743492966146 0 -0.00044260547242191078 0.014703196248593484 0 -0.00045289382399442342 0.014711067464826423 0 -0.000445309911675752 0.014701970758733217 0 -0.00045289382399442342 0.014711067464826423 0 -0.00044667769950382263 0.014699532967307546 0 -0.00045289382399442342 0.014711067464826423 0 -0.00047770969705943891 0.014720562389988251 0 -0.00046076613296477893 0.014719798885702146 0 -0.00046223070994758704 0.014711663523962727 0 -0.00045289382399442342 0.014711067464826423 0 -0.00047770969705943891 0.014720562389988251 0 -0.00047770969705943891 0.014720562389988251 0 -0.00050408940512616839 0.014728838829622972 0 -0.000479281985308485 0.014764918591267856 0 -0.00047770969705943891 0.014720562389988251 0 -0.00046076613296477893 0.014719798885702146 0 -0.000479281985308485 0.014764918591267856 0 -0.0004596892625625502 0.014709564482726149 0 -0.00046076613296477893 0.014719798885702146 0 -0.000479281985308485 0.014764918591267856 0 -0.0004403847431730288 0.014654200752660091 0 -0.0004596892625625502 0.014709564482726149 0 -0.00044667769950382263 0.014699532967307546 0 -0.0004596892625625502 0.014709564482726149 0 -0.00044667769950382263 0.014699532967307546 0 -0.00046076613296477893 0.014719798885702146 0 -0.00045289382399442342 0.014711067464826423 0 -0.00044667769950382263 0.014699532967307546 0 -0.00046076613296477893 0.014719798885702146 0 -0.0025857384302103077 0.016300666330334012 0 -0.0023373936706932719 0.017155204400785766 0 -0.0016175342996158852 0.016924546708658474 0 -0.0025857384302103077 0.016300666330334012 0 -0.0029386218324541111 0.017341947465243399 0 -0.0023373936706932719 0.017155204400785766 0 -0.0023373936706932719 0.017155204400785766 0 -0.0016175342996158852 0.016924546708658474 0 -0.0022048913365490027 0.018043362418396807 0 -0.0010082302158164239 0.015433973069733497 0 -0.0012010384143718801 0.018391342349676761 0 -0.00050408940512616839 0.014728838829622972 0 -0.00053858223728499733 0.014797725150272259 0 -0.000479281985308485 0.014764918591267856 0 -0.0012956042778383037 0.021330429192969368 0 -0.00068498799628702539 0.021450267187463526 0 -0.00075047018547104135 0.021582380629663434 0 -0.0023747850704307996 0.019617728268946383 0 -0.0012010384143718801 0.018391342349676761 0 -0.0029386218324541111 0.017341947465243399 0 -0.0023373936706932719 0.017155204400785766 0 -0.0022048913365490027 0.018043362418396807 0 -0.00079128723641546197 0.021662014095291046 0 -0.000755483101973057 0.021673153090446446 0 -0.00071921831447633948 0.022008418576790145 0 -0.0011364061209172558 0.021680950986503401 0 -0.00079128723641546197 0.021662014095291046 0 -0.00075047018547104135 0.021582380629663434 0 -0.00074209420931032396 0.021553895871771221 0 -0.00075047018547104135 0.021582380629663434 0 -0.00072314696765344915 0.021642402523009127 0 -0.00079128723641546197 0.021662014095291046 0 -0.00075047018547104135 0.021582380629663434 0 -0.000755483101973057 0.021673153090446446 0 -0.0012010384143718801 0.018391342349676761 0 -0.0015940810189406676 0.020169495752719726 0 -0.00075047018547104135 0.021582380629663434 0 -0.00072314696765344915 0.021642402523009127 0 -0.000755483101973057 0.021673153090446446 0 -0.00072314696765344915 0.021642402523009127 0 -0.000755483101973057 0.021673153090446446 0 -0.00071512491366236661 0.021728623307413215 0 -0.0012010384143718801 0.018391342349676761 0 -0.00041270121250044163 0.018155775540176725 0 -0.00074209420931032396 0.021553895871771221 0 -0.00065740909124152559 0.021663178163796065 0 -0.0005720563998970348 0.02157674270122447 0 -0.00072314696765344915 0.021642402523009127 0 -0.00065740909124152559 0.021663178163796065 0 -0.00071512491366236661 0.021728623307413215 0 -0.00074209420931032396 0.021553895871771221 0 -0.00072314696765344915 0.021642402523009127 0 -0.00065740909124152559 0.021663178163796065 0 -0.00066431630713250365 0.021814948494251311 0 -0.00075279195489758336 0.021814333351973456 0 -0.00072337609069480081 0.021995346690578142 0 -0.00065740909124152559 0.021663178163796065 0 -0.00066431630713250365 0.021814948494251311 0 -0.00053670386080153446 0.021721531222877701 0 -0.00065740909124152559 0.021663178163796065 0 -0.00066431630713250365 0.021814948494251311 0 -0.00071512491366236661 0.021728623307413215 0 -0.00066431630713250365 0.021814948494251311 0 -0.00071512491366236661 0.021728623307413215 0 -0.00075279195489758336 0.021814333351973456 0 -0.000755483101973057 0.021673153090446446 0 -0.00071512491366236661 0.021728623307413215 0 -0.00075279195489758336 0.021814333351973456 0 -0.00075349682608688356 0.021706068382049845 0 -0.000790057023583294 0.021944378252349326 0 -0.000755483101973057 0.021673153090446446 0 -0.00075279195489758336 0.021814333351973456 0 -0.00085797202196934575 0.021875964388831836 0 -0.00087948324238058535 0.021931763858546224 0 -0.00079128723641546197 0.021662014095291046 0 -0.00071921831447633948 0.022008418576790145 0 -0.0004596892625625502 0.014709564482726149 0 -0.00045992228169928963 0.014711403989620449 0 -0.000479281985308485 0.014764918591267856 0 -0.0004403113730193219 0.018134052353552723 0 -0.00041270121250044163 0.018155775540176725 0 -0.0004403847431730288 0.014654200752660091 0 -0.0004596892625625502 0.014709564482726149 0 -0.00045992228169928963 0.014711403989620449 0 -0.00037790717605742859 0.021558144693944407 0 -0.0005720563998970348 0.02157674270122447 0 -0.00053670386080153446 0.021721531222877701 0 -0.00065740909124152559 0.021663178163796065 0 -0.0005720563998970348 0.02157674270122447 0 -0.00053670386080153446 0.021721531222877701 0 -0.00066431630713250365 0.021814948494251311 0 -0.00053670386080153446 0.021721531222877701 0 -0.00056962138290160167 0.021914640934434758 0 -0.00037790717605742859 0.021558144693944407 0 -0.00053670386080153446 0.021721531222877701 0 -0.00035970931272719613 0.02181550611031351 0 -0.00053670386080153446 0.021721531222877701 0 -0.00056962138290160167 0.021914640934434758 0 -0.00035970931272719613 0.02181550611031351 0 -0.00047205481312467124 0.021992913418597979 0 -0.00029918162561454317 0.022066364294949757 0 -0.00035970931272719613 0.02181550611031351 0 -0.00047205481312467124 0.021992913418597979 0 -0.00056962138290160167 0.021914640934434758 0 -0.00035970931272719613 0.02181550611031351 0 -0.00047205481312467124 0.021992913418597979 0 -0.00056962138290160167 0.021914640934434758 0 -0.00061468814805453441 0.022109143019188895 0 -0.00047205481312467124 0.021992913418597979 0 -0.00061468814805453441 0.022109143019188895 0 -0.00051951240273400909 0.02218188277313091 0 -0.00061468814805453441 0.022109143019188895 0 -0.00051951240273400909 0.02218188277313091 0 -0.00064675688070183965 0.022325615562393902 0 -0.00047205481312467124 0.021992913418597979 0 -0.00051951240273400909 0.02218188277313091 0 -0.00029918162561454317 0.022066364294949757 0 -0.00089872031206788845 0.022134642499070739 0 -0.00085797202196934575 0.021875964388831836 0 -0.00072337609069480081 0.021995346690578142 0 -0.00082139899724309093 0.022217655144623955 0 -0.000790057023583294 0.021944378252349326 0 -0.00075279195489758336 0.021814333351973456 0 -0.00085797202196934575 0.021875964388831836 0 -0.00072337609069480081 0.021995346690578142 0 -0.00056962138290160167 0.021914640934434758 0 -0.00061468814805453441 0.022109143019188895 0 -0.00072337609069480081 0.021995346690578142 0 -0.00066431630713250365 0.021814948494251311 0 -0.00056962138290160167 0.021914640934434758 0 -0.00072337609069480081 0.021995346690578142 0 -0.00061468814805453441 0.022109143019188895 0 -0.00074428011647460855 0.022246291377495307 0 -0.00064675688070183965 0.022325615562393902 0 -0.00061468814805453441 0.022109143019188895 0 -0.00072337609069480081 0.021995346690578142 0 -0.00074428011647460855 0.022246291377495307 0 -0.00089872031206788845 0.022134642499070739 0 -0.00072337609069480081 0.021995346690578142 0 -0.00074428011647460855 0.022246291377495307 0 -0.00087739816778478589 0.022380086866456133 0 -0.00074428011647460855 0.022246291377495307 0 -0.00071246649051261396 0.022461666255628818 0 -0.00074428011647460855 0.022246291377495307 0 -0.00064675688070183965 0.022325615562393902 0 -0.00071246649051261396 0.022461666255628818 0 -0.00063177992040387915 0.022591990804211447 0 -0.00065821402131766656 0.022489902257685046 0 -0.00071246649051261396 0.022461666255628818 0 -0.00064675688070183965 0.022325615562393902 0 -0.00065821402131766656 0.022489902257685046 0 -0.00071246649051261396 0.022461666255628818 0 -0.00069002681670719238 0.022600085361505332 0 -0.00076783785324175595 0.022521976624313551 0 -0.00071246649051261396 0.022461666255628818 0 -0.00051951240273400909 0.02218188277313091 0 -0.00059916476771609069 0.022388896245063898 0 -0.00049213696309752968 0.022349479598362247 0 -0.00051951240273400909 0.02218188277313091 0 -0.00049213696309752968 0.022349479598362247 0 -0.00029918162561454317 0.022066364294949757 0 -0.00051951240273400909 0.02218188277313091 0 -0.00064675688070183965 0.022325615562393902 0 -0.00059916476771609069 0.022388896245063898 0 -0.00065821402131766656 0.022489902257685046 0 -0.00059916476771609069 0.022388896245063898 0 -0.00064645750015511743 0.022521380400264981 0 -0.00064675688070183965 0.022325615562393902 0 -0.00065821402131766656 0.022489902257685046 0 -0.00059916476771609069 0.022388896245063898 0 -0.00063218430281213901 0.022536748855114301 0 -0.00059916476771609069 0.022388896245063898 0 -0.00064645750015511743 0.022521380400264981 0 -0.00063218430281213901 0.022536748855114301 0 -0.00049213696309752968 0.022349479598362247 0 -0.00039168922977206679 0.022456773531525816 0 -0.00063218430281213901 0.022536748855114301 0 -0.00059916476771609069 0.022388896245063898 0 -0.00049213696309752968 0.022349479598362247 0 -0.00049213696309752968 0.022349479598362247 0 -0.00039168922977206679 0.022456773531525816 0 -0.00029452431546653961 0.022285453503676712 0 -0.00019698395774871095 0.022633120515733584 0 -0.00039168922977206679 0.022456773531525816 0 -0.00016430210693805632 0.022383503054058715 0 -0.00039168922977206679 0.022456773531525816 0 -0.00016430210693805632 0.022383503054058715 0 -0.00029452431546653961 0.022285453503676712 0 -0.00016430210693805632 0.022383503054058715 0 -0.0001292698328647717 0.022182741531063997 0 -0.00029452431546653961 0.022285453503676712 0 -0.0001292698328647717 0.022182741531063997 0 -0.00029452431546653961 0.022285453503676712 0 -0.00029918162561454317 0.022066364294949757 0 -0.00049213696309752968 0.022349479598362247 0 -0.00029452431546653961 0.022285453503676712 0 -0.00029918162561454317 0.022066364294949757 0 0.00012109503322469217 0.022498472300463385 0 -0.00040142961375946829 0.02196929029640983 0 -0.00029918162561454317 0.022066364294949757 0 -4.2960700354739015e-05 0.021812377418124418 0 3.0666004814365155e-05 0.021965604419504244 0 -8.2198844574465338e-05 0.022108332282665715 0 -0.00029918162561454317 0.022066364294949757 0 3.0666004814365155e-05 0.021965604419504244 0 -0.00018918783052144779 0.021722677202038777 0 -0.00029918162561454317 0.022066364294949757 0 -4.2960700354739015e-05 0.021812377418124418 0 -0.00018918783052144779 0.021722677202038777 0 -0.00029918162561454317 0.022066364294949757 0 -0.00035970931272719613 0.02181550611031351 0 0.00013484328210894403 0.021718683305422613 0 0.00020492075563844402 0.021979536753509898 0 0.00030469208019810143 0.021753784045003152 0 0.00013484328210894403 0.021718683305422613 0 -4.2960700354739015e-05 0.021812377418124418 0 3.0666004814365155e-05 0.021965604419504244 0 0.00013484328210894403 0.021718683305422613 0 3.0666004814365155e-05 0.021965604419504244 0 0.00020492075563844402 0.021979536753509898 0 0.00027863721178992445 0.017642045613691662 0 0.0001477993839596344 0.01809297622808893 0 3.0666004814365155e-05 0.021965604419504244 0 0.00020492075563844402 0.021979536753509898 0 0.00011516819461110129 0.022173073684243323 0 0.00027863721178992445 0.017642045613691662 0 -8.4891257706311827e-05 0.018941884774111403 0 0.00018511042643691149 0.013771704950733888 0 0.00015367635292103086 0.013721875242445844 0 0.00018899047568423855 0.01373241180069304 0 0.00015367635292103086 0.013721875242445844 0 0.00016599326291465171 0.013702656806097989 0 0.00018899047568423855 0.01373241180069304 0 -0.00016430210693805632 0.022383503054058715 0 -0.0001292698328647717 0.022182741531063997 0 8.7018232005687813e-05 0.02227677242739351 0 0.00012109503322469217 0.022498472300463385 0 -8.4891257706311827e-05 0.018941884774111403 0 -8.2198844574465338e-05 0.022108332282665715 0 3.0666004814365155e-05 0.021965604419504244 0 0.00011516819461110129 0.022173073684243323 0 -0.0011106607017138958 0.018974282511827756 0 -8.4891257706311827e-05 0.018941884774111403 0 1.8787037822710413e-05 0.022471529864067748 0 -0.00016430210693805632 0.022383503054058715 0 8.7018232005687813e-05 0.02227677242739351 0 -0.00098479135263689348 0.01815284436151119 0 0.00015454679396629802 0.01747560194704836 0 -0.0005571793281119908 0.017078196745737965 0 -0.0011433972822270982 0.017290319765515493 0 -0.00053304912790450606 0.017398714881994459 0 -0.00050823727759462961 0.016891734887531557 0 -0.0011106607017138958 0.018974282511827756 0 6.2917181659793945e-05 0.015060322044333677 0 6.2917181659793945e-05 0.015060322044333677 0 -8.4891257706311827e-05 0.018941884774111403 0 -0.00053304912790450606 0.017398714881994459 0 -0.00050823727759462961 0.016891734887531557 0 3.5397017064030244e-06 0.017175437798070972 0 0.0010127646402316084 0.012092518160900918 0 0.00066429396631962983 0.012206203096039784 0 0.00090421639356023779 0.012546498451103547 0 6.2917181659793945e-05 0.015060322044333677 0 0.00073408078358853381 0.012868201266625344 0 0.0013326793905755884 0.012298695318128636 0 0.0010127646402316084 0.012092518160900918 0 0.00090421639356023779 0.012546498451103547 0 6.2917181659793945e-05 0.015060322044333677 0 0.00057273120720177455 0.014692756246945781 0 0.00066429396631962983 0.012206203096039784 0 0.00045355058573725313 0.012409293649059251 0 0.00016516070446024084 0.012097029486565622 0 0.00065747721010322752 0.011865876955140365 0 0.00066429396631962983 0.012206203096039784 0 0.00016516070446024084 0.012097029486565622 0 0.00065747721010322752 0.011865876955140365 0 0.0010127646402316084 0.012092518160900918 0 0.00066429396631962983 0.012206203096039784 0 0.00066429396631962983 0.012206203096039784 0 0.00045355058573725313 0.012409293649059251 0 0.00090421639356023779 0.012546498451103547 0 0.00045355058573725313 0.012409293649059251 0 0.00090421639356023779 0.012546498451103547 0 0.00048236370476454146 0.012901460644902767 0 0.00073408078358853381 0.012868201266625344 0 0.00013852850325098894 0.0133287918264765 0 9.6211857483097634e-05 0.013674522312901852 0 -3.424225205372065e-05 0.01363996679595687 0 0.00010833285068865167 0.013751325618181492 0 0.00015367635292103086 0.013721875242445844 0 0.00016599326291465171 0.013702656806097989 0 9.6211857483097634e-05 0.013674522312901852 0 0.00015367635292103086 0.013721875242445844 0 9.6211857483097634e-05 0.013674522312901852 0 0.00010833285068865167 0.013751325618181492 0 0.00020112967702403157 0.012196804161245212 0 2.6486663049505824e-05 0.012224075145817194 0 0.00016516070446024084 0.012097029486565622 0 0.00020112967702403157 0.012196804161245212 0 8.5152915837684309e-05 0.01244194291053005 0 -0.00015332106641376407 0.012441543506970515 0 0.00012856545801302334 0.012229793755590438 0 0.00016373046124998388 0.012126495315418165 0 0.00034430717474017976 0.012551010685661316 0 0.00020112967702403157 0.012196804161245212 0 8.5152915837684309e-05 0.01244194291053005 0 0.00045355058573725313 0.012409293649059251 0 2.6486663049505824e-05 0.012224075145817194 0 0.00016516070446024084 0.012097029486565622 0 0.00048236370476454146 0.012901460644902767 0 -8.5849078513523412e-05 0.012902668547019299 0 -0.00024057163384985693 0.013220147762439332 0 0.00048236370476454146 0.012901460644902767 0 0.00024200224442819375 0.012603834007217644 0 -8.5849078513523412e-05 0.012902668547019299 0 0.00045355058573725313 0.012409293649059251 0 0.00048236370476454146 0.012901460644902767 0 0.00024200224442819375 0.012603834007217644 0 0.00045355058573725313 0.012409293649059251 0 2.6486663049505824e-05 0.012224075145817194 0 0.00024200224442819375 0.012603834007217644 0 2.6486663049505824e-05 0.012224075145817194 0 0.00024200224442819375 0.012603834007217644 0 -8.5849078513523412e-05 0.012902668547019299 0 2.6486663049505824e-05 0.012224075145817194 0 0.00022409232651164436 0.011175751257480424 0 0.00043541978910684371 0.011778509575019665 0 2.6486663049505824e-05 0.012224075145817194 0 -8.5849078513523412e-05 0.012902668547019299 0 -0.00048822072815872991 0.013389662527103458 0 0.00020112967702403157 0.012196804161245212 0 2.6486663049505824e-05 0.012224075145817194 0 0.00043541978910684371 0.011778509575019665 0 1.113512083328531e-05 0.012200892834013948 0 -0.00010029188722938706 0.012265327411704821 0 -0.00048822072815872991 0.013389662527103458 0 -0.00023179058705189543 0.013543544385822833 0 -0.00028738540423874808 0.013769456497260342 0 -8.5849078513523412e-05 0.012902668547019299 0 -0.00048822072815872991 0.013389662527103458 0 -0.00024057163384985693 0.013220147762439332 0 -0.00048822072815872991 0.013389662527103458 0 -0.00024057163384985693 0.013220147762439332 0 -0.00023179058705189543 0.013543544385822833 0 0.00013852850325098894 0.0133287918264765 0 -0.00019018705736787898 0.013516643044864694 0 -3.424225205372065e-05 0.01363996679595687 0 -0.00011212334690089028 0.01374418585103337 0 5.3069530797142689e-06 0.013804110782505244 0 0.00048236370476454146 0.012901460644902767 0 -0.00024057163384985693 0.013220147762439332 0 -0.00023179058705189543 0.013543544385822833 0 -3.424225205372065e-05 0.01363996679595687 0 -0.00023179058705189543 0.013543544385822833 0 -0.00011212334690089028 0.01374418585103337 0 -7.4808634542905653e-05 0.013857243582115163 0 -0.00011212334690089028 0.01374418585103337 0 5.3069530797142689e-06 0.013804110782505244 0 -7.4808634542905653e-05 0.013857243582115163 0 -0.00011212334690089028 0.01374418585103337 0 -0.00016845925409447838 0.013929517939008788 0 -0.00011212334690089028 0.01374418585103337 0 -0.00028738540423874808 0.013769456497260342 0 -0.00016845925409447838 0.013929517939008788 0 -0.00048822072815872991 0.013389662527103458 0 -0.00028738540423874808 0.013769456497260342 0 -0.00053329840111864717 0.013856757548925694 0 -0.00028738540423874808 0.013769456497260342 0 -0.00031850854210530184 0.013938352327128851 0 -0.00053329840111864717 0.013856757548925694 0 -0.00023179058705189543 0.013543544385822833 0 -0.00011212334690089028 0.01374418585103337 0 -0.00028738540423874808 0.013769456497260342 0 -0.00028738540423874808 0.013769456497260342 0 -0.00016845925409447838 0.013929517939008788 0 -0.00031850854210530184 0.013938352327128851 0 0.00018511042643691149 0.013771704950733888 0 0.00015367635292103086 0.013721875242445844 0 0.00010833285068865167 0.013751325618181492 0 0.00018511042643691149 0.013771704950733888 0 0.00010833285068865167 0.013751325618181492 0 0.00018264382421969357 0.013885196541317681 0 -3.424225205372065e-05 0.01363996679595687 0 0.00010833285068865167 0.013751325618181492 0 5.3069530797142689e-06 0.013804110782505244 0 0.00010833285068865167 0.013751325618181492 0 5.3069530797142689e-06 0.013804110782505244 0 8.7382486474572686e-05 0.013917073400139779 0 -7.4808634542905653e-05 0.013857243582115163 0 5.3069530797142689e-06 0.013804110782505244 0 -2.560542364337121e-05 0.013958117469001319 0 5.3069530797142689e-06 0.013804110782505244 0 8.7382486474572686e-05 0.013917073400139779 0 -2.560542364337121e-05 0.013958117469001319 0 0.00010833285068865167 0.013751325618181492 0 0.00018264382421969357 0.013885196541317681 0 8.7382486474572686e-05 0.013917073400139779 0 0.0001477993839596344 0.01809297622808893 0 0.0005539598113672474 0.016564652624752475 0 0.00018264382421969357 0.013885196541317681 0 8.7382486474572686e-05 0.013917073400139779 0 0.00015392959172641976 0.014065031362120763 0 8.7382486474572686e-05 0.013917073400139779 0 0.00015392959172641976 0.014065031362120763 0 6.7550439748441859e-05 0.014051124645248108 0 0.0005539598113672474 0.016564652624752475 0 -0.0001322576341785944 0.01498554717385479 0 0.00023682437120884275 0.014092783477757158 0 0.00010236251697825759 0.014350394234531175 0 6.7550439748441859e-05 0.014051124645248108 0 8.0033997291685145e-05 0.014463935411116119 0 0.00012451497736958486 0.014517990162564755 0 0.00010236251697825759 0.014350394234531175 0 0.0005539598113672474 0.016564652624752475 0 0.00043133288092577664 0.013859358774090575 0 8.0033997291685145e-05 0.014463935411116119 0 0.00010236251697825759 0.014350394234531175 0 0.0001177176352062619 0.014412673509219452 0 0.00010236251697825759 0.014350394234531175 0 -3.9147487039675622e-05 0.014227873843310529 0 -3.354098942383905e-05 0.014368074170138951 0 0.00010236251697825759 0.014350394234531175 0 -6.6447084868363169e-06 0.014124827226549619 0 6.7550439748441859e-05 0.014051124645248108 0 0.00010236251697825759 0.014350394234531175 0 -3.9147487039675622e-05 0.014227873843310529 0 -6.6447084868363169e-06 0.014124827226549619 0 -3.9147487039675622e-05 0.014227873843310529 0 -6.6447084868363169e-06 0.014124827226549619 0 -0.00010295587224145774 0.014082641726211502 0 -6.6447084868363169e-06 0.014124827226549619 0 -2.560542364337121e-05 0.013958117469001319 0 -0.00010295587224145774 0.014082641726211502 0 -6.6447084868363169e-06 0.014124827226549619 0 6.7550439748441859e-05 0.014051124645248108 0 -2.560542364337121e-05 0.013958117469001319 0 8.7382486474572686e-05 0.013917073400139779 0 6.7550439748441859e-05 0.014051124645248108 0 -2.560542364337121e-05 0.013958117469001319 0 -7.4808634542905653e-05 0.013857243582115163 0 -2.560542364337121e-05 0.013958117469001319 0 -0.00016845925409447838 0.013929517939008788 0 -2.560542364337121e-05 0.013958117469001319 0 -0.00016845925409447838 0.013929517939008788 0 -0.00010295587224145774 0.014082641726211502 0 -0.00016845925409447838 0.013929517939008788 0 -0.00022148306900190141 0.014066525450837643 0 -0.00031850854210530184 0.013938352327128851 0 -0.00016845925409447838 0.013929517939008788 0 -0.00022148306900190141 0.014066525450837643 0 -0.00010295587224145774 0.014082641726211502 0 -0.00022148306900190141 0.014066525450837643 0 -0.00031850854210530184 0.013938352327128851 0 -0.00039300716568816736 0.014049948133957909 0 -0.00031850854210530184 0.013938352327128851 0 -0.00039300716568816736 0.014049948133957909 0 -0.00053329840111864717 0.013856757548925694 0 -0.00022148306900190141 0.014066525450837643 0 -0.00039300716568816736 0.014049948133957909 0 -0.00028972813903051014 0.014156925301458487 0 -0.00039300716568816736 0.014049948133957909 0 -0.00028972813903051014 0.014156925301458487 0 -0.00041037657999534543 0.014158749114777354 0 -0.00028972813903051014 0.014156925301458487 0 -0.00015877299356309657 0.014214018984493471 0 -0.00029960847269274018 0.014260329933645177 0 -0.00028972813903051014 0.014156925301458487 0 -0.00029960847269274018 0.014260329933645177 0 -0.00041037657999534543 0.014158749114777354 0 -0.00022148306900190141 0.014066525450837643 0 -0.00010295587224145774 0.014082641726211502 0 -0.00015877299356309657 0.014214018984493471 0 -3.9147487039675622e-05 0.014227873843310529 0 -0.00010295587224145774 0.014082641726211502 0 -0.00015877299356309657 0.014214018984493471 0 -0.00022148306900190141 0.014066525450837643 0 -0.00028972813903051014 0.014156925301458487 0 -0.00015877299356309657 0.014214018984493471 0 -3.9147487039675622e-05 0.014227873843310529 0 -0.00015877299356309657 0.014214018984493471 0 -3.354098942383905e-05 0.014368074170138951 0 -0.00048771797500042901 0.010765245271542608 0 -0.00058172977263768778 0.01069843854773463 0 -0.00038951924156605894 0.010701073765070922 0 -0.00048771797500042901 0.010765245271542608 0 -0.00044047253885927271 0.010863306668500685 0 -0.00038951924156605894 0.010701073765070922 0 3.6613246948740208e-05 0.014311419814974141 0 -0.0002208313102478094 0.013423210658351201 0 -0.00039302055777102539 0.012397535268801718 0 -0.0002208313102478094 0.013423210658351201 0 -0.00015877299356309657 0.014214018984493471 0 -0.00029960847269274018 0.014260329933645177 0 -0.00010920276399321136 0.014278963584448273 0 -0.00048771797500042901 0.010765245271542608 0 -0.00058172977263768778 0.01069843854773463 0 -0.00058314980981153742 0.010823751052950933 0 -0.00058172977263768778 0.01069843854773463 0 -0.00058314980981153742 0.010823751052950933 0 -0.00068510010834502144 0.010792313924214659 0 -0.00058314980981153742 0.010823751052950933 0 -0.00068510010834502144 0.010792313924214659 0 -0.00067559675265003311 0.010902729394398319 0 -0.00058314980981153742 0.010823751052950933 0 -0.00044047253885927271 0.010863306668500685 0 -0.00054638423901521877 0.010995642655380475 0 -0.00048771797500042901 0.010765245271542608 0 -0.00058314980981153742 0.010823751052950933 0 -0.00044047253885927271 0.010863306668500685 0 -1.0051911305096315e-05 0.012402212504061946 0 -0.0002208313102478094 0.013423210658351201 0 -0.00044047253885927271 0.010863306668500685 0 -0.00024468520557533547 0.010892079091259482 0 -0.00038951924156605894 0.010701073765070922 0 8.321324326934864e-05 0.014174745762539997 0 0.00022433596798527897 0.014198583639477723 0 0.00012032576947655727 0.014295355266429766 0 0.00022433596798527897 0.014198583639477723 0 0.00012032576947655727 0.014295355266429766 0 0.0002019110893469533 0.014321359447593055 0 0.00010236251697825759 0.014350394234531175 0 0.0001177176352062619 0.014412673509219452 0 -3.354098942383905e-05 0.014368074170138951 0 0.0002019110893469533 0.014321359447593055 0 0.0001177176352062619 0.014412673509219452 0 0.00034025355676411858 0.014375462914990717 0 0.00012032576947655727 0.014295355266429766 0 0.0002019110893469533 0.014321359447593055 0 0.0001177176352062619 0.014412673509219452 0 0.0002743207087650191 0.014668839262725058 0 -0.0002208313102478094 0.013423210658351201 0 0.00022433596798527897 0.014198583639477723 0 0.0002019110893469533 0.014321359447593055 0 0.00034025355676411858 0.014375462914990717 0 0.0028345858718380533 0.0081116594250761932 0 0.0024908862807778466 0.0088022210101115755 0 0.0032925536053923805 0.0087479911396018285 0 0.0017272884131300057 0.0082192004859278339 0 0.0028345858718380533 0.0081116594250761932 0 0.0024908862807778466 0.0088022210101115755 0 0.00020983166619037238 0.010535835982251749 0 0.00050992584148222976 0.0055941007227334801 0 -0.0022470314949605938 0.0043210370743241022 0 -0.0023110094143024974 0.0045877956163459157 0 -0.0020840180095036587 0.0045774431658027687 0 0.00050992584148222976 0.0055941007227334801 0 -0.0015722809425468432 0.0070734018646930455 0 -0.00093106334447977997 0.010691770381614249 0 -0.00087227118917271014 0.010798910674166749 0 -0.00103214746908885 0.010832034263989722 0 0.00020983166619037238 0.010535835982251749 0 -0.0015722809425468432 0.0070734018646930455 0 -0.00068776870036432183 0.0079698006208098245 0 5.0782781760351938e-05 0.0078954772813309738 0 -0.00034743132943609292 0.0073367427249142808 0 -0.00087227118917271014 0.010798910674166749 0 -0.00085822370037940353 0.010897608548240942 0 -0.00103214746908885 0.010832034263989722 0 -0.00087227118917271014 0.010798910674166749 0 -0.00077419646081564964 0.010837575105662668 0 -0.00076770087583444052 0.010696185075956138 0 -0.00087227118917271014 0.010798910674166749 0 -0.00077419646081564964 0.010837575105662668 0 -0.00085822370037940353 0.010897608548240942 0 -0.00077419646081564964 0.010837575105662668 0 -0.00068510010834502144 0.010792313924214659 0 -0.00076770087583444052 0.010696185075956138 0 -0.00077419646081564964 0.010837575105662668 0 -0.00068510010834502144 0.010792313924214659 0 -0.00067559675265003311 0.010902729394398319 0 -0.00039302055777102539 0.012397535268801718 0 -0.00084130809456901107 0.012602985808794809 0 -0.00058172977263768778 0.01069843854773463 0 -0.00068510010834502144 0.010792313924214659 0 -0.00076770087583444052 0.010696185075956138 0 -0.00029960847269274018 0.014260329933645177 0 -0.00049107779845718722 0.014206531855276972 0 -0.00041037657999534543 0.014158749114777354 0 -0.00060769396086934999 0.014167063784882958 0 -0.00049107779845718722 0.014206531855276972 0 -0.00056312004428272643 0.014061207721960713 0 0.00020983166619037238 0.010535835982251749 0 -0.00084130809456901107 0.012602985808794809 0 -0.00093106334447977997 0.010691770381614249 0 -0.00087227118917271014 0.010798910674166749 0 -0.00076770087583444052 0.010696185075956138 0 0.00020983166619037238 0.010535835982251749 0 0.00034310856266831831 0.011721240325709868 0 0.0017272884131300057 0.0082192004859278339 0 0.001214230626994944 0.0091692520233426465 0 0.0018460103923672389 0.0090399106054298486 0 -0.00049107779845718722 0.014206531855276972 0 -0.00056312004428272643 0.014061207721960713 0 -0.00041037657999534543 0.014158749114777354 0 -0.00039300716568816736 0.014049948133957909 0 -0.00056312004428272643 0.014061207721960713 0 -0.00041037657999534543 0.014158749114777354 0 0.00034310856266831831 0.011721240325709868 0 8.7011264823288811e-05 0.011972929637698684 0 -0.00039300716568816736 0.014049948133957909 0 -0.00056312004428272643 0.014061207721960713 0 -0.00053329840111864717 0.013856757548925694 0 0.001214230626994944 0.0091692520233426465 0 0.0018460103923672389 0.0090399106054298486 0 0.0017956641103009025 0.010073304413087611 0 0.001214230626994944 0.0091692520233426465 0 0.0017956641103009025 0.010073304413087611 0 0.00070180705765427766 0.010149139482214655 0 0.0023084883728266203 0.0094034687915720248 0 0.0026506193153401545 0.0098871509970029949 0 0.0017956641103009025 0.010073304413087611 0 0.0018460103923672389 0.0090399106054298486 0 0.0023084883728266203 0.0094034687915720248 0 0.0017956641103009025 0.010073304413087611 0 0.0017272884131300057 0.0082192004859278339 0 0.0018460103923672389 0.0090399106054298486 0 0.0024908862807778466 0.0088022210101115755 0 0.0018460103923672389 0.0090399106054298486 0 0.0024908862807778466 0.0088022210101115755 0 0.0023084883728266203 0.0094034687915720248 0 0.0024908862807778466 0.0088022210101115755 0 0.0029490022652866902 0.009322531358382697 0 0.0032925536053923805 0.0087479911396018285 0 0.0024908862807778466 0.0088022210101115755 0 0.0029490022652866902 0.009322531358382697 0 0.0023084883728266203 0.0094034687915720248 0 0.0029490022652866902 0.009322531358382697 0 0.0023084883728266203 0.0094034687915720248 0 0.0026506193153401545 0.0098871509970029949 0 0.0026506193153401545 0.0098871509970029949 0 0.0017956641103009025 0.010073304413087611 0 0.0025839538218051039 0.010608027174646314 0 0.0028956775874638811 0.0064769275740240604 0 0.0030237720281736792 0.0044812384962816185 0 0.0026506193153401545 0.0098871509970029949 0 0.0025839538218051039 0.010608027174646314 0 0.0033229270311086047 0.0098794417290423327 0 0.003208752396788707 0.0020241394034655048 0 0.0033765755650303382 0.0017634933574991185 0 0.0033822922637655704 0.0020089704542037142 0 0.0028956775874638811 0.0064769275740240604 0 0.0024997765142585485 0.0068414781204019851 0 0.0017956641103009025 0.010073304413087611 0 0.0025839538218051039 0.010608027174646314 0 0.0018239457932517954 0.011347933684245909 0 0.003286762934697198 0.0022594563679309977 0 0.003208752396788707 0.0020241394034655048 0 0.0031391815447698239 0.0024119825178766669 0 0.003286762934697198 0.0022594563679309977 0 0.003208752396788707 0.0020241394034655048 0 0.0033822922637655704 0.0020089704542037142 0 -0.00010029188722938706 0.012265327411704821 0 8.7011264823288811e-05 0.011972929637698684 0 0.0017956641103009025 0.010073304413087611 0 0.00070180705765427766 0.010149139482214655 0 0.0011908906551003026 0.011010687870080207 0 0.0017956641103009025 0.010073304413087611 0 0.0011908906551003026 0.011010687870080207 0 0.0018239457932517954 0.011347933684245909 0 0.00022409232651164436 0.011175751257480424 0 0.00070180705765427766 0.010149139482214655 0 0.00072427426894627184 0.011250724349490591 0 0.00070180705765427766 0.010149139482214655 0 0.0011908906551003026 0.011010687870080207 0 0.00072427426894627184 0.011250724349490591 0 0.00022409232651164436 0.011175751257480424 0 0.00072427426894627184 0.011250724349490591 0 0.00043541978910684371 0.011778509575019665 0 0.00020112967702403157 0.012196804161245212 0 0.00043541978910684371 0.011778509575019665 0 0.0010329473829895632 0.012058331279538074 0 0.00072427426894627184 0.011250724349490591 0 0.00043541978910684371 0.011778509575019665 0 0.0010329473829895632 0.012058331279538074 0 0.0011908906551003026 0.011010687870080207 0 0.00072427426894627184 0.011250724349490591 0 0.0010329473829895632 0.012058331279538074 0 0.003083586304003271 0.0028604555172093032 0 0.0028489273670230745 0.0029238775635308961 0 0.0031391815447698239 0.0024119825178766669 0 0.0019155610584701184 0.0075161563407533964 0 0.0024997765142585485 0.0068414781204019851 0 0.0011908906551003026 0.011010687870080207 0 0.0010329473829895632 0.012058331279538074 0 0.0018239457932517954 0.011347933684245909 0 0.003083586304003271 0.0028604555172093032 0 0.0031391815447698239 0.0024119825178766669 0 0.0031622460496594745 0.0026252811344975365 0 0.0038168226286938983 0.00366649145614904 0 0.003211563278266744 0.0029382330246700027 0 0.0031794709279225333 0.0025319010829740955 0 0.003083586304003271 0.0028604555172093032 0 0.0031622460496594745 0.0026252811344975365 0 0.0046464273701382472 0.0049317027340595801 0 0.0032326601244407468 0.0043902911113749459 0 0.003083586304003271 0.0028604555172093032 0 0.0032326601244407468 0.0043902911113749459 0 0.003083586304003271 0.0028604555172093032 0 0.0028489273670230745 0.0029238775635308961 0 0.00034430717474017976 0.012551010685661316 0 0.00020112967702403157 0.012196804161245212 0 0.0010329473829895632 0.012058331279538074 0 0.00057384720238424635 0.0086797779651559652 0 0.0019155610584701184 0.0075161563407533964 0 0.00079414605748172958 0.004976238497191479 0 0.0032326601244407468 0.0043902911113749459 0 0.0028489273670230745 0.0029238775635308961 0 0.0032180630653356429 0.0025233542870927478 0 0.0032307831577196118 0.0024946822092033493 0 0.003286762934697198 0.0022594563679309977 0 0.0032127296100194986 0.0025048788447304786 0 0.0035261525851509501 0.0025774750328165555 0 0.0032127296100194986 0.0025048788447304786 0 0.0031391815447698239 0.0024119825178766669 0 0.0031622460496594745 0.0026252811344975365 0 0.003286762934697198 0.0022594563679309977 0 0.0032127296100194986 0.0025048788447304786 0 0.0031391815447698239 0.0024119825178766669 0 0.0032127296100194986 0.0025048788447304786 0 0.0031622460496594745 0.0026252811344975365 0 0.0031798950676419154 0.0024992769559753795 0 0.0031794709279225333 0.0025319010829740955 0 0.0031622460496594745 0.0026252811344975365 0 0.0031798950676419154 0.0024992769559753795 0 0.003212858015854512 0.0023616832858152329 0 0.0032127296100194986 0.0025048788447304786 0 0.0031798950676419154 0.0024992769559753795 0 0.003212858015854512 0.0023616832858152329 0 0.0032127296100194986 0.0025048788447304786 0 0.0029770079908669317 0.0025191685348685913 0 0.002784697910912879 0.0020546602362024181 0 0.003212858015854512 0.0023616832858152329 0 0.0029770079908669317 0.0025191685348685913 0 0.0035261525851509501 0.0025774750328165555 0 0.0037689626618395335 0.0022650028238291385 0 0.0035048977535149582 0.0021915754159658467 0 0.003286762934697198 0.0022594563679309977 0 0.0035261525851509501 0.0025774750328165555 0 0.0035048977535149582 0.0021915754159658467 0 0.0035261525851509501 0.0025774750328165555 0 0.0037689626618395335 0.0022650028238291385 0 0.0041577129782453268 0.0028379891104705268 0 0.0032307831577196118 0.0024946822092033493 0 0.0032971295400820236 0.0029418187059048633 0 0.002784697910912879 0.0020546602362024181 0 0.0029770079908669317 0.0025191685348685913 0 0.0023557480135212869 0.0022960609774099867 0 0.0048612347255744745 0.0030280611032366296 0 0.0041577129782453268 0.0028379891104705268 0 0.004609433093118313 0.0026957443150796598 0 0.0048612347255744745 0.0030280611032366296 0 0.004609433093118313 0.0026957443150796598 0 0.0049089427934149703 0.0023328346280007272 0 0.0035451714086825797 -0.00040954844526804615 0 0.0032971295400820236 0.0029418187059048633 0 0.0041577129782453268 0.0028379891104705268 0 0.004609433093118313 0.0026957443150796598 0 0.0045348324832019645 0.0023921360886990503 0 0.004609433093118313 0.0026957443150796598 0 0.0045348324832019645 0.0023921360886990503 0 0.0049089427934149703 0.0023328346280007272 0 0.0045348324832019645 0.0023921360886990503 0 0.0041953148347478788 0.0022152138814655292 0 0.0047062702338231633 0.0019049584358265409 0 0.0045348324832019645 0.0023921360886990503 0 0.0049089427934149703 0.0023328346280007272 0 0.0047062702338231633 0.0019049584358265409 0 0.0041577129782453268 0.0028379891104705268 0 0.0045348324832019645 0.0023921360886990503 0 0.0041953148347478788 0.0022152138814655292 0 0.0037689626618395335 0.0022650028238291385 0 0.0041577129782453268 0.0028379891104705268 0 0.0041953148347478788 0.0022152138814655292 0 0.0037689626618395335 0.0022650028238291385 0 0.0041953148347478788 0.0022152138814655292 0 0.0038642101689344479 0.0015215199318096612 0 0.0041953148347478788 0.0022152138814655292 0 0.0045168563781571814 0.0014825984300515915 0 0.0038642101689344479 0.0015215199318096612 0 0.0041953148347478788 0.0022152138814655292 0 0.0047062702338231633 0.0019049584358265409 0 0.0045168563781571814 0.0014825984300515915 0 0.0049089427934149703 0.0023328346280007272 0 0.0047062702338231633 0.0019049584358265409 0 0.0052101856027814558 0.0013682192857111522 0 0.0050655472530969558 -0.0011321648945392367 0 0.0050879737801967058 -0.0019585323595790686 0 0.0047062702338231633 0.0019049584358265409 0 0.0052101856027814558 0.0013682192857111522 0 0.0045168563781571814 0.0014825984300515915 0 0.0052101856027814558 0.0013682192857111522 0 0.0045168563781571814 0.0014825984300515915 0 0.0046247967635975693 0.00046525259182282559 0 0.0045168563781571814 0.0014825984300515915 0 0.0038698348600732717 0.00035960562970520284 0 0.0046247967635975693 0.00046525259182282559 0 0.0045168563781571814 0.0014825984300515915 0 0.0038642101689344479 0.0015215199318096612 0 0.0038698348600732717 0.00035960562970520284 0 0.0038642101689344479 0.0015215199318096612 0 0.0036528204859947893 0.001588858880614211 0 0.0035758355822469168 0.0018229648079087354 0 0.0038300916675956475 0.0010549453542710685 0 0.0025842956058089095 0.0020221707890167367 0 0.0038642101689344479 0.0015215199318096612 0 0.0036528204859947893 0.001588858880614211 0 0.0036383175424066754 0.0014762475238336867 0 0.0034959879241048901 0.0015792844693219591 0 0.0033765755650303382 0.0017634933574991185 0 0.0035758355822469168 0.0018229648079087354 0 0.003208752396788707 0.0020241394034655048 0 0.0034605846314668958 0.0015730598768260073 0 0.0033765755650303382 0.0017634933574991185 0 0.0036528204859947893 0.001588858880614211 0 0.0034959879241048901 0.0015792844693219591 0 0.0035758355822469168 0.0018229648079087354 0 0.0030237720281736792 0.0044812384962816185 0 0.0040088593334772606 0.0020239270534921317 0 0.0033765755650303382 0.0017634933574991185 0 0.0035758355822469168 0.0018229648079087354 0 0.0033822922637655704 0.0020089704542037142 0 0.0035758355822469168 0.0018229648079087354 0 0.0033822922637655704 0.0020089704542037142 0 0.0035048977535149582 0.0021915754159658467 0 0.003286762934697198 0.0022594563679309977 0 0.0033822922637655704 0.0020089704542037142 0 0.0035048977535149582 0.0021915754159658467 0 0.0037689626618395335 0.0022650028238291385 0 0.0035758355822469168 0.0018229648079087354 0 0.0035048977535149582 0.0021915754159658467 0 0.0037689626618395335 0.0022650028238291385 0 0.0038642101689344479 0.0015215199318096612 0 0.0035758355822469168 0.0018229648079087354 0 0.0025639185633816032 -0.0067577884331006021 0 0.0033016714205821012 -0.0067560356096552383 0 0.0031467821580455219 -0.0062744145835095218 0 0.0025639185633816032 -0.0067577884331006021 0 0.0026951807769164155 -0.0074091657162167514 0 0.0033016714205821012 -0.0067560356096552383 0 0.0030008919990346062 -0.0079483456303153059 0 0.0020279578326903203 -0.0081837446096964112 0 0.0026951807769164155 -0.0074091657162167514 0 0.0030008919990346062 -0.0079483456303153059 0 0.0026951807769164155 -0.0074091657162167514 0 0.0035415379130677221 -0.0073148190841042134 0 0.0030008919990346062 -0.0079483456303153059 0 0.0035415379130677221 -0.0073148190841042134 0 0.0039807822558359275 -0.0077502577699999162 0 0.0026951807769164155 -0.0074091657162167514 0 0.0035415379130677221 -0.0073148190841042134 0 0.0033016714205821012 -0.0067560356096552383 0 0.0035415379130677221 -0.0073148190841042134 0 0.0033016714205821012 -0.0067560356096552383 0 0.0040212207216121813 -0.0067878831158155488 0 0.0033016714205821012 -0.0067560356096552383 0 0.0040212207216121813 -0.0067878831158155488 0 0.0036841765626175549 -0.0063925841850923665 0 0.0035415379130677221 -0.0073148190841042134 0 0.0040212207216121813 -0.0067878831158155488 0 0.0042523588780872127 -0.0072605894037907522 0 0.0040212207216121813 -0.0067878831158155488 0 0.0041132798576871254 -0.006397194165317842 0 0.0036841765626175549 -0.0063925841850923665 0 0.0040212207216121813 -0.0067878831158155488 0 0.0043598658575531154 -0.0066497228820682529 0 0.0041132798576871254 -0.006397194165317842 0 0.0040212207216121813 -0.0067878831158155488 0 0.0043598658575531154 -0.0066497228820682529 0 0.0044608886130705098 -0.0069574704413950233 0 0.0040212207216121813 -0.0067878831158155488 0 0.0042523588780872127 -0.0072605894037907522 0 0.0044608886130705098 -0.0069574704413950233 0 0.0035415379130677221 -0.0073148190841042134 0 0.0039807822558359275 -0.0077502577699999162 0 0.0042523588780872127 -0.0072605894037907522 0 0.0039807822558359275 -0.0077502577699999162 0 0.0042523588780872127 -0.0072605894037907522 0 0.0044823381549411508 -0.0075168836815079935 0 0.0049763560241004711 -0.0034126835547335943 0 0.0048333971978981151 -0.0034566801117930251 0 0.005077010202998309 -0.0043446318583378538 0 0.0045708183710798482 -0.0071778185243860891 0 0.0046935760096193059 -0.0074110763349349148 0 0.0044823381549411508 -0.0075168836815079935 0 0.0035451714086825797 -0.00040954844526804615 0 0.0050655472530969558 -0.0011321648945392367 0 0.0048909242834635786 -0.00798780387433984 0 0.0039807822558359275 -0.0077502577699999162 0 0.0044823381549411508 -0.0075168836815079935 0 0.0038229707975701069 -0.0038527785939999918 0 0.0050387814693564729 -0.0061521508979549364 0 0.0048909242834635786 -0.00798780387433984 0 0.0046935760096193059 -0.0074110763349349148 0 0.0048479458401711065 -0.0071443028785956597 0 0.0048333971978981151 -0.0034566801117930251 0 0.0048625558547921981 -0.0046895648502250573 0 0.005077010202998309 -0.0043446318583378538 0 0.0042523588780872127 -0.0072605894037907522 0 0.0045708183710798482 -0.0071778185243860891 0 0.0044823381549411508 -0.0075168836815079935 0 0.0045708183710798482 -0.0071778185243860891 0 0.0047061902330014487 -0.0072047765638916595 0 0.0046935760096193059 -0.0074110763349349148 0 0.0045708183710798482 -0.0071778185243860891 0 0.0047061902330014487 -0.0072047765638916595 0 0.0046855152287437396 -0.0071002861120140958 0 0.0048909242834635786 -0.00798780387433984 0 0.0046935760096193059 -0.0074110763349349148 0 0.0044823381549411508 -0.0075168836815079935 0 0.0047061902330014487 -0.0072047765638916595 0 0.0046935760096193059 -0.0074110763349349148 0 0.0048479458401711065 -0.0071443028785956597 0 0.0048625558547921981 -0.0046895648502250573 0 0.005077010202998309 -0.0043446318583378538 0 0.0050528756822228365 -0.0048626839816861374 0 0.0050387814693564729 -0.0061521508979549364 0 0.0049517735002898629 -0.0056156664216321824 0 0.0048479458401711065 -0.0071443028785956597 0 0.0047126201474364839 -0.0069399712623704011 0 0.0047502566164459095 -0.0067576306323835307 0 0.0048479458401711065 -0.0071443028785956597 0 0.0046855152287437396 -0.0071002861120140958 0 0.0047126201474364839 -0.0069399712623704011 0 0.0047061902330014487 -0.0072047765638916595 0 0.0048479458401711065 -0.0071443028785956597 0 0.0046855152287437396 -0.0071002861120140958 0 0.0045708183710798482 -0.0071778185243860891 0 0.0046855152287437396 -0.0071002861120140958 0 0.0046116085967183975 -0.007005779784244175 0 0.0046855152287437396 -0.0071002861120140958 0 0.0046116085967183975 -0.007005779784244175 0 0.0047126201474364839 -0.0069399712623704011 0 0.0042523588780872127 -0.0072605894037907522 0 0.0045708183710798482 -0.0071778185243860891 0 0.0044608886130705098 -0.0069574704413950233 0 0.0045708183710798482 -0.0071778185243860891 0 0.0046116085967183975 -0.007005779784244175 0 0.0044608886130705098 -0.0069574704413950233 0 0.0044608886130705098 -0.0069574704413950233 0 0.0046279823937925638 -0.006851826593299493 0 0.0045575888253378766 -0.0067453849893469335 0 0.0046116085967183975 -0.007005779784244175 0 0.0044608886130705098 -0.0069574704413950233 0 0.0046279823937925638 -0.006851826593299493 0 0.0047126201474364839 -0.0069399712623704011 0 0.0046279823937925638 -0.006851826593299493 0 0.0047502566164459095 -0.0067576306323835307 0 0.0046116085967183975 -0.007005779784244175 0 0.0047126201474364839 -0.0069399712623704011 0 0.0046279823937925638 -0.006851826593299493 0 0.0046279823937925638 -0.006851826593299493 0 0.0047502566164459095 -0.0067576306323835307 0 0.0046890808271290293 -0.0066808391499731017 0 0.0046279823937925638 -0.006851826593299493 0 0.0046890808271290293 -0.0066808391499731017 0 0.0045575888253378766 -0.0067453849893469335 0 0.0046890808271290293 -0.0066808391499731017 0 0.0045575888253378766 -0.0067453849893469335 0 0.0045971760830269132 -0.0065970231703649631 0 0.0047502566164459095 -0.0067576306323835307 0 0.0046890808271290293 -0.0066808391499731017 0 0.004713349417462845 -0.0066199807207889642 0 0.0043598658575531154 -0.0066497228820682529 0 0.0044608886130705098 -0.0069574704413950233 0 0.0045575888253378766 -0.0067453849893469335 0 0.0043598658575531154 -0.0066497228820682529 0 0.0045575888253378766 -0.0067453849893469335 0 0.0045971760830269132 -0.0065970231703649631 0 0.0043598658575531154 -0.0066497228820682529 0 0.0045971760830269132 -0.0065970231703649631 0 0.0044302000954636878 -0.0064112597908880008 0 0.0047502566164459095 -0.0067576306323835307 0 0.004713349417462845 -0.0066199807207889642 0 0.0048515818538316501 -0.0065455976447362603 0 0.0046890808271290293 -0.0066808391499731017 0 0.0045971760830269132 -0.0065970231703649631 0 0.004713349417462845 -0.0066199807207889642 0 0.0045971760830269132 -0.0065970231703649631 0 0.0047125024651817095 -0.0065221141416498801 0 0.0046147292472693167 -0.0064330383280993162 0 0.0045971760830269132 -0.0065970231703649631 0 0.004713349417462845 -0.0066199807207889642 0 0.0047125024651817095 -0.0065221141416498801 0 0.004713349417462845 -0.0066199807207889642 0 0.0047125024651817095 -0.0065221141416498801 0 0.0048515818538316501 -0.0065455976447362603 0 0.0048479458401711065 -0.0071443028785956597 0 0.0047502566164459095 -0.0067576306323835307 0 0.0048515818538316501 -0.0065455976447362603 0 0.0048625558547921981 -0.0046895648502250573 0 0.0050528756822228365 -0.0048626839816861374 0 0.0050654689467910493 -0.0050020712036332815 0 0.0048757122099198739 -0.006288545925506042 0 0.0047304650221379587 -0.0058410454909865765 0 0.0048463051498915744 -0.0052076693869450557 0 0.0048625558547921981 -0.0046895648502250573 0 0.004994317361670224 -0.0052648030337958136 0 0.0050654689467910493 -0.0050020712036332815 0 0.004946443847081268 -0.005599183674940944 0 0.0048758861448054336 -0.0052375461365984947 0 0.0049517735002898629 -0.0056156664216321824 0 0.004946443847081268 -0.005599183674940944 0 0.0048515818538316501 -0.0065455976447362603 0 0.0048757122099198739 -0.006288545925506042 0 0.0048074620282645914 -0.0064148119700726232 0 0.0048757122099198739 -0.006288545925506042 0 0.0048074620282645914 -0.0064148119700726232 0 0.0047853598860949963 -0.0063279008113048957 0 0.0047125024651817095 -0.0065221141416498801 0 0.0048515818538316501 -0.0065455976447362603 0 0.0048074620282645914 -0.0064148119700726232 0 0.0047125024651817095 -0.0065221141416498801 0 0.0048074620282645914 -0.0064148119700726232 0 0.0046147292472693167 -0.0064330383280993162 0 0.0047050506604985418 -0.0063417583004389076 0 0.0046147292472693167 -0.0064330383280993162 0 0.0045677694686098473 -0.006250540014186564 0 0.0048074620282645914 -0.0064148119700726232 0 0.0047050506604985418 -0.0063417583004389076 0 0.0046147292472693167 -0.0064330383280993162 0 0.0048074620282645914 -0.0064148119700726232 0 0.0047050506604985418 -0.0063417583004389076 0 0.0047853598860949963 -0.0063279008113048957 0 0.0046147292472693167 -0.0064330383280993162 0 0.0045677694686098473 -0.006250540014186564 0 0.0044302000954636878 -0.0064112597908880008 0 0.0045971760830269132 -0.0065970231703649631 0 0.0046147292472693167 -0.0064330383280993162 0 0.0044302000954636878 -0.0064112597908880008 0 0.0045677694686098473 -0.006250540014186564 0 0.0045701795986402317 -0.006043932716818445 0 0.0043293248830206217 -0.0061251867069846934 0 0.0045677694686098473 -0.006250540014186564 0 0.0046615127329463291 -0.0061545899400349503 0 0.0045701795986402317 -0.006043932716818445 0 0.0048757122099198739 -0.006288545925506042 0 0.0047539565570639446 -0.0062120047496672277 0 0.0047170145584805269 -0.0060764630981556735 0 0.0048757122099198739 -0.006288545925506042 0 0.0047050506604985418 -0.0063417583004389076 0 0.0047539565570639446 -0.0062120047496672277 0 0.0048757122099198739 -0.006288545925506042 0 0.0047050506604985418 -0.0063417583004389076 0 0.0047853598860949963 -0.0063279008113048957 0 0.0047050506604985418 -0.0063417583004389076 0 0.0045677694686098473 -0.006250540014186564 0 0.0047539565570639446 -0.0062120047496672277 0 0.0046615127329463291 -0.0061545899400349503 0 0.0047539565570639446 -0.0062120047496672277 0 0.0047170145584805269 -0.0060764630981556735 0 0.0045677694686098473 -0.006250540014186564 0 0.0046615127329463291 -0.0061545899400349503 0 0.0047539565570639446 -0.0062120047496672277 0 0.0047170145584805269 -0.0060764630981556735 0 0.0045701795986402317 -0.006043932716818445 0 0.0047304650221379587 -0.0058410454909865765 0 0.0048757122099198739 -0.006288545925506042 0 0.0047170145584805269 -0.0060764630981556735 0 0.0047304650221379587 -0.0058410454909865765 0 0.0046615127329463291 -0.0061545899400349503 0 0.0047170145584805269 -0.0060764630981556735 0 0.0045701795986402317 -0.006043932716818445 0 0.0045701795986402317 -0.006043932716818445 0 0.0047304650221379587 -0.0058410454909865765 0 0.0044538903257788269 -0.005802707551849637 0 0.0047304650221379587 -0.0058410454909865765 0 0.0045985240389871144 -0.0055767915445053594 0 0.0044538903257788269 -0.005802707551849637 0 0.004994317361670224 -0.0052648030337958136 0 0.0050654689467910493 -0.0050020712036332815 0 0.0048463051498915744 -0.0052076693869450557 0 0.004994317361670224 -0.0052648030337958136 0 0.0048463051498915744 -0.0052076693869450557 0 0.0052733629951423376 -0.0042738624088898645 0 0.0048463051498915744 -0.0052076693869450557 0 0.0043286877055673332 -0.0054358306117270458 0 0.0046028939191248182 -0.0048203961974581863 0 0.0048463051498915744 -0.0052076693869450557 0 0.0045985240389871144 -0.0055767915445053594 0 0.0043286877055673332 -0.0054358306117270458 0 0.0047304650221379587 -0.0058410454909865765 0 0.0048463051498915744 -0.0052076693869450557 0 0.0045985240389871144 -0.0055767915445053594 0 0.0043286877055673332 -0.0054358306117270458 0 0.0038864939052268236 -0.0055602511103848111 0 0.0041825483172598767 -0.0057954834949539404 0 0.0045985240389871144 -0.0055767915445053594 0 0.0043286877055673332 -0.0054358306117270458 0 0.0044538903257788269 -0.005802707551849637 0 0.0043286877055673332 -0.0054358306117270458 0 0.0041825483172598767 -0.0057954834949539404 0 0.0044538903257788269 -0.005802707551849637 0 0.0043286877055673332 -0.0054358306117270458 0 0.0041387608813720821 -0.0049908339023293381 0 0.0046028939191248182 -0.0048203961974581863 0 0.0043286877055673332 -0.0054358306117270458 0 0.0038864939052268236 -0.0055602511103848111 0 0.0041387608813720821 -0.0049908339023293381 0 0.0038864939052268236 -0.0055602511103848111 0 0.0035995295470743409 -0.0051056169589377707 0 0.0041387608813720821 -0.0049908339023293381 0 0.0038864939052268236 -0.0055602511103848111 0 0.0039172121390336845 -0.0060271051070173044 0 0.0041825483172598767 -0.0057954834949539404 0 0.0038864939052268236 -0.0055602511103848111 0 0.0039172121390336845 -0.0060271051070173044 0 0.0035103404203412404 -0.0059501350645340791 0 0.0039172121390336845 -0.0060271051070173044 0 0.0041825483172598767 -0.0057954834949539404 0 0.0043293248830206217 -0.0061251867069846934 0 0.0041825483172598767 -0.0057954834949539404 0 0.0044538903257788269 -0.005802707551849637 0 0.0043293248830206217 -0.0061251867069846934 0 0.0045701795986402317 -0.006043932716818445 0 0.0044538903257788269 -0.005802707551849637 0 0.0043293248830206217 -0.0061251867069846934 0 0.0039172121390336845 -0.0060271051070173044 0 0.0043293248830206217 -0.0061251867069846934 0 0.0041132798576871254 -0.006397194165317842 0 0.0045677694686098473 -0.006250540014186564 0 0.0043293248830206217 -0.0061251867069846934 0 0.0044302000954636878 -0.0064112597908880008 0 0.0043293248830206217 -0.0061251867069846934 0 0.0044302000954636878 -0.0064112597908880008 0 0.0041132798576871254 -0.006397194165317842 0 0.0043598658575531154 -0.0066497228820682529 0 0.0044302000954636878 -0.0064112597908880008 0 0.0041132798576871254 -0.006397194165317842 0 0.0039172121390336845 -0.0060271051070173044 0 0.0041132798576871254 -0.006397194165317842 0 0.0036841765626175549 -0.0063925841850923665 0 0.0036841765626175549 -0.0063925841850923665 0 0.0031467821580455219 -0.0062744145835095218 0 0.0035103404203412404 -0.0059501350645340791 0 0.0033016714205821012 -0.0067560356096552383 0 0.0036841765626175549 -0.0063925841850923665 0 0.0031467821580455219 -0.0062744145835095218 0 0.0031467821580455219 -0.0062744145835095218 0 0.0035103404203412404 -0.0059501350645340791 0 0.0030775564690382834 -0.0057829334017777435 0 0.0039172121390336845 -0.0060271051070173044 0 0.0036841765626175549 -0.0063925841850923665 0 0.0035103404203412404 -0.0059501350645340791 0 0.0038864939052268236 -0.0055602511103848111 0 0.0035103404203412404 -0.0059501350645340791 0 0.0034591072460645211 -0.0055377885375889526 0 0.0038864939052268236 -0.0055602511103848111 0 0.0034591072460645211 -0.0055377885375889526 0 0.0035995295470743409 -0.0051056169589377707 0 0.0034591072460645211 -0.0055377885375889526 0 0.0035995295470743409 -0.0051056169589377707 0 0.0031091141270615688 -0.0052756267616298853 0 0.0034591072460645211 -0.0055377885375889526 0 0.0030775564690382834 -0.0057829334017777435 0 0.0031091141270615688 -0.0052756267616298853 0 0.0035103404203412404 -0.0059501350645340791 0 0.0034591072460645211 -0.0055377885375889526 0 0.0030775564690382834 -0.0057829334017777435 0 0.0023513941938770769 -0.004840469727255217 0 0.0031091141270615688 -0.0052756267616298853 0 0.0026177023962810821 -0.0055462237088563428 0 0.0030775564690382834 -0.0057829334017777435 0 0.0031091141270615688 -0.0052756267616298853 0 0.0026177023962810821 -0.0055462237088563428 0 0.0030775564690382834 -0.0057829334017777435 0 0.0026177023962810821 -0.0055462237088563428 0 0.0026309944612645888 -0.0061019000507079703 0 0.0031467821580455219 -0.0062744145835095218 0 0.0030775564690382834 -0.0057829334017777435 0 0.0026309944612645888 -0.0061019000507079703 0 0.0025639185633816032 -0.0067577884331006021 0 0.0031467821580455219 -0.0062744145835095218 0 0.0026309944612645888 -0.0061019000507079703 0 0.0023513941938770769 -0.004840469727255217 0 0.0023905780652422937 -0.003867793203910543 0 0.0030564380550118647 -0.0039272708077446455 0 0.0023513941938770769 -0.004840469727255217 0 0.0030564380550118647 -0.0039272708077446455 0 0.0032109224279487643 -0.004626827552478222 0 0.0023513941938770769 -0.004840469727255217 0 0.0031091141270615688 -0.0052756267616298853 0 0.0032109224279487643 -0.004626827552478222 0 0.0035995295470743409 -0.0051056169589377707 0 0.0031091141270615688 -0.0052756267616298853 0 0.0032109224279487643 -0.004626827552478222 0 0.0035995295470743409 -0.0051056169589377707 0 0.0032109224279487643 -0.004626827552478222 0 0.0038504967373375666 -0.0046332484085970455 0 0.0032109224279487643 -0.004626827552478222 0 0.0037782924416421173 -0.0039342444195635687 0 0.0038504967373375666 -0.0046332484085970455 0 0.0030564380550118647 -0.0039272708077446455 0 0.0032109224279487643 -0.004626827552478222 0 0.0037782924416421173 -0.0039342444195635687 0 0.0030564380550118647 -0.0039272708077446455 0 0.0037782924416421173 -0.0039342444195635687 0 0.0037547687269626501 -0.0031725430420650783 0 0.0037782924416421173 -0.0039342444195635687 0 0.0043909891323875884 -0.0042754417967799776 0 0.00428403181753979 -0.0034987447818378425 0 0.0037782924416421173 -0.0039342444195635687 0 0.0043909891323875884 -0.0042754417967799776 0 0.0038504967373375666 -0.0046332484085970455 0 0.0043909891323875884 -0.0042754417967799776 0 0.0038504967373375666 -0.0046332484085970455 0 0.0041387608813720821 -0.0049908339023293381 0 0.0035995295470743409 -0.0051056169589377707 0 0.0038504967373375666 -0.0046332484085970455 0 0.0041387608813720821 -0.0049908339023293381 0 0.0043909891323875884 -0.0042754417967799776 0 0.0041387608813720821 -0.0049908339023293381 0 0.0046028939191248182 -0.0048203961974581863 0 0.0043909891323875884 -0.0042754417967799776 0 0.0046028939191248182 -0.0048203961974581863 0 0.0052733629951423376 -0.0042738624088898645 0 0.0048463051498915744 -0.0052076693869450557 0 0.0046028939191248182 -0.0048203961974581863 0 0.0052733629951423376 -0.0042738624088898645 0 0.0043909891323875884 -0.0042754417967799776 0 0.0048269308025996544 -0.0038438298164853533 0 0.00428403181753979 -0.0034987447818378425 0 0.0048269308025996544 -0.0038438298164853533 0 0.0050304029772557319 -0.0032222638507498221 0 0.0052733629951423376 -0.0042738624088898645 0 0.0043909891323875884 -0.0042754417967799776 0 0.0048269308025996544 -0.0038438298164853533 0 0.0052733629951423376 -0.0042738624088898645 0 0.0050304029772557319 -0.0032222638507498221 0 0.0054685235927795957 -0.003035797145303879 0 0.005105126702275458 -0.0029153154474238271 0 0.0048269308025996544 -0.0038438298164853533 0 0.0050304029772557319 -0.0032222638507498221 0 0.0046235849618421901 -0.0032463552586257101 0 0.0048269308025996544 -0.0038438298164853533 0 0.0046235849618421901 -0.0032463552586257101 0 0.00428403181753979 -0.0034987447818378425 0 0.0046235849618421901 -0.0032463552586257101 0 0.0044795908610963421 -0.0028721226563011024 0 0.0044276849742640699 -0.0030978700831889128 0 0.0053939895772743222 -0.0035010596532144399 0 0.0033402588301495455 -0.0027986273571708555 0 0.0050304029772557319 -0.0032222638507498221 0 0.0046235849618421901 -0.0032463552586257101 0 0.0044795908610963421 -0.0028721226563011024 0 0.0033402588301495455 -0.0027986273571708555 0 0.00071033947064101535 0.00085168328683210461 0 -0.0003315103594937679 -0.0015636199568954694 0 -0.00014975669456727194 -0.0015060465980557376 0 -0.00058625255091235967 -0.0014478736280846198 0 -0.0003315103594937679 -0.0015636199568954694 0 -0.00025280730544548848 -0.0016763247571162509 0 -0.00035569553780246522 -0.0017498978825168808 0 -0.0003315103594937679 -0.0015636199568954694 0 -0.00025280730544548848 -0.0016763247571162509 0 -0.00022174236923737096 -0.0015778671903157778 0 -0.00025280730544548848 -0.0016763247571162509 0 -0.00015301145916805063 -0.0016326631387989046 0 -0.00019292539570555568 -0.0017906228606415827 0 -0.00025280730544548848 -0.0016763247571162509 0 -0.00015301145916805063 -0.0016326631387989046 0 -0.00022174236923737096 -0.0015778671903157778 0 -0.0003315103594937679 -0.0015636199568954694 0 -0.00022174236923737096 -0.0015778671903157778 0 -0.00014975669456727194 -0.0015060465980557376 0 -0.0001507014286012626 -0.001576861932820603 0 -0.00022174236923737096 -0.0015778671903157778 0 -0.00014975669456727194 -0.0015060465980557376 0 -0.00015301145916805063 -0.0016326631387989046 0 -0.0001507014286012626 -0.001576861932820603 0 -0.00022174236923737096 -0.0015778671903157778 0 0.0044825148491227616 -0.0028726796298005142 0 0.0043906853917568527 -0.0028660841120285059 0 0.0042201983611818176 -0.0026321834004564598 0 0.0033402588301495455 -0.0027986273571708555 0 0.0035290674810357198 -0.0028113607841454597 0 0.0017849233731738945 -0.0026775686880954222 0 0.00059291176467932475 -0.002757078954749892 0 0.0043906853917568527 -0.0028660841120285059 0 0.0042201983611818176 -0.0026321834004564598 0 0.0041795440919381727 -0.0030482787283106537 0 0.0033402588301495455 -0.0027986273571708555 0 0.0017849233731738945 -0.0026775686880954222 0 -0.00015301145916805063 -0.0016326631387989046 0 -0.0001507014286012626 -0.001576861932820603 0 -3.1960563859475325e-05 -0.0016055816842475315 0 -0.0001507014286012626 -0.001576861932820603 0 -0.00014975669456727194 -0.0015060465980557376 0 -3.1960563859475325e-05 -0.0016055816842475315 0 0.00055565969468136095 -0.0025532237204855097 0 0.0017849233731738945 -0.0026775686880954222 0 -0.00015301145916805063 -0.0016326631387989046 0 -6.9966602918771875e-05 -0.0016166847808878806 0 -6.8401222886135531e-05 -0.0018386837472935298 0 0.0042201983611818176 -0.0026321834004564598 0 0.0041795440919381727 -0.0030482787283106537 0 0.0037547687269626501 -0.0031725430420650783 0 0.0041795440919381727 -0.0030482787283106537 0 0.00428403181753979 -0.0034987447818378425 0 0.0037547687269626501 -0.0031725430420650783 0 0.0037782924416421173 -0.0039342444195635687 0 0.00428403181753979 -0.0034987447818378425 0 0.0037547687269626501 -0.0031725430420650783 0 0.0041795440919381727 -0.0030482787283106537 0 0.0044276849742640699 -0.0030978700831889128 0 0.00428403181753979 -0.0034987447818378425 0 0.0043906853917568527 -0.0028660841120285059 0 0.0041795440919381727 -0.0030482787283106537 0 0.0044276849742640699 -0.0030978700831889128 0 0.0044795908610963421 -0.0028721226563011024 0 0.0043906853917568527 -0.0028660841120285059 0 0.0044276849742640699 -0.0030978700831889128 0 0.0046235849618421901 -0.0032463552586257101 0 0.0044276849742640699 -0.0030978700831889128 0 0.00428403181753979 -0.0034987447818378425 0 0.0030564380550118647 -0.0039272708077446455 0 0.0037547687269626501 -0.0031725430420650783 0 0.0030746601211600077 -0.0030015257979472171 0 0.0017849233731738945 -0.0026775686880954222 0 0.0023049374660502014 -0.0036828248844984076 0 0.001041261599830347 -0.0042383395794575399 0 0.00091856169855572566 -0.0038281966390385515 0 0.0012985877239978828 -0.0037171592339072194 0 0.0016800468110465669 -0.0040622391223735311 0 0.001041261599830347 -0.0042383395794575399 0 0.0012985877239978828 -0.0037171592339072194 0 0.0042201983611818176 -0.0026321834004564598 0 0.0037547687269626501 -0.0031725430420650783 0 0.0030746601211600077 -0.0030015257979472171 0 0.00069323267960991436 -0.0040141487231008912 0 0.001041261599830347 -0.0042383395794575399 0 0.00091856169855572566 -0.0038281966390385515 0 0.00069323267960991436 -0.0040141487231008912 0 0.00051864584334797965 -0.0042981145186518745 0 0.001041261599830347 -0.0042383395794575399 0 0.0023905780652422937 -0.003867793203910543 0 0.0030564380550118647 -0.0039272708077446455 0 0.0030746601211600077 -0.0030015257979472171 0 0.0023905780652422937 -0.003867793203910543 0 0.0018923362130829416 -0.0033764600017235583 0 0.0030746601211600077 -0.0030015257979472171 0 0.0011402898758028223 -0.0037930933434977814 0 0.0023049374660502014 -0.0036828248844984076 0 0.0026014693669619122 0.0041147504411137631 0 0.0026321887037464996 0.00053895953784230952 0 0.001238023257217844 0.0036026437057938569 0 0.0013314762426247389 0.0037175678868127519 0 0.0014418367751458782 0.0035599552083824034 0 0.00155417198653577 0.00031276657871993701 0 0.003228832202081343 -0.00094330180249079236 0 0.0031604570742703518 -0.0015526710608852973 0 0.0025842956058089095 0.0020221707890167367 0 0.0034894478491410809 -0.0012042131877027032 0 0.0029490022652866902 0.009322531358382697 0 0.0032925536053923805 0.0087479911396018285 0 0.0037421297462098073 0.0093646014649538065 0 0.002558620374828827 0.0066155294109325634 0 0.0026014693669619122 0.0041147504411137631 0 0.0029490022652866902 0.009322531358382697 0 0.0033229270311086047 0.0098794417290423327 0 0.0037421297462098073 0.0093646014649538065 0 0.0029490022652866902 0.009322531358382697 0 0.0026506193153401545 0.0098871509970029949 0 0.0033229270311086047 0.0098794417290423327 0 0.0030237720281736792 0.0044812384962816185 0 0.0026014693669619122 0.0041147504411137631 0 0.0030237720281736792 0.0044812384962816185 0 0.0025842956058089095 0.0020221707890167367 0 0.0025114217106765066 -7.6208376928584427e-05 0 0.0038698348600732717 0.00035960562970520284 0 0.0035524773383469065 -0.00029784205930715249 0 0.0023324191582459433 0.0040011973583296235 0 0.0032341326389259575 0.0031914740815630364 0 0.0031457376372304303 0.0030638612519108517 0 0.0036528204859947893 0.001588858880614211 0 0.0034959879241048901 0.0015792844693219591 0 0.0036383175424066754 0.0014762475238336867 0 0.0016759593471245993 0.00048981840129576782 0 0.00155417198653577 0.00031276657871993701 0 0.003228832202081343 -0.00094330180249079236 0 0.0038642101689344479 0.0015215199318096612 0 0.0025114217106765066 -7.6208376928584427e-05 0 0.0038698348600732717 0.00035960562970520284 0 0.0025842956058089095 0.0020221707890167367 0 0.0026014693669619122 0.0041147504411137631 0 0.0025114217106765066 -7.6208376928584427e-05 0 0.0035524773383469065 -0.00029784205930715249 0 0.0035612460911830478 -0.0010948748096987046 0 0.0038698348600732717 0.00035960562970520284 0 0.0042277665509775674 -0.00037295339223793428 0 0.0046247967635975693 0.00046525259182282559 0 0.0038698348600732717 0.00035960562970520284 0 0.0042277665509775674 -0.00037295339223793428 0 0.0035524773383469065 -0.00029784205930715249 0 0.0050879737801967058 -0.0019585323595790686 0 0.0053113356301077242 -0.0024269176194309959 0 0.0042277665509775674 -0.00037295339223793428 0 0.0046247967635975693 0.00046525259182282559 0 0.0054435413512867164 -0.00057353038118494021 0 0.0052101856027814558 0.0013682192857111522 0 0.0046247967635975693 0.00046525259182282559 0 0.0054435413512867164 -0.00057353038118494021 0 0.0053113356301077242 -0.0024269176194309959 0 0.005157252474247212 -0.0028880680016297833 0 0.0042277665509775674 -0.00037295339223793428 0 0.0054435413512867164 -0.00057353038118494021 0 0.00454373459433168 -0.0010903428666023183 0 0.0054435413512867164 -0.00057353038118494021 0 0.00454373459433168 -0.0010903428666023183 0 0.0045887405321721102 -0.0022292084208118583 0 0.0042277665509775674 -0.00037295339223793428 0 0.0035524773383469065 -0.00029784205930715249 0 0.0035612460911830478 -0.0010948748096987046 0 0.0042277665509775674 -0.00037295339223793428 0 0.00454373459433168 -0.0010903428666023183 0 0.0035612460911830478 -0.0010948748096987046 0 0.00454373459433168 -0.0010903428666023183 0 0.0035612460911830478 -0.0010948748096987046 0 0.0045887405321721102 -0.0022292084208118583 0 0.0034894478491410809 -0.0012042131877027032 0 0.0044552777014159259 -0.002059470938945675 0 0.003228832202081343 -0.00094330180249079236 0 0.0031604570742703518 -0.0015526710608852973 0 0.0045887405321721102 -0.0022292084208118583 0 0.00071033947064101535 0.00085168328683210461 0 -0.0011234414502626904 0.0040523815538323956 0 0.0031604570742703518 -0.0015526710608852973 0 0.0045887405321721102 -0.0022292084208118583 0 0.0047287461111072439 -0.0029998274484935991 0 0.0014418367751458782 0.0035599552083824034 0 0.0015552402737428793 0.0033949049909828563 0 0.001343996516582361 0.0034480002695536421 0 0.0026321887037464996 0.00053895953784230952 0 0.00071033947064101535 0.00085168328683210461 0 0.0054685235927795957 -0.003035797145303879 0 0.0047287461111072439 -0.0029998274484935991 0 0.005105126702275458 -0.0029153154474238271 0 0.0050304029772557319 -0.0032222638507498221 0 0.0052733629951423376 -0.0042738624088898645 0 0.005105126702275458 -0.0029153154474238271 0 0.0054435413512867164 -0.00057353038118494021 0 0.0045887405321721102 -0.0022292084208118583 0 0.005105126702275458 -0.0029153154474238271 0 0.0045887405321721102 -0.0022292084208118583 0 0.0047287461111072439 -0.0029998274484935991 0 0.005105126702275458 -0.0029153154474238271 0 0.00071033947064101535 0.00085168328683210461 0 -0.0020541512353008753 0.0015984257258247628 0 -0.0003315103594937679 -0.0015636199568954694 0 -0.00058625255091235967 -0.0014478736280846198 0 -0.00035569553780246522 -0.0017498978825168808 0 -0.0028434082681528016 0.0043244479309262574 0 -0.0028324879034289938 0.0045397516397572167 0 -0.0030276285057959885 0.0045358272068840282 0 -0.0028434082681528016 0.0043244479309262574 0 -0.0026783053259645138 0.0044569339841482297 0 -0.0028324879034289938 0.0045397516397572167 0 -0.0028434082681528016 0.0043244479309262574 0 -0.0026783053259645138 0.0044569339841482297 0 -0.0025639433056892924 0.0043259472797096835 0 -0.0026783053259645138 0.0044569339841482297 0 -0.0024942611808807134 0.0044911887479697696 0 -0.0026576488780001477 0.004610719140209869 0 -0.0026783053259645138 0.0044569339841482297 0 -0.0024942611808807134 0.0044911887479697696 0 -0.0025639433056892924 0.0043259472797096835 0 0.001238023257217844 0.0036026437057938569 0 0.0014418367751458782 0.0035599552083824034 0 0.001343996516582361 0.0034480002695536421 0 0.00050992584148222976 0.0055941007227334801 0 -0.0011234414502626904 0.0040523815538323956 0 0.0011472257371236442 0.0034956957662472784 0 0.001238023257217844 0.0036026437057938569 0 0.001343996516582361 0.0034480002695536421 0 0.00050992584148222976 0.0055941007227334801 0 0.002558620374828827 0.0066155294109325634 0 -0.0022470314949605938 0.0043210370743241022 0 -0.0024942611808807134 0.0044911887479697696 0 -0.0023110094143024974 0.0045877956163459157 0 -0.0022470314949605938 0.0043210370743241022 0 -0.0024942611808807134 0.0044911887479697696 0 -0.0025639433056892924 0.0043259472797096835 0 -0.0023110094143024974 0.0045877956163459157 0 -0.002487789570924534 0.0046423798728509437 0 -0.0023652380796949971 0.0047745044193736657 0 -0.0024942611808807134 0.0044911887479697696 0 -0.0023110094143024974 0.0045877956163459157 0 -0.002487789570924534 0.0046423798728509437 0 -0.002487789570924534 0.0046423798728509437 0 -0.0023652380796949971 0.0047745044193736657 0 -0.0026022626499930027 0.004829244692471083 0 -0.0023652380796949971 0.0047745044193736657 0 -0.0026022626499930027 0.004829244692471083 0 -0.002464193161112824 0.0049514306441249961 0 -0.0023652380796949971 0.0047745044193736657 0 -0.002464193161112824 0.0049514306441249961 0 -0.002228901113294698 0.0049089826929016624 0 -0.0026022626499930027 0.004829244692471083 0 -0.0026576488780001477 0.004610719140209869 0 -0.0027979981133492956 0.0047443870505950196 0 -0.002487789570924534 0.0046423798728509437 0 -0.0026022626499930027 0.004829244692471083 0 -0.0026576488780001477 0.004610719140209869 0 -0.0024942611808807134 0.0044911887479697696 0 -0.002487789570924534 0.0046423798728509437 0 -0.0026576488780001477 0.004610719140209869 0 -0.0026576488780001477 0.004610719140209869 0 -0.0028324879034289938 0.0045397516397572167 0 -0.0027979981133492956 0.0047443870505950196 0 -0.0026783053259645138 0.0044569339841482297 0 -0.0026576488780001477 0.004610719140209869 0 -0.0028324879034289938 0.0045397516397572167 0 -0.0028324879034289938 0.0045397516397572167 0 -0.002941876888903796 0.0046480417129002392 0 -0.0030276285057959885 0.0045358272068840282 0 -0.0028324879034289938 0.0045397516397572167 0 -0.002941876888903796 0.0046480417129002392 0 -0.0027979981133492956 0.0047443870505950196 0 -0.002941876888903796 0.0046480417129002392 0 -0.0030276285057959885 0.0045358272068840282 0 -0.003037105771496241 0.0046997749326302771 0 -0.0029766051340271325 0.0047770432170360921 0 -0.0027979981133492956 0.0047443870505950196 0 -0.0028970666560003831 0.0048905952978716 0 -0.002941876888903796 0.0046480417129002392 0 -0.0029766051340271325 0.0047770432170360921 0 -0.0027979981133492956 0.0047443870505950196 0 -0.002941876888903796 0.0046480417129002392 0 -0.0029766051340271325 0.0047770432170360921 0 -0.003037105771496241 0.0046997749326302771 0 -0.0026022626499930027 0.004829244692471083 0 -0.0027979981133492956 0.0047443870505950196 0 -0.0027643339529290233 0.0049924016827929615 0 -0.0027979981133492956 0.0047443870505950196 0 -0.0027643339529290233 0.0049924016827929615 0 -0.0028970666560003831 0.0048905952978716 0 -0.0027643339529290233 0.0049924016827929615 0 -0.0028970666560003831 0.0048905952978716 0 -0.0029191084460044566 0.0050569069629775769 0 -0.0029766051340271325 0.0047770432170360921 0 -0.0028970666560003831 0.0048905952978716 0 -0.0030465213137288159 0.0049087186020714303 0 -0.0028970666560003831 0.0048905952978716 0 -0.0029191084460044566 0.0050569069629775769 0 -0.0030465213137288159 0.0049087186020714303 0 -0.002966958410193548 0.0051864928914500622 0 -0.0030334464982698889 0.00513511552784531 0 -0.0029191084460044566 0.0050569069629775769 0 -0.0029454616491030286 0.0052081772047832837 0 -0.0030823659343534849 0.0050988943489163998 0 -0.0029191084460044566 0.0050569069629775769 0 -0.0030465213137288159 0.0049087186020714303 0 -0.0030823659343534849 0.0050988943489163998 0 -0.0029454616491030286 0.0052081772047832837 0 -0.0030556970256691149 0.0051310288451720384 0 -0.0030497849769982096 0.0052162575933057649 0 -0.0029191084460044566 0.0050569069629775769 0 -0.0029454616491030286 0.0052081772047832837 0 -0.0028141834736660682 0.0052209392998367656 0 -0.0027643339529290233 0.0049924016827929615 0 -0.0029191084460044566 0.0050569069629775769 0 -0.0028141834736660682 0.0052209392998367656 0 -0.0028141834736660682 0.0052209392998367656 0 -0.0025856787594624947 0.0050830818872025282 0 -0.0025160324355932603 0.0052337433118090377 0 -0.0027643339529290233 0.0049924016827929615 0 -0.0028141834736660682 0.0052209392998367656 0 -0.0025856787594624947 0.0050830818872025282 0 -0.0025856787594624947 0.0050830818872025282 0 -0.0025160324355932603 0.0052337433118090377 0 -0.0023305936944639396 0.0050907117045679686 0 -0.0026622034135337005 0.0052420681724464945 0 -0.0021177947239959631 0.0055883402645814798 0 -0.0025856787594624947 0.0050830818872025282 0 -0.002464193161112824 0.0049514306441249961 0 -0.0023305936944639396 0.0050907117045679686 0 -0.0025546197290186377 0.0048431747246516386 0 -0.0021177947239959631 0.0055883402645814798 0 -0.0026022626499930027 0.004829244692471083 0 -0.0027643339529290233 0.0049924016827929615 0 -0.0025856787594624947 0.0050830818872025282 0 -0.0026022626499930027 0.004829244692471083 0 -0.0025856787594624947 0.0050830818872025282 0 -0.002464193161112824 0.0049514306441249961 0 0.00038371848112531576 -0.0022774896109738632 0 0.00040107013830996798 -0.0022085498537479592 0 0.0003621121067146543 -0.0023598855960881029 0 0.00038371848112531576 -0.0022774896109738632 0 0.00040107013830996798 -0.0022085498537479592 0 0.00021826754004816563 -0.002178099299881706 0 0.00060795744384938781 -0.0037199575517095165 0 0.00091873519949295347 -0.0032037050312202914 0 0.00091856169855572566 -0.0038281966390385515 0 0.00091873519949295347 -0.0032037050312202914 0 0.00091856169855572566 -0.0038281966390385515 0 0.0012985877239978828 -0.0037171592339072194 0 0.00069323267960991436 -0.0040141487231008912 0 0.00060795744384938781 -0.0037199575517095165 0 0.00091856169855572566 -0.0038281966390385515 0 0.00064973436904935879 -0.0027109371964488382 0 0.00059291176467932475 -0.002757078954749892 0 6.0964063616710025e-05 -0.0020627780456368107 0 0.00021826754004816563 -0.002178099299881706 0 0.00010042278656444572 -0.0023444592469285389 0 0.00038371848112531576 -0.0022774896109738632 0 0.00021826754004816563 -0.002178099299881706 0 0.00010042278656444572 -0.0023444592469285389 0 0.00040107013830996798 -0.0022085498537479592 0 0.00016472056068797503 -0.0018839645837181159 0 0.00021826754004816563 -0.002178099299881706 0 0.00016472056068797503 -0.0018839645837181159 0 6.0964063616710025e-05 -0.0020627780456368107 0 0.00021826754004816563 -0.002178099299881706 0 -0.0031360722352331413 0.0047216602447790017 0 -0.0031270023217626827 0.0048194607339444905 0 -0.0031396353419661494 0.0047935041260701436 0 6.0964063616710025e-05 -0.0020627780456368107 0 -0.00013427902573507391 -0.0020576507443834922 0 0.00010042278656444572 -0.0023444592469285389 0 -0.0031360722352331413 0.0047216602447790017 0 -0.0031396353419661494 0.0047935041260701436 0 -0.0031567352430144822 0.0047903430543747016 0 -0.0016897337056677071 0.0014066711780140512 0 -0.00090771254014037261 0.00060098593504353019 0 -6.9966602918771875e-05 -0.0016166847808878806 0 0.00016472056068797503 -0.0018839645837181159 0 -6.8401222886135531e-05 -0.0018386837472935298 0 6.0964063616710025e-05 -0.0020627780456368107 0 -0.00013427902573507391 -0.0020576507443834922 0 -6.8401222886135531e-05 -0.0018386837472935298 0 0.00016472056068797503 -0.0018839645837181159 0 6.0964063616710025e-05 -0.0020627780456368107 0 -6.8401222886135531e-05 -0.0018386837472935298 0 -0.00013427902573507391 -0.0020576507443834922 0 -6.8401222886135531e-05 -0.0018386837472935298 0 -0.00019292539570555568 -0.0017906228606415827 0 -0.00015301145916805063 -0.0016326631387989046 0 -6.8401222886135531e-05 -0.0018386837472935298 0 -0.00019292539570555568 -0.0017906228606415827 0 -0.0016897337056677071 0.0014066711780140512 0 -0.0020541512353008753 0.0015984257258247628 0 -0.00013427902573507391 -0.0020576507443834922 0 -0.00019292539570555568 -0.0017906228606415827 0 -0.00035569553780246522 -0.0017498978825168808 0 -0.0031360722352331413 0.0047216602447790017 0 -0.0030276285057959885 0.0045358272068840282 0 -0.003037105771496241 0.0046997749326302771 0 -0.00025280730544548848 -0.0016763247571162509 0 -0.00019292539570555568 -0.0017906228606415827 0 -0.00035569553780246522 -0.0017498978825168808 0 -0.0031360722352331413 0.0047216602447790017 0 -0.0030845048960279008 0.0047958117656102727 0 -0.0031270023217626827 0.0048194607339444905 0 -0.0031360722352331413 0.0047216602447790017 0 -0.003037105771496241 0.0046997749326302771 0 -0.0030845048960279008 0.0047958117656102727 0 -0.0029766051340271325 0.0047770432170360921 0 -0.0030845048960279008 0.0047958117656102727 0 -0.0030465213137288159 0.0049087186020714303 0 -0.0029766051340271325 0.0047770432170360921 0 -0.003037105771496241 0.0046997749326302771 0 -0.0030845048960279008 0.0047958117656102727 0 -0.0031526266901917275 0.0049635434718157765 0 -0.003122614656180976 0.004255575721661564 0 -0.0030963657957042813 0.0048468643791819959 0 -0.0030465213137288159 0.0049087186020714303 0 -0.0031228608066065696 0.0048537834046803877 0 -0.0030465213137288159 0.0049087186020714303 0 -0.0030823659343534849 0.0050988943489163998 0 -0.0032913395834668459 0.0049915566580032312 0 -0.0030845048960279008 0.0047958117656102727 0 -0.0030963657957042813 0.0048468643791819959 0 -0.0030465213137288159 0.0049087186020714303 0 -0.0030845048960279008 0.0047958117656102727 0 -0.0030963657957042813 0.0048468643791819959 0 -0.0031270023217626827 0.0048194607339444905 0 -0.0030334464982698889 0.00513511552784531 0 -0.003122614656180976 0.004255575721661564 0 -0.0030556970256691149 0.0051310288451720384 0 -0.0031402262643274925 0.0051263040585015109 0 -0.0031746810041411544 0.0050467031198087389 0 -0.0030556970256691149 0.0051310288451720384 0 -0.0031105518769167931 0.0051867606653830016 0 -0.0030497849769982096 0.0052162575933057649 0 -0.0031105518769167931 0.0051867606653830016 0 -0.0031643954485574364 0.0051566409274575158 0 -0.0031590949150069481 0.0052267890004555426 0 -0.0030556970256691149 0.0051310288451720384 0 -0.0031105518769167931 0.0051867606653830016 0 -0.0031402262643274925 0.0051263040585015109 0 -0.0031105518769167931 0.0051867606653830016 0 -0.0031402262643274925 0.0051263040585015109 0 -0.0031643954485574364 0.0051566409274575158 0 -0.0031402262643274925 0.0051263040585015109 0 -0.0031869306210681051 0.0051057791214383771 0 -0.0031746810041411544 0.0050467031198087389 0 -0.0031869306210681051 0.0051057791214383771 0 -0.0032134474094381946 0.0051601473838609494 0 -0.0032441734713627626 0.0050644426957831175 0 -0.0025906181140943974 0.0027051649066082511 0 -0.003122614656180976 0.004255575721661564 0 -0.0031869306210681051 0.0051057791214383771 0 -0.0032441734713627626 0.0050644426957831175 0 -0.0031746810041411544 0.0050467031198087389 0 -0.0031402262643274925 0.0051263040585015109 0 -0.0031869306210681051 0.0051057791214383771 0 -0.0031643954485574364 0.0051566409274575158 0 -0.0031869306210681051 0.0051057791214383771 0 -0.0031643954485574364 0.0051566409274575158 0 -0.0032134474094381946 0.0051601473838609494 0 -0.0031643954485574364 0.0051566409274575158 0 -0.0032134474094381946 0.0051601473838609494 0 -0.0031590949150069481 0.0052267890004555426 0 -0.0032134474094381946 0.0051601473838609494 0 -0.0032441734713627626 0.0050644426957831175 0 -0.0032951487597997291 0.0051319392465489881 0 -0.0025906181140943974 0.0027051649066082511 0 -0.00058326100780206191 -0.00048460279440588465 0 -0.0025906181140943974 0.0027051649066082511 0 -0.0016286197833828605 0.0013389775142602358 0 -0.0018429994465692656 0.00072124190661858345 0 -0.002135990673043567 0.0011588865426405421 0 -0.0014197143566058125 0.0009941026394974478 0 -0.002135990673043567 0.0011588865426405421 0 -0.0012251349979215994 0.0015775967930436686 0 -0.0014197143566058125 0.0009941026394974478 0 -0.0029332139033837606 0.0033811832016793571 0 -0.00090771254014037261 0.00060098593504353019 0 -0.0025906181140943974 0.0027051649066082511 0 -0.0029332139033837606 0.0033811832016793571 0 -0.0030963657957042813 0.0048468643791819959 0 -0.0031228608066065696 0.0048537834046803877 0 -0.0031270023217626827 0.0048194607339444905 0 -0.0029332139033837606 0.0033811832016793571 0 -0.003122614656180976 0.004255575721661564 0 -0.00314367648625723 0.0048406169621058402 0 -0.0031228608066065696 0.0048537834046803877 0 -0.0031270023217626827 0.0048194607339444905 0 -0.0026193760270773313 0.0033413735828281463 0 -0.0028481685159883899 0.0036831820735884254 0 -0.0031501985773030308 0.0035413964734946654 0 -0.0029332139033837606 0.0033811832016793571 0 -0.0033434641499938155 0.0043854888561687963 0 -0.0031336613388141068 0.0048131831577257382 0 -0.0031270023217626827 0.0048194607339444905 0 -0.0031396353419661494 0.0047935041260701436 0 -0.0031336613388141068 0.0048131831577257382 0 -0.0031396353419661494 0.0047935041260701436 0 -0.0031567352430144822 0.0047903430543747016 0 0.00052229304178636458 -0.0027814116317449612 0 -0.00090771254014037261 0.00060098593504353019 0 0.00038371848112531576 -0.0022774896109738632 0 0.0003804582312286227 -0.0023042425242837208 0 0.00038693957492218071 -0.0023047447605115401 0 0.0003804582312286227 -0.0023042425242837208 0 0.00038693957492218071 -0.0023047447605115401 0 0.00038260919714990378 -0.002296705836754048 0 0.00042918158432925967 -0.002284220346873379 0 0.00042204409540635843 -0.0022340696019682504 0 0.00039907231362396658 -0.0022965056952107023 0 0.00038693957492218071 -0.0023047447605115401 0 0.00042918158432925967 -0.002284220346873379 0 0.00039907231362396658 -0.0022965056952107023 0 4.8014642681730593e-05 -0.002144773266631234 0 9.0682887021665575e-05 -0.0011399292477671894 0 -0.0012251349979215994 0.0015775967930436686 0 -0.00077429766908624362 0.0010641812419450558 0 -0.0014197143566058125 0.0009941026394974478 0 -0.00090771254014037261 0.00060098593504353019 0 9.0682887021665575e-05 -0.0011399292477671894 0 9.0682887021665575e-05 -0.0011399292477671894 0 -0.00058326100780206191 -0.00048460279440588465 0 -0.0022433675120394924 0.0016238725006685842 0 -0.0010566120721284093 0.0011810467028689792 0 -0.0014603099745317976 0.00046126648043166949 0 -0.0018429994465692656 0.00072124190661858345 0 -0.0014197143566058125 0.0009941026394974478 0 -0.0011212559281606313 0.00044790765974899648 0 -0.00077429766908624362 0.0010641812419450558 0 -0.0014197143566058125 0.0009941026394974478 0 -0.0011212559281606313 0.00044790765974899648 0 -0.00058326100780206191 -0.00048460279440588465 0 -0.0016286197833828605 0.0013389775142602358 0 -0.00042822046342251731 -0.0017598591548191685 0 -0.00048988754727789666 -0.001862734150478864 0 -0.00025355651104872227 -0.0019732543218530093 0 0.0004596041177840636 -0.0022719866901341496 0 0.00048863685655700076 -0.0022331354849484068 0 0.00042204409540635843 -0.0022340696019682504 0 9.0682887021665575e-05 -0.0011399292477671894 0 0.00063462356011624685 -0.0021938298913734703 0 -0.00042822046342251731 -0.0017598591548191685 0 -1.2711542580591287e-05 -0.0019679659784762006 0 -0.00025355651104872227 -0.0019732543218530093 0 -0.00058326100780206191 -0.00048460279440588465 0 0.00029763820343556735 -0.0021964295025344608 0 0.00042204409540635843 -0.0022340696019682504 0 0.00034316657553065428 -0.0021401135720622677 0 0.00037447458868078101 -0.0022579680572952419 0 0.00042204409540635843 -0.0022340696019682504 0 0.00037447458868078101 -0.0022579680572952419 0 0.00039907231362396658 -0.0022965056952107023 0 0.00048863685655700076 -0.0022331354849484068 0 0.00042204409540635843 -0.0022340696019682504 0 0.00034316657553065428 -0.0021401135720622677 0 0.00031421843732069865 -0.002270479382633671 0 0.00037447458868078101 -0.0022579680572952419 0 0.0003739022831139835 -0.0023326576757010239 0 0.00031421843732069865 -0.002270479382633671 0 0.00034316657553065428 -0.0021401135720622677 0 0.00037447458868078101 -0.0022579680572952419 0 0.00034319453747702204 -0.0023901809701234191 0 0.0003739022831139835 -0.0023326576757010239 0 0.0003621121067146543 -0.0023598855960881029 0 0.00037447458868078101 -0.0022579680572952419 0 0.0003739022831139835 -0.0023326576757010239 0 0.00039907231362396658 -0.0022965056952107023 0 0.00029733143980840895 -0.0025135147604362154 0 0.00040107013830996798 -0.0022085498537479592 0 0.0003621121067146543 -0.0023598855960881029 0 0.0003739022831139835 -0.0023326576757010239 0 0.00039907231362396658 -0.0022965056952107023 0 0.00038478650186029038 -0.0023213513528810032 0 0.00038693957492218071 -0.0023047447605115401 0 0.00039907231362396658 -0.0022965056952107023 0 0.00038478650186029038 -0.0023213513528810032 0 0.00038693957492218071 -0.0023047447605115401 0 0.00038478650186029038 -0.0023213513528810032 0 0.0003836459934181095 -0.0023143807959172058 0 0.00038371848112531576 -0.0022774896109738632 0 0.00038693957492218071 -0.0023047447605115401 0 0.0003836459934181095 -0.0023143807959172058 0 0.0003739022831139835 -0.0023326576757010239 0 0.00038478650186029038 -0.0023213513528810032 0 0.0003621121067146543 -0.0023598855960881029 0 0.00038371848112531576 -0.0022774896109738632 0 0.0003836459934181095 -0.0023143807959172058 0 0.0003621121067146543 -0.0023598855960881029 0 0.00038478650186029038 -0.0023213513528810032 0 0.0003836459934181095 -0.0023143807959172058 0 0.0003621121067146543 -0.0023598855960881029 0 -4.9907885514922343e-05 -0.0024120085888078113 0 -5.8363246026913154e-05 -0.0022067218070533959 0 -0.00027919783415254848 -0.0021697403801699128 0 -0.00036523089979970845 -0.0017255212554800566 0 -0.0006967306530054711 -0.0013047176141865605 0 -0.00060852240632410361 -0.0011345210837385407 0 -0.001388522224735334 7.5720532483757811e-05 0 -0.0015506992298131446 -0.0013650921890401618 0 5.9377870928957226e-05 -0.0023343890100857353 0 -4.9907885514922343e-05 -0.0024120085888078113 0 -5.8363246026913154e-05 -0.0022067218070533959 0 0.00010956687638688445 -0.0021854305697305604 0 -1.2711542580591287e-05 -0.0019679659784762006 0 -5.8363246026913154e-05 -0.0022067218070533959 0 -1.2711542580591287e-05 -0.0019679659784762006 0 -5.8363246026913154e-05 -0.0022067218070533959 0 -0.00025355651104872227 -0.0019732543218530093 0 -5.8363246026913154e-05 -0.0022067218070533959 0 -0.00027919783415254848 -0.0021697403801699128 0 -0.00025355651104872227 -0.0019732543218530093 0 -0.0016286197833828605 0.0013389775142602358 0 -0.0006967306530054711 -0.0013047176141865605 0 -0.0021799759823960358 0.0012722815661530083 0 -0.001388522224735334 7.5720532483757811e-05 0 -0.00278918487651759 0.00019195165007060004 0 -0.00048988754727789666 -0.001862734150478864 0 -0.00027919783415254848 -0.0021697403801699128 0 -0.00025355651104872227 -0.0019732543218530093 0 -0.001388522224735334 7.5720532483757811e-05 0 -0.002309949727768934 -0.00081372991483075381 0 -0.0015506992298131446 -0.0013650921890401618 0 -0.001388522224735334 7.5720532483757811e-05 0 -0.002309949727768934 -0.00081372991483075381 0 -0.00278918487651759 0.00019195165007060004 0 -0.0032289330555966595 0.0052783177877540411 0 -0.0031375487865532652 0.0053143551855773805 0 -0.0031438849640061223 0.0054197582329977316 0 -0.0030263249434972854 0.0027200391597441689 0 -0.0029038635694644522 0.0034584485668717134 0 -0.002309949727768934 -0.00081372991483075381 0 -0.00278918487651759 0.00019195165007060004 0 -0.0033947615822946245 -0.00087777649442626765 0 -0.0032134474094381946 0.0051601473838609494 0 -0.0032951487597997291 0.0051319392465489881 0 -0.0032289330555966595 0.0052783177877540411 0 -0.0016286197833828605 0.0013389775142602358 0 -0.0030263249434972854 0.0027200391597441689 0 -0.0032134474094381946 0.0051601473838609494 0 -0.0032289330555966595 0.0052783177877540411 0 -0.0031590949150069481 0.0052267890004555426 0 -0.0032289330555966595 0.0052783177877540411 0 -0.0031590949150069481 0.0052267890004555426 0 -0.0031375487865532652 0.0053143551855773805 0 -0.0031375487865532652 0.0053143551855773805 0 -0.0030960211394123302 0.0052624053672820472 0 -0.0030772437923699621 0.0053360017479525245 0 -0.0031590949150069481 0.0052267890004555426 0 -0.0031375487865532652 0.0053143551855773805 0 -0.0030960211394123302 0.0052624053672820472 0 -0.0031105518769167931 0.0051867606653830016 0 -0.0031590949150069481 0.0052267890004555426 0 -0.0030960211394123302 0.0052624053672820472 0 -0.0031105518769167931 0.0051867606653830016 0 -0.0030497849769982096 0.0052162575933057649 0 -0.0030960211394123302 0.0052624053672820472 0 -0.0030497849769982096 0.0052162575933057649 0 -0.0030960211394123302 0.0052624053672820472 0 -0.0030264015545182158 0.0052949724406311325 0 -0.0030960211394123302 0.0052624053672820472 0 -0.0030772437923699621 0.0053360017479525245 0 -0.0030264015545182158 0.0052949724406311325 0 -0.0030772437923699621 0.0053360017479525245 0 -0.0030571402497796985 0.0053937662834973145 0 -0.0031120771301664245 0.0053844369191211917 0 -0.0030772437923699621 0.0053360017479525245 0 -0.0030571402497796985 0.0053937662834973145 0 -0.0030234173869395989 0.0053734973070868807 0 -0.0031375487865532652 0.0053143551855773805 0 -0.0030772437923699621 0.0053360017479525245 0 -0.0031120771301664245 0.0053844369191211917 0 -0.0031375487865532652 0.0053143551855773805 0 -0.0031120771301664245 0.0053844369191211917 0 -0.0031438849640061223 0.0054197582329977316 0 -0.0031120771301664245 0.0053844369191211917 0 -0.0031219828801948802 0.0054230099230266858 0 -0.0030566780274437766 0.0054390919021143642 0 -0.0033953848959080032 0.0045691271468116133 0 -0.0029038635694644522 0.0034584485668717134 0 -0.0030571402497796985 0.0053937662834973145 0 -0.0031120771301664245 0.0053844369191211917 0 -0.0030566780274437766 0.0054390919021143642 0 -0.0030571402497796985 0.0053937662834973145 0 -0.0030566780274437766 0.0054390919021143642 0 -0.0030240905016452853 0.0054312157833980579 0 -0.0030566780274437766 0.0054390919021143642 0 -0.0030169588049782205 0.0054653491863283759 0 -0.0030240905016452853 0.0054312157833980579 0 -0.0029038635694644522 0.0034584485668717134 0 -0.0027799136553450484 0.0062803610899314962 0 -0.0031219828801948802 0.0054230099230266858 0 -0.0030566780274437766 0.0054390919021143642 0 -0.0029569715425119664 0.0054854339552045991 0 -0.0027169701463561507 0.0058291445487795258 0 -0.0027837167922659342 0.0056266675616317369 0 -0.0029569715425119664 0.0054854339552045991 0 -0.0030566780274437766 0.0054390919021143642 0 -0.0030169588049782205 0.0054653491863283759 0 -0.0029569715425119664 0.0054854339552045991 0 -0.0027837167922659342 0.0056266675616317369 0 -0.0028439481401801281 0.0055008283765202413 0 -0.0027746483750951344 0.0054772852650970304 0 -0.0027837167922659342 0.0056266675616317369 0 -0.0029569715425119664 0.0054854339552045991 0 -0.0028439481401801281 0.0055008283765202413 0 -0.0027837167922659342 0.0056266675616317369 0 -0.0027746483750951344 0.0054772852650970304 0 -0.0026529933355915192 0.0054419155950342513 0 -0.0030169588049782205 0.0054653491863283759 0 -0.0029569715425119664 0.0054854339552045991 0 -0.0029966065602041216 0.0054882406681443585 0 -0.0029569715425119664 0.0054854339552045991 0 -0.0029471836272902032 0.005444190396392508 0 -0.0029859863660116866 0.005487647870273506 0 -0.0029569715425119664 0.0054854339552045991 0 -0.0028659230287735845 0.0054315036991001864 0 -0.0028439481401801281 0.0055008283765202413 0 -0.0029569715425119664 0.0054854339552045991 0 -0.0029471836272902032 0.005444190396392508 0 -0.0028659230287735845 0.0054315036991001864 0 -0.0029471836272902032 0.005444190396392508 0 -0.0028648401299744882 0.0053661865558108741 0 -0.0028659230287735845 0.0054315036991001864 0 -0.0029471836272902032 0.005444190396392508 0 -0.0028648401299744882 0.0053661865558108741 0 -0.0029462100941001447 0.0053951462108945396 0 -0.0027506519012111129 0.005305878113258021 0 -0.0028648401299744882 0.0053661865558108741 0 -0.0028659230287735845 0.0054315036991001864 0 -0.0028659230287735845 0.0054315036991001864 0 -0.0027746483750951344 0.0054772852650970304 0 -0.0026529933355915192 0.0054419155950342513 0 -0.0028659230287735845 0.0054315036991001864 0 -0.0028439481401801281 0.0055008283765202413 0 -0.0027746483750951344 0.0054772852650970304 0 -0.0028659230287735845 0.0054315036991001864 0 -0.0024638954354146308 0.0053130059057064499 0 -0.0022685181932138284 0.005115393133251012 0 -0.0027506519012111129 0.005305878113258021 0 -0.0028659230287735845 0.0054315036991001864 0 -0.0025930533218956634 0.0053443648885965157 0 -0.0031117289916860534 0.0060022605601435901 0 -0.0020092945194114171 0.0032895507893551815 0 -0.0028659230287735845 0.0054315036991001864 0 -0.0026529933355915192 0.0054419155950342513 0 -0.0024638954354146308 0.0053130059057064499 0 -0.0026529933355915192 0.0054419155950342513 0 -0.0024638954354146308 0.0053130059057064499 0 -0.0024691448015320928 0.0055417474342101761 0 -0.0027169701463561507 0.0058291445487795258 0 -0.0027837167922659342 0.0056266675616317369 0 -0.0024691448015320928 0.0055417474342101761 0 -0.0029038635694644522 0.0034584485668717134 0 -0.002506053677087281 0.0016328306518579199 0 -0.002309949727768934 -0.00081372991483075381 0 -0.0033947615822946245 -0.00087777649442626765 0 -0.0025331565510478085 -0.0020541085397935703 0 -0.0027837167922659342 0.0056266675616317369 0 -0.0026529933355915192 0.0054419155950342513 0 -0.0024691448015320928 0.0055417474342101761 0 -0.002309949727768934 -0.00081372991483075381 0 -0.0025331565510478085 -0.0020541085397935703 0 -0.0015506992298131446 -0.0013650921890401618 0 -0.0015506992298131446 -0.0013650921890401618 0 -0.001563393352711916 -0.0022474887881687405 0 -0.00089005923179937777 -0.0019949737422358207 0 -0.0025331565510478085 -0.0020541085397935703 0 -0.0015506992298131446 -0.0013650921890401618 0 -0.001563393352711916 -0.0022474887881687405 0 -0.002506053677087281 0.0016328306518579199 0 -0.0012402913381148383 0.0011740144651317804 0 -0.0025331565510478085 -0.0020541085397935703 0 -0.001563393352711916 -0.0022474887881687405 0 -0.0016493615396632071 -0.0031813920265411164 0 -0.0024638954354146308 0.0053130059057064499 0 -0.0024691448015320928 0.0055417474342101761 0 -0.0021845313534331703 0.0051408761030070256 0 -0.0024638954354146308 0.0053130059057064499 0 -0.0022685181932138284 0.005115393133251012 0 -0.0021845313534331703 0.0051408761030070256 0 -0.0020092945194114171 0.0032895507893551815 0 -0.0012402913381148383 0.0011740144651317804 0 0.0010159169905788938 -0.0018398789285631999 0 0.0010496156454195904 -0.0018760199848735434 0 0.00082923856946531989 -0.0019302796543643323 0 -0.0016493615396632071 -0.0031813920265411164 0 -0.001254221585271838 -0.0026721228380520812 0 -0.00077428163759736286 -0.0027764497573329492 0 -0.0016964790854271362 0.00238463009454477 0 -0.00086565599554785423 0.0021132159585395944 0 -0.0011922357787574728 0.0025527835708193188 0 -0.0020092945194114171 0.0032895507893551815 0 -0.00095704667552201791 0.0012864611182993959 0 -0.00095704667552201791 0.0012864611182993959 0 -0.0012402913381148383 0.0011740144651317804 0 -0.001563393352711916 -0.0022474887881687405 0 -0.001254221585271838 -0.0026721228380520812 0 -0.0010255679293459971 -0.0024273684731962899 0 -0.001563393352711916 -0.0022474887881687405 0 -0.0016493615396632071 -0.0031813920265411164 0 -0.001254221585271838 -0.0026721228380520812 0 0.00063175176488697706 -0.0021084609996340161 0 0.0010496156454195904 -0.0018760199848735434 0 0.00082923856946531989 -0.0019302796543643323 0 0.00048124166350476858 -0.0029064526259069403 0 -0.0012402913381148383 0.0011740144651317804 0 0.000161128600442381 -0.0025697375972734667 0 -0.0016493615396632071 -0.0031813920265411164 0 -0.00077428163759736286 -0.0027764497573329492 0 0.0010159169905788938 -0.0018398789285631999 0 0.00075094939600810467 -0.0018646086550551748 0 0.00082923856946531989 -0.0019302796543643323 0 -0.0010255679293459971 -0.0024273684731962899 0 -0.00077428163759736286 -0.0027764497573329492 0 -0.00065904333049414236 -0.0024278254303685574 0 -0.001254221585271838 -0.0026721228380520812 0 -0.0010255679293459971 -0.0024273684731962899 0 -0.00077428163759736286 -0.0027764497573329492 0 0.00063175176488697706 -0.0021084609996340161 0 0.00068808158618915874 -0.001970783039989469 0 0.00082923856946531989 -0.0019302796543643323 0 0.00068808158618915874 -0.001970783039989469 0 0.00075094939600810467 -0.0018646086550551748 0 0.00082923856946531989 -0.0019302796543643323 0 0.000161128600442381 -0.0025697375972734667 0 -0.00077428163759736286 -0.0027764497573329492 0 -0.00031451893652135679 -0.0025958879368889586 0 -0.00077428163759736286 -0.0027764497573329492 0 -0.00065904333049414236 -0.0024278254303685574 0 -0.00031451893652135679 -0.0025958879368889586 0 -0.00065904333049414236 -0.0024278254303685574 0 -0.00031451893652135679 -0.0025958879368889586 0 -0.00040738827736872858 -0.0022002311185166752 0 -7.8818947974450623e-05 -0.0024841973330276689 0 -0.00031451893652135679 -0.0025958879368889586 0 -0.00040738827736872858 -0.0022002311185166752 0 9.9214207203085679e-05 -0.0024455248144729306 0 -0.00060852240632410361 -0.0011345210837385407 0 -0.00040738827736872858 -0.0022002311185166752 0 6.7038979438681462e-05 -0.0023877895427596445 0 -0.00036523089979970845 -0.0017255212554800566 0 -0.00065904333049414236 -0.0024278254303685574 0 -0.00040738827736872858 -0.0022002311185166752 0 -0.00089005923179937777 -0.0019949737422358207 0 -0.0010255679293459971 -0.0024273684731962899 0 -0.00065904333049414236 -0.0024278254303685574 0 -0.00089005923179937777 -0.0019949737422358207 0 -0.001563393352711916 -0.0022474887881687405 0 -0.0010255679293459971 -0.0024273684731962899 0 -0.00089005923179937777 -0.0019949737422358207 0 -0.00060852240632410361 -0.0011345210837385407 0 -0.0015506992298131446 -0.0013650921890401618 0 -0.00089005923179937777 -0.0019949737422358207 0 -0.00060852240632410361 -0.0011345210837385407 0 -0.00040738827736872858 -0.0022002311185166752 0 -0.00089005923179937777 -0.0019949737422358207 0 -0.0028262586297279077 0.0054915140581821738 0 -0.0029037531060570709 0.0054413361915573123 0 -0.002937490388880326 0.0055714477270766725 0 -0.0028262586297279077 0.0054915140581821738 0 -0.0028036249547129253 0.005388022131573183 0 -0.0029037531060570709 0.0054413361915573123 0 -0.0028262586297279077 0.0054915140581821738 0 -0.0028479484366306365 0.0056894972706953029 0 -0.0026833421739834622 0.0054947851103740973 0 -0.0027825913445780849 0.0053037313976575812 0 -0.0028262586297279077 0.0054915140581821738 0 -0.0028036249547129253 0.005388022131573183 0 -0.0027825913445780849 0.0053037313976575812 0 -0.0028262586297279077 0.0054915140581821738 0 -0.0026833421739834622 0.0054947851103740973 0 -0.0026622034135337005 0.0052420681724464945 0 -0.0027809991747263798 0.0053763688977978424 0 -0.0028141834736660682 0.0052209392998367656 0 -0.0025160324355932603 0.0052337433118090377 0 -0.0028036249547129253 0.005388022131573183 0 -0.0028141834736660682 0.0052209392998367656 0 -0.0028036249547129253 0.005388022131573183 0 -0.0029037531060570709 0.0054413361915573123 0 -0.0028141834736660682 0.0052209392998367656 0 -0.0029609871021661241 0.0053562207437130357 0 -0.0029037531060570709 0.0054413361915573123 0 -0.0029454616491030286 0.0052081772047832837 0 -0.0028141834736660682 0.0052209392998367656 0 -0.0029609871021661241 0.0053562207437130357 0 -0.0029454616491030286 0.0052081772047832837 0 -0.0030497849769982096 0.0052162575933057649 0 -0.0030264015545182158 0.0052949724406311325 0 -0.0029454616491030286 0.0052081772047832837 0 -0.0029609871021661241 0.0053562207437130357 0 -0.0030264015545182158 0.0052949724406311325 0 -0.0029609871021661241 0.0053562207437130357 0 -0.0030264015545182158 0.0052949724406311325 0 -0.0030234173869395989 0.0053734973070868807 0 -0.0030772437923699621 0.0053360017479525245 0 -0.0030264015545182158 0.0052949724406311325 0 -0.0030234173869395989 0.0053734973070868807 0 -0.0030571402497796985 0.0053937662834973145 0 -0.0030234173869395989 0.0053734973070868807 0 -0.0030240905016452853 0.0054312157833980579 0 -0.0030234173869395989 0.0053734973070868807 0 -0.0029975379626280031 0.0054237079719381973 0 -0.0030240905016452853 0.0054312157833980579 0 -0.0029609871021661241 0.0053562207437130357 0 -0.0030234173869395989 0.0053734973070868807 0 -0.0029975379626280031 0.0054237079719381973 0 -0.0029609871021661241 0.0053562207437130357 0 -0.0029975379626280031 0.0054237079719381973 0 -0.0029730410523006985 0.0054610717395870752 0 -0.0029975379626280031 0.0054237079719381973 0 -0.0029730410523006985 0.0054610717395870752 0 -0.0030014865903765895 0.0054752340999486959 0 -0.0029975379626280031 0.0054237079719381973 0 -0.0030240905016452853 0.0054312157833980579 0 -0.0030014865903765895 0.0054752340999486959 0 -0.0029037531060570709 0.0054413361915573123 0 -0.0029730410523006985 0.0054610717395870752 0 -0.0029850048077407218 0.0055295694074113328 0 -0.0029609871021661241 0.0053562207437130357 0 -0.0029037531060570709 0.0054413361915573123 0 -0.0029730410523006985 0.0054610717395870752 0 -0.0029037531060570709 0.0054413361915573123 0 -0.0029850048077407218 0.0055295694074113328 0 -0.002937490388880326 0.0055714477270766725 0 -0.0029730410523006985 0.0054610717395870752 0 -0.0029850048077407218 0.0055295694074113328 0 -0.0029903550082442782 0.0054957119574115445 0 -0.0029850048077407218 0.0055295694074113328 0 -0.0029903550082442782 0.0054957119574115445 0 -0.0030027328233879313 0.0055067284328272331 0 -0.0029850048077407218 0.0055295694074113328 0 -0.0030027328233879313 0.0055067284328272331 0 -0.0030329442526682011 0.0055371246593223658 0 -0.0029850048077407218 0.0055295694074113328 0 -0.0030329442526682011 0.0055371246593223658 0 -0.0030004874529510417 0.0055906398713060279 0 -0.0030169588049782205 0.0054653491863283759 0 -0.0030014865903765895 0.0054752340999486959 0 -0.0029966065602041216 0.0054882406681443585 0 -0.0030169588049782205 0.0054653491863283759 0 -0.0030240905016452853 0.0054312157833980579 0 -0.0030014865903765895 0.0054752340999486959 0 -0.0030014865903765895 0.0054752340999486959 0 -0.0029903550082442782 0.0054957119574115445 0 -0.0030027328233879313 0.0055067284328272331 0 -0.0029730410523006985 0.0054610717395870752 0 -0.0030014865903765895 0.0054752340999486959 0 -0.0029903550082442782 0.0054957119574115445 0 -0.0030014865903765895 0.0054752340999486959 0 -0.0030027328233879313 0.0055067284328272331 0 -0.0029966065602041216 0.0054882406681443585 0 -0.0030027328233879313 0.0055067284328272331 0 -0.0029966065602041216 0.0054882406681443585 0 -0.0029859863660116866 0.005487647870273506 0 -0.0029569715425119664 0.0054854339552045991 0 -0.0029966065602041216 0.0054882406681443585 0 -0.0029859863660116866 0.005487647870273506 0 -0.0029471836272902032 0.005444190396392508 0 -0.0030017310560804967 0.0054776681512512275 0 -0.0029859863660116866 0.005487647870273506 0 -0.0030027328233879313 0.0055067284328272331 0 -0.0030017310560804967 0.0054776681512512275 0 -0.0029859863660116866 0.005487647870273506 0 -0.0030027328233879313 0.0055067284328272331 0 -0.0030017310560804967 0.0054776681512512275 0 -0.0030329442526682011 0.0055371246593223658 0 -0.0030443168573491696 0.0054300360066745525 0 -0.0030017310560804967 0.0054776681512512275 0 -0.0030329442526682011 0.0055371246593223658 0 -0.0030443168573491696 0.0054300360066745525 0 -0.0030017310560804967 0.0054776681512512275 0 -0.0029462100941001447 0.0053951462108945396 0 -0.0029471836272902032 0.005444190396392508 0 -0.0030017310560804967 0.0054776681512512275 0 -0.0029462100941001447 0.0053951462108945396 0 -0.0030329442526682011 0.0055371246593223658 0 -0.0030405326506484798 0.0056149118821941148 0 -0.0030004874529510417 0.0055906398713060279 0 -0.0030645576438883366 0.0055124932762917085 0 -0.0030443168573491696 0.0054300360066745525 0 -0.0030329442526682011 0.0055371246593223658 0 -0.0030645576438883366 0.0055124932762917085 0 -0.0030329442526682011 0.0055371246593223658 0 -0.0030405326506484798 0.0056149118821941148 0 -0.0030243403059082978 0.0057341194925375847 0 -0.0030405326506484798 0.0056149118821941148 0 -0.0029813538227302684 0.0056849252233133153 0 -0.0030405326506484798 0.0056149118821941148 0 -0.0029813538227302684 0.0056849252233133153 0 -0.0030004874529510417 0.0055906398713060279 0 -0.0029813538227302684 0.0056849252233133153 0 -0.0030004874529510417 0.0055906398713060279 0 -0.002937490388880326 0.0055714477270766725 0 -0.0029850048077407218 0.0055295694074113328 0 -0.0030004874529510417 0.0055906398713060279 0 -0.002937490388880326 0.0055714477270766725 0 -0.0028262586297279077 0.0054915140581821738 0 -0.002937490388880326 0.0055714477270766725 0 -0.0028479484366306365 0.0056894972706953029 0 -0.0029813538227302684 0.0056849252233133153 0 -0.002937490388880326 0.0055714477270766725 0 -0.0028479484366306365 0.0056894972706953029 0 -0.0029494300059534134 0.00587946400512102 0 -0.0029813538227302684 0.0056849252233133153 0 -0.0028479484366306365 0.0056894972706953029 0 -0.0030243403059082978 0.0057341194925375847 0 -0.0029494300059534134 0.00587946400512102 0 -0.0029813538227302684 0.0056849252233133153 0 -0.0029494300059534134 0.00587946400512102 0 -0.0028479484366306365 0.0056894972706953029 0 -0.0027242058985997809 0.0059891681491807758 0 -0.0028479484366306365 0.0056894972706953029 0 -0.0027242058985997809 0.0059891681491807758 0 -0.0026260109716213747 0.0057636893339866385 0 -0.002428071378084012 0.0064823347013644754 0 -0.0027242058985997809 0.0059891681491807758 0 -0.0023803657352946261 0.0060396501874260336 0 -0.0027242058985997809 0.0059891681491807758 0 -0.0023803657352946261 0.0060396501874260336 0 -0.0026260109716213747 0.0057636893339866385 0 -0.0023803657352946261 0.0060396501874260336 0 -0.0026260109716213747 0.0057636893339866385 0 -0.0023971145512184629 0.0056468222210169124 0 -0.0028479484366306365 0.0056894972706953029 0 -0.0026260109716213747 0.0057636893339866385 0 -0.0026833421739834622 0.0054947851103740973 0 -0.0026260109716213747 0.0057636893339866385 0 -0.0026833421739834622 0.0054947851103740973 0 -0.0023971145512184629 0.0056468222210169124 0 -0.0026833421739834622 0.0054947851103740973 0 -0.0023971145512184629 0.0056468222210169124 0 -0.0024364300374208991 0.0053046507363382163 0 -0.0026833421739834622 0.0054947851103740973 0 -0.0024364300374208991 0.0053046507363382163 0 -0.0026393272647860467 0.0053232941735989279 0 -0.0027825913445780849 0.0053037313976575812 0 -0.0026833421739834622 0.0054947851103740973 0 -0.0026393272647860467 0.0053232941735989279 0 -0.0013689942841669924 0.0062736331529916851 0 -0.0013760929171170201 0.0060725486044572556 0 -0.0015396213759818929 0.00618999839503033 0 -0.0011298326170713433 0.0062775894509081937 0 -0.0013689942841669924 0.0062736331529916851 0 -0.0013760929171170201 0.0060725486044572556 0 -0.0017050670265841513 0.0058496727408664032 0 -0.0017437169480784666 0.0057990338178734967 0 -0.0023971145512184629 0.0056468222210169124 0 -0.002082645885114301 0.0055249347961992632 0 -0.0021053202617325787 0.0058964298392397488 0 -0.0023971145512184629 0.0056468222210169124 0 -0.0024364300374208991 0.0053046507363382163 0 -0.002082645885114301 0.0055249347961992632 0 -0.0017437169480784666 0.0057990338178734967 0 -0.0015740596445269234 0.0059940220991211209 0 -0.0013760929171170201 0.0060725486044572556 0 -0.0015788993660705616 0.0060056401593918361 0 -0.0015056663984202247 0.006060385916013173 0 -0.0013760929171170201 0.0060725486044572556 0 -0.0015056663984202247 0.006060385916013173 0 -0.0015396213759818929 0.00618999839503033 0 -0.0021053202617325787 0.0058964298392397488 0 -0.0019670836691270776 0.0062594024018148573 0 -0.0015788993660705616 0.0060056401593918361 0 -0.002082645885114301 0.0055249347961992632 0 -0.0021053202617325787 0.0058964298392397488 0 -0.0015788993660705616 0.0060056401593918361 0 -0.0023803657352946261 0.0060396501874260336 0 -0.0023971145512184629 0.0056468222210169124 0 -0.0021053202617325787 0.0058964298392397488 0 -0.0023803657352946261 0.0060396501874260336 0 -0.0021053202617325787 0.0058964298392397488 0 -0.0019670836691270776 0.0062594024018148573 0 -0.002190707239700621 0.0063797318315237748 0 -0.0023803657352946261 0.0060396501874260336 0 -0.0019670836691270776 0.0062594024018148573 0 -0.001955885789763614 0.006733954305430198 0 -0.0019670836691270776 0.0062594024018148573 0 -0.0016236610353059797 0.0065356779409622857 0 -0.0016236610353059797 0.0065356779409622857 0 -0.0013807118374071228 0.0062913404723171527 0 -0.0015788993660705616 0.0060056401593918361 0 -0.0019670836691270776 0.0062594024018148573 0 -0.0016236610353059797 0.0065356779409622857 0 -0.0015788993660705616 0.0060056401593918361 0 -0.0016236610353059797 0.0065356779409622857 0 -0.0012810057513637 0.0066650264236007882 0 -0.0013807118374071228 0.0062913404723171527 0 -0.0012810057513637 0.0066650264236007882 0 -0.0013807118374071228 0.0062913404723171527 0 -0.00087504558616012887 0.0064359663770050353 0 -0.00096941082919328064 0.0087717130581526324 0 -0.00072545479450872861 0.0089519037527468395 0 -0.00053888359652309338 0.011528023455381472 0 -0.00044422923564122743 0.011502921073528741 0 -0.00046018833943479195 0.011540256658700164 0 -0.0013807118374071228 0.0062913404723171527 0 -0.001446053918413005 0.0059678916141583157 0 -0.00087504558616012887 0.0064359663770050353 0 -0.0013807118374071228 0.0062913404723171527 0 -0.001446053918413005 0.0059678916141583157 0 -0.0015788993660705616 0.0060056401593918361 0 -0.00047082649976207009 0.011482753784801117 0 -0.00044422923564122743 0.011502921073528741 0 -0.0004564168908654551 0.01155504811010869 0 -0.00044422923564122743 0.011502921073528741 0 -0.0004564168908654551 0.01155504811010869 0 -0.00046018833943479195 0.011540256658700164 0 -0.0004564168908654551 0.01155504811010869 0 -0.00046005003046747673 0.01158763629184017 0 -0.00046018833943479195 0.011540256658700164 0 -0.00046005003046747673 0.01158763629184017 0 -0.00046018833943479195 0.011540256658700164 0 -0.00043416914651568379 0.011518332616957378 0 -0.00046018833943479195 0.011540256658700164 0 -0.00043416914651568379 0.011518332616957378 0 -0.00051935039519781883 0.011462167241216769 0 -0.00043416914651568379 0.011518332616957378 0 -0.00051935039519781883 0.011462167241216769 0 -0.00044530113851471814 0.011363013612211438 0 -0.00051935039519781883 0.011462167241216769 0 -0.00052782548613228232 0.011334851639401707 0 -0.00044530113851471814 0.011363013612211438 0 -0.00048164817349887043 0.011595490805493424 0 -0.00043416914651568379 0.011518332616957378 0 -0.00046574785175532705 0.011612991778706573 0 -0.00044668898448697468 0.011550489307781908 0 -0.00032919732307054117 0.011426137516316177 0 -0.00048164817349887043 0.011595490805493424 0 -0.00046005003046747673 0.01158763629184017 0 -0.00043416914651568379 0.011518332616957378 0 -0.00043416914651568379 0.011518332616957378 0 -0.00046574785175532705 0.011612991778706573 0 -0.00045032279061224528 0.011645370069744672 0 -0.00043416914651568379 0.011518332616957378 0 -0.00030887536653809839 0.011346050437235775 0 -0.00044530113851471814 0.011363013612211438 0 -0.001446053918413005 0.0059678916141583157 0 -0.0015788993660705616 0.0060056401593918361 0 -0.0015056663984202247 0.006060385916013173 0 -0.00096941082919328064 0.0087717130581526324 0 -0.001121013232777656 0.0087683428937729117 0 -0.001446053918413005 0.0059678916141583157 0 -0.0015056663984202247 0.006060385916013173 0 -0.0015396213759818929 0.00618999839503033 0 -0.00053888359652309338 0.011528023455381472 0 -0.00051935039519781883 0.011462167241216769 0 -0.00069430378217620451 0.011404691265749308 0 -0.00053888359652309338 0.011528023455381472 0 -0.00046018833943479195 0.011540256658700164 0 -0.00051935039519781883 0.011462167241216769 0 -0.00051935039519781883 0.011462167241216769 0 -0.00058396861961494478 0.011366745034322064 0 -0.00052782548613228232 0.011334851639401707 0 -0.00051935039519781883 0.011462167241216769 0 -0.00058396861961494478 0.011366745034322064 0 -0.00069430378217620451 0.011404691265749308 0 -0.00069430378217620451 0.011404691265749308 0 -0.00061411520820228607 0.011251251031024506 0 -0.00081912963441243788 0.011216219207597711 0 -0.00058396861961494478 0.011366745034322064 0 -0.00069430378217620451 0.011404691265749308 0 -0.00061411520820228607 0.011251251031024506 0 -0.00058396861961494478 0.011366745034322064 0 -0.00061411520820228607 0.011251251031024506 0 -0.00052782548613228232 0.011334851639401707 0 -0.00061411520820228607 0.011251251031024506 0 -0.00052782548613228232 0.011334851639401707 0 -0.00050353476014516863 0.01124291095735217 0 -0.00039445973539367705 0.011205362472166119 0 -0.00061401544170314952 0.011185826098845145 0 -0.00039078065127107474 0.011298911858126834 0 -0.00061411520820228607 0.011251251031024506 0 -0.00067277849549009379 0.011131445461446716 0 -0.00050353476014516863 0.01124291095735217 0 -0.00064708921113805441 0.011157023913671214 0 -0.0004377501447286409 0.011260969730625908 0 -0.00061411520820228607 0.011251251031024506 0 -0.00067277849549009379 0.011131445461446716 0 -0.00081912963441243788 0.011216219207597711 0 -0.00023382511077897628 0.011327722013332642 0 -0.00021834274084036055 0.011345434124618244 0 -0.00022245456766138141 0.011300512024252706 0 -0.00023382511077897628 0.011327722013332642 0 -0.00023396645294588013 0.011340693024567567 0 -0.0002613767267664186 0.011323883615986376 0 -0.00023382511077897628 0.011327722013332642 0 -0.0002613767267664186 0.011323883615986376 0 -0.00022245456766138141 0.011300512024252706 0 -0.00023396645294588013 0.011340693024567567 0 -0.00022875797837963103 0.011365370729404318 0 -0.0002613767267664186 0.011323883615986376 0 -0.00023396645294588013 0.011340693024567567 0 -0.00021834274084036055 0.011345434124618244 0 -0.00022875797837963103 0.011365370729404318 0 -0.00023382511077897628 0.011327722013332642 0 -0.00023396645294588013 0.011340693024567567 0 -0.00021834274084036055 0.011345434124618244 0 -0.00030122593208093578 0.011371295081508149 0 -0.00032919732307054117 0.011426137516316177 0 -0.0004900904622135696 0.011635420555317659 0 -0.0004774187836006161 0.011646473222304686 0 -0.00046574785175532705 0.011612991778706573 0 -0.00045840974615484826 0.011663515677032651 0 -0.00046574785175532705 0.011612991778706573 0 -0.00045032279061224528 0.011645370069744672 0 -0.00045840974615484826 0.011663515677032651 0 -0.0004774187836006161 0.011646473222304686 0 -0.00046574785175532705 0.011612991778706573 0 -0.00030887536653809839 0.011346050437235775 0 -0.00044530113851471814 0.011363013612211438 0 -0.00050353476014516863 0.01124291095735217 0 -0.00032919732307054117 0.011426137516316177 0 -0.0004377501447286409 0.011260969730625908 0 -0.00022875797837963103 0.011365370729404318 0 -0.0002613767267664186 0.011323883615986376 0 -0.00039078065127107474 0.011298911858126834 0 -0.00052782548613228232 0.011334851639401707 0 -0.00044530113851471814 0.011363013612211438 0 -0.00050353476014516863 0.01124291095735217 0 -0.0002613767267664186 0.011323883615986376 0 -0.00039078065127107474 0.011298911858126834 0 -0.00030140521648685923 0.01128299932694001 0 -0.00039445973539367705 0.011205362472166119 0 -0.00039078065127107474 0.011298911858126834 0 -0.00033019091535785891 0.011253613087925728 0 -0.00039445973539367705 0.011205362472166119 0 -0.00032164750218337734 0.011228040958212636 0 -0.00033019091535785891 0.011253613087925728 0 -0.00039445973539367705 0.011205362472166119 0 -0.00032164750218337734 0.011228040958212636 0 -0.00029545021492061971 0.011198397444314518 0 -0.00032164750218337734 0.011228040958212636 0 -0.00027246136522798863 0.011250216069002398 0 -0.00029545021492061971 0.011198397444314518 0 -0.00033019091535785891 0.011253613087925728 0 -0.00030140521648685923 0.01128299932694001 0 -0.00027246136522798863 0.011250216069002398 0 -0.00032164750218337734 0.011228040958212636 0 -0.00033019091535785891 0.011253613087925728 0 -0.00027246136522798863 0.011250216069002398 0 -0.00039078065127107474 0.011298911858126834 0 -0.00033019091535785891 0.011253613087925728 0 -0.00030140521648685923 0.01128299932694001 0 -0.0002613767267664186 0.011323883615986376 0 -0.00030140521648685923 0.01128299932694001 0 -0.00025605674251805415 0.011285562046791153 0 -0.0002613767267664186 0.011323883615986376 0 -0.00025605674251805415 0.011285562046791153 0 -0.00022245456766138141 0.011300512024252706 0 -0.00030140521648685923 0.01128299932694001 0 -0.00025605674251805415 0.011285562046791153 0 -0.00027246136522798863 0.011250216069002398 0 -0.00027246136522798863 0.011250216069002398 0 -0.00023379439691935188 0.011233183197920729 0 -0.00024986901497197077 0.011207694466300074 0 -0.00025605674251805415 0.011285562046791153 0 -0.00027246136522798863 0.011250216069002398 0 -0.00022224748239296264 0.01125920579279439 0 -0.00027246136522798863 0.011250216069002398 0 -0.00022224748239296264 0.01125920579279439 0 -0.00023379439691935188 0.011233183197920729 0 -0.00022224748239296264 0.01125920579279439 0 -0.00023379439691935188 0.011233183197920729 0 -0.00020256122126554953 0.011228689881696072 0 -0.00025605674251805415 0.011285562046791153 0 -0.00022224748239296264 0.01125920579279439 0 -0.00022245456766138141 0.011300512024252706 0 -9.9019114177978983e-05 0.011094981511221975 0 -0.00020540488580017937 0.011099832820723101 0 -0.00024207424457936273 0.011027171405436621 0 -9.9019114177978983e-05 0.011094981511221975 0 -0.00013554597414349408 0.011123016728659282 0 -0.00020540488580017937 0.011099832820723101 0 -2.3365181435028325e-05 0.012466354297745546 0 -3.5976174442958418e-06 0.011718873545767561 0 -0.00019354217105420471 0.011206152583715517 0 -0.00021241065603977918 0.011185164400028242 0 -0.00021826830940766131 0.011211825752889584 0 -0.00019354217105420471 0.011206152583715517 0 -0.00020256122126554953 0.011228689881696072 0 -0.00021826830940766131 0.011211825752889584 0 -0.00023379439691935188 0.011233183197920729 0 -0.00020256122126554953 0.011228689881696072 0 -0.00021826830940766131 0.011211825752889584 0 -0.00023379439691935188 0.011233183197920729 0 -0.00021826830940766131 0.011211825752889584 0 -0.00024986901497197077 0.011207694466300074 0 -0.00021241065603977918 0.011185164400028242 0 -0.00021826830940766131 0.011211825752889584 0 -0.00024986901497197077 0.011207694466300074 0 -3.5976174442958418e-06 0.011718873545767561 0 -6.3896602008137635e-05 0.011399464923909749 0 -0.00020955835520876677 0.011182382493054768 0 -0.00024986901497197077 0.011207694466300074 0 -0.00029545021492061971 0.011198397444314518 0 -0.00013554597414349408 0.011123016728659282 0 -0.00020540488580017937 0.011099832820723101 0 -0.00026394566183975793 0.011160956196168959 0 -3.5976174442958418e-06 0.011718873545767561 0 -0.00027086164271938418 0.011200693603375658 0 -0.00027246136522798863 0.011250216069002398 0 -0.00024986901497197077 0.011207694466300074 0 -0.00029545021492061971 0.011198397444314518 0 -0.00020540488580017937 0.011099832820723101 0 -0.00028581470949378253 0.011092676803458941 0 -0.00024207424457936273 0.011027171405436621 0 -0.00020540488580017937 0.011099832820723101 0 -0.00028581470949378253 0.011092676803458941 0 -0.00026394566183975793 0.011160956196168959 0 -0.00028581470949378253 0.011092676803458941 0 -0.00026394566183975793 0.011160956196168959 0 -0.00035791731831924783 0.011115133405998512 0 -0.00037971424306008125 0.01120808270429424 0 -0.00027086164271938418 0.011200693603375658 0 -0.00039445973539367705 0.011205362472166119 0 -0.00026394566183975793 0.011160956196168959 0 -0.00035791731831924783 0.011115133405998512 0 -0.00028581470949378253 0.011092676803458941 0 -0.00035791731831924783 0.011115133405998512 0 -0.00037379865395906404 0.011015584761870355 0 -0.00024468520557533547 0.010892079091259482 0 -0.00037379865395906404 0.011015584761870355 0 -0.00024207424457936273 0.011027171405436621 0 -0.00044047253885927271 0.010863306668500685 0 -0.00024468520557533547 0.010892079091259482 0 -0.00037379865395906404 0.011015584761870355 0 -0.00028581470949378253 0.011092676803458941 0 -0.00037379865395906404 0.011015584761870355 0 -0.00024207424457936273 0.011027171405436621 0 8.9205018565078725e-05 0.013983589997498503 0 8.321324326934864e-05 0.014174745762539997 0 0.00022433596798527897 0.014198583639477723 0 -9.9019114177978983e-05 0.011094981511221975 0 -0.00024468520557533547 0.010892079091259482 0 -0.00024207424457936273 0.011027171405436621 0 -2.3365181435028325e-05 0.012466354297745546 0 -1.0051911305096315e-05 0.012402212504061946 0 -0.00061401544170314952 0.011185826098845145 0 -0.00047264928885588784 0.011102252709739874 0 -0.00054638423901521877 0.010995642655380475 0 -0.00061401544170314952 0.011185826098845145 0 -0.00054638423901521877 0.010995642655380475 0 -0.0006640131016161392 0.011002092344816351 0 -0.00037379865395906404 0.011015584761870355 0 -0.00047264928885588784 0.011102252709739874 0 -0.00054638423901521877 0.010995642655380475 0 -0.00039445973539367705 0.011205362472166119 0 -0.00061401544170314952 0.011185826098845145 0 -0.00047264928885588784 0.011102252709739874 0 -0.00039445973539367705 0.011205362472166119 0 -0.00035791731831924783 0.011115133405998512 0 -0.00047264928885588784 0.011102252709739874 0 -0.00035791731831924783 0.011115133405998512 0 -0.00037379865395906404 0.011015584761870355 0 -0.00047264928885588784 0.011102252709739874 0 -0.00044047253885927271 0.010863306668500685 0 -0.00037379865395906404 0.011015584761870355 0 -0.00054638423901521877 0.010995642655380475 0 -0.00058314980981153742 0.010823751052950933 0 -0.00054638423901521877 0.010995642655380475 0 -0.00067559675265003311 0.010902729394398319 0 -0.00054638423901521877 0.010995642655380475 0 -0.0006640131016161392 0.011002092344816351 0 -0.00067559675265003311 0.010902729394398319 0 -0.00077419646081564964 0.010837575105662668 0 -0.00067559675265003311 0.010902729394398319 0 -0.00076148694829893766 0.010942041860307724 0 -0.00077419646081564964 0.010837575105662668 0 -0.00076148694829893766 0.010942041860307724 0 -0.00085822370037940353 0.010897608548240942 0 -0.00076148694829893766 0.010942041860307724 0 -0.00074254578621082209 0.011022579541202776 0 -0.00082409058849904136 0.010962415066234962 0 -0.0006640131016161392 0.011002092344816351 0 -0.00076148694829893766 0.010942041860307724 0 -0.00074254578621082209 0.011022579541202776 0 -0.0006640131016161392 0.011002092344816351 0 -0.00067559675265003311 0.010902729394398319 0 -0.00076148694829893766 0.010942041860307724 0 -0.00061401544170314952 0.011185826098845145 0 -0.00074254578621082209 0.011022579541202776 0 -0.00084095614700501083 0.01103396751590029 0 -0.00061401544170314952 0.011185826098845145 0 -0.0006640131016161392 0.011002092344816351 0 -0.00074254578621082209 0.011022579541202776 0 -0.00064708921113805441 0.011157023913671214 0 -0.00083010902457534728 0.011044890339529557 0 -0.00074254578621082209 0.011022579541202776 0 -0.00084095614700501083 0.01103396751590029 0 -0.00082409058849904136 0.010962415066234962 0 -0.00092700720399868316 0.01103537240721838 0 -0.00084095614700501083 0.01103396751590029 0 -0.00081912963441243788 0.011216219207597711 0 -0.00084095614700501083 0.01103396751590029 0 -0.00086904377565418965 0.010987675884969609 0 -0.00082409058849904136 0.010962415066234962 0 -0.00092700720399868316 0.01103537240721838 0 -0.00084095614700501083 0.01103396751590029 0 -0.00086904377565418965 0.010987675884969609 0 -0.0011108202377691672 0.0082865872258339347 0 -0.0015873735879462015 0.010393667424571757 0 -0.00086904377565418965 0.010987675884969609 0 -0.00085822370037940353 0.010897608548240942 0 -0.00103214746908885 0.010832034263989722 0 -0.00086904377565418965 0.010987675884969609 0 -0.00082409058849904136 0.010962415066234962 0 -0.00085822370037940353 0.010897608548240942 0 -0.00076148694829893766 0.010942041860307724 0 -0.00082409058849904136 0.010962415066234962 0 -0.00085822370037940353 0.010897608548240942 0 -0.001896669195578841 0.0048884165251833703 0 -0.0020959254431261818 0.0046068637865877499 0 -0.0020821971347147585 0.0048331249218856072 0 -0.0011108202377691672 0.0082865872258339347 0 -0.0015722809425468432 0.0070734018646930455 0 -0.00092113881331118343 0.011018095201697891 0 -0.00086904377565418965 0.010987675884969609 0 -0.00103214746908885 0.010832034263989722 0 -0.0020959254431261818 0.0046068637865877499 0 -0.0021852841228936571 0.0047325503609599983 0 -0.0020821971347147585 0.0048331249218856072 0 -0.0023110094143024974 0.0045877956163459157 0 -0.0023652380796949971 0.0047745044193736657 0 -0.0021852841228936571 0.0047325503609599983 0 -0.0023110094143024974 0.0045877956163459157 0 -0.0020840180095036587 0.0045774431658027687 0 -0.0021852841228936571 0.0047325503609599983 0 -0.0015722809425468432 0.0070734018646930455 0 -0.0017352771595948533 0.004355194418962669 0 -0.0023652380796949971 0.0047745044193736657 0 -0.0021852841228936571 0.0047325503609599983 0 -0.002228901113294698 0.0049089826929016624 0 -0.0021852841228936571 0.0047325503609599983 0 -0.002228901113294698 0.0049089826929016624 0 -0.0020821971347147585 0.0048331249218856072 0 -0.002228901113294698 0.0049089826929016624 0 -0.0020821971347147585 0.0048331249218856072 0 -0.0020533524459241045 0.005017280609367224 0 -0.001896669195578841 0.0048884165251833703 0 -0.0020821971347147585 0.0048331249218856072 0 -0.0020533524459241045 0.005017280609367224 0 -0.0011108202377691672 0.0082865872258339347 0 -0.0013531790477136212 0.005656795018136691 0 -0.0010368740544942012 0.0066427758579409024 0 -0.00088847648484743642 0.0064937209576419732 0 -0.0011660550149330559 0.0064983722292348695 0 -0.001193401894264053 0.0068006184397518656 0 -0.0010368740544942012 0.0066427758579409024 0 -0.0011660550149330559 0.0064983722292348695 0 -0.002228901113294698 0.0049089826929016624 0 -0.0020533524459241045 0.005017280609367224 0 -0.0022304819123856773 0.0051751929313305382 0 -0.002464193161112824 0.0049514306441249961 0 -0.002228901113294698 0.0049089826929016624 0 -0.0022304819123856773 0.0051751929313305382 0 -0.0013531790477136212 0.005656795018136691 0 -0.0021177947239959631 0.0055883402645814798 0 -0.0027825913445780849 0.0053037313976575812 0 -0.0026393272647860467 0.0053232941735989279 0 -0.0026567218008210357 0.0051656263946381611 0 -0.0024364300374208991 0.0053046507363382163 0 -0.0026393272647860467 0.0053232941735989279 0 -0.0026567218008210357 0.0051656263946381611 0 -0.0017050670265841513 0.0058496727408664032 0 -0.0021177947239959631 0.0055883402645814798 0 -0.0011298326170713433 0.0062775894509081937 0 -0.00088847648484743642 0.0064937209576419732 0 -0.0011660550149330559 0.0064983722292348695 0 -0.0011298326170713433 0.0062775894509081937 0 -0.0013689942841669924 0.0062736331529916851 0 -0.0011660550149330559 0.0064983722292348695 0 -0.0013689942841669924 0.0062736331529916851 0 -0.0011660550149330559 0.0064983722292348695 0 -0.0013847185830011951 0.0065066000252311249 0 -0.0013689942841669924 0.0062736331529916851 0 -0.0015396213759818929 0.00618999839503033 0 -0.0013847185830011951 0.0065066000252311249 0 -0.001121013232777656 0.0087683428937729117 0 -0.0010638430140119503 0.0089895878980927376 0 -0.00067277849549009379 0.011131445461446716 0 -0.00084095614700501083 0.01103396751590029 0 -0.00081912963441243788 0.011216219207597711 0 -0.0011108202377691672 0.0082865872258339347 0 -0.0010638430140119503 0.0089895878980927376 0 -0.001193401894264053 0.0068006184397518656 0 -0.0011660550149330559 0.0064983722292348695 0 -0.0013847185830011951 0.0065066000252311249 0 
</DataArray>
</PointData>
<CellData Scalars="region_id,cross_section_updated," Vectors="" Tensors="stress,">
<DataArray type="Float64" Name="region_id" format="ascii">
5 5 6 5 5 5 5 6 5 5 5 6 6 6 5 5 5 6 5 5 5 5 5 6 5 5 5 5 5 5 5 5 5 5 6 5 6 5 5 5 5 6 5 5 5 5 5 5 6 5 5 5 5 5 5 5 5 5 5 6 5 5 5 5 5 5 5 5 5 5 5 5 5 5 5 5 5 5 5 5 5 6 5 5 5 5 6 5 6 5 5 6 5 6 5 5 6 5 5 5 5 5 5 5 5 5 5 5 5 6 5 5 5 5 5 5 5 6 5 5 5 5 5 5 5 5 5 5 5 5 5 6 5 5 5 5 5 5 6 5 5 6 6 5 5 5 5 5 6 5 5 5 5 6 5 5 5 5 5 5 5 5 5 5 5 5 5 5 5 5 5 5 6 5 5 5 5 5 5 5 5 6 5 5 5 5 5 5 5 5 5 5 5 5 5 5 5 5 5 5 5 5 5 5 5 5 5 5 5 5 5 5 5 5 5 5 5 5 5 5 5 5 5 5 5 5 5 5 5 5 5 6 5 5 5 5 5 5 5 5 5 5 5 5 5 5 5 5 5 5 5 5 5 5 6 5 5 5 6 5 5 5 6 5 6 5 6 5 6 5 5 5 6 5 5 6 6 5 5 6 5 6 5 5 6 6 6 5 6 5 6 5 5 6 5 5 5 5 5 5 5 5 6 5 5 5 6 5 6 5 5 6 6 5 6 6 5 5 5 6 5 5 6 5 5 6 5 6 6 5 5 5 6 5 5 5 6 5 5 5 5 6 5 6 6 5 5 5 5 5 5 5 6 5 5 5 5 5 6 5 5 5 5 5 5 6 5 5 5 5 5 6 5 5 5 5 5 5 5 5 5 5 5 5 5 5 5 5 5 5 5 5 5 5 5 5 5 5 5 5 5 6 5 5 5 5 6 5 5 6 5 5 5 5 5 5 5 5 5 5 5 5 5 5 5 6 5 6 5 5 6 5 6 5 6 5 5 6 5 5 5 5 5 5 5 5 5 6 5 5 5 5 5 5 5 5 6 5 5 5 6 6 5 5 5 5 5 6 5 5 5 6 5 5 5 6 6 5 6 5 5 5 5 6 6 5 5 6 6 5 5 5 6 5 5 5 5 6 5 6 5 5 5 5 6 5 6 5 5 6 5 5 5 5 5 5 6 5 6 6 5 6 5 5 5 6 5 5 6 5 5 5 5 5 5 5 6 5 5 5 5 5 5 5 5 6 5 6 6 5 6 5 5 5 6 5 5 6 5 5 5 5 5 5 5 5 5 5 5 5 5 5 5 5 5 5 6 5 5 5 5 6 5 5 5 5 5 5 5 5 5 5 5 6 5 5 5 5 5 5 5 5 6 5 5 5 5 5 5 5 6 5 5 5 6 5 5 5 5 5 5 5 5 5 5 5 5 5 5 5 5 5 5 5 5 5 5 5 5 5 5 5 5 6 5 5 5 5 5 5 5 5 5 5 5 5 5 5 5 5 5 6 5 5 5 5 5 5 5 6 5 5 6 5 5 5 5 5 5 6 5 5 5 5 5 5 5 5 5 5 5 5 5 6 5 5 5 5 5 5 5 5 6 5 5 6 5 5 5 5 5 5 5 5 5 5 5 5 5 5 5 5 5 5 5 5 5 5 5 5 5 5 6 5 5 5 6 5 5 5 6 5 6 5 6 5 5 5 5 5 5 5 5 5 5 5 5 5 5 5 5 5 5 6 5 5 5 5 6 5 5 5 6 6 5 5 5 5 5 5 5 5 6 6 5 5 5 5 5 5 5 5 6 5 6 5 6 6 6 6 5 5 5 6 5 6 5 5 5 5 5 5 5 5 5 5 5 5 6 5 5 5 5 5 5 5 5 5 5 5 5 5 5 5 6 5 5 5 5 5 5 5 5 5 6 5 5 5 6 5 5 5 5 5 5 5 5 6 5 5 5 5 5 5 5 5 5 6 5 5 5 5 5 5 6 5 6 5 5 5 5 5 5 5 5 6 5 6 5 5 5 5 5 5 5 5 5 5 5 5 5 5 5 5 6 5 5 5 5 5 5 5 5 5 5 5 5 5 6 5 5 5 5 6 5 5 5 5 5 5 5 5 5 6 5 5 5 5 5 5 6 5 5 5 5 5 5 5 6 5 5 6 5 5 6 5 5 5 5 5 5 5 5 5 5 5 5 5 5 5 5 5 5 5 5 5 5 5 5 5 5 5 6 5 5 6 5 5 5 5 5 6 5 5 5 5 5 5 5 5 5 5 6 5 5 5 5 6 5 5 5 5 5 5 5 5 5 5 5 5 5 5 6 5 5 5 5 6 5 5 5 5 5 5 5 5 5 5 6 5 5 6 5 5 5 5 5 5 5 6 5 5 5 5 5 5 6 5 5 5 5 5 5 5 5 5 5 5 5 5 5 5 5 5 5 5 5 5 5 5 5 5 5 5 5 5 5 5 5 5 5 5 6 5 5 5 5 6 5 5 5 5 5 5 5 5 5 5 5 5 5 5 5 6 5 5 5 5 6 5 5 5 5 5 5 6 5 5 5 5 5 6 5 5 5 5 5 5 5 5 5 5 5 5 5 5 5 5 5 5 5 5 5 5 5 5 5 5 5 5 5 5 5 5 6 5 5 5 6 5 5 6 5 5 5 5 5 5 6 5 5 5 5 5 5 5 5 5 6 5 5 5 5 5 5 5 6 5 5 5 5 5 5 6 6 5 5 5 5 6 5 5 5 5 6 6 5 6 5 5 5 5 5 5 5 6 5 5 6 5 5 5 5 5 5 6 5 5 5 5 5 6 6 5 5 5 6 5 5 5 5 5 5 5 5 5 5 5 6 5 5 5 5 5 5 5 5 5 5 5 5 5 5 5 5 5 5 5 6 5 5 5 5 5 5 5 5 5 5 5 5 5 5 5 5 5 5 5 5 5 5 5 5 5 5 5 5 5 5 5 5 5 5 5 5 5 5 5 5 5 6 5 5 5 5 5 5 6 5 5 5 5 5 5 5 5 5 5 5 5 5 5 5 5 5 5 5 5 5 5 5 5 5 5 5 6 5 5 5 5 6 5 5 5 5 5 5 5 5 5 5 5 5 5 5 5 5 5 6 5 5 5 5 5 5 5 5 5 5 6 5 6 5 5 6 5 6 5 5 6 5 5 5 5 6 5 5 5 5 5 6 5 6 6 5 5 5 6 6 5 5 5 5 5 5 5 5 5 5 5 5 5 6 5 5 5 5 5 5 5 5 5 5 5 5 5 5 5 5 5 5 5 5 5 5 5 5 5 5 5 5 5 5 5 5 5 5 5 5 5 5 5 5 6 5 5 5 6 5 5 5 5 6 5 5 5 5 5 5 5 5 5 5 5 5 6 5 6 5 5 5 5 5 5 6 5 5 6 5 5 5 5 6 5 5 5 5 5 5 5 5 5 5 5 5 5 5 5 5 5 5 5 5 5 5 5 5 6 5 5 6 5 5 5 5 5 5 6 5 5 5 5 5 5 5 5 5 5 5 5 5 5 5 5 5 5 5 5 5 6 5 5 5 5 5 5 5 5 5 6 5 5 5 6 5 5 5 6 5 5 5 6 5 5 5 5 6 5 6 5 5 5 5 6 6 5 5 5 5 5 5 5 5 5 5 5 5 5 5 5 6 6 5 5 5 6 5 5 5 5 5 5 5 5 5 5 5 5 6 5 5 5 6 6 5 5 5 5 5 6 5 5 5 5 5 5 5 5 5 5 5 5 5 5 5 5 5 5 5 5 6 5 5 6 6 5 5 5 5 5 5 5 6 6 6 5 5 5 6 6 5 5 5 5 6 5 6 5 5 5 5 5 5 5 5 5 5 5 5 6 5 5 5 6 5 5 5 5 5 6 5 5 6 5 6 5 5 5 5 5 5 5 5 5 5 5 5 5 5 5 5 5 5 5 5 5 5 5 6 5 6 5 5 6 5 5 6 5 5 5 5 5 5 5 5 5 5 5 5 5 5 5 5 5 5 5 5 5 5 5 5 5 5 5 5 6 5 5 5 5 5 5 5 5 5 5 5 5 5 5 5 5 6 5 5 5 5 5 6 5 5 5 5 6 5 5 6 5 5 5 6 5 5 5 5 5 5 5 6 5 5 5 5 5 5 6 5 5 6 5 6 6 5 5 5 5 5 5 5 5 6 5 5 6 5 6 5 5 5 6 5 5 5 6 5 5 5 6 6 5 6 5 6 5 5 6 5 6 5 6 6 5 5 5 5 5 6 5 5 5 5 5 5 5 6 5 5 5 5 5 5 5 5 5 5 5 5 5 5 5 5 5 5 5 5 5 5 5 5 5 5 5 5 5 5 5 5 5 5 5 5 6 5 5 5 5 5 5 6 5 5 5 5 5 5 5 5 5 5 5 5 5 5 5 5 5 5 5 5 6 5 5 5 5 5 5 5 5 5 5 5 5 5 6 5 5 5 5 5 5 5 5 5 5 5 5 5 5 5 5 5 6 5 5 6 5 5 5 5 5 5 5 5 6 5 5 5 5 5 5 5 5 5 5 5 5 5 5 5 5 6 5 5 5 5 5 6 5 6 5 6 5 5 6 5 6 6 5 5 5 6 5 5 5 5 5 5 5 5 6 5 5 5 5 5 5 5 6 5 6 5 5 5 5 5 5 5 5 5 5 6 6 5 5 5 6 5 5 5 6 5 6 5 5 6 5 5 5 5 6 5 5 6 5 5 5 5 5 5 6 6 5 5 5 5 5 5 5 5 6 5 5 5 5 5 6 5 6 5 5 5 5 5 5 6 5 5 5 5 5 5 6 5 5 5 5 5 5 6 5 5 5 5 5 5 6 5 6 5 5 5 5 5 6 5 6 5 5 5 5 5 5 5 5 5 6 5 5 5 5 5 5 5 5 6 5 6 5 6 5 5 6 6 5 6 5 5 5 5 5 6 5 6 5 5 5 5 5 5 5 5 5 5 5 5 5 5 5 5 5 5 5 5 6 5 5 6 5 5 5 5 5 5 5 5 5 5 5 5 5 5 5 5 5 5 5 6 5 5 6 5 5 5 5 5 5 5 6 6 5 5 6 5 6 5 5 5 5 6 6 5 6 5 5 5 5 5 5 5 6 5 5 5 5 5 6 6 5 6 6 5 6 6 5 5 5 5 5 5 5 5 5 5 5 6 5 5 5 5 5 6 6 5 5 5 5 5 5 5 5 5 5 5 6 5 5 5 5 6 5 5 5 5 6 5 5 5 5 5 5 5 5 6 5 6 5 5 5 5 6 5 5 5 5 5 5 5 5 5 5 5 5 6 5 5 6 5 5 5 5 5 5 5 5 5 5 5 5 5 6 5 5 5 6 5 5 5 5 6 6 5 5 5 5 5 5 5 5 5 5 5 5 5 6 5 5 5 5 5 5 5 5 5 5 5 5 5 5 5 6 6 5 5 5 5 5 5 5 5 5 5 5 5 5 5 5 5 5 5 5 5 5 5 5 5 6 5 6 5 5 5 5 5 5 5 5 5 5 5 5 5 5 5 5 5 5 5 5 5 5 5 6 6 5 6 6 5 5 5 5 5 6 5 6 5 5 5 5 5 5 5 5 5 5 5 5 5 5 5 5 6 5 5 6 5 6 5 6 5 5 5 5 5 5 5 6 5 5 5 5 5 5 5 5 5 5 5 5 5 5 5 6 5 5 5 6 5 5 5 5 6 6 5 5 6 5 5 5 5 5 5 5 5 6 5 5 6 5 6 5 5 5 6 5 5 6 5 6 5 5 6 5 5 5 6 5 5 5 5 6 6 5 5 5 5 5 5 5 5 5 5 5 5 6 5 5 5 5 5 6 5 5 5 5 5 5 6 5 6 5 5 5 5 5 5 5 5 5 5 6 5 5 6 5 5 5 5 5 5 5 5 5 6 6 5 5 5 5 5 6 5 5 5 6 5 6 5 5 5 5 5 5 6 5 5 5 6 5 5 5 5 5 5 5 5 5 5 5 5 5 5 5 5 5 5 5 5 5 5 5 5 5 5 5 5 5 6 5 5 5 5 5 5 6 5 5 5 5 5 5 6 5 6 5 5 6 6 5 5 6 5 5 5 5 5 5 5 5 5 5 5 5 5 5 5 5 5 5 5 5 5 5 5 5 5 5 5 5 6 5 5 5 5 5 5 5 5 5 5 5 5 5 5 5 5 5 5 5 5 5 5 5 5 5 5 5 5 5 5 5 5 6 5 5 5 6 5 5 5 5 5 5 6 5 5 5 5 5 5 5 5 5 5 5 5 5 5 5 5 5 5 6 5 6 5 5 5 5 5 5 5 5 5 5 5 5 5 5 5 5 5 5 5 5 5 5 5 5 5 6 6 6 6 6 6 5 5 5 5 6 5 5 6 5 5 5 5 5 5 5 5 5 6 5 5 5 6 5 5 6 5 6 5 6 5 6 5 6 5 5 5 5 5 5 6 5 5 6 5 5 5 5 5 6 5 5 5 5 5 6 5 5 5 5 5 5 6 5 5 5 5 5 5 5 6 5 5 5 6 5 5 5 5 5 5 5 5 5 5 5 5 6 5 5 6 5 5 5 5 6 5 6 5 5 5 6 5 5 5 5 5 6 5 6 5 5 5 5 5 5 5 5 5 6 5 5 6 5 5 6 5 5 6 6 5 5 5 5 5 6 6 6 5 5 5 5 5 5 6 5 5 5 5 5 5 5 5 5 5 5 5 5 5 5 5 5 5 5 5 5 5 5 5 5 5 5 5 5 5 5 5 5 5 5 5 5 5 6 5 5 5 5 5 6 6 5 5 5 6 5 5 5 6 5 6 5 6 5 6 6 5 6 5 5 5 5 6 5 5 5 5 5 5 5 5 5 5 5 5 5 5 5 5 5 5 5 5 5 5 5 5 5 5 5 5 5 5 6 5 5 5 5 5 5 5 5 5 5 5 5 5 5 5 5 5 6 5 5 5 5 5 6 5 5 5 5 6 5 5 5 5 5 5 5 6 5 5 5 5 5 5 5 5 5 5 5 5 6 5 5 5 5 5 5 5 5 5 5 5 5 6 5 5 5 5 6 6 5 6 5 5 5 5 6 5 5 6 5 5 5 5 5 5 5 6 5 5 5 5 5 5 5 5 5 5 5 5 6 5 5 5 6 6 5 5 5 6 5 5 5 5 5 5 5 6 5 5 5 6 5 5 6 5 5 5 5 5 5 6 5 5 5 5 5 5 5 5 5 5 5 5 5 6 5 5 5 5 6 5 5 5 5 5 5 5 5 5 5 6 5 5 5 6 5 6 5 5 5 5 5 5 5 5 5 5 5 5 5 5 5 5 5 5 5 5 5 5 5 5 5 6 5 5 5 5 5 5 5 5 5 5 5 5 5 5 6 5 6 5 5 6 5 5 5 5 5 5 6 6 5 5 5 5 5 6 5 5 5 6 6 5 6 5 5 5 5 6 5 6 5 5 6 5 5 5 6 6 5 6 5 6 5 6 5 5 5 5 6 5 5 5 5 6 5 5 5 5 5 5 5 5 5 5 5 5 5 5 5 5 5 5 5 6 5 5 5 5 5 6 5 6 5 5 6 5 5 5 5 5 5 6 5 5 5 6 6 5 5 5 6 5 5 5 5 6 5 5 5 5 5 5 5 5 5 5 5 5 5 5 5 5 5 5 5 5 5 5 5 5 5 5 5 5 6 5 5 5 5 5 5 5 6 5 5 5 6 5 5 6 5 5 6 5 6 5 5 6 5 6 6 5 6 5 6 5 5 5 5 5 6 5 6 5 5 5 6 5 5 5 5 6 5 5 5 5 5 6 5 5 5 5 5 5 5 5 5 5 5 5 5 5 5 5 5 5 5 5 5 5 5 5 5 5 5 5 5 5 5 5 5 5 5 5 5 5 5 5 5 5 5 5 5 5 5 6 5 5 5 5 5 5 5 5 5 5 5 5 5 5 5 5 5 5 5 5 5 5 5 5 6 5 5 5 5 5 5 5 5 5 5 5 5 5 5 5 6 5 5 5 6 5 5 5 5 5 5 5 5 5 5 5 5 5 6 5 5 5 5 5 5 5 5 5 5 5 5 5 5 5 5 5 5 5 5 5 5 5 5 5 5 5 5 5 6 5 5 5 5 6 5 6 5 5 5 5 6 5 5 5 6 5 5 5 6 5 5 5 5 6 5 6 5 5 5 5 5 5 5 6 5 5 5 5 6 5 5 5 5 5 5 5 5 5 5 5 5 5 5 5 5 5 5 5 5 5 5 5 5 5 5 5 5 5 5 6 5 5 5 5 5 5 6 5 5 6 5 5 5 5 6 6 6 5 5 6 5 5 5 6 6 5 6 5 5 5 6 5 5 5 5 5 5 5 5 5 6 5 6 5 5 5 5 5 5 5 5 5 5 6 5 5 5 5 5 5 5 5 5 5 5 6 5 5 5 5 5 5 5 5 5 5 5 5 5 5 5 5 5 5 5 5 5 5 5 5 6 5 5 5 5 5 5 5 5 5 6 5 5 5 5 5 5 5 5 5 5 5 5 5 5 5 5 6 6 5 6 5 6 5 5 6 5 5 5 6 6 6 5 5 6 5 6 6 5 5 5 5 6 5 6 6 6 5 5 5 5 5 6 5 5 6 6 5 5 5 5 6 5 6 5 5 6 5 5 5 5 5 5 5 5 5 5 5 5 5 5 5 5 5 5 5 5 5 5 6 5 5 5 6 5 6 6 5 5 6 5 5 6 5 5 5 5 6 5 6 5 5 5 5 5 5 5 5 5 6 5 5 5 5 5 5 5 5 6 5 6 5 5 5 5 5 5 5 5 5 5 5 5 5 5 6 5 5 5 6 5 6 5 5 5 6 5 5 5 5 5 5 5 5 5 5 5 6 5 5 5 5 5 5 5 5 5 5 5 5 5 5 5 5 5 5 6 5 6 5 5 5 6 6 5 5 5 5 5 5 5 5 5 6 5 5 5 5 5 6 5 5 5 6 5 6 5 6 5 6 5 5 5 5 5 5 5 5 6 5 5 5 6 6 5 5 5 5 5 6 6 5 5 5 6 5 6 5 5 5 5 5 5 5 5 6 6 5 5 5 5 6 5 5 5 5 6 5 5 5 5 5 5 5 5 5 5 5 6 5 5 5 5 5 5 5 5 5 6 5 5 5 5 5 5 5 6 5 5 6 5 5 6 6 6 5 5 5 6 5 5 5 6 5 5 5 5 5 5 5 5 5 5 5 6 5 6 5 6 5 5 6 5 5 5 5 5 5 5 5 5 5 6 5 5 6 5 5 6 5 5 6 5 6 5 5 5 5 5 5 5 5 5 5 5 5 5 5 6 5 5 5 5 5 5 5 5 5 5 5 5 5 5 5 5 5 5 6 5 5 5 5 5 6 5 6 5 5 5 5 5 5 5 5 5 6 5 5 5 5 6 5 5 5 5 5 5 5 5 6 5 6 5 5 5 6 5 5 6 5 5 6 5 5 5 6 5 5 5 5 5 5 5 6 5 5 5 5 5 5 5 5 5 5 5 5 5 5 5 5 5 5 5 5 5 5 5 5 5 5 5 5 5 5 5 5 6 5 5 6 5 5 5 6 5 6 5 5 5 5 5 5 5 5 6 5 5 5 5 5 5 5 5 5 5 5 5 5 5 5 5 5 5 5 5 5 5 5 5 5 5 6 5 5 6 5 5 5 5 5 5 5 5 5 5 5 5 5 5 5 5 5 5 5 5 5 5 6 5 5 5 5 5 5 5 5 5 5 5 5 5 6 5 5 5 5 5 5 5 5 5 5 5 5 6 5 6 5 5 6 6 5 5 5 5 5 6 5 6 5 5 6 5 6 5 5 6 6 6 5 5 6 5 5 5 6 6 5 5 5 5 5 5 5 5 5 5 5 5 5 5 6 5 5 5 5 6 5 6 6 5 5 5 6 5 6 5 5 5 6 6 5 5 5 6 5 6 5 6 5 6 5 5 6 5 6 5 5 6 5 5 5 5 5 5 6 5 5 5 5 5 5 5 5 5 5 5 5 5 5 5 5 5 5 5 6 5 5 5 5 5 6 5 5 5 6 6 5 5 6 5 5 5 5 6 5 5 5 5 5 5 5 5 5 6 5 5 5 6 6 5 6 5 5 5 5 5 5 5 6 5 6 5 5 5 5 5 5 5 5 6 5 5 5 5 5 5 5 5 5 5 5 6 5 5 5 5 5 5 5 5 5 6 5 5 6 5 5 5 5 5 5 5 5 5 5 5 5 5 5 5 5 5 5 5 5 5 5 5 5 5 5 5 5 5 5 5 5 5 5 5 5 5 5 5 5 5 5 5 5 5 5 5 5 5 5 6 5 5 5 5 5 5 5 5 5 5 5 5 5 5 5 5 5 5 6 5 5 5 5 5 5 5 5 5 5 5 6 5 5 5 5 5 6 5 5 5 5 5 5 5 5 5 5 5 5 5 5 5 5 5 6 5 5 6 5 5 5 5 5 5 5 5 5 5 6 5 5 6 5 6 5 5 5 5 5 5 5 6 5 6 5 5 6 5 5 5 5 5 6 6 5 5 5 5 5 5 5 5 5 5 5 5 5 5 6 5 6 5 5 6 5 5 5 5 5 5 5 5 6 5 5 6 5 5 5 5 5 6 5 5 5 6 6 5 5 5 6 5 6 6 5 5 5 6 5 5 5 6 5 5 6 6 6 5 6 6 5 5 5 5 5 6 5 6 5 6 5 6 5 5 6 5 6 5 5 6 6 5 5 5 6 5 5 6 5 5 5 5 5 5 5 5 5 5 5 5 6 5 5 5 5 5 5 5 5 5 5 5 5 6 5 5 5 5 5 5 5 5 5 6 5 5 5 6 5 5 5 5 5 5 6 5 6 5 5 5 5 5 5 5 5 5 5 5 5 5 5 5 6 5 5 5 5 5 6 5 6 5 5 6 5 5 5 5 5 5 5 5 5 5 5 5 5 5 5 5 5 5 5 5 5 5 5 5 5 5 5 5 5 5 5 5 5 5 5 5 5 5 5 5 5 5 5 5 5 5 5 5 5 5 5 5 5 5 5 5 5 5 5 5 5 5 5 5 5 5 5 5 5 5 5 5 5 5 5 5 6 5 5 5 5 5 5 5 5 5 5 5 5 5 5 5 5 5 5 5 6 5 5 5 5 5 6 5 5 5 5 5 5 5 5 5 5 5 5 5 5 5 6 5 5 5 5 5 6 5 5 6 5 5 5 5 5 5 5 5 5 5 5 5 5 5 5 5 5 5 5 5 5 5 5 5 5 5 5 5 5 6 5 5 5 5 5 5 5 5 5 5 5 5 5 6 5 6 5 6 6 5 5 5 6 5 5 5 5 5 5 5 5 5 6 5 5 5 5 5 5 5 5 5 5 5 5 5 5 5 5 5 5 5 6 6 5 5 6 5 5 5 5 5 5 5 5 5 5 5 5 5 5 5 6 5 5 6 5 5 5 5 6 5 6 5 5 5 5 5 5 5 5 5 5 5 5 5 6 5 5 5 5 6 5 6 5 5 5 5 5 6 5 5 5 5 5 5 5 5 5 5 5 5 5 5 6 5 5 5 6 5 5 5 5 5 5 5 5 6 5 5 5 5 6 6 5 5 5 5 5 6 5 5 5 5 5 5 5 5 5 5 5 6 5 5 5 5 5 5 6 5 6 5 5 5 5 5 5 5 5 5 5 5 6 5 5 5 6 5 5 5 6 5 6 6 6 5 6 5 6 5 5 5 6 6 5 5 6 5 5 5 6 5 6 5 6 5 5 6 6 6 5 6 5 6 6 5 5 6 5 6 5 5 5 5 5 6 5 6 5 6 5 6 6 5 6 5 5 6 5 5 5 6 5 5 6 5 5 6 5 5 5 5 6 5 5 6 5 6 5 5 5 5 5 5 5 5 5 5 5 6 5 6 5 5 5 5 5 6 5 5 5 5 5 5 5 5 5 5 5 5 5 5 5 5 5 5 5 6 5 5 5 5 6 5 5 5 5 5 5 5 5 5 5 5 5 5 6 5 5 5 5 5 5 5 5 5 5 6 5 5 6 5 5 5 6 6 5 5 5 5 5 6 5 5 5 5 5 5 5 5 5 5 5 5 5 5 5 5 5 5 5 5 5 5 5 5 5 6 5 5 6 5 6 5 5 6 5 5 5 5 5 5 5 5 5 5 5 5 5 5 5 5 5 5 5 5 5 5 5 6 6 5 5 5 5 6 5 5 5 5 5 6 5 5 5 5 5 5 5 5 5 5 5 5 5 5 5 5 6 5 5 5 5 5 5 5 5 5 5 5 5 5 5 5 5 5 5 5 5 5 5 5 6 5 6 5 5 5 5 5 5 5 5 5 5 5 5 5 5 6 5 6 5 5 5 5 5 5 5 5 5 6 5 5 6 5 5 5 5 5 5 5 5 5 5 5 5 5 5 5 5 5 5 5 5 5 5 6 6 5 5 5 5 5 5 5 5 5 5 5 5 5 5 5 5 5 5 5 6 5 5 5 5 5 5 6 5 5 5 5 5 5 5 5 5 6 5 5 5 5 5 5 5 5 5 5 5 5 5 5 5 5 5 5 5 5 5 5 5 5 5 5 5 5 5 5 5 5 5 5 5 5 5 5 5 5 5 5 5 5 5 5 5 5 5 5 5 5 5 5 5 5 6 6 5 6 5 6 6 5 5 5 5 5 5 5 6 5 5 5 5 5 5 5 5 5 6 5 5 6 5 5 5 5 5 5 5 5 5 5 5 5 5 5 5 5 5 5 5 5 5 5 5 5 5 5 5 5 6 5 5 5 5 5 5 5 6 5 5 5 5 5 5 5 5 5 5 5 5 5 5 5 6 5 6 5 5 6 6 6 5 6 5 5 5 6 5 5 5 5 5 5 5 6 5 5 5 5 5 6 5 5 5 5 5 5 5 5 5 5 5 5 5 5 5 5 5 5 5 5 5 6 5 5 5 5 5 5 5 5 5 5 6 5 5 5 5 5 5 5 5 5 5 5 5 5 6 5 5 5 6 6 5 5 5 6 5 5 6 5 5 5 6 5 5 5 5 6 5 5 5 5 5 5 5 5 5 5 5 5 5 5 6 5 5 5 5 5 6 5 5 6 5 5 5 5 5 5 5 5 6 5 5 5 5 6 5 5 5 5 5 5 6 5 5 5 5 6 5 5 5 5 5 5 6 5 5 5 5 5 5 5 5 5 5 5 5 5 5 5 5 5 5 5 5 5 5 5 5 5 5 5 5 5 5 6 5 5 5 5 5 5 5 5 5 5 5 5 5 5 5 5 5 5 5 6 5 6 6 6 5 5 5 5 5 5 6 6 5 5 5 5 5 5 5 5 5 5 6 5 5 5 5 5 5 5 5 5 5 6 5 5 5 5 5 5 6 5 5 5 5 6 5 5 6 5 5 5 6 6 5 5 5 6 5 5 5 5 5 5 5 5 6 5 5 5 5 5 5 6 5 5 6 5 6 6 5 6 5 5 5 5 6 5 5 5 5 5 5 5 5 5 5 5 5 5 5 5 5 5 6 5 5 5 5 5 5 5 5 5 5 5 5 5 5 5 5 5 5 5 5 6 5 6 5 6 5 6 6 5 5 5 5 5 5 5 5 6 5 5 5 5 5 5 5 5 5 5 5 5 5 5 5 5 5 5 6 5 5 5 5 5 5 5 5 5 6 5 5 5 5 5 5 5 5 6 5 5 5 5 5 5 6 5 5 5 6 5 5 6 5 5 5 5 5 6 5 5 5 6 5 5 5 5 5 5 5 5 6 5 5 5 5 5 5 6 5 5 5 5 5 6 5 6 5 6 5 5 6 5 5 5 5 5 5 5 5 5 6 5 5 5 5 5 6 5 5 5 5 5 6 5 5 5 5 5 5 5 5 5 5 5 5 5 5 5 5 5 5 5 5 5 5 5 5 5 5 5 5 5 5 5 5 5 5 6 5 5 6 5 5 5 5 5 5 5 5 5 5 5 5 5 5 5 5 5 5 5 5 5 5 5 5 5 5 5 5 6 5 5 5 5 6 5 5 5 5 6 5 5 5 5 5 5 5 5 5 5 5 5 5 5 5 5 5 5 5 5 5 5 5 5 5 5 5 5 5 6 5 5 5 5 5 5 6 5 5 5 5 5 5 5 5 6 5 6 5 5 5 5 5 5 5 5 5 5 5 6 5 5 5 5 5 6 5 5 5 6 5 5 5 5 5 5 5 5 5 5 5 5 5 5 5 5 5 5 5 5 5 5 6 5 5 5 5 6 5 5 5 5 5 5 5 5 5 5 5 5 5 5 5 5 5 5 5 5 5 5 5 5 5 5 5 5 5 5 5 5 5 6 5 5 5 5 6 5 5 5 5 5 6 5 5 5 6 5 5 5 5 5 5 5 5 5 5 5 5 6 5 5 5 5 5 5 5 5 5 6 6 5 5 5 5 5 5 5 5 5 5 5 5 6 5 6 6 5 5 5 5 5 6 5 5 5 5 5 5 6 5 5 6 5 6 5 5 5 5 5 5 5 5 5 5 5 5 5 5 5 5 5 5 5 5 5 5 5 5 5 5 5 5 5 5 5 5 5 5 6 5 5 6 6 5 5 5 6 5 5 5 5 5 5 5 6 6 6 6 5 5 6 5 5 6 5 6 5 5 5 5 5 5 5 5 5 5 5 5 5 5 5 5 5 5 5 5 5 5 5 5 5 5 5 5 5 5 5 5 5 5 5 6 5 5 5 5 6 5 5 5 5 5 5 5 5 5 6 5 5 5 5 5 6 5 5 5 5 6 5 5 5 5 6 5 5 5 5 6 5 5 5 5 5 5 5 5 5 5 5 5 5 5 5 5 5 5 5 5 6 5 5 6 5 6 5 5 5 5 5 5 5 5 5 5 6 5 5 5 5 6 5 5 6 6 5 5 5 5 5 5 5 5 5 5 5 5 5 5 5 6 5 5 5 5 5 5 5 5 5 5 5 5 5 5 6 6 5 5 6 5 5 5 5 5 5 5 5 5 5 5 5 5 5 5 5 5 6 5 5 5 5 6 5 5 5 5 5 5 5 5 5 6 5 5 5 5 5 6 6 5 5 5 6 5 5 5 5 6 5 5 5 5 5 5 6 5 5 5 5 5 5 5 5 5 5 5 5 6 5 6 5 5 5 6 5 6 5 5 5 5 6 6 5 6 5 5 5 5 5 5 5 5 5 6 5 6 5 5 5 6 5 5 5 5 5 5 6 5 5 5 5 5 5 6 5 5 5 6 5 6 5 6 5 6 6 5 5 6 5 5 6 5 6 5 5 5 5 5 5 5 5 5 5 5 5 5 6 5 5 5 5 6 5 5 5 5 5 5 5 5 5 5 5 6 5 6 5 5 6 6 6 5 5 5 6 5 5 6 5 5 5 5 5 5 5 5 5 5 5 6 5 5 5 5 5 5 6 6 5 5 5 5 5 6 5 6 5 5 5 5 5 5 5 5 5 5 5 5 5 5 5 5 5 5 5 5 5 5 5 5 5 5 5 6 5 5 5 5 5 6 5 5 5 5 5 5 5 5 5 6 6 5 5 6 5 5 5 6 5 5 5 5 6 6 5 6 5 5 6 5 5 5 5 5 5 5 5 5 5 5 5 5 5 5 5 5 5 5 5 5 5 5 5 5 5 5 6 6 5 5 6 5 5 5 5 5 6 6 5 6 5 6 5 5 5 5 5 5 6 5 6 5 5 5 5 5 5 5 5 5 5 5 5 5 5 5 6 5 5 5 5 5 5 5 5 6 5 5 5 5 6 5 5 5 5 5 5 5 5 5 5 5 5 6 5 5 5 5 5 5 5 5 5 5 5 5 5 5 5 5 5 5 5 5 5 5 5 5 5 5 5 5 5 5 5 5 5 5 5 5 5 5 6 5 5 5 5 5 5 5 5 5 5 5 5 5 5 5 5 6 5 5 5 5 6 5 5 5 5 5 5 5 5 5 5 5 6 5 5 5 5 5 5 5 5 6 5 5 5 5 6 5 5 5 6 5 5 5 5 5 5 5 5 5 5 5 5 5 5 5 5 6 5 5 5 5 5 5 6 5 5 5 5 5 6 5 5 5 5 6 6 5 6 6 5 5 5 5 5 5 5 5 5 5 5 5 5 5 5 5 5 5 5 5 5 6 5 5 5 5 5 6 5 5 5 5 5 5 5 5 5 5 5 5 5 5 5 5 5 5 5 6 5 5 5 6 5 5 6 6 5 5 5 6 5 6 5 5 6 5 5 5 5 5 5 6 5 6 5 5 5 6 5 5 6 6 5 6 5 5 5 5 5 5 6 5 5 5 5 5 5 5 6 6 6 5 5 5 6 5 5 5 5 6 5 5 5 5 6 5 6 5 5 5 5 5 5 5 5 5 5 5 5 5 5 6 5 5 6 5 5 5 5 6 5 5 5 5 5 5 6 5 5 5 5 5 5 5 5 6 5 5 6 5 5 5 6 6 5 5 5 5 5 5 5 6 6 5 5 6 5 5 5 5 5 6 5 5 5 5 5 5 6 5 5 6 5 5 5 6 5 5 5 5 5 6 5 5 5 5 5 5 5 5 5 5 5 5 5 5 5 5 5 5 5 5 5 5 6 5 5 5 5 5 6 6 5 6 5 6 6 5 6 5 5 5 5 5 6 5 5 5 5 5 6 5 6 5 5 6 5 5 6 6 5 5 5 5 6 6 5 5 5 6 5 6 5 6 5 5 6 5 5 5 6 5 5 5 5 5 5 6 5 5 6 6 5 6 5 5 6 5 5 5 5 5 5 5 5 6 5 5 5 5 5 5 5 5 5 5 5 5 5 6 5 5 5 6 5 5 5 5 6 5 5 5 5 5 5 5 5 5 5 5 5 5 5 5 5 5 5 5 5 5 6 5 5 5 5 6 5 5 5 5 5 5 5 5 5 5 5 5 5 5 5 5 5 5 5 5 5 5 5 5 5 6 5 5 5 5 6 5 5 5 5 5 5 5 6 5 6 5 5 5 5 5 5 5 6 5 5 6 5 5 5 5 6 5 5 5 5 5 5 5 5 6 5 5 5 6 5 6 5 5 5 5 5 6 5 6 5 5 5 5 6 5 5 6 5 5 5 5 5 6 5 5 5 5 5 5 5 6 5 5 6 5 5 5 5 5 5 5 5 5 6 6 5 5 6 5 5 5 5 5 5 5 6 6 6 5 5 6 5 5 5 6 5 5 5 6 5 5 5 5 5 5 5 5 6 5 6 5 5 5 6 5 5 5 5 5 5 5 6 5 5 5 5 5 5 5 5 5 6 5 5 5 5 5 5 5 5 5 5 5 5 5 5 5 6 5 5 5 5 5 5 6 5 5 5 6 6 5 5 5 5 5 5 5 5 5 6 5 5 5 5 5 5 6 5 5 6 5 6 5 5 5 5 5 5 5 5 5 5 5 5 5 5 5 5 5 5 6 5 5 5 5 5 6 5 6 5 5 5 5 5 5 6 5 6 5 5 5 6 5 5 5 5 6 5 5 5 5 5 6 5 5 5 5 5 5 5 5 5 6 5 6 6 5 5 5 5 5 6 5 5 5 5 5 5 5 6 5 6 6 6 5 5 5 5 5 6 5 5 6 5 5 5 5 5 6 5 5 6 5 5 5 5 5 5 5 5 5 5 5 6 6 5 5 5 5 6 5 5 5 5 5 5 5 5 5 5 5 5 5 5 5 5 5 5 5 5 5 6 5 5 5 5 5 5 5 6 5 5 5 5 5 6 6 6 5 5 5 5 5 5 6 5 6 5 5 5 6 5 5 5 5 5 5 5 5 5 5 5 6 6 5 5 5 5 5 6 5 5 5 5 5 5 5 6 5 5 5 5 5 5 5 5 5 5 5 5 6 5 5 5 5 5 5 5 5 5 5 5 5 5 5 6 5 5 5 5 5 5 5 5 6 5 5 5 5 5 5 5 5 5 5 5 5 5 5 6 5 5 5 5 5 5 6 5 5 5 6 5 5 6 5 5 5 6 5 6 6 6 6 5 5 6 6 5 5 5 6 5 5 6 5 6 5 5 5 5 5 5 5 5 6 6 5 5 6 5 5 6 5 5 5 5 6 5 5 5 5 5 5 6 5 5 5 5 5 5 5 6 5 5 5 5 5 6 5 5 6 6 5 5 5 5 5 5 5 5 5 5 5 5 5 5 5 5 5 5 6 5 5 5 5 5 5 5 5 5 5 5 5 5 5 5 5 5 5 5 5 6 5 5 5 5 5 5 5 5 5 5 5 5 5 6 5 5 5 5 6 5 5 5 5 5 6 5 5 5 5 5 5 5 5 5 5 5 5 5 5 5 5 5 5 5 5 5 5 5 5 5 5 5 5 5 5 5 5 5 5 5 5 5 5 5 5 5 5 5 5 5 5 5 5 5 6 5 5 5 5 5 5 5 5 5 5 5 5 5 5 5 5 5 5 5 5 5 5 5 5 5 5 5 5 5 5 5 6 5 5 5 5 5 5 5 5 6 5 5 5 5 5 5 6 5 5 5 5 5 5 6 5 5 6 5 5 5 5 6 5 5 6 5 5 5 5 5 5 5 5 5 5 5 5 5 5 5 5 5 5 5 5 6 5 5 5 5 5 5 5 5 5 5 5 5 6 5 6 5 5 5 5 5 5 5 5 5 5 5 5 5 5 5 6 5 5 6 5 5 5 5 5 5 5 5 5 5 5 5 5 5 5 6 6 5 5 5 5 6 5 6 5 5 5 6 5 5 6 5 5 5 6 6 5 6 5 5 6 5 5 6 5 5 5 5 5 5 5 5 5 5 5 5 5 5 5 5 5 5 5 5 5 5 5 6 6 5 5 5 6 5 5 6 5 6 6 5 6 5 6 5 6 5 6 5 6 5 5 5 6 5 5 5 5 5 5 5 5 5 5 6 5 5 5 5 5 5 5 5 6 5 5 5 5 5 5 5 5 5 5 5 5 5 5 5 5 5 5 5 5 5 5 5 5 5 5 6 5 5 6 5 5 5 5 5 5 5 6 5 6 5 5 5 5 5 5 5 5 5 6 5 6 6 5 5 5 5 5 5 5 5 5 5 5 5 5 5 5 5 5 6 6 5 5 5 5 5 5 5 5 5 5 5 5 5 6 6 6 5 5 5 5 5 5 5 5 5 5 5 5 6 5 5 6 5 5 5 5 5 5 6 5 5 5 6 5 6 5 5 5 5 6 5 5 5 6 5 5 5 5 5 5 5 5 5 5 5 5 5 5 5 5 5 5 5 5 5 5 5 6 5 6 5 5 5 5 5 5 5 5 5 5 5 6 5 5 5 6 5 5 5 5 5 5 6 5 6 5 5 6 5 5 5 5 6 6 5 5 5 5 5 6 5 5 5 5 5 5 5 5 5 6 5 5 5 5 5 5 5 5 5 6 5 5 5 5 5 5 5 5 5 5 5 6 6 5 5 5 5 5 5 5 5 5 6 5 5 5 5 5 5 5 5 5 5 5 5 5 5 5 5 5 5 6 5 6 5 5 5 5 5 5 5 5 6 5 5 5 5 5 5 5 5 5 5 6 5 5 5 6 5 5 5 5 5 6 5 5 5 5 6 5 5 5 6 5 6 5 6 5 5 6 5 5 5 5 5 5 6 5 5 5 5 5 5 5 6 5 5 5 5 5 5 5 6 5 5 5 5 5 5 5 5 5 5 5 5 5 5 5 5 6 5 5 6 5 6 5 5 5 5 5 5 5 5 6 5 5 5 6 5 5 5 5 5 5 5 5 5 6 6 5 5 6 5 5 5 5 6 5 5 6 5 5 5 5 5 5 5 5 5 6 5 5 6 5 5 5 5 6 5 6 5 5 5 5 5 5 5 5 5 5 5 6 5 6 5 5 6 5 5 5 5 5 6 5 6 5 5 5 6 6 5 5 5 5 5 5 5 6 5 5 5 5 6 5 5 5 5 5 5 5 6 5 5 6 5 5 5 5 6 5 6 6 5 5 6 5 5 5 5 6 5 5 5 5 5 5 6 5 5 5 5 6 5 5 5 5 5 5 6 5 5 6 5 5 6 5 5 5 5 5 6 5 5 5 5 5 6 5 5 5 5 6 5 5 5 5 6 5 5 5 6 5 5 5 5 5 5 5 5 5 5 5 5 5 5 6 5 5 6 5 6 6 5 5 5 5 6 5 6 5 6 5 5 6 6 5 5 5 5 6 5 5 5 6 5 5 6 5 5 5 6 5 5 6 5 5 5 6 5 5 6 5 5 5 5 5 5 5 5 5 5 5 5 5 5 5 5 5 6 5 5 5 5 5 5 5 5 5 5 5 5 5 5 5 5 5 5 5 5 5 5 5 5 5 5 5 5 5 5 6 5 5 5 5 5 5 5 5 5 5 6 6 5 5 5 6 5 5 6 5 5 5 5 5 5 5 5 5 6 5 5 5 5 5 5 5 5 5 5 5 5 5 5 5 5 5 5 5 6 5 5 5 5 6 5 5 6 5 5 5 5 5 5 5 5 5 5 5 5 5 5 5 5 5 5 6 5 5 5 6 5 5 5 5 5 6 5 5 5 5 5 5 5 5 5 5 5 5 5 5 5 5 5 5 5 5 5 5 5 5 5 5 5 5 5 5 5 5 5 5 5 5 5 5 5 5 5 5 5 5 5 5 5 5 5 6 5 5 6 5 6 5 5 6 5 5 5 6 5 5 5 5 5 5 5 5 5 5 6 6 5 5 6 5 5 5 5 5 5 5 5 5 5 5 5 5 5 5 6 6 5 5 5 5 5 5 5 5 5 5 5 6 5 5 5 5 5 5 5 5 5 6 5 5 5 5 5 5 5 5 6 5 5 6 5 5 5 5 6 5 5 5 5 5 6 5 6 5 5 5 5 6 5 5 5 5 6 5 5 6 5 5 5 5 5 5 5 5 5 5 5 5 5 5 5 5 5 6 5 6 5 6 5 5 5 5 5 5 5 5 5 5 5 5 5 5 5 5 5 5 5 5 5 6 5 5 5 5 5 5 5 5 5 6 5 5 5 5 5 5 5 5 5 5 5 5 5 5 5 5 6 6 5 5 5 5 5 5 5 5 5 5 5 5 5 5 5 6 5 5 5 5 5 5 5 5 5 5 5 6 5 5 6 5 5 5 5 5 5 5 5 5 5 5 6 5 6 5 5 5 6 5 5 6 5 5 5 5 5 5 5 5 5 5 5 5 6 6 5 5 5 5 5 5 6 5 5 5 5 5 6 5 5 5 5 5 5 5 5 5 5 5 5 5 5 5 5 5 5 5 5 5 6 6 5 5 5 5 5 5 5 5 5 5 6 6 5 5 5 5 6 5 6 5 6 5 6 5 5 6 6 5 5 5 6 6 5 6 5 5 5 6 5 6 5 5 6 5 5 5 5 5 6 5 5 5 5 5 6 5 6 5 5 5 5 5 5 5 5 5 5 5 6 5 6 6 5 6 5 5 6 5 5 6 5 6 5 5 6 5 5 5 5 5 6 5 5 5 5 5 5 5 5 6 5 5 5 6 5 5 5 5 6 5 6 5 6 5 5 6 5 5 6 6 5 6 5 5 6 6 5 5 6 5 6 5 5 6 6 5 6 5 5 6 5 5 5 6 5 5 6 5 5 5 5 5 5 5 5 5 5 5 5 5 5 5 5 6 5 5 5 5 5 5 5 5 6 5 5 5 6 6 5 5 5 5 6 5 5 6 6 5 5 5 5 5 6 6 5 5 6 6 5 6 5 5 6 5 5 5 5 5 5 5 5 5 5 5 5 5 5 5 5 5 5 5 6 5 5 5 5 5 5 6 5 5 6 5 6 5 5 5 5 5 5 6 5 5 5 6 5 5 5 5 5 5 6 5 6 5 5 5 5 5 5 5 5 6 5 5 5 5 5 5 5 5 5 5 6 5 5 6 5 5 5 5 5 5 5 6 5 5 5 5 5 5 5 5 5 5 5 5 5 5 6 5 5 5 5 5 5 6 5 5 5 5 5 5 5 5 5 5 5 5 5 6 5 5 5 5 5 6 5 5 5 5 5 5 5 6 5 5 5 5 5 5 5 6 5 5 5 5 6 6 6 5 6 5 5 5 5 5 5 6 5 5 5 5 6 5 6 6 6 6 5 6 5 6 6 5 5 5 5 5 5 5 6 5 6 5 5 5 5 5 5 5 6 5 5 5 5 6 5 5 5 5 5 5 6 5 5 5 5 5 5 6 6 5 5 5 5 6 5 6 5 5 5 5 5 5 5 5 5 5 6 5 5 6 5 6 5 5 6 5 6 5 6 5 5 5 5 5 5 5 5 5 5 6 5 5 5 5 5 5 5 5 6 6 5 5 5 6 5 5 5 5 5 5 6 5 6 5 5 5 5 5 6 5 5 5 5 5 5 5 5 5 6 5 5 6 5 5 5 6 5 5 5 5 5 5 6 5 5 5 5 5 5 5 6 5 5 5 5 5 5 5 5 5 5 5 5 6 5 5 5 5 5 6 5 5 6 5 5 5 5 5 5 5 5 5 5 5 5 5 5 5 5 5 5 5 6 5 5 6 5 5 5 5 5 6 5 5 6 5 5 5 5 5 5 5 5 6 5 5 5 6 5 5 5 5 5 5 5 5 5 5 5 5 5 6 5 5 5 5 5 5 5 5 5 5 5 5 5 5 5 5 5 5 5 5 5 5 5 5 5 6 5 5 5 5 5 5 5 6 5 6 5 5 5 6 5 6 5 5 5 6 6 5 5 6 5 6 5 5 5 5 5 6 5 5 5 5 5 6 5 5 5 5 5 5 5 5 5 5 6 5 5 5 6 5 5 5 5 5 5 5 5 5 5 5 5 5 5 5 5 5 6 5 5 6 5 5 6 5 5 5 5 5 5 5 5 5 5 5 5 5 5 5 5 5 5 5 5 5 5 5 5 6 6 5 5 5 5 5 5 6 5 5 5 5 5 5 6 5 5 5 6 5 6 5 6 5 5 5 5 5 5 6 5 5 5 6 5 6 5 5 5 6 5 5 5 5 5 5 5 5 5 5 5 6 5 5 6 5 5 5 6 5 5 5 5 5 5 5 5 5 6 5 5 6 5 5 5 5 6 5 6 5 5 5 5 5 5 5 5 5 5 5 6 5 5 5 6 5 5 5 5 5 5 5 5 5 5 6 5 5 5 5 5 6 5 5 5 5 6 5 5 5 5 5 5 5 5 5 5 5 5 5 5 5 5 5 5 5 5 5 5 6 5 6 5 5 5 5 5 5 5 5 6 5 5 5 5 5 5 5 5 5 5 5 5 5 5 5 5 5 5 5 5 5 5 5 5 5 5 5 6 6 5 5 5 5 5 5 5 5 5 5 5 5 5 5 5 5 5 5 5 5 5 5 5 5 5 5 5 5 5 5 5 5 5 5 5 5 5 5 5 5 5 5 5 5 5 5 5 5 5 5 5 5 5 5 5 5 5 5 5 5 5 5 5 5 5 5 5 5 5 5 5 5 5 5 5 5 5 5 5 6 5 6 5 5 5 5 5 5 5 5 5 6 6 5 6 5 5 6 5 5 5 5 5 5 5 5 5 6 5 5 5 5 5 5 5 6 6 5 5 6 5 6 5 5 6 6 5 5 5 5 5 6 5 5 5 6 5 5 6 5 5 5 5 5 6 5 6 5 5 6 5 5 5 5 6 5 5 5 5 5 5 5 6 5 6 5 5 5 5 5 5 5 5 5 5 5 5 5 5 5 5 5 5 5 5 5 5 5 6 5 5 5 5 5 5 5 5 6 5 6 5 5 5 5 5 5 5 6 5 5 5 5 5 5 5 6 5 5 5 5 5 6 5 5 5 5 5 5 5 6 5 5 5 5 6 5 5 5 5 5 5 5 6 5 5 5 5 5 6 6 5 5 6 6 5 6 5 5 6 5 5 6 5 5 5 5 6 5 6 6 5 5 5 6 5 5 6 5 6 5 5 5 5 5 5 5 5 5 5 5 5 5 5 5 5 6 5 5 5 5 5 6 5 5 5 5 5 6 5 5 6 5 5 5 5 5 5 5 5 5 5 5 5 5 6 5 5 5 6 5 5 5 5 5 5 5 5 5 5 5 5 5 5 5 5 5 6 5 5 5 6 5 5 5 5 5 6 5 5 5 6 5 5 5 6 6 5 5 5 6 5 5 5 5 5 5 5 5 5 5 5 6 5 5 5 5 5 5 5 5 5 5 6 5 5 5 5 5 5 5 5 5 5 5 5 5 5 5 5 5 5 5 5 5 5 5 5 5 5 5 5 5 5 5 5 5 5 5 5 5 5 5 5 5 5 5 5 5 5 5 5 5 5 5 5 5 5 5 5 5 6 5 5 6 5 5 5 5 5 5 5 5 5 5 5 5 6 5 5 5 5 5 5 5 5 5 5 5 6 5 5 5 5 6 5 5 5 5 5 5 5 5 5 5 5 6 5 5 5 5 5 5 5 6 5 5 5 5 6 5 5 5 5 5 5 5 5 5 5 5 5 5 5 5 5 5 5 5 5 6 5 5 5 5 5 6 5 5 6 5 5 5 5 6 5 5 5 5 5 5 5 6 5 5 5 5 5 5 5 5 5 5 5 5 5 5 5 5 6 5 5 5 5 6 5 5 5 5 6 5 5 5 5 6 5 5 5 5 6 5 5 5 5 6 5 5 6 5 5 5 5 6 5 6 5 
</DataArray>
<DataArray type="Float64" Name="stress" NumberOfComponents="9" format="ascii">
-0.5413882445251853 21.283483731771412 0 21.283483731771412 -1814.476996805075 0 0 0 0 51.980634991692796 641.09194779532845 0 641.09194779532845 -2675.3142531276462 0 0 0 0 0.64891585745886671 -2.6481618067264066 0 -2.6481618067264066 -4.2124542228607709 0 0 0 0 12.027166567805665 -332.28688910642813 0 -332.28688910642813 264.53946327514859 0 0 0 0 120.17549456918823 88.317780178924295 0 88.317780178924295 0.034678833486395888 0 0 0 0 129.65938034879605 105.35163756235124 0 105.35163756235124 -211.6677044562457 0 0 0 0 167.72214183822288 207.4205327338932 0 207.4205327338932 43.290926480898634 0 0 0 0 1.9043812002117957 -5.6867339903487562 0 -5.6867339903487562 -10.891338661551771 0 0 0 0 57.291686742464663 -12.013822876295308 0 -12.013822876295308 -28.018342896415561 0 0 0 0 -111.02816697173816 418.84553957637399 0 418.84553957637399 -1594.5625302972039 0 0 0 0 0.0069662529350271252 -0.40558566284016706 0 -0.40558566284016706 -14.019814591360046 0 0 0 0 -0.62919890627603492 3.8730864397500682 0 3.8730864397500682 -13.943392611884093 0 0 0 0 0.85088590539052367 -3.5310325174508534 0 -3.5310325174508534 -10.207200994015352 0 0 0 0 -1.6327605227523891 7.6266615532838813 0 7.6266615532838813 -14.424502030681737 0 0 0 0 -1.9663977515732736 3.0183377384673804 0 3.0183377384673804 -15.002937920275144 0 0 0 0 -0.0015844662691806726 3.9773935028424603 0 3.9773935028424603 -16.700599464718834 0 0 0 0 -3.7699259754005348 3.1635751343897027 0 3.1635751343897027 -13.183350021630758 0 0 0 0 -1.7581298278932669 7.6247577307475893 0 7.6247577307475893 -10.747484750516492 0 0 0 0 31.71401243528635 35.258792346547125 0 35.258792346547125 -31.642661947909801 0 0 0 0 15.173547283693324 85.251376858563162 0 85.251376858563162 82.265194577781585 0 0 0 0 -4.0292000061414237 1.5229736504870743 0 1.5229736504870743 -15.490189273201395 0 0 0 0 -145.57634963644216 155.24339566400158 0 155.24339566400158 -189.45128037917311 0 0 0 0 -41.471086111376188 61.696658339541955 0 61.696658339541955 -253.01928963561659 0 0 0 0 -0.33425783693830557 -0.6169532559090527 0 -0.6169532559090527 -6.2708932973071114 0 0 0 0 -2.9446548284660561 3.6305500168382423 0 3.6305500168382423 -14.315082572411484 0 0 0 0 -34.492298382481685 151.86502807897273 0 151.86502807897273 -375.23214694105263 0 0 0 0 -0.0047588393332224348 0.88658379271510057 0 0.88658379271510057 -7.4943126531106827 0 0 0 0 -2.8572336002807175 5.1852690264506691 0 5.1852690264506691 -12.014605970864068 0 0 0 0 157.24347115039802 133.65010679757506 0 133.65010679757506 70.484808507586422 0 0 0 0 201.17327684488305 100.20113994222629 0 100.20113994222629 -378.40162963100011 0 0 0 0 -219.3988644302367 -75.298858548150747 0 -75.298858548150747 -113.07105474371201 0 0 0 0 -367.10188878155236 124.7059472754554 0 124.7059472754554 -131.16907347887172 0 0 0 0 -192.32848470695268 247.52455884887604 0 247.52455884887604 -282.52489817002061 0 0 0 0 -283.50064694900101 412.02264024478063 0 412.02264024478063 -82.84786949629779 0 0 0 0 -2.5808950980318213 1.5571461230986472 0 1.5571461230986472 -0.94770320763799987 0 0 0 0 -475.38220803663432 -96.237357200596307 0 -96.237357200596307 -13.414232467461261 0 0 0 0 1.5464893461994484 4.0876088883842812 0 4.0876088883842812 -1.0697192364339401 0 0 0 0 -79.317429310235653 -18.608613209646137 0 -18.608613209646137 515.09690609984682 0 0 0 0 -91.342599221160583 164.800758461839 0 164.800758461839 52.549754299005144 0 0 0 0 -205.31781380752159 416.13638807259122 0 416.13638807259122 452.61736181355809 0 0 0 0 272.91870646835474 385.55780409141335 0 385.55780409141335 63.958644906349946 0 0 0 0 -4.4773044200528087 4.698394804257731 0 4.698394804257731 -6.45269269521404 0 0 0 0 159.42748186310473 89.752799222442263 0 89.752799222442263 140.16749292556051 0 0 0 0 -191.65888529711708 435.26743027623161 0 435.26743027623161 -605.23337683918362 0 0 0 0 111.81077596485471 70.931968831915583 0 70.931968831915583 -2500.3785452290504 0 0 0 0 -147.35008848277846 -126.0617969295065 0 -126.0617969295065 -44.354235567487194 0 0 0 0 125.10318422840561 2.3421453019873297 0 2.3421453019873297 -1113.0990261945262 0 0 0 0 -23.375119600586004 199.9656644523493 0 199.9656644523493 609.88501187101065 0 0 0 0 -3.6440892580597675 2.0683212522099836 0 2.0683212522099836 -0.40285323769393244 0 0 0 0 -337.18407136138114 844.2284404674283 0 844.2284404674283 441.49999065222619 0 0 0 0 149.04844726872466 328.48992595292293 0 328.48992595292293 -674.54323198628845 0 0 0 0 22.01797216700561 27.545209027383862 0 27.545209027383862 -661.56565319182118 0 0 0 0 27.582683575292435 -51.73165131607675 0 -51.73165131607675 -137.49598881922429 0 0 0 0 229.17225150745998 -498.82173079086351 0 -498.82173079086351 -786.30439324234976 0 0 0 0 204.76880276481475 -510.6690502568963 0 -510.6690502568963 -489.13034085460822 0 0 0 0 187.97695731181756 -375.7365357169474 0 -375.7365357169474 -1106.2956996410066 0 0 0 0 357.19897227038763 473.05741718666468 0 473.05741718666468 -2298.9587579956788 0 0 0 0 229.87397174202502 218.56492364675796 0 218.56492364675796 -2806.3486409861071 0 0 0 0 -548.42884382783484 883.99750998321906 0 883.99750998321906 -1080.6265083605394 0 0 0 0 -0.49609809366399948 -0.48791303205573833 0 -0.48791303205573833 -12.111593938868538 0 0 0 0 141.86718707657877 -923.68923524993079 0 -923.68923524993079 -1844.8388396079026 0 0 0 0 -530.6327837217766 -1037.2489456161093 0 -1037.2489456161093 -945.91834567461046 0 0 0 0 -250.98220400550244 -110.5207257879556 0 -110.5207257879556 -2493.9249989931977 0 0 0 0 476.68834493779946 66.418923940214881 0 66.418923940214881 -2488.4019061997624 0 0 0 0 212.96796926492317 -239.80611068596409 0 -239.80611068596409 -1602.7574970316928 0 0 0 0 -9.355520273919808 180.7802552210851 0 180.7802552210851 -206.7133810646643 0 0 0 0 -404.58729707302695 -449.83270047106271 0 -449.83270047106271 -191.07421743306622 0 0 0 0 -156.92517587102955 815.56520423821348 0 815.56520423821348 -1982.1288650797087 0 0 0 0 252.22302501916266 527.23048195432057 0 527.23048195432057 -2047.4892045566248 0 0 0 0 84.457818793360673 53.302544087782735 0 53.302544087782735 -887.17172706502606 0 0 0 0 -43.682967688651047 39.474643331341213 0 39.474643331341213 -887.40584256102466 0 0 0 0 -93.320126919924292 43.32944463849708 0 43.32944463849708 -342.5848147685756 0 0 0 0 -146.53474954376259 341.45481735040084 0 341.45481735040084 -831.37581670461077 0 0 0 0 84.316513923634488 61.848236773585995 0 61.848236773585995 -1174.9037359291833 0 0 0 0 -253.52444370788533 885.62677799913945 0 885.62677799913945 -1226.8355099742694 0 0 0 0 -190.85326319961047 145.91140260266548 0 145.91140260266548 -407.44976327318 0 0 0 0 -16.195840877676062 -227.52104936964679 0 -227.52104936964679 -82.706445279836771 0 0 0 0 -493.9373811020003 664.87843556867483 0 664.87843556867483 -157.97455584579438 0 0 0 0 -17.711731636940641 -114.61781735518161 0 -114.61781735518161 -81.737743165293068 0 0 0 0 -178.47721944511784 185.26290844416144 0 185.26290844416144 -362.58305914129596 0 0 0 0 -210.96985524397513 187.60494097664559 0 187.60494097664559 -14.357688628813776 0 0 0 0 -1.0787967419642848 0.20946880304325077 0 0.20946880304325077 0.74574252612799796 0 0 0 0 -40.474296584122555 131.35939940954268 0 131.35939940954268 -298.78721144728843 0 0 0 0 27.895465067141416 -45.978000995721231 0 -45.978000995721231 -14.252698353295273 0 0 0 0 -20.40987074573161 -67.3222180717421 0 -67.3222180717421 46.871361148296273 0 0 0 0 9.0379895419903278 -26.613910616633802 0 -26.613910616633802 57.685352059546858 0 0 0 0 -1.6010557122257967 -0.57929888704605048 0 -0.57929888704605048 -2.45319092957034 0 0 0 0 21.738066615668686 -25.229870059873065 0 -25.229870059873065 14.822854428042774 0 0 0 0 -0.47782868736831763 5.4858977013569614 0 5.4858977013569614 -26.559865356122287 0 0 0 0 372.83146395092081 15.894988979204754 0 15.894988979204754 -228.21214491187129 0 0 0 0 -191.93685497746088 -194.00168899768323 0 -194.00168899768323 -293.4883393730197 0 0 0 0 -3.0042783216485751 20.892149215344659 0 20.892149215344659 -29.112654316096624 0 0 0 0 -154.77959759829488 232.7943200574482 0 232.7943200574482 145.1567592528736 0 0 0 0 -2.3925046743602727 6.7223312430611415 0 6.7223312430611415 8.0336668830441056 0 0 0 0 378.22069786646125 127.50852534067963 0 127.50852534067963 -75.09657290460018 0 0 0 0 -23.189242828633951 58.248897588069667 0 58.248897588069667 54.424038334997022 0 0 0 0 0.38451198047401425 -0.71944153201417294 0 -0.71944153201417294 2.0835267910805157 0 0 0 0 550.02178700073182 71.343893344685966 0 71.343893344685966 -87.821175913224579 0 0 0 0 -82.361236391777993 -2.1372074503815384 0 -2.1372074503815384 45.772727054281859 0 0 0 0 -31.032739233640768 -12.991403425403405 0 -12.991403425403405 35.220371325365704 0 0 0 0 11.888064840300558 13.218764636563719 0 13.218764636563719 34.716062370338477 0 0 0 0 -35.595967710147363 -54.735689018380072 0 -54.735689018380072 -268.43340666484437 0 0 0 0 -52.3117843650164 49.214799710515443 0 49.214799710515443 115.41245714474644 0 0 0 0 -52.289237340957243 73.292991432055715 0 73.292991432055715 -21.517148863742477 0 0 0 0 221.7116443334844 115.10236916565918 0 115.10236916565918 -250.84449776628026 0 0 0 0 40.92267213163359 -22.196989626405411 0 -22.196989626405411 -283.8977404682737 0 0 0 0 178.89478555004447 -195.3139790152054 0 -195.3139790152054 -167.15515157586196 0 0 0 0 128.43280533712232 84.464289885734615 0 84.464289885734615 85.660674601043866 0 0 0 0 3.3119725866932583 -3.5260368746417043 0 -3.5260368746417043 1.5989314972102875 0 0 0 0 -0.045161812668753964 18.99074429231753 0 18.99074429231753 -25.794385367107211 0 0 0 0 -15.387683347102438 67.602849471266381 0 67.602849471266381 89.580948197864927 0 0 0 0 -7.272990526408357 137.72271830088448 0 137.72271830088448 80.858320460938558 0 0 0 0 -105.46975770217796 24.928954427050485 0 24.928954427050485 -26.152440810787084 0 0 0 0 -9.7840750834827475 -18.527063250978244 0 -18.527063250978244 -7.951265019190032 0 0 0 0 92.26378170844805 47.539246602773346 0 47.539246602773346 -97.713855938563938 0 0 0 0 6.382901315863819 46.483371846217779 0 46.483371846217779 19.761904225753369 0 0 0 0 64.538264530696722 102.8299533823656 0 102.8299533823656 2.4405654764123028 0 0 0 0 5.9412347379805164 15.442306251305766 0 15.442306251305766 -24.26084727739142 0 0 0 0 52.492027138903723 19.174366480405297 0 19.174366480405297 -70.477724674128694 0 0 0 0 68.225614572882648 12.302800510591624 0 12.302800510591624 -109.43751487076224 0 0 0 0 -16.407210808171101 105.04204568939895 0 105.04204568939895 -124.77809439077828 0 0 0 0 55.581510620157786 -24.474668408338403 0 -24.474668408338403 -216.30616258716327 0 0 0 0 -35.438177861844622 -68.051216393852883 0 -68.051216393852883 -27.088908053803607 0 0 0 0 -16.176478613821757 -85.119042083730164 0 -85.119042083730164 -132.88635801960481 0 0 0 0 -14.907447646634409 -23.590144206573314 0 -23.590144206573314 -54.48256153287366 0 0 0 0 -14.374049290193284 -26.180103790939029 0 -26.180103790939029 -65.236143086222 0 0 0 0 8.4589141472655456 -42.669010617340973 0 -42.669010617340973 -69.378850242981571 0 0 0 0 14.250242319979861 -41.240054730304109 0 -41.240054730304109 -69.769107261432509 0 0 0 0 20.075221548672289 -47.115365771758661 0 -47.115365771758661 -54.454409238780499 0 0 0 0 39.348818801578773 -16.145652373741541 0 -16.145652373741541 -56.030485370807583 0 0 0 0 28.047860616890603 -43.89277678286453 0 -43.89277678286453 -115.96863730496079 0 0 0 0 -5.9297655772327644 -2.7898863225090054 0 -2.7898863225090054 -1.4015592426528443 0 0 0 0 -2.6969143440631456 -40.335060789537692 0 -40.335060789537692 -9.6977720342183602 0 0 0 0 118.30847175924009 -52.485928827212774 0 -52.485928827212774 -545.7853163336149 0 0 0 0 89.713817165534351 -177.93243618703855 0 -177.93243618703855 -423.76972646095965 0 0 0 0 -92.797475916326221 31.814568858440907 0 31.814568858440907 -272.58438345219838 0 0 0 0 -40.470023866246947 -34.705742312296934 0 -34.705742312296934 71.490176427955703 0 0 0 0 74.571593733822056 113.5882701584851 0 113.5882701584851 -561.76203872311453 0 0 0 0 -1.6084013888488329 0.30829972051817833 0 0.30829972051817833 -0.29260522560769608 0 0 0 0 5.5515290144808205 16.840358243396622 0 16.840358243396622 -31.734610946092289 0 0 0 0 1.2224124143464223 -41.508132385315548 0 -41.508132385315548 -55.365043286283253 0 0 0 0 9.963043255428655 2.3664229776830581 0 2.3664229776830581 -5.8575492350831411 0 0 0 0 11.454015172499664 0.66911073157982059 0 0.66911073157982059 -5.1199719458203816 0 0 0 0 -30.220209794952552 -63.977194027778751 0 -63.977194027778751 -18.023778873073752 0 0 0 0 -36.691206050942398 64.628631147556007 0 64.628631147556007 14.442165091053539 0 0 0 0 23.829993829900431 5.9005059041155619 0 5.9005059041155619 -115.79775778258772 0 0 0 0 62.935516415657759 -22.710517558945867 0 -22.710517558945867 -96.43715336216701 0 0 0 0 38.35174458083015 -66.603439424714452 0 -66.603439424714452 -42.243718198180432 0 0 0 0 -0.62321105606494198 -0.50907158317600931 0 -0.50907158317600931 -1.2483805751870847 0 0 0 0 -57.202643388183816 -179.23691421322656 0 -179.23691421322656 -400.14246284493129 0 0 0 0 -81.499075914721857 -23.353753822200815 0 -23.353753822200815 -374.33422146094381 0 0 0 0 -52.432739051696132 -38.493042493995745 0 -38.493042493995745 67.937750268165473 0 0 0 0 -15.566953477781567 27.011395217006793 0 27.011395217006793 -61.127433934037981 0 0 0 0 3.3397574456372574 -1.1754827037791671 0 -1.1754827037791671 -1.5651321149257278 0 0 0 0 39.670724090759677 -97.178392821675516 0 -97.178392821675516 -220.08825924916891 0 0 0 0 -41.952083917217351 -77.277630166463496 0 -77.277630166463496 -295.8918743534814 0 0 0 0 -38.412801540361215 -106.29694629321602 0 -106.29694629321602 -188.28521556042688 0 0 0 0 12.444251243006565 22.990505289028988 0 22.990505289028988 -52.815238798706559 0 0 0 0 -46.980353155079555 -103.44281873141153 0 -103.44281873141153 -139.41435793603159 0 0 0 0 -53.815346194733664 -20.165066523528367 0 -20.165066523528367 -60.80947778517293 0 0 0 0 12.511150634486484 -45.756149950328108 0 -45.756149950328108 -257.17513578868238 0 0 0 0 12.133051426485437 -72.547085131664062 0 -72.547085131664062 -193.48603488057051 0 0 0 0 -25.43074314731544 -85.713266703547561 0 -85.713266703547561 -177.706185614079 0 0 0 0 -9.1810533410045991 -65.345197916714824 0 -65.345197916714824 -216.12047918130702 0 0 0 0 -20.843752624768058 -112.41970213105378 0 -112.41970213105378 -218.12613327524741 0 0 0 0 -26.065826564184384 -74.235643997772058 0 -74.235643997772058 -129.25940117327264 0 0 0 0 -12.706433695265673 -51.893834655114915 0 -51.893834655114915 -153.01988529443042 0 0 0 0 25.597252179781183 -68.273368177015072 0 -68.273368177015072 -146.33829010237241 0 0 0 0 0.13042215922775338 -72.306980291265063 0 -72.306980291265063 -205.30777020037931 0 0 0 0 0.29599394723331329 -97.996081227018294 0 -97.996081227018294 -115.08755025251594 0 0 0 0 -13.838314864182564 -4.8438274702130002 0 -4.8438274702130002 -134.91257917826624 0 0 0 0 -13.595809749896489 -77.128261885336542 0 -77.128261885336542 -129.0608602061111 0 0 0 0 0.70780373318435663 -0.066018908762529804 0 -0.066018908762529804 -0.0092296686954540519 0 0 0 0 -49.618476444922294 -66.655934129477828 0 -66.655934129477828 28.789537382011986 0 0 0 0 -4.9409390025439848 -115.77877239871304 0 -115.77877239871304 -133.54056787972513 0 0 0 0 53.717461929945642 -12.517522677798297 0 -12.517522677798297 -147.14497187580855 0 0 0 0 -34.675790986900665 -81.643011756576016 0 -81.643011756576016 -170.35672608277309 0 0 0 0 17.999573147228652 -26.468532914303069 0 -26.468532914303069 -257.49835059998441 0 0 0 0 -38.527520792343836 -24.349391996496706 0 -24.349391996496706 -242.76792676375044 0 0 0 0 -0.62537054971980632 -63.657187774173508 0 -63.657187774173508 -277.32255025277118 0 0 0 0 19.091506415898351 67.446548767278728 0 67.446548767278728 -570.91996291761461 0 0 0 0 0.038263410378102131 -0.31974269261657184 0 -0.31974269261657184 -2.2316129778190827 0 0 0 0 -198.25755298406062 358.69237789555336 0 358.69237789555336 -528.36759749836347 0 0 0 0 -138.15833372803178 186.56450548514658 0 186.56450548514658 -219.80517019721447 0 0 0 0 -60.727190302665804 84.231846790527925 0 84.231846790527925 -394.32103252183151 0 0 0 0 -80.26093965426216 -0.70086026289664005 0 -0.70086026289664005 -145.91657607699744 0 0 0 0 -106.03448107588713 30.093926004774403 0 30.093926004774403 -182.71030221870751 0 0 0 0 -137.04942376157373 17.950563829079329 0 17.950563829079329 -68.448261644065497 0 0 0 0 111.94548369856727 76.715862871838908 0 76.715862871838908 -21.965815949981334 0 0 0 0 191.75830541618598 -23.214909932146838 0 -23.214909932146838 26.712263889097812 0 0 0 0 -8.1030677109611133 -99.145820846002607 0 -99.145820846002607 -174.6963983831447 0 0 0 0 -23.816306291088267 -77.610294479451113 0 -77.610294479451113 -150.14802584836434 0 0 0 0 39.135802319828144 -148.07315027684672 0 -148.07315027684672 -72.824089214394917 0 0 0 0 118.10122044661148 -96.302989821357187 0 -96.302989821357187 -357.40320645146858 0 0 0 0 -71.334697593736223 -143.3715352807194 0 -143.3715352807194 -151.55451081614592 0 0 0 0 4.2619427484444259 -103.9928356845885 0 -103.9928356845885 -213.8431841275742 0 0 0 0 -66.009276796907443 -52.58635196735122 0 -52.58635196735122 -235.61760544774734 0 0 0 0 -48.17699995258431 -101.22366288800549 0 -101.22366288800549 -107.96465693451137 0 0 0 0 -139.37932107200038 22.472887648495089 0 22.472887648495089 -77.707767733580113 0 0 0 0 -34.999463112892499 -86.370156645443785 0 -86.370156645443785 -136.97489813114225 0 0 0 0 69.955339095558372 34.797424599728402 0 34.797424599728402 -2.7481152814434608 0 0 0 0 -33.166439752283722 -66.309559091491337 0 -66.309559091491337 53.191339529526886 0 0 0 0 -69.214546498850837 -76.906134790100623 0 -76.906134790100623 -24.370038747751096 0 0 0 0 -42.651948170668021 -27.216986209801689 0 -27.216986209801689 48.130270944035146 0 0 0 0 -171.17374568398691 23.042052166085341 0 23.042052166085341 124.24661275371182 0 0 0 0 -97.176785237635158 -142.2667611795041 0 -142.2667611795041 -39.185356839167071 0 0 0 0 -69.417802123814752 129.18429870646105 0 129.18429870646105 -491.90147042389435 0 0 0 0 -25.481825897645422 -29.213266023572942 0 -29.213266023572942 -490.6507208611074 0 0 0 0 67.530863308339747 284.04724652994082 0 284.04724652994082 -1110.5400057191146 0 0 0 0 -1.8467963487296775 164.18167831192113 0 164.18167831192113 -705.73108677884738 0 0 0 0 -228.97879543143191 204.04911358517711 0 204.04911358517711 -235.13054197500242 0 0 0 0 -42.311915188528587 -58.294169452197821 0 -58.294169452197821 -66.606994188681711 0 0 0 0 -337.14711341353632 369.23157292087853 0 369.23157292087853 -306.25900790042942 0 0 0 0 -107.48432165450596 667.63324541227121 0 667.63324541227121 -1286.7940198343495 0 0 0 0 -461.67722290536102 543.73689628190914 0 543.73689628190914 -181.70140082110083 0 0 0 0 -73.268177364758571 496.88822777053065 0 496.88822777053065 -797.48379952539381 0 0 0 0 -170.69027072284683 785.37597231386462 0 785.37597231386462 -1350.4283079578345 0 0 0 0 316.25709553999684 562.62762199107055 0 562.62762199107055 -2128.4405920224381 0 0 0 0 229.29641871291116 893.33106344035332 0 893.33106344035332 -2499.3278419941307 0 0 0 0 371.57695066632346 396.1102552076718 0 396.1102552076718 -1671.0887246701532 0 0 0 0 143.66740902883348 460.7929215641434 0 460.7929215641434 -1676.0944313753571 0 0 0 0 15.96346714913301 293.09809914902507 0 293.09809914902507 -1103.3212990698448 0 0 0 0 -0.51764099485637871 212.93456221379165 0 212.93456221379165 -1493.1864489566124 0 0 0 0 453.4400363709421 286.67297815916845 0 286.67297815916845 -2499.086180035727 0 0 0 0 418.4518520025739 -110.20349812418135 0 -110.20349812418135 -1726.8773318702042 0 0 0 0 424.10962044402305 -172.36429957342864 0 -172.36429957342864 -1742.3769228863166 0 0 0 0 146.74880627263235 -93.738079170134597 0 -93.738079170134597 -1130.642963078637 0 0 0 0 151.61888611989568 10.358826126769827 0 10.358826126769827 -937.2015624149426 0 0 0 0 -72.680384638178907 225.28441331200156 0 225.28441331200156 -706.79805724261678 0 0 0 0 79.33306594207653 -91.594799168800819 0 -91.594799168800819 -630.51055717333657 0 0 0 0 -274.62267169850008 71.743768241214639 0 71.743768241214639 -31.455483662968618 0 0 0 0 -0.57925304393305632 1.2771264501189279 0 1.2771264501189279 -2.6453312696023659 0 0 0 0 -68.493750222720109 -27.90141394094826 0 -27.90141394094826 -28.714818105991185 0 0 0 0 161.52729756055817 195.43699043420929 0 195.43699043420929 -378.92710251176686 0 0 0 0 61.186979204761087 -103.58342397939668 0 -103.58342397939668 -30.979114359586674 0 0 0 0 -32.248593510561705 152.39360337765356 0 152.39360337765356 87.747209490495152 0 0 0 0 17.841031849686999 53.940846255212819 0 53.940846255212819 -316.36087151390529 0 0 0 0 139.15575094120862 174.9176721513104 0 174.9176721513104 -211.0034168514394 0 0 0 0 -36.399564625103892 86.193439951890468 0 86.193439951890468 -98.24310848699497 0 0 0 0 -133.74255401862092 -154.85474184620762 0 -154.85474184620762 -22.571053597755963 0 0 0 0 39.563122097550263 -154.83027688044604 0 -154.83027688044604 -638.8932933178985 0 0 0 0 3.813615851221698 23.582834093260317 0 23.582834093260317 -295.46195830108081 0 0 0 0 -17.723787008348069 -298.02569248701548 0 -298.02569248701548 -860.1866700312421 0 0 0 0 113.78443613141957 -255.13412642807634 0 -255.13412642807634 -923.97419038401131 0 0 0 0 180.81304246995541 -391.70818518962187 0 -391.70818518962187 -1477.7677934897183 0 0 0 0 521.37072227841929 -530.19888747126788 0 -530.19888747126788 -2500.078393387972 0 0 0 0 209.51803397696091 -647.90848757563435 0 -647.90848757563435 -1644.7615421845112 0 0 0 0 149.9627648657904 -823.01754201946824 0 -823.01754201946824 -2105.82247497356 0 0 0 0 142.43367387690074 -678.8178150722415 0 -678.8178150722415 -1635.4061036506037 0 0 0 0 -88.764823232275376 -465.38661078838413 0 -465.38661078838413 -735.19265421458113 0 0 0 0 -87.03929733484884 -604.52085384218663 0 -604.52085384218663 -596.84589492403029 0 0 0 0 42.225857720544809 -22.10605403889349 0 -22.10605403889349 -390.820808378322 0 0 0 0 -1513.0434871216125 -1086.3764440086161 0 -1086.3764440086161 -227.41748063629802 0 0 0 0 -1579.7073050401336 -1559.5205586349794 0 -1559.5205586349794 -1468.1185579082958 0 0 0 0 -0.76324664190292291 -1.6414188923695114 0 -1.6414188923695114 -0.86023881798760726 0 0 0 0 -519.81481516631345 -1551.2141212206625 0 -1551.2141212206625 -2640.3519050493269 0 0 0 0 -393.30133248881884 -1226.8629984539966 0 -1226.8629984539966 -1842.4483549378856 0 0 0 0 -472.94377608279149 992.33613805510686 0 992.33613805510686 -1662.3343284665971 0 0 0 0 -0.42990624313305764 -3.435576755398257 0 -3.435576755398257 -15.514721981394786 0 0 0 0 -5.5742826574351056 -29.867695262222696 0 -29.867695262222696 -28.676504553528503 0 0 0 0 -164.51274248644984 -134.40403084576246 0 -134.40403084576246 -91.671791526998277 0 0 0 0 37.16244153548746 5.2214586505069747 0 5.2214586505069747 -31.872118749247647 0 0 0 0 -1.8614164424304842 2.4351090384646028 0 2.4351090384646028 -1.7946586346880053 0 0 0 0 28.382742854780304 -41.224758144424413 0 -41.224758144424413 -48.935727061038051 0 0 0 0 0.29834765180518447 -2.0974463561548262 0 -2.0974463561548262 -28.942862756609344 0 0 0 0 317.09011969703988 15.14125349087044 0 15.14125349087044 -117.18704855735268 0 0 0 0 -0.9915057248160104 -1.4504791857545101 0 -1.4504791857545101 -9.9252852342810343 0 0 0 0 16.79245398571743 -104.69645548981316 0 -104.69645548981316 -63.125156711728778 0 0 0 0 0.9846223612440641 -1.1300120149617854 0 -1.1300120149617854 -5.3433773672349787 0 0 0 0 -27.531978508080442 -67.650061234930035 0 -67.650061234930035 -54.804550980014028 0 0 0 0 93.611294305893352 30.929303549681208 0 30.929303549681208 -63.784420914096472 0 0 0 0 -135.9400535116996 -189.63279063095251 0 -189.63279063095251 -38.099095700585167 0 0 0 0 0.75559755333713174 -0.57129300568450958 0 -0.57129300568450958 -2.8120901909864529 0 0 0 0 52.684974471273904 -52.484269536791544 0 -52.484269536791544 4.6555767590543837 0 0 0 0 7.701680796764947 6.8444789986970136 0 6.8444789986970136 -20.227792065736139 0 0 0 0 2.2779290400554948 -1.6982034568145821 0 -1.6982034568145821 -27.186462336118041 0 0 0 0 0.34532751426734276 1.633567125484725 0 1.633567125484725 -22.193776716915409 0 0 0 0 2.3724896343689963 1.3508654876475248 0 1.3508654876475248 -18.468594121964998 0 0 0 0 -12.070903632333284 16.328604549038573 0 16.328604549038573 17.742664737454106 0 0 0 0 2.4624725534968626 2.3635098285332661 0 2.3635098285332661 -14.382027715212899 0 0 0 0 -2.9397817876438239 12.107129387368332 0 12.107129387368332 -24.947300440493564 0 0 0 0 1.9121844774975645 1.5661852207756795 0 1.5661852207756795 -3.2702283118278501 0 0 0 0 9.9680233150232027 4.2079075055335124 0 4.2079075055335124 -27.159556234193587 0 0 0 0 163.40570929298804 192.47201782530828 0 192.47201782530828 -172.19007105040328 0 0 0 0 2.2812295075273292 2.9551377593422359 0 2.9551377593422359 -17.889918450876067 0 0 0 0 2.7207412863934501 5.6012916308029297 0 5.6012916308029297 -22.780384178308623 0 0 0 0 2.0689626739713196 7.3134836279480311 0 7.3134836279480311 -12.18169012178717 0 0 0 0 -0.83189632789844836 6.2871698918243055 0 6.2871698918243055 -18.935063257325055 0 0 0 0 2.147927367643232 9.4795381752173498 0 9.4795381752173498 -6.0204714084933642 0 0 0 0 4.8479382744915256 14.50948506948771 0 14.50948506948771 -23.438748574862984 0 0 0 0 2.3792373468825652 12.363456943583063 0 12.363456943583063 -1.5844036436023714 0 0 0 0 18.102647624727979 17.850481522465998 0 17.850481522465998 4.999101806381077 0 0 0 0 109.18420165238149 11.335632249254559 0 11.335632249254559 -71.93556381505914 0 0 0 0 2.8285726838327965 9.3120131120523748 0 9.3120131120523748 -1.024573573724723 0 0 0 0 -2.0839985096683336 50.488026815196918 0 50.488026815196918 -61.386108229547972 0 0 0 0 48.113249255374392 12.789407094839817 0 12.789407094839817 -34.175658172753174 0 0 0 0 48.054867439105692 5.8790861228699214 0 5.8790861228699214 -85.316456670982006 0 0 0 0 39.399297122846292 9.7452726873234496 0 9.7452726873234496 -33.59861672007537 0 0 0 0 30.039418339340955 -20.076212972174289 0 -20.076212972174289 1.3035443203261821 0 0 0 0 27.879643494713946 -32.265743805466627 0 -32.265743805466627 -67.053460549679585 0 0 0 0 43.666023927904007 2.4569214966340951 0 2.4569214966340951 -34.265245663802489 0 0 0 0 -4.0857353403462184 6.5953353255827096 0 6.5953353255827096 -78.901755860519529 0 0 0 0 0.38022690458994557 2.2809581895043038 0 2.2809581895043038 -8.2204473924086301 0 0 0 0 -7.5530116439258563 48.800752575261868 0 48.800752575261868 -78.405621108205139 0 0 0 0 8.9598786488766109 11.960196964850184 0 11.960196964850184 -24.766289577517455 0 0 0 0 22.976445822768028 17.945781175574666 0 17.945781175574666 -34.14162505940476 0 0 0 0 7.0251170350913892 14.702877920353899 0 14.702877920353899 -23.472376963817013 0 0 0 0 9.3475386994396104 10.812274677075038 0 10.812274677075038 -28.210840220563114 0 0 0 0 1.7092511371744323 4.9708672327049968 0 4.9708672327049968 -20.720967484544929 0 0 0 0 -4.346208774095885 -1.9671990950555482 0 -1.9671990950555482 -53.305588938401343 0 0 0 0 11.360337884620321 10.256143922902993 0 10.256143922902993 -63.788981339232123 0 0 0 0 2.6131426249877427 1.7270669061811148 0 1.7270669061811148 -24.530282309746283 0 0 0 0 4.7464072651937474 12.6453770986706 0 12.6453770986706 -33.643391218670274 0 0 0 0 15.47859068864409 10.188806682977884 0 10.188806682977884 -24.518191893774201 0 0 0 0 8.3659967799719581 18.244916839742771 0 18.244916839742771 -31.161398016106489 0 0 0 0 4.4990263513170872 6.4854684352037424 0 6.4854684352037424 -35.855641806055672 0 0 0 0 -8.277095655427388 46.636375319108083 0 46.636375319108083 -38.034892432391644 0 0 0 0 16.016501161346241 27.851380131658516 0 27.851380131658516 -42.9001946371136 0 0 0 0 -1.6342836765002176 2.942606063101266 0 2.942606063101266 -19.419084814377129 0 0 0 0 2.9142614862702718 13.451064479530586 0 13.451064479530586 -24.982703720883308 0 0 0 0 11.022224335035389 14.348578658595216 0 14.348578658595216 -75.720150208100677 0 0 0 0 27.630301515416249 28.121336592332227 0 28.121336592332227 12.082403695334506 0 0 0 0 0.20498876475213912 -1.0498116152588182 0 -1.0498116152588182 -8.470700735813935 0 0 0 0 28.21868302681105 5.6158171799906995 0 5.6158171799906995 -63.213518935794127 0 0 0 0 19.283493514750262 32.487505748762487 0 32.487505748762487 -45.457393311640772 0 0 0 0 1.6134014921967008 10.772058380235805 0 10.772058380235805 -22.978649378947097 0 0 0 0 33.331758657531623 12.055964803843381 0 12.055964803843381 -85.802382325229701 0 0 0 0 0.83043171816854944 -0.57366014888306438 0 -0.57366014888306438 -20.812199749916246 0 0 0 0 -1.6351334739324113 2.3332725795811484 0 2.3332725795811484 -1.2046835798713573 0 0 0 0 -0.66355287768180915 -1.2588667773452471 0 -1.2588667773452471 -9.4847320258340915 0 0 0 0 20.197642359813244 114.94110430719593 0 114.94110430719593 33.330461916933928 0 0 0 0 13.956300614190184 -12.427119588348432 0 -12.427119588348432 -93.906221395671309 0 0 0 0 0.52143022711578269 -1.2460479178713797 0 -1.2460479178713797 -1.3352924466594231 0 0 0 0 4.335073847481226 10.634642674012866 0 10.634642674012866 -80.207109523311374 0 0 0 0 20.641567674914739 -39.939115165701878 0 -39.939115165701878 75.434550351914368 0 0 0 0 18.943058317987436 90.969603534394992 0 90.969603534394992 -106.27445192090818 0 0 0 0 3.5764792926857423 6.299463254493169 0 6.299463254493169 1.7856785433156404 0 0 0 0 -31.334908672636175 -49.443781835878326 0 -49.443781835878326 89.06399251156472 0 0 0 0 4.6697323229853964 5.5148457562772819 0 5.5148457562772819 -19.885587578362902 0 0 0 0 -0.23760546700600571 6.0091244358227414 0 6.0091244358227414 -17.205765961327415 0 0 0 0 1.4872294255055749 2.0489185702026589 0 2.0489185702026589 -15.397007185092662 0 0 0 0 1.7915947401786472 3.8865786465918575 0 3.8865786465918575 -15.080854651437292 0 0 0 0 -33.322531802915137 65.640491923437366 0 65.640491923437366 104.89190617093846 0 0 0 0 2.5056450843587297 8.4274697871197759 0 8.4274697871197759 -14.71396746082101 0 0 0 0 1.5439667798486951 4.8191281091583562 0 4.8191281091583562 -18.406361243696608 0 0 0 0 -12.089898848991538 -4.9092663701667334 0 -4.9092663701667334 -90.361750622764703 0 0 0 0 -117.18078481725323 -0.87723183369416802 0 -0.87723183369416802 80.633686311892234 0 0 0 0 43.967907478227744 -91.740472140530983 0 -91.740472140530983 139.48478631548642 0 0 0 0 -44.77197551398416 19.839915390406532 0 19.839915390406532 51.508719169272808 0 0 0 0 -84.095992602154297 104.873772629217 0 104.873772629217 254.20821919738955 0 0 0 0 163.18125361372631 50.958122701616958 0 50.958122701616958 -15.476133900526293 0 0 0 0 150.91877159728961 -47.04409478828893 0 -47.04409478828893 17.622051211554208 0 0 0 0 1.1970530782713744 1.2995094493504808 0 1.2995094493504808 1.7167942764963726 0 0 0 0 -107.08566951752621 -13.753265496116001 0 -13.753265496116001 31.39191902987659 0 0 0 0 -55.470841473419256 -5.2921186844941985 0 -5.2921186844941985 0.20670928095205454 0 0 0 0 -78.44857765616301 5.9233605582885502 0 5.9233605582885502 21.476875040272716 0 0 0 0 -69.40590978191733 9.1596344789941213 0 9.1596344789941213 -14.106992957065813 0 0 0 0 -72.264357681027832 22.0285200803919 0 22.0285200803919 58.776009492765297 0 0 0 0 -2.9697331006063901 0.72904386923983111 0 0.72904386923983111 -2.7152290758342463 0 0 0 0 -54.495064504266907 54.269715228983841 0 54.269715228983841 48.444850587486144 0 0 0 0 -24.143529007474172 69.624532459212787 0 69.624532459212787 -4.5286626438901294 0 0 0 0 -32.423649992190917 19.853724600161513 0 19.853724600161513 -29.83363122602168 0 0 0 0 -17.016597750801054 46.219982987706317 0 46.219982987706317 -64.714289659343194 0 0 0 0 -56.038036079407881 40.505984284417082 0 40.505984284417082 1.8183799231628655 0 0 0 0 102.73762437487721 33.582734216106473 0 33.582734216106473 -215.624128437134 0 0 0 0 -0.94301861641354012 -0.88069931373924248 0 -0.88069931373924248 0.26567591427569326 0 0 0 0 -19.954563053345424 2.4882484459476473 0 2.4882484459476473 -97.064196156788967 0 0 0 0 67.24421014822974 88.11139552523673 0 88.11139552523673 -22.810484569663458 0 0 0 0 52.165667607303021 -23.039516683384136 0 -23.039516683384136 28.426330218084331 0 0 0 0 14.938604605530827 39.976234974841645 0 39.976234974841645 161.24176393580956 0 0 0 0 9.8738407869950038 3.0754257952394255 0 3.0754257952394255 76.289959856760106 0 0 0 0 -1.5265372833738806 -0.9346062817025711 0 -0.9346062817025711 0.90196704793449101 0 0 0 0 -57.63348508075012 134.46547652732988 0 134.46547652732988 100.36906962793 0 0 0 0 -11.121689403592882 -18.257114137741155 0 -18.257114137741155 -308.09531542068726 0 0 0 0 -19.440961894524321 -20.611490121300449 0 -20.611490121300449 -112.35308966567391 0 0 0 0 -16.617868472080488 3.2633043069581618 0 3.2633043069581618 -15.637308042765653 0 0 0 0 -27.052475242859373 37.053392645571876 0 37.053392645571876 3.990439524895919 0 0 0 0 -54.351699950339821 59.175978060622583 0 59.175978060622583 -75.676218764896475 0 0 0 0 -88.351124826954447 73.735694262279139 0 73.735694262279139 -109.46353753916628 0 0 0 0 -25.455340807321384 6.5217337959293218 0 6.5217337959293218 -82.086586507415632 0 0 0 0 15.011717749460615 -16.961064072675981 0 -16.961064072675981 -31.666438499087235 0 0 0 0 20.07436935431997 -9.2330024733528262 0 -9.2330024733528262 -21.321389593118511 0 0 0 0 9.1102393916680739 -18.536182219089824 0 -18.536182219089824 -12.44706767747266 0 0 0 0 18.029826345078391 16.401624223086401 0 16.401624223086401 -37.029707923036767 0 0 0 0 26.524235421306457 -17.483848510135431 0 -17.483848510135431 -20.082426350614696 0 0 0 0 26.963723202661527 -7.53762564475619 0 -7.53762564475619 -11.721699763576908 0 0 0 0 -3.2085772919133433 -16.314787649083883 0 -16.314787649083883 -15.566122669537435 0 0 0 0 14.42156795861365 -9.6505235413060291 0 -9.6505235413060291 -45.919554618827533 0 0 0 0 10.513295634032374 -18.411290944975917 0 -18.411290944975917 -58.3576841854956 0 0 0 0 -46.469424246520617 16.659747388519463 0 16.659747388519463 -36.077673477600911 0 0 0 0 10.261992470861287 14.89776145297219 0 14.89776145297219 -78.445695413909561 0 0 0 0 15.578430973913328 0.64684336319623981 0 0.64684336319623981 -49.690053879545303 0 0 0 0 21.694928123015188 6.1777475912167574 0 6.1777475912167574 -46.300869954211521 0 0 0 0 26.628769550146671 -0.42900535500302794 0 -0.42900535500302794 -45.743094936042326 0 0 0 0 27.722433350529968 23.189010296637207 0 23.189010296637207 -75.670200582622783 0 0 0 0 -8.6318364403664418 32.90297537821607 0 32.90297537821607 32.895968691838789 0 0 0 0 27.912982505641594 25.709931870342189 0 25.709931870342189 -44.659653563809115 0 0 0 0 2.4631363068692735 45.566053865353751 0 45.566053865353751 -8.3457838414906291 0 0 0 0 -43.968853344417425 -15.179753180149419 0 -15.179753180149419 -87.588880539566162 0 0 0 0 8.829733195703966 69.909348575194599 0 69.909348575194599 -141.52192301570904 0 0 0 0 -16.615723014481205 60.156927866439219 0 60.156927866439219 -11.582597686894587 0 0 0 0 -0.0062749629722305134 4.6191014669471322 0 4.6191014669471322 -12.897533888079693 0 0 0 0 14.925013547832975 5.2866114306734744 0 5.2866114306734744 -21.521411884277768 0 0 0 0 11.331761194634964 3.0597555954009295 0 3.0597555954009295 -4.3478524304227903 0 0 0 0 26.745381870200731 3.9543658429465722 0 3.9543658429465722 -29.629374185547931 0 0 0 0 20.896510924721952 19.098589081615501 0 19.098589081615501 -16.853162992909347 0 0 0 0 1.2897354977110038 -0.040761490839933856 0 -0.040761490839933856 -5.1973257423223345 0 0 0 0 38.298609459396403 9.1878621094510891 0 9.1878621094510891 -26.215020633579115 0 0 0 0 11.938289298293512 9.336252353816235 0 9.336252353816235 -4.5534827363153454 0 0 0 0 -0.016728882844667226 7.5775762226952601 0 7.5775762226952601 -14.250003465016562 0 0 0 0 31.048054151665383 15.307797841029242 0 15.307797841029242 -16.006712624384818 0 0 0 0 31.154833261068688 10.432415458344622 0 10.432415458344622 -19.683882573313895 0 0 0 0 36.191526527443784 15.564727698783827 0 15.564727698783827 -38.970276020903839 0 0 0 0 19.11374374587399 -14.912689701895943 0 -14.912689701895943 -16.116503713041311 0 0 0 0 -5.5356882616033545 34.536887307374855 0 34.536887307374855 3.0237755473717698 0 0 0 0 21.557199225041245 -13.892864803257908 0 -13.892864803257908 -13.360160071359132 0 0 0 0 -11.524682461712928 27.922390390242072 0 27.922390390242072 -22.314184660419414 0 0 0 0 -15.709885678658793 30.885792806780955 0 30.885792806780955 -21.75229589328228 0 0 0 0 -21.077900386493752 22.080714218049252 0 22.080714218049252 -21.127871667747968 0 0 0 0 -3.0313663108286164 -8.9089818340362399 0 -8.9089818340362399 12.078383246349404 0 0 0 0 -2.0410371671632674 -2.8184022425775765 0 -2.8184022425775765 -11.535131243494106 0 0 0 0 13.704808636466396 4.1763799811269564 0 4.1763799811269564 -18.916173123063345 0 0 0 0 -2.6613407303637189 10.306815022708179 0 10.306815022708179 -51.751347630633973 0 0 0 0 -4.020898480706137 8.5626530781082693 0 8.5626530781082693 -14.370703328284435 0 0 0 0 7.8524358872723496 -4.9434446370869409 0 -4.9434446370869409 -3.5396794378539198 0 0 0 0 2.4050644238200958 0.49637628836708814 0 0.49637628836708814 -4.0229076410167455 0 0 0 0 1.7465720106487197 1.1499198524652456 0 1.1499198524652456 -18.68785114120692 0 0 0 0 2.5180103591631045 -0.65695253386687114 0 -0.65695253386687114 -5.7723130491848238 0 0 0 0 0.52738821364027899 1.7246094110378181 0 1.7246094110378181 -15.568335072926857 0 0 0 0 0.60576082968528056 0.99996061868478137 0 0.99996061868478137 -16.044309424134553 0 0 0 0 -1.0477472076596348 -0.59447251078992736 0 -0.59447251078992736 -1.9594480548618218 0 0 0 0 -0.39501505235978129 1.3827234033997229 0 1.3827234033997229 -14.42604144779034 0 0 0 0 -0.69750457236254981 2.1845315144334911 0 2.1845315144334911 -9.0592234525692561 0 0 0 0 -9.9714021817198955 -3.0046454300681944 0 -3.0046454300681944 -12.419603475369513 0 0 0 0 0.035272269845622262 0.33961261216242633 0 0.33961261216242633 -1.9531866336757417 0 0 0 0 -28.823546611659651 67.507589545144583 0 67.507589545144583 93.526939704708639 0 0 0 0 -10.175699691788111 7.0276180431901594 0 7.0276180431901594 10.411002799042762 0 0 0 0 -1.2451114597923336 2.4747678619038354 0 2.4747678619038354 -5.8263591498553637 0 0 0 0 54.476939400686831 53.128860195947709 0 53.128860195947709 39.997821681172354 0 0 0 0 -1.3878239920950648 -14.51570807949247 0 -14.51570807949247 5.6751909671438625 0 0 0 0 -76.542441595781469 -23.233480945178599 0 -23.233480945178599 60.254863497451879 0 0 0 0 -6.1275208373729697 -14.692790735014569 0 -14.692790735014569 57.941801481581933 0 0 0 0 -59.570247643287217 75.091425481212354 0 75.091425481212354 -37.670220334228361 0 0 0 0 10.079284639684744 11.132089448721672 0 11.132089448721672 -44.107498626915913 0 0 0 0 -53.527882925548944 65.468665314997224 0 65.468665314997224 -68.353722714593459 0 0 0 0 19.368904683860933 3.9947151865635533 0 3.9947151865635533 -23.435642936099612 0 0 0 0 -45.415452680089857 -14.108675734518329 0 -14.108675734518329 -28.387367588005873 0 0 0 0 -2.5101810851222965 10.667459696580437 0 10.667459696580437 -1.9117744219685193 0 0 0 0 -42.521095221581561 4.9729590509778063 0 4.9729590509778063 22.102936472139845 0 0 0 0 3.8434974103886361 5.963975088125153 0 5.963975088125153 -32.395889139755354 0 0 0 0 -4.9484743011952332 12.68286511331462 0 12.68286511331462 -29.862927256297553 0 0 0 0 3.7061028597364611 6.8419483865036455 0 6.8419483865036455 -27.92717064084718 0 0 0 0 -90.483745714816223 33.781824729314394 0 33.781824729314394 -6.4454989925616246 0 0 0 0 91.472508383261015 -22.918085939732919 0 -22.918085939732919 -44.885761737547 0 0 0 0 -212.15839109695162 95.691004878637614 0 95.691004878637614 -92.380074574015453 0 0 0 0 138.38881607423514 139.73054001029959 0 139.73054001029959 -216.37076779616473 0 0 0 0 -0.35278466852513901 0.70809865466696387 0 0.70809865466696387 -1.46593481047816 0 0 0 0 -64.919668854840609 102.45645580531163 0 102.45645580531163 -42.229774202569388 0 0 0 0 -12.084616612941147 31.968601397424209 0 31.968601397424209 -21.739751645276556 0 0 0 0 -39.072263912982748 -37.507840423681046 0 -37.507840423681046 2.6599778468371369 0 0 0 0 2.6960907343466523 5.3122604469619263 0 5.3122604469619263 -19.252807815264447 0 0 0 0 1.9259325188648235 8.3501863379522803 0 8.3501863379522803 -9.1791093249008284 0 0 0 0 56.407588827312281 -27.047950733123798 0 -27.047950733123798 -36.383686323883012 0 0 0 0 27.826489294088105 -10.635375068664871 0 -10.635375068664871 -12.626017611932184 0 0 0 0 4.8679275309395962 -59.053473284748179 0 -59.053473284748179 -30.166832927774522 0 0 0 0 -1.3500432786992178 9.4688989503683842 0 9.4688989503683842 -15.104697239959933 0 0 0 0 3.7404598212664268 9.5511112186395621 0 9.5511112186395621 -26.391201790083869 0 0 0 0 1.7579642055924247 4.5044058036865291 0 4.5044058036865291 -20.123392153609444 0 0 0 0 5.5689061564925169 3.8214209258849223 0 3.8214209258849223 -31.562057428527623 0 0 0 0 3.2657736622827542 -2.163403099446441 0 -2.163403099446441 -43.386472055375634 0 0 0 0 3.834858094937772 6.9708530490024714 0 6.9708530490024714 -31.154895539206336 0 0 0 0 -0.34495472078518663 -1.2219537919201287 0 -1.2219537919201287 -2.9336554150527832 0 0 0 0 7.9508499248365752 11.486794525178993 0 11.486794525178993 -15.689009077308583 0 0 0 0 5.6776654308860088 10.580796181639016 0 10.580796181639016 -6.1129464634868782 0 0 0 0 14.124054049744018 -0.3002148069354007 0 -0.3002148069354007 -4.4390333871197072 0 0 0 0 5.7884800799900065 3.7240098078065387 0 3.7240098078065387 -8.4048923667067541 0 0 0 0 6.0725719006852383 6.1537250200967435 0 6.1537250200967435 -12.278688194960893 0 0 0 0 -6.557110569781571 16.236688554672583 0 16.236688554672583 18.65165914883255 0 0 0 0 3.4953878618672354 2.7843106355759488 0 2.7843106355759488 -4.1120023365278087 0 0 0 0 22.720479427360601 -25.45104370557965 0 -25.45104370557965 70.317208838125225 0 0 0 0 7.9358510476961328 -19.110975483970833 0 -19.110975483970833 15.621174694038928 0 0 0 0 22.184341246806184 -5.6094477481128706 0 -5.6094477481128706 -1.4772242274193559 0 0 0 0 1.0364809318302832 -0.94749098717147717 0 -0.94749098717147717 -15.007873928720073 0 0 0 0 2.0503168382436989 6.751478530982439 0 6.751478530982439 -10.202312215365168 0 0 0 0 3.1194313051416662 5.3546468135740497 0 5.3546468135740497 -9.4053954782689573 0 0 0 0 3.4445087406531911 3.3137240850228409 0 3.3137240850228409 -22.424787059411756 0 0 0 0 2.6605815476955286 -0.5661776088836632 0 -0.5661776088836632 -29.615770484269888 0 0 0 0 2.1064939945433636 -1.8969504215073556 0 -1.8969504215073556 -18.208781032869297 0 0 0 0 -3.9386299575640304 -2.6617743177231148 0 -2.6617743177231148 -6.6961653052513803 0 0 0 0 -0.81773064284067765 1.4774298493320543 0 1.4774298493320543 -26.175875549553894 0 0 0 0 -1.6648037058184855 4.212014782067854 0 4.212014782067854 -26.902658818048167 0 0 0 0 -2.6495243991807911 -6.8647466015827376 0 -6.8647466015827376 -22.506802489246184 0 0 0 0 -0.67352222728400513 -2.817631310655301 0 -2.817631310655301 -17.482758373217507 0 0 0 0 -5.2853984095795568 -2.7804931375358137 0 -2.7804931375358137 -14.201582105971283 0 0 0 0 -1.0924144874666126 4.5460582114974386 0 4.5460582114974386 -15.915934016498795 0 0 0 0 -0.81842495771252288 1.5642238934597117 0 1.5642238934597117 -23.252240056397568 0 0 0 0 3.3210600540315909 7.6022291236022284 0 7.6022291236022284 -24.289225877146237 0 0 0 0 -0.07769572017842119 -0.68260441272769867 0 -0.68260441272769867 -4.0165351701812018 0 0 0 0 -12.57765291584019 -5.2593032798758941 0 -5.2593032798758941 -12.774334392561286 0 0 0 0 -0.84960986692667229 2.7357662736483093 0 2.7357662736483093 -0.44814366345698886 0 0 0 0 -5.948198383932322 -7.615413629966497 0 -7.615413629966497 -11.941021647053276 0 0 0 0 -5.8865127958765697 -7.05959470988455 0 -7.05959470988455 -12.106198121895432 0 0 0 0 -3.9591170459166278 -8.685456046328909 0 -8.685456046328909 -19.275828441488557 0 0 0 0 -61.134395912410582 -5.7858871084099519 0 -5.7858871084099519 78.687883078935556 0 0 0 0 1.8278525353527719 -2.8801380971055153 0 -2.8801380971055153 -12.094683740732108 0 0 0 0 -2.6269730526969397 -6.862815870794293 0 -6.862815870794293 -14.384368309809361 0 0 0 0 -6.3860713659496167 -8.0440912405388758 0 -8.0440912405388758 -1.9787427532379525 0 0 0 0 -4.5332186433256538 -9.0404468048145645 0 -9.0404468048145645 -14.961188322988164 0 0 0 0 -3.7289782427234286 -6.1375656946438539 0 -6.1375656946438539 -18.443189508281648 0 0 0 0 10.634194347725803 0.81080753039712761 0 0.81080753039712761 -15.165103170546473 0 0 0 0 128.88041778694696 -31.596597705414752 0 -31.596597705414752 -50.915402445560176 0 0 0 0 49.980472003191608 -14.992660603769764 0 -14.992660603769764 -26.24232156630751 0 0 0 0 25.133963625750766 52.60867480595698 0 52.60867480595698 -49.145038858274347 0 0 0 0 11.059105168718816 -2.2816185970659717 0 -2.2816185970659717 -38.898226201861689 0 0 0 0 9.381462915600423 -7.2084351275625522 0 -7.2084351275625522 -44.959336748572241 0 0 0 0 1.2594746980685159 -5.6683641341296607 0 -5.6683641341296607 -26.881578417778655 0 0 0 0 2.0157012432826917 -5.483879738079267 0 -5.483879738079267 -8.8674614126525313 0 0 0 0 -0.21016712222990463 -3.5513953495246824 0 -3.5513953495246824 -9.8784300413681194 0 0 0 0 0.61981476551455295 -4.2439271631981015 0 -4.2439271631981015 -12.149730036953656 0 0 0 0 2.985493588484621 -4.2444072345227681 0 -4.2444072345227681 -25.070771739839547 0 0 0 0 6.4806715905833698 -3.8967392166669015 0 -3.8967392166669015 -8.6443513746048666 0 0 0 0 3.504987273614713 -6.8620855919728569 0 -6.8620855919728569 -20.846057641820579 0 0 0 0 -10.255481201056682 -5.8554051891551353 0 -5.8554051891551353 -33.419566242431756 0 0 0 0 2.7013974131214127 -9.3449997913921834 0 -9.3449997913921834 -33.331712751634768 0 0 0 0 2.5176626604684316 -9.3147556914645975 0 -9.3147556914645975 -21.503248429711675 0 0 0 0 2.1329744165491702 -1.5985058640983993 0 -1.5985058640983993 -22.657426171172688 0 0 0 0 0.78043157395040907 -2.8270791617651412 0 -2.8270791617651412 -24.425117691920605 0 0 0 0 4.8043108345373184 6.7872698056162335 0 6.7872698056162335 -31.20758522718279 0 0 0 0 3.0000153181917923 4.425649374391007 0 4.425649374391007 -25.073289872013675 0 0 0 0 28.763710213238028 11.86050168381189 0 11.86050168381189 -55.881473449757323 0 0 0 0 0.44806843617880077 21.396793669831823 0 21.396793669831823 -68.471010642577312 0 0 0 0 16.296255833228315 1.9276240747931297 0 1.9276240747931297 -24.483206984456046 0 0 0 0 19.989793368512096 -10.74404537708142 0 -10.74404537708142 -78.240036320668878 0 0 0 0 24.420932498143088 -28.998663745222984 0 -28.998663745222984 -15.24261508048221 0 0 0 0 4.7208119101183001 -12.781769076640558 0 -12.781769076640558 -20.827640131465159 0 0 0 0 16.122628508298476 -4.1873261833097786 0 -4.1873261833097786 -22.957405916447897 0 0 0 0 0.048693258188167832 1.0102277992169775 0 1.0102277992169775 0.25657994978256049 0 0 0 0 -2.959710379149783 -14.506527297126013 0 -14.506527297126013 19.505685590360372 0 0 0 0 0.46862942890948034 7.6095350789400982 0 7.6095350789400982 -10.041920710347767 0 0 0 0 -20.850802728001668 13.752515319116355 0 13.752515319116355 -76.63979335098702 0 0 0 0 7.156700111486316 10.589256867744552 0 10.589256867744552 -106.79101589114407 0 0 0 0 -94.072880718872739 13.296352269506315 0 13.296352269506315 -52.659091680077836 0 0 0 0 6.1114863190872484 108.1983281505718 0 108.1983281505718 -225.07189033205213 0 0 0 0 39.777057938984854 -66.285064773097474 0 -66.285064773097474 -96.215916030821973 0 0 0 0 41.003988249586655 -77.951761811425968 0 -77.951761811425968 -21.649466577666317 0 0 0 0 -2.1138045735619602 -0.68403300211321039 0 -0.68403300211321039 1.3740342511524659 0 0 0 0 -2.7564719171222123 -13.743154282851037 0 -13.743154282851037 -20.441607151238713 0 0 0 0 1.018563323056326 -0.18528188029537773 0 -0.18528188029537773 -2.8664871686744169 0 0 0 0 8.7545018903098857 3.5593724047467532 0 3.5593724047467532 -6.7420607033135838 0 0 0 0 14.745950268787965 5.789408611075487 0 5.789408611075487 -35.883876410119228 0 0 0 0 0.66418126718976822 1.6737661519329095 0 1.6737661519329095 0.10238514336214966 0 0 0 0 -67.735619358071745 -31.537776976401801 0 -31.537776976401801 12.3891638246198 0 0 0 0 15.783093234443186 -28.438228380204237 0 -28.438228380204237 -38.796555141663703 0 0 0 0 -4.3173417194921058 -10.457644535148575 0 -10.457644535148575 10.536525743096718 0 0 0 0 10.499023676608747 2.9029798003080032 0 2.9029798003080032 -6.8871500447879725 0 0 0 0 14.721202042172308 -18.607327678029833 0 -18.607327678029833 -35.776743954105768 0 0 0 0 2.1689205470011075 -14.775827569195826 0 -14.775827569195826 -26.430893439624924 0 0 0 0 2.4715711784797527 -0.026233548756493974 0 -0.026233548756493974 -3.7799644484855977 0 0 0 0 -26.890030343772196 19.040983228136611 0 19.040983228136611 4.9886474436036679 0 0 0 0 13.430893502760227 2.8794610577206186 0 2.8794610577206186 -64.621070623834385 0 0 0 0 -115.4334953208554 -36.158546076861967 0 -36.158546076861967 -45.251902891250211 0 0 0 0 -105.32922213695292 -119.14274658995419 0 -119.14274658995419 -107.0931198962644 0 0 0 0 15.023031487966364 -44.952882299163321 0 -44.952882299163321 -104.11384727564291 0 0 0 0 -120.3070209591906 -179.72863695662818 0 -179.72863695662818 -317.21274748515862 0 0 0 0 -150.18340569130669 -226.54025340266526 0 -226.54025340266526 -294.64285847905194 0 0 0 0 -83.14017049636368 -113.9022587887921 0 -113.9022587887921 -218.38497106503928 0 0 0 0 -77.358677725102098 -134.62405633020535 0 -134.62405633020535 -197.30549384065671 0 0 0 0 -104.01211594763299 -86.175202667880512 0 -86.175202667880512 -117.88257707911544 0 0 0 0 -210.76992367077401 -148.21320627496607 0 -148.21320627496607 -73.507636629430635 0 0 0 0 -358.97933932753131 -535.31593262786191 0 -535.31593262786191 -549.90612416571821 0 0 0 0 -169.04060751369695 -348.28143878094943 0 -348.28143878094943 -478.6091642358806 0 0 0 0 -179.78169420943232 -258.32579920740682 0 -258.32579920740682 -223.96837743124343 0 0 0 0 -208.73455311419093 -242.49358413999289 0 -242.49358413999289 -232.62080687272828 0 0 0 0 -318.75759958162052 -424.03375916231744 0 -424.03375916231744 -307.26994858245598 0 0 0 0 -112.19264027312056 -429.12448364266311 0 -429.12448364266311 -657.72059705399442 0 0 0 0 -31.718480710484528 -340.47407235591891 0 -340.47407235591891 -711.50930969660112 0 0 0 0 0.26424640629841889 0.44669212864434371 0 0.44669212864434371 -1.0249967654259677 0 0 0 0 -85.844465884233614 -154.21921795481103 0 -154.21921795481103 -542.38510800564836 0 0 0 0 -100.01522479289451 -368.94667431603739 0 -368.94667431603739 -472.48438344401075 0 0 0 0 -21.483777571242854 62.73754942830783 0 62.73754942830783 -56.850287933411892 0 0 0 0 -54.519166614864844 35.639020547088876 0 35.639020547088876 -96.355219194665551 0 0 0 0 -11.527858122486236 -1.2101690981172766 0 -1.2101690981172766 -0.24974437916113068 0 0 0 0 -21.742631958355787 45.406321490911068 0 45.406321490911068 -381.31221404325333 0 0 0 0 94.932186698709643 118.17372109867119 0 118.17372109867119 -253.07913709450804 0 0 0 0 24.650169882001592 -10.864842011695146 0 -10.864842011695146 -327.88930534199608 0 0 0 0 52.957171982904129 78.22067794135819 0 78.22067794135819 -295.41097913750855 0 0 0 0 43.401078718002736 -29.228328741111909 0 -29.228328741111909 -228.20285274515118 0 0 0 0 16.871456315315299 -160.34280243951071 0 -160.34280243951071 -242.36558822939605 0 0 0 0 -183.16738938348863 -575.0179905796831 0 -575.0179905796831 -854.69087113613205 0 0 0 0 1617.3001589209307 813.91940549612627 0 813.91940549612627 -2120.768220210477 0 0 0 0 -59.322704667022663 -566.60714825780451 0 -566.60714825780451 -1135.3112671341296 0 0 0 0 -672.92766755430603 -687.81760219209173 0 -687.81760219209173 -1101.1333625229236 0 0 0 0 -203.44704286808792 113.67393637917849 0 113.67393637917849 -267.19287123260438 0 0 0 0 -7.9501181747637126 -1.8468869451198771 0 -1.8468869451198771 -0.86319222591681299 0 0 0 0 40.945454009510172 36.726186288809913 0 36.726186288809913 -322.19303151560598 0 0 0 0 -147.3747402236786 -50.489300573615765 0 -50.489300573615765 -264.4887475690266 0 0 0 0 -162.85164476247155 86.566687284252112 0 86.566687284252112 -301.20286720198419 0 0 0 0 -576.95494149900424 -49.011704453223501 0 -49.011704453223501 -216.63258580714682 0 0 0 0 -374.85304923871223 -393.88550681133438 0 -393.88550681133438 -653.20720470557717 0 0 0 0 -53.026315792338892 149.35724007046156 0 149.35724007046156 -805.60076416971424 0 0 0 0 -140.08696469599204 339.16491827158188 0 339.16491827158188 -147.94349252771644 0 0 0 0 -622.30573603914615 -25.867128190719086 0 -25.867128190719086 -324.71955888745288 0 0 0 0 -4.1406234168080189 -6.8039603176503434 0 -6.8039603176503434 -11.653686306607852 0 0 0 0 273.35824293167116 -241.94613388745711 0 -241.94613388745711 -892.88950167905205 0 0 0 0 -358.76966492871344 -314.74268563771903 0 -314.74268563771903 -160.93833774027007 0 0 0 0 125.53841302042019 25.316699991566566 0 25.316699991566566 -58.13613475803777 0 0 0 0 -22.881182984989664 106.61871065622381 0 106.61871065622381 6.0291690885060234 0 0 0 0 -274.21356966279632 -82.14878002984824 0 -82.14878002984824 95.870337686385028 0 0 0 0 -155.15320741962114 -36.953219940198323 0 -36.953219940198323 182.06056486252055 0 0 0 0 39.748340914554092 -125.84346497718252 0 -125.84346497718252 99.67017479565402 0 0 0 0 -8.3208791432518154 -18.046233273388992 0 -18.046233273388992 -28.943286854578844 0 0 0 0 6.1023045036370149 48.14016635902226 0 48.14016635902226 111.36244772294594 0 0 0 0 -189.7046252943328 168.57886530838732 0 168.57886530838732 -32.678556077560643 0 0 0 0 -132.14458637518055 40.38839703847043 0 40.38839703847043 112.76871498648688 0 0 0 0 -1.4861857370302136 -2.1765051519937089 0 -2.1765051519937089 -0.88208106301023292 0 0 0 0 40.325695179450122 47.148475472586142 0 47.148475472586142 -121.31802140080254 0 0 0 0 39.040317910993053 76.109490899525554 0 76.109490899525554 -267.45350199400127 0 0 0 0 15.795899921168484 132.27096398257345 0 132.27096398257345 -100.11151262388375 0 0 0 0 -6.3277566584133638 3.2137186966137961 0 3.2137186966137961 2.738141456626181 0 0 0 0 27.83979329242888 146.13738082279724 0 146.13738082279724 -322.35829446971184 0 0 0 0 42.573411115761019 106.58969069295563 0 106.58969069295563 -262.09101944929807 0 0 0 0 38.505045387197015 110.9307554667721 0 110.9307554667721 -375.91606123246311 0 0 0 0 -25.620967532280247 85.650389928960067 0 85.650389928960067 -307.18322042200816 0 0 0 0 -22.85846046620054 180.48952253392781 0 180.48952253392781 -268.79564991195366 0 0 0 0 -66.186801977945606 121.25338565135826 0 121.25338565135826 -336.81245500749355 0 0 0 0 -11.848891441003389 153.17789471909055 0 153.17789471909055 -409.93169683514861 0 0 0 0 -172.50085838444306 -139.74926438171815 0 -139.74926438171815 -303.63687266955094 0 0 0 0 -171.91017675941089 -142.68143795089418 0 -142.68143795089418 -356.06961672588659 0 0 0 0 -138.50143584015018 -90.01563789300053 0 -90.01563789300053 -250.22367603531893 0 0 0 0 -150.1915101470147 -53.062319323049451 0 -53.062319323049451 -130.23337530326535 0 0 0 0 21.804227130599656 85.691676484409982 0 85.691676484409982 -266.73645213869895 0 0 0 0 -10.592314435325079 -2.848646636812191 0 -2.848646636812191 -513.16001358162612 0 0 0 0 0.43403631758584993 69.345686670993928 0 69.345686670993928 -279.12722520594252 0 0 0 0 72.432666013161679 129.08820328440925 0 129.08820328440925 -378.87178828741162 0 0 0 0 33.225594704095002 131.83422874976873 0 131.83422874976873 -86.28051407825842 0 0 0 0 71.635709214308463 133.81609826598287 0 133.81609826598287 -365.78702782434993 0 0 0 0 30.570580333555313 178.13185899998643 0 178.13185899998643 -281.81481335375429 0 0 0 0 -9.6132859617123927 44.845516364661307 0 44.845516364661307 -11.166794895369094 0 0 0 0 40.843389000156321 29.072630933689652 0 29.072630933689652 -134.13694433700584 0 0 0 0 240.79638814682926 -126.66253769965988 0 -126.66253769965988 -109.89839611090429 0 0 0 0 148.77098924574818 316.20308618004128 0 316.20308618004128 -404.76355086154945 0 0 0 0 -104.81604370117736 -321.04785295070178 0 -321.04785295070178 232.37620500738558 0 0 0 0 -9.7593812547060388 -301.77735922846114 0 -301.77735922846114 205.7136455475702 0 0 0 0 -0.2002991117527968 -1.4487167738187416 0 -1.4487167738187416 -5.353911800286653 0 0 0 0 50.954269022915483 217.63304017190421 0 217.63304017190421 -365.91244385309255 0 0 0 0 -247.00468307799642 -90.197125187376514 0 -90.197125187376514 -260.55765584294568 0 0 0 0 32.52827149683084 -5.732622199022444 0 -5.732622199022444 -542.56761869342881 0 0 0 0 80.437397538212849 96.375894319984582 0 96.375894319984582 -325.89941114702378 0 0 0 0 67.690672353274749 120.68256710548303 0 120.68256710548303 -347.41796800772136 0 0 0 0 -6.0921894291109231 50.63973754488822 0 50.63973754488822 -112.31375685359671 0 0 0 0 -35.322718882565596 -19.15920820505562 0 -19.15920820505562 -294.81358553392874 0 0 0 0 -9.8155968867072829 61.20585319100428 0 61.20585319100428 -106.71151884746359 0 0 0 0 -92.415507523037434 23.612480217994744 0 23.612480217994744 -100.6824316268212 0 0 0 0 -85.923418560634332 58.442014400337939 0 58.442014400337939 -131.80445947013504 0 0 0 0 -137.17520094910788 -122.79169654782891 0 -122.79169654782891 -56.917231813928083 0 0 0 0 -146.70329179757644 -235.33421356624604 0 -235.33421356624604 -204.04855613156542 0 0 0 0 -99.345067687916014 -216.23831976044312 0 -216.23831976044312 -208.83522026229184 0 0 0 0 -0.87710087039796747 38.128271047542512 0 38.128271047542512 -177.27551085800224 0 0 0 0 0.19630818822302132 -110.22475668734842 0 -110.22475668734842 -312.85879991269758 0 0 0 0 -35.621049860059884 -54.702202214007229 0 -54.702202214007229 -48.983526040858123 0 0 0 0 36.3207719105867 -61.112631567215431 0 -61.112631567215431 -134.91782081918063 0 0 0 0 0.53683760162910266 -2.2458509957860979 0 -2.2458509957860979 -12.404494084206618 0 0 0 0 186.07883867161826 -78.676010355862672 0 -78.676010355862672 -9.2571955017701839 0 0 0 0 93.77594793220689 -47.849636556053156 0 -47.849636556053156 7.8847436491851113 0 0 0 0 0.040806671097406849 -76.556977739088325 0 -76.556977739088325 53.593261509246076 0 0 0 0 111.82856855757342 4.4042820551330806 0 4.4042820551330806 22.37990082838769 0 0 0 0 83.584633920554694 -111.69784508772136 0 -111.69784508772136 34.282633211667417 0 0 0 0 -485.16115217998373 -465.96157611575109 0 -465.96157611575109 -237.17198308056686 0 0 0 0 422.55000800081962 14.796437226839771 0 14.796437226839771 -348.39269710041845 0 0 0 0 0.17298735070951574 -1.1278804749360098 0 -1.1278804749360098 -4.9532604664429982 0 0 0 0 -0.012723054945181694 -179.52541518297221 0 -179.52541518297221 -240.46554021797783 0 0 0 0 280.76554599790438 -200.67774820913837 0 -200.67774820913837 -641.26238198413921 0 0 0 0 -1.5033017771260331 -0.84012540929379043 0 -0.84012540929379043 -0.80215709130752444 0 0 0 0 18.426081027115572 -95.395204313706927 0 -95.395204313706927 -258.03223655725742 0 0 0 0 -43.844427355619132 -105.44181109641795 0 -105.44181109641795 -219.46047576074488 0 0 0 0 -192.10759429528207 -197.97089284966933 0 -197.97089284966933 -627.23256839874375 0 0 0 0 209.80473598462163 -563.81045176354019 0 -563.81045176354019 -1059.5893509740708 0 0 0 0 -79.806625929447137 -69.188268202215113 0 -69.188268202215113 -214.19126997652347 0 0 0 0 -49.164980631241065 -9.2013780827619485 0 -9.2013780827619485 -246.42579113980537 0 0 0 0 -1.4019187834752389 -0.030192755205405319 0 -0.030192755205405319 -0.53887512332697263 0 0 0 0 49.970841145175598 -111.87460595324956 0 -111.87460595324956 -496.43192879178241 0 0 0 0 -5.389925810538216 -102.06534202400326 0 -102.06534202400326 -338.02406219074328 0 0 0 0 -93.407109794441581 -150.14232306098711 0 -150.14232306098711 -107.28971758832631 0 0 0 0 -378.32579953407367 -281.60079432097336 0 -281.60079432097336 -158.17451721616089 0 0 0 0 -90.376351924099268 -209.30770676752945 0 -209.30770676752945 -216.5298674504993 0 0 0 0 -90.74506826310693 2.5530036063155421 0 2.5530036063155421 -91.101322099639219 0 0 0 0 -128.72357521890908 -154.94605953004066 0 -154.94605953004066 -181.4645087965946 0 0 0 0 2.3034253945040746 -86.103763538660132 0 -86.103763538660132 -240.51160653486295 0 0 0 0 -18.599439527967206 -80.492583921768528 0 -80.492583921768528 -53.002144973055692 0 0 0 0 53.416321303640075 6.4835457959015912 0 6.4835457959015912 -93.499198390243691 0 0 0 0 1.1970457448692287 -34.465458365706581 0 -34.465458365706581 31.380825173931953 0 0 0 0 34.594200284827707 9.6753853812915622 0 9.6753853812915622 -19.394142670978908 0 0 0 0 7.4195882251437979 -0.040749008541752119 0 -0.040749008541752119 -22.029200667606347 0 0 0 0 0.2743400098839528 0.87204017800090128 0 0.87204017800090128 0.21588194079617384 0 0 0 0 -62.982687416426188 -96.995177548611537 0 -96.995177548611537 -182.97070369928815 0 0 0 0 6.4216661659963847 -33.980344622152188 0 -33.980344622152188 -157.61816445596924 0 0 0 0 -83.686054973831347 -188.56865586889035 0 -188.56865586889035 -195.48589102661208 0 0 0 0 -82.412840749909037 -86.209733102172265 0 -86.209733102172265 -182.72225656117371 0 0 0 0 -98.338065685627043 -178.49094500142292 0 -178.49094500142292 -156.79064846890105 0 0 0 0 40.714661895957306 -30.056833585047571 0 -30.056833585047571 -130.80573000970617 0 0 0 0 36.163363759302683 -32.288542610353034 0 -32.288542610353034 -84.544108711867011 0 0 0 0 19.495959128121456 -41.820278571158269 0 -41.820278571158269 -79.570832449870068 0 0 0 0 8.430645161415061 3.7046391423066183 0 3.7046391423066183 -6.8853650697706144 0 0 0 0 5.828247313154435 -12.288344891228235 0 -12.288344891228235 -21.411280207248637 0 0 0 0 18.750868299396416 -19.981314309574373 0 -19.981314309574373 -64.250228297021749 0 0 0 0 1.5906625241448147 -0.34638596022152512 0 -0.34638596022152512 -2.9264135953103638 0 0 0 0 -32.13050808632579 -15.52071208851703 0 -15.52071208851703 -26.659448500053259 0 0 0 0 -11.347565310636242 10.35641489759837 0 10.35641489759837 -72.33877981446858 0 0 0 0 20.422576011451383 -12.849006763346551 0 -12.849006763346551 -67.134344873698865 0 0 0 0 -31.828100340406309 -16.864095242723124 0 -16.864095242723124 -59.023446046077879 0 0 0 0 -61.755594743181064 -72.045627048675669 0 -72.045627048675669 -31.23123799881796 0 0 0 0 14.548375497270627 -17.653708904836094 0 -17.653708904836094 -75.665391954113147 0 0 0 0 -32.919378688770848 -106.80189817600331 0 -106.80189817600331 -188.77978737775265 0 0 0 0 -22.122809044019959 -55.426595823919342 0 -55.426595823919342 -123.0909528306729 0 0 0 0 -49.070138176747605 -61.586643793554686 0 -61.586643793554686 -109.75413581747125 0 0 0 0 -47.144336731783554 -122.7312643447176 0 -122.7312643447176 -191.06152435316471 0 0 0 0 -48.691750127380374 -147.40631601413043 0 -147.40631601413043 -256.96524380866322 0 0 0 0 -75.009469400400121 -204.29904627869837 0 -204.29904627869837 -266.97551888547241 0 0 0 0 -76.828530567948746 -144.05696167190399 0 -144.05696167190399 -159.29485150637629 0 0 0 0 -58.859395421158752 -186.27200188312418 0 -186.27200188312418 -242.07610171505075 0 0 0 0 -83.232423149289389 -128.70544189617067 0 -128.70544189617067 -140.51390362961683 0 0 0 0 -37.141115972442549 -142.52797973667475 0 -142.52797973667475 -226.42230880077113 0 0 0 0 -20.437052438787759 -146.44746840281005 0 -146.44746840281005 -136.99881539554917 0 0 0 0 -208.65410693139543 -147.45135061768087 0 -147.45135061768087 -208.3292708013214 0 0 0 0 -77.38869479153891 -90.829924685021979 0 -90.829924685021979 -224.66541845376923 0 0 0 0 -102.40939333237384 -149.95333148101054 0 -149.95333148101054 -232.4336186997607 0 0 0 0 -75.671257240120667 -180.24022151849931 0 -180.24022151849931 -261.98257524194923 0 0 0 0 -93.983893481099358 -159.17789236085082 0 -159.17789236085082 -285.96216931716481 0 0 0 0 -106.81453037450237 -216.90428227412394 0 -216.90428227412394 -403.73456420190632 0 0 0 0 -130.92446306118467 -87.182690121655469 0 -87.182690121655469 -330.17213259598066 0 0 0 0 -229.54200539461681 -277.6976437456251 0 -277.6976437456251 -298.30714210213046 0 0 0 0 -10.63356647784255 -2.969012551346168 0 -2.969012551346168 -10.489595549646765 0 0 0 0 -0.2161474040403944 -1.1018025989564961 0 -1.1018025989564961 -4.0523634341846559 0 0 0 0 -23.145256951769831 45.612844271587164 0 45.612844271587164 -45.151388209982542 0 0 0 0 -8.3125305668996532 -28.187157302541891 0 -28.187157302541891 -9.3535490010981448 0 0 0 0 22.629168053084413 6.2373952050256776 0 6.2373952050256776 -17.119605866988422 0 0 0 0 0.12988723018896553 -0.44978954942942551 0 -0.44978954942942551 -3.1131737617737656 0 0 0 0 -176.99097685734057 -198.06865865742293 0 -198.06865865742293 -235.70826441123791 0 0 0 0 -117.35890163520617 -144.30775209070271 0 -144.30775209070271 -200.51577074395027 0 0 0 0 -80.759170816907499 -211.7524730117002 0 -211.7524730117002 -310.54102956173665 0 0 0 0 -3.1312113775476957 -1.5001198352159264 0 -1.5001198352159264 -0.81430214181912675 0 0 0 0 -59.02860343096836 40.046471108158585 0 40.046471108158585 -41.922772265592357 0 0 0 0 2.745943110074446 1.1439268185731137 0 1.1439268185731137 -12.729707499786429 0 0 0 0 22.641864701273871 3.5861598228492539 0 3.5861598228492539 9.1875291593023576 0 0 0 0 1.9449719936131398 1.4340235846458249 0 1.4340235846458249 0.022323720924532608 0 0 0 0 -40.202706859817937 -30.387794168615073 0 -30.387794168615073 -14.443297961872304 0 0 0 0 22.966435355968265 47.248064147006517 0 47.248064147006517 -62.081520137457119 0 0 0 0 -27.136628856085281 -40.934409008841612 0 -40.934409008841612 -7.1901055079215439 0 0 0 0 -19.520561187853076 -17.982356549407996 0 -17.982356549407996 -43.392846480150183 0 0 0 0 2.4002870774789358 -2.8756097781806602 0 -2.8756097781806602 0.31661324550805148 0 0 0 0 4.9954479452233045 -0.42461733489471953 0 -0.42461733489471953 -2.8223269720365352 0 0 0 0 4.3003788782121433 0.36357347117882455 0 0.36357347117882455 -3.675474128278438 0 0 0 0 9.9179664031078119 -1.6466324500506744 0 -1.6466324500506744 -4.0649530641239835 0 0 0 0 21.220920728867362 -9.6438132442167444 0 -9.6438132442167444 -10.912855275790207 0 0 0 0 7.7727707861626989 -8.526236525425702 0 -8.526236525425702 -10.458513924211729 0 0 0 0 5.7211543917917993 2.9142340770049486 0 2.9142340770049486 -8.8691410109749995 0 0 0 0 -61.214537587633458 -173.24465844687802 0 -173.24465844687802 -352.41173651645659 0 0 0 0 -145.31137235983056 -197.72695494319123 0 -197.72695494319123 -231.88739136669028 0 0 0 0 -95.288694380231618 -220.33095581827547 0 -220.33095581827547 -299.72211796685588 0 0 0 0 -45.446892349023074 -158.51929963057046 0 -158.51929963057046 -398.75114613896585 0 0 0 0 -61.555885268107431 -166.6660451696589 0 -166.6660451696589 -264.46133747602289 0 0 0 0 -70.881945080099172 -192.58978132098309 0 -192.58978132098309 -297.74817906896351 0 0 0 0 -57.498641738041897 -157.84517500524817 0 -157.84517500524817 -295.5023706138636 0 0 0 0 -1.3257283846612857 -0.61960841933722577 0 -0.61960841933722577 -0.039806264397761026 0 0 0 0 8.1739412621647745 -3.2017736537540031 0 -3.2017736537540031 -36.505590119588305 0 0 0 0 10.746172426233898 -37.394131029250275 0 -37.394131029250275 -30.994886253742152 0 0 0 0 -140.59655434282104 -200.3150036001025 0 -200.3150036001025 -359.31835909590882 0 0 0 0 -61.232740166229178 -236.76690030750979 0 -236.76690030750979 -467.35575967714976 0 0 0 0 -2.0542171372069316 -2.2498528539774583 0 -2.2498528539774583 -1.0912432916456183 0 0 0 0 -151.02894098822844 134.940922196467 0 134.940922196467 101.37305896005614 0 0 0 0 24.244265350079559 -28.729821978307882 0 -28.729821978307882 -87.054330164988642 0 0 0 0 6.010048676128946 -19.298832143715117 0 -19.298832143715117 -49.699113872993621 0 0 0 0 5.3233565262812466 -5.2599007665255328 0 -5.2599007665255328 -6.5310988355489474 0 0 0 0 3.4144511455641964 2.7955844170590893 0 2.7955844170590893 -6.0236986801455501 0 0 0 0 -183.3403468271481 -132.89853398689957 0 -132.89853398689957 384.56402623472968 0 0 0 0 -17.178803049599082 -7.599887939504697 0 -7.599887939504697 -37.251708748859528 0 0 0 0 -31.96055091624271 498.12043328916116 0 498.12043328916116 -579.68591951830604 0 0 0 0 133.38076241806834 -141.91222421879138 0 -141.91222421879138 -1143.7063428615911 0 0 0 0 -267.65960970747301 325.91837709244828 0 325.91837709244828 98.088482562030549 0 0 0 0 71.466334352454851 25.753978416156315 0 25.753978416156315 -284.79552947088087 0 0 0 0 -119.52796356306771 -89.118457805652724 0 -89.118457805652724 -350.79608077148669 0 0 0 0 57.875670807418032 -23.066187782016641 0 -23.066187782016641 -348.84521264683281 0 0 0 0 0.52957904022281621 0.11848493769426227 0 0.11848493769426227 -10.130807203886095 0 0 0 0 3.1332832343951424 9.3190959699822429 0 9.3190959699822429 -8.1635166825597167 0 0 0 0 13.759315313603111 37.104013505886542 0 37.104013505886542 18.51145119701232 0 0 0 0 57.997581766766984 85.844608283194248 0 85.844608283194248 4.4850394832646998 0 0 0 0 46.118383351236844 60.599447222499293 0 60.599447222499293 -14.26714626775356 0 0 0 0 82.960976549943638 -8.7456726101463573 0 -8.7456726101463573 -148.13886464413372 0 0 0 0 110.12839507505441 51.033872766558488 0 51.033872766558488 -113.44002778790309 0 0 0 0 92.021415755352791 -166.74723165621981 0 -166.74723165621981 296.33947217691139 0 0 0 0 2.5517973356654693 -14.57377344116685 0 -14.57377344116685 -25.1588974280603 0 0 0 0 1.6875249741369771 -0.91262868032208644 0 -0.91262868032208644 -31.978614141436992 0 0 0 0 3.8587537742631803 3.8389691473857965 0 3.8389691473857965 -23.480849625663552 0 0 0 0 2.2436315146205743 4.7850569263682701 0 4.7850569263682701 -4.7742498862207867 0 0 0 0 6.5670647239635471 8.9532930759162994 0 8.9532930759162994 -17.510522295853036 0 0 0 0 2.7343602898536119 4.9653013085189741 0 4.9653013085189741 -5.4216961767524481 0 0 0 0 9.5542114653718659 5.1483394787944459 0 5.1483394787944459 -6.5680805933290287 0 0 0 0 4.5174342550231215 2.5215718838372112 0 2.5215718838372112 -37.623419800847586 0 0 0 0 5.628838645127237 0.34237537260980844 0 0.34237537260980844 -25.776642488352735 0 0 0 0 5.3390415640160995 2.1567857189365043 0 2.1567857189365043 -18.967136409806187 0 0 0 0 12.009271332368371 -0.67025306505092885 0 -0.67025306505092885 -7.0463412854091985 0 0 0 0 22.293060300701654 25.626901446186821 0 25.626901446186821 -26.57127316986589 0 0 0 0 17.259965019287165 19.350761649962806 0 19.350761649962806 -23.714046227774816 0 0 0 0 0.61662450518841183 -1.8779636181779722 0 -1.8779636181779722 -1.4479243986025949 0 0 0 0 24.93143979131446 -25.656778932698217 0 -25.656778932698217 -98.401766019349452 0 0 0 0 -0.53837888508550291 6.1303380468271165 0 6.1303380468271165 -29.215081787867746 0 0 0 0 109.51381523331474 222.93490818576538 0 222.93490818576538 -1130.6287824539468 0 0 0 0 -1.3261643279001873 -6.84442501835656 0 -6.84442501835656 -62.61431294560316 0 0 0 0 -3.4493074056899786 -14.877158547104045 0 -14.877158547104045 -66.474114629963879 0 0 0 0 6.0851511794426187 -0.40541459678934189 0 -0.40541459678934189 -48.777773414250987 0 0 0 0 33.231190407333088 -43.776258473531925 0 -43.776258473531925 -80.527173099530046 0 0 0 0 63.101802429603964 -30.195683263778733 0 -30.195683263778733 -156.59452777385013 0 0 0 0 62.506639541403274 6.3955198842013488 0 6.3955198842013488 -72.719995447638212 0 0 0 0 25.02406635618712 10.899858358008714 0 10.899858358008714 -69.775720501376782 0 0 0 0 19.465481406363097 -69.538469162929687 0 -69.538469162929687 -126.77498524932889 0 0 0 0 26.209675618284052 -86.217590695021499 0 -86.217590695021499 -88.126147005415987 0 0 0 0 -79.37236602984396 -119.21501669247482 0 -119.21501669247482 -68.667148861350142 0 0 0 0 -5.9334523322278301 -156.79852354519971 0 -156.79852354519971 -243.06453244674776 0 0 0 0 -0.51444480092769651 -1.3086260668550942 0 -1.3086260668550942 -3.5717292955053779 0 0 0 0 -20.714909878675954 75.923930957487755 0 75.923930957487755 -87.790960434849694 0 0 0 0 -39.01731961590626 127.56807518622009 0 127.56807518622009 -232.29077190770113 0 0 0 0 36.073407813174597 16.149323432913661 0 16.149323432913661 -139.3334847860533 0 0 0 0 -26.39364781803198 -121.62955735245487 0 -121.62955735245487 -392.89812226618233 0 0 0 0 182.21208937824119 1.6618958641993231 0 1.6618958641993231 -34.198590812826296 0 0 0 0 -33.015666555264943 -116.61714157700408 0 -116.61714157700408 -97.345129385372275 0 0 0 0 -204.94650819619142 -31.486801290528092 0 -31.486801290528092 101.76834744002554 0 0 0 0 72.0625306702741 69.1469702913746 0 69.1469702913746 -334.41801770871461 0 0 0 0 -399.98876234965871 55.580818019872822 0 55.580818019872822 -54.277085757479654 0 0 0 0 8.6133809335759679 -45.057932477000577 0 -45.057932477000577 -41.023973045557796 0 0 0 0 1.0870459435070643 138.98467434930353 0 138.98467434930353 -41.670121712253604 0 0 0 0 -1.7102468113645841 -6.7225250020856038 0 -6.7225250020856038 -1.8949730420354172 0 0 0 0 5.3912565501914855 0.73612529952879413 0 0.73612529952879413 0.93365081155207008 0 0 0 0 -36.283367849414958 5.1011350667249644 0 5.1011350667249644 1.13837838825566 0 0 0 0 -12.22153635419636 23.528365345326165 0 23.528365345326165 8.4234799936821219 0 0 0 0 2.9131571442591544 9.0942181401705824 0 9.0942181401705824 -3.8136861437397869 0 0 0 0 -106.82341886603916 5.0643664752133191 0 5.0643664752133191 112.08426900554332 0 0 0 0 -9.4167710284611985 21.75204108608159 0 21.75204108608159 9.5238168206706177 0 0 0 0 -20.107180739978048 8.5771097012766404 0 8.5771097012766404 6.1199741451073351 0 0 0 0 59.369345496637266 14.555775529308448 0 14.555775529308448 -21.639694841229357 0 0 0 0 -18.467974276357893 53.100552443608649 0 53.100552443608649 -30.176275426587381 0 0 0 0 21.889334491668876 44.072173756580014 0 44.072173756580014 -32.597821263130754 0 0 0 0 -46.759922739475201 -5.2515963892037689 0 -5.2515963892037689 -23.467727149822167 0 0 0 0 -17.630282038956906 17.682243057293817 0 17.682243057293817 -17.91891442668566 0 0 0 0 16.143869823400124 -39.241955475659779 0 -39.241955475659779 9.0880512004177945 0 0 0 0 1.3115659932081758 -1.0706909405791283 0 -1.0706909405791283 -16.403157588468389 0 0 0 0 55.379627912439744 0.23946022028030711 0 0.23946022028030711 -14.113545920699835 0 0 0 0 19.617472489908053 -24.08638039266225 0 -24.08638039266225 -57.526545050568529 0 0 0 0 55.647989361660017 -18.486407053222536 0 -18.486407053222536 -23.773237139146659 0 0 0 0 0.063304172677664791 0.041034506502569457 0 0.041034506502569457 -1.2779394921613303 0 0 0 0 51.235908942097296 -3.3245116768666776 0 -3.3245116768666776 -19.855111843455234 0 0 0 0 -15.355303347156866 -31.973753958409361 0 -31.973753958409361 -5.2634315290779341 0 0 0 0 19.869489474712537 -33.506930739211384 0 -33.506930739211384 -45.754422878431797 0 0 0 0 0.051599261733581668 -18.259633478221076 0 -18.259633478221076 -18.262448384673917 0 0 0 0 0.040217160365242074 -5.7368388052309456 0 -5.7368388052309456 -72.780817422190012 0 0 0 0 16.185361667936061 -49.21791380707873 0 -49.21791380707873 -109.20772206982656 0 0 0 0 42.294914637050887 -13.450972777922289 0 -13.450972777922289 -101.91536163790715 0 0 0 0 -33.358102321918629 -50.851004909607582 0 -50.851004909607582 -45.723656240181299 0 0 0 0 -0.033658405549871158 2.7879668575408463 0 2.7879668575408463 0.61285668366804202 0 0 0 0 61.671852623626002 -10.382685379421673 0 -10.382685379421673 -228.10754078587343 0 0 0 0 29.471533858173281 2.0687149474069884 0 2.0687149474069884 -99.827806762921682 0 0 0 0 -0.020557980212020575 22.365628722520341 0 22.365628722520341 -50.36600250909396 0 0 0 0 16.931952099032049 37.398988870398171 0 37.398988870398171 -102.95115246629894 0 0 0 0 11.089194141126676 16.713113477005663 0 16.713113477005663 -29.486741453780269 0 0 0 0 22.615347248993103 -18.159581426709337 0 -18.159581426709337 25.779732006296399 0 0 0 0 17.769805289910664 2.6383591742705903 0 2.6383591742705903 -63.480548932051533 0 0 0 0 -1.7147869915535239 -64.045735217948277 0 -64.045735217948277 -84.653048061038135 0 0 0 0 12.15500789908964 4.9486500968487235 0 4.9486500968487235 18.783475961135991 0 0 0 0 -0.90700416959484664 -3.0995618333246213 0 -3.0995618333246213 -9.9714929550183342 0 0 0 0 71.04747187851018 -20.940943690697168 0 -20.940943690697168 -39.718048669834388 0 0 0 0 59.225386861609678 6.9186798983246263 0 6.9186798983246263 -46.841015272675577 0 0 0 0 17.542931315608428 9.6769951320093242 0 9.6769951320093242 -18.45389384921873 0 0 0 0 16.86663480083255 31.387855850365554 0 31.387855850365554 -22.31460437993519 0 0 0 0 28.887768944010304 11.428100112631 0 11.428100112631 -23.953283069757163 0 0 0 0 23.037600941424785 15.48229541539331 0 15.48229541539331 -13.389611184145906 0 0 0 0 -0.29614646231125996 -3.9408610369740202 0 -3.9408610369740202 -15.061537564264853 0 0 0 0 27.24556161855071 10.821088508208049 0 10.821088508208049 -23.750096607749583 0 0 0 0 1.8710610539443864 7.1642861016023858 0 7.1642861016023858 -0.44343865599049082 0 0 0 0 48.93697327133583 93.13859672320541 0 93.13859672320541 -598.34100661955745 0 0 0 0 -68.287276706880675 223.39458204233961 0 223.39458204233961 -691.27532558212988 0 0 0 0 0.0065964922469026795 26.003443019725754 0 26.003443019725754 -175.80808099427668 0 0 0 0 -8.2902525652970027 -0.44515909201436443 0 -0.44515909201436443 -46.80386578215257 0 0 0 0 94.098778074071262 -44.287857030256419 0 -44.287857030256419 -90.352881533253822 0 0 0 0 33.216174402447997 13.279565850098379 0 13.279565850098379 -427.10615215700818 0 0 0 0 82.106844035615552 -57.157375154855345 0 -57.157375154855345 -190.68367671487795 0 0 0 0 82.121989145395645 -47.788664868028718 0 -47.788664868028718 72.505279618140776 0 0 0 0 0.50664864137806587 -0.35810967949259975 0 -0.35810967949259975 -2.9288486254410238 0 0 0 0 -218.24832685235424 -216.64134293951793 0 -216.64134293951793 -233.47106529716621 0 0 0 0 1.3334726663738996 2.6339262082466277 0 2.6339262082466277 -2.4697532293179734 0 0 0 0 220.98522595875707 -121.13870234100614 0 -121.13870234100614 -880.23751741123851 0 0 0 0 54.038884320045128 -79.408181699414854 0 -79.408181699414854 -162.54028951474174 0 0 0 0 30.496170511389629 -51.719248196131957 0 -51.719248196131957 -187.22630498747276 0 0 0 0 49.108356847078795 38.226307596145489 0 38.226307596145489 -419.47397884746897 0 0 0 0 -0.01390236299829295 45.355506750849599 0 45.355506750849599 -375.68693252748926 0 0 0 0 -47.986343337663385 -57.832902405898494 0 -57.832902405898494 -406.92923026423341 0 0 0 0 -71.622020588156261 -40.600185126091674 0 -40.600185126091674 -148.65934415617085 0 0 0 0 -79.163445554311181 43.17596956014313 0 43.17596956014313 -332.91663140096352 0 0 0 0 -5.4556540542722871 90.200146113074879 0 90.200146113074879 -436.98559906655282 0 0 0 0 79.527926687051604 24.030468242723146 0 24.030468242723146 -438.6085567073751 0 0 0 0 -64.740515972288904 176.34086719869811 0 176.34086719869811 -590.91342661569797 0 0 0 0 4.2140829237345088 72.327235376484168 0 72.327235376484168 -557.50435219653446 0 0 0 0 -113.32149252771859 -41.304934659128776 0 -41.304934659128776 -637.60230331949242 0 0 0 0 1.2062222064256787 118.25238226987494 0 118.25238226987494 -415.94723581307335 0 0 0 0 -1.9386862283148032 18.339737747556114 0 18.339737747556114 -394.21794919818785 0 0 0 0 -42.339064022586285 120.33817596636436 0 120.33817596636436 -508.67453933491561 0 0 0 0 -1.615248462460023 -3.991209950237689 0 -3.991209950237689 -3.7507456056800521 0 0 0 0 32.515240542042136 75.225382118029302 0 75.225382118029302 -640.78810799830171 0 0 0 0 -80.736332864972439 120.19163242951618 0 120.19163242951618 -261.49042379154707 0 0 0 0 -6.5051069886689756 216.90496980838998 0 216.90496980838998 -1076.4951325940056 0 0 0 0 -69.225154102286254 164.56946782362684 0 164.56946782362684 -718.13404832065862 0 0 0 0 95.683743660276775 49.629601737295161 0 49.629601737295161 -825.5071208066438 0 0 0 0 62.511631291753872 -62.68786202037154 0 -62.68786202037154 -555.20941998280978 0 0 0 0 63.779402837362341 60.47090552753798 0 60.47090552753798 -604.59906904850504 0 0 0 0 5.9450831472433094 52.305149053623609 0 52.305149053623609 -916.10857235989533 0 0 0 0 3.7329447531423625 -58.340942355796869 0 -58.340942355796869 -620.00198385444673 0 0 0 0 0.16178847902259028 -39.745506858467706 0 -39.745506858467706 -697.67470776336268 0 0 0 0 0.0061830761006816167 37.710800724897126 0 37.710800724897126 -726.35032547733135 0 0 0 0 -154.6014974852304 3.7522388901779777 0 3.7522388901779777 -708.25532690972614 0 0 0 0 -119.78251976788195 18.205716249107354 0 18.205716249107354 -896.11699659483565 0 0 0 0 -0.592419545630265 -1.526799730518718 0 -1.526799730518718 -2.1056639584133876 0 0 0 0 -154.2790836826382 139.99912914005108 0 139.99912914005108 -596.66874005080899 0 0 0 0 -11.060174169556262 -120.12035026219746 0 -120.12035026219746 -946.97681321977871 0 0 0 0 -1.7618670455362917 49.210560198280291 0 49.210560198280291 -543.02532287867507 0 0 0 0 34.831296670504116 66.607918519515806 0 66.607918519515806 -667.42542413720366 0 0 0 0 -0.98867172879877074 -1.946036859664261 0 -1.946036859664261 -3.5671582102234254 0 0 0 0 -47.817643497947074 334.04214121043333 0 334.04214121043333 -954.99306163049187 0 0 0 0 -51.232140165675673 248.02344758850086 0 248.02344758850086 -512.68616959000065 0 0 0 0 103.71415379150335 24.004726608323836 0 24.004726608323836 -663.33204926064354 0 0 0 0 109.96702153878448 62.529372051103564 0 62.529372051103564 -767.42173172398907 0 0 0 0 98.269405528156085 60.048300988331903 0 60.048300988331903 -544.98875745939768 0 0 0 0 40.636149854866517 65.730411590357107 0 65.730411590357107 -684.53135577761714 0 0 0 0 40.44897680529391 73.110845296912885 0 73.110845296912885 -550.03917961473053 0 0 0 0 -26.645438361872777 -41.209924580649385 0 -41.209924580649385 -638.466697596632 0 0 0 0 -18.161308412186031 -75.166109768812021 0 -75.166109768812021 -361.00048011265244 0 0 0 0 -2.1442561998510756 -4.1886217753790618 0 -4.1886217753790618 -3.6711211035086251 0 0 0 0 -37.599271994481114 85.961795241491927 0 85.961795241491927 -561.90329626556559 0 0 0 0 -7.9846304370270786 67.397467616083304 0 67.397467616083304 -632.84690105173649 0 0 0 0 -4.5765942580779679 157.26464572591522 0 157.26464572591522 -304.72885037132073 0 0 0 0 -0.13259857888442639 43.176840213491232 0 43.176840213491232 -545.18042582395719 0 0 0 0 -52.3948383555595 19.759692201994767 0 19.759692201994767 -279.49394760311407 0 0 0 0 -193.3382647990328 -63.816744740684953 0 -63.816744740684953 -23.831005127212848 0 0 0 0 -1.1673927268406508 -1.6790777193665321 0 -1.6790777193665321 -1.9127624046859637 0 0 0 0 -198.44364437401396 -161.42486037310664 0 -161.42486037310664 -305.60496644309023 0 0 0 0 14.439934521277394 175.20303428255193 0 175.20303428255193 -947.86043910412263 0 0 0 0 -407.19865602203276 71.521050476680102 0 71.521050476680102 -714.84896054667479 0 0 0 0 -40.926923695040671 110.33556774531826 0 110.33556774531826 -655.25539022652083 0 0 0 0 455.92078514057289 -98.790370131551754 0 -98.790370131551754 -564.48001043775002 0 0 0 0 -15.624023225968358 250.64833875803743 0 250.64833875803743 -469.42861655860179 0 0 0 0 155.79137592658742 -280.83029690414696 0 -280.83029690414696 -154.44964564228576 0 0 0 0 -4.9747080496097169 -0.54864753778875297 0 -0.54864753778875297 -0.6363075356380925 0 0 0 0 1.9238952743538107 -178.12509125491488 0 -178.12509125491488 -213.77323576628987 0 0 0 0 39.597811128540798 101.21346079953946 0 101.21346079953946 98.577889618265544 0 0 0 0 -4.9183564475761594 5.2099991603525098 0 5.2099991603525098 0.79681799269352283 0 0 0 0 13.477171633258479 105.41613739824425 0 105.41613739824425 -611.83582556085457 0 0 0 0 -8.727058072540899 111.07179558005737 0 111.07179558005737 -671.5885181366757 0 0 0 0 -9.3241410102504254 1.7549370890914133 0 1.7549370890914133 0.081005567846954563 0 0 0 0 162.10777730322661 -83.675204262675834 0 -83.675204262675834 -302.88681426323456 0 0 0 0 -799.30592886890349 86.626635823893594 0 86.626635823893594 439.87692749532289 0 0 0 0 -87.421516471785708 -238.52053480601171 0 -238.52053480601171 -252.743412832584 0 0 0 0 192.88202805160157 117.54830125858371 0 117.54830125858371 -111.93688897212269 0 0 0 0 35.756568198058631 -42.938610545388656 0 -42.938610545388656 -164.08840662187504 0 0 0 0 -0.30215973784606831 -57.228227179475653 0 -57.228227179475653 -72.475407665746275 0 0 0 0 82.820459470531659 32.911044797961949 0 32.911044797961949 -71.208538098697318 0 0 0 0 10.675044534765675 -65.8357718956795 0 -65.8357718956795 -103.42930867440009 0 0 0 0 -279.23719512112712 -193.28904428655733 0 -193.28904428655733 -75.862694473689771 0 0 0 0 -91.95275232244876 -143.218743708494 0 -143.218743708494 -147.42033562433789 0 0 0 0 55.787690874895361 -64.462773806400946 0 -64.462773806400946 -143.19261474872474 0 0 0 0 -161.36436059497305 -39.376970066226932 0 -39.376970066226932 -42.100212358374847 0 0 0 0 43.383195403920581 25.30239266514036 0 25.30239266514036 -242.2125957623939 0 0 0 0 -63.976891390095261 -9.4312695884582354 0 -9.4312695884582354 -40.199551358615281 0 0 0 0 -22.677169222732118 5.0126415095146513 0 5.0126415095146513 -51.233676806674339 0 0 0 0 -0.72818969066247519 -19.37925640422327 0 -19.37925640422327 -59.050099376399885 0 0 0 0 -25.341386806210721 -32.470821524737403 0 -32.470821524737403 -62.156348401127616 0 0 0 0 -83.449033494492596 -42.346305272178142 0 -42.346305272178142 -46.390195597865386 0 0 0 0 -44.008994718084296 -84.633156926127413 0 -84.633156926127413 -90.861981203881442 0 0 0 0 4.945637445664488 -61.095727413339773 0 -61.095727413339773 -79.672196944258758 0 0 0 0 -15.80013088935948 -52.016277735354379 0 -52.016277735354379 -80.744796161110571 0 0 0 0 2.8616574336244867 -69.089410133194178 0 -69.089410133194178 -79.293340640080714 0 0 0 0 132.22663874192025 154.8957316200067 0 154.8957316200067 175.64342162804678 0 0 0 0 78.875192019196817 -17.256681827042485 0 -17.256681827042485 186.60969099440263 0 0 0 0 -6.36374036202551 143.67028008199122 0 143.67028008199122 -54.665959121055494 0 0 0 0 125.17219629912961 -10.941718688325636 0 -10.941718688325636 12.98061550327111 0 0 0 0 -367.81511324451634 141.06775501457014 0 141.06775501457014 120.28535668623226 0 0 0 0 -0.80970969825220163 1.5618636749170118 0 1.5618636749170118 -9.9039848082246351 0 0 0 0 -143.79772162684367 -28.145815483796468 0 -28.145815483796468 216.16950918812654 0 0 0 0 -191.99462721003238 129.42486914944311 0 129.42486914944311 263.8153041053738 0 0 0 0 -3.8003734218272109 2.3718233767408208 0 2.3718233767408208 -1.5819114552577673 0 0 0 0 46.363142736389122 116.40926043794389 0 116.40926043794389 592.8170927934334 0 0 0 0 -170.76990443865475 158.44995390183612 0 158.44995390183612 588.44986506267742 0 0 0 0 47.598697918997459 182.49467310667387 0 182.49467310667387 64.347043026078609 0 0 0 0 -133.93881399535681 -1.1951488465783768 0 -1.1951488465783768 452.65898816109984 0 0 0 0 41.520004198229799 -16.967432059067505 0 -16.967432059067505 -470.50129532149367 0 0 0 0 -8.6781687100352052 8.7975780353950057 0 8.7975780353950057 -5.2076264786664979 0 0 0 0 -173.71166368122113 272.83763639362587 0 272.83763639362587 659.18437481724686 0 0 0 0 40.167487480461432 361.22003930209758 0 361.22003930209758 247.14184731856949 0 0 0 0 105.09077807668689 48.548860297563806 0 48.548860297563806 129.68107261693513 0 0 0 0 -3.1755877527382381 -4.4790366726274442 0 -4.4790366726274442 -277.15950419288129 0 0 0 0 5.8168318656969404 1.7170809811395884 0 1.7170809811395884 -358.94829745455718 0 0 0 0 -203.18570387364025 -238.19325896862938 0 -238.19325896862938 -292.33578032502555 0 0 0 0 -23.099096929937332 -104.34205599025154 0 -104.34205599025154 -267.53992934858252 0 0 0 0 -309.06982544515813 -85.462175326105353 0 -85.462175326105353 -226.99388325830296 0 0 0 0 -128.29982718067629 -48.297033569211635 0 -48.297033569211635 -104.51501275801274 0 0 0 0 -84.963359792707024 43.522136130235594 0 43.522136130235594 -185.82068105338112 0 0 0 0 -10.720543344118706 12.591029601389067 0 12.591029601389067 -7.3264409739140319 0 0 0 0 155.59748091009578 104.96391904350094 0 104.96391904350094 -92.687278628589411 0 0 0 0 135.52070701721959 96.382584600236441 0 96.382584600236441 19.722114561162016 0 0 0 0 152.72594690972676 98.874214763236523 0 98.874214763236523 -36.028790032913093 0 0 0 0 155.46878334186414 51.981602698388087 0 51.981602698388087 -20.98287758713559 0 0 0 0 -10.117201183786428 12.114914571901409 0 12.114914571901409 -10.620607719453048 0 0 0 0 165.94079567655768 51.780035347144803 0 51.780035347144803 -99.061377641133731 0 0 0 0 286.59796671111098 -60.271944787622488 0 -60.271944787622488 -33.019540657071047 0 0 0 0 135.80024905893106 -13.40696305376332 0 -13.40696305376332 -258.91699558756955 0 0 0 0 207.32300700842279 105.75299472490951 0 105.75299472490951 -110.46597594459308 0 0 0 0 67.801480910204873 147.28553578658102 0 147.28553578658102 -112.6460795742496 0 0 0 0 98.821178915469545 92.860944661144458 0 92.860944661144458 -443.92529378453401 0 0 0 0 -134.15505558705763 -124.03521589695447 0 -124.03521589695447 -292.24885567550155 0 0 0 0 -141.38018677615946 -65.945759812791948 0 -65.945759812791948 -540.35494461074268 0 0 0 0 -434.57961713414693 28.188463259364653 0 28.188463259364653 -371.49046272407577 0 0 0 0 -86.851313512298361 -71.799578707832552 0 -71.799578707832552 -486.63730540927645 0 0 0 0 -205.91052475536847 383.32475027690816 0 383.32475027690816 -204.98742617176322 0 0 0 0 -329.42850772759334 -96.99701518699294 0 -96.99701518699294 155.91585158970838 0 0 0 0 -141.600282706728 121.30815768492766 0 121.30815768492766 69.358460344621562 0 0 0 0 -114.06173765426657 248.55136284380933 0 248.55136284380933 -240.71458902741142 0 0 0 0 0.04705450999764163 -2.5647707969388236 0 -2.5647707969388236 -10.741049146408699 0 0 0 0 354.58276120723372 -104.47938937912113 0 -104.47938937912113 -246.88023906995659 0 0 0 0 83.197829432790968 44.926120054355124 0 44.926120054355124 -120.80768292385619 0 0 0 0 -211.188723916463 -302.67126172461576 0 -302.67126172461576 -36.384151571939583 0 0 0 0 -137.88640125688823 341.2114174592316 0 341.2114174592316 -377.65831482908106 0 0 0 0 -0.20328888282274582 -1.0052448964536396 0 -1.0052448964536396 -5.4091358669994065 0 0 0 0 -265.78035520407286 -468.722261205221 0 -468.722261205221 -265.03558536195487 0 0 0 0 -198.6449951087352 -430.78586081086542 0 -430.78586081086542 -466.31709402208071 0 0 0 0 -181.99717636201814 -322.29473499068445 0 -322.29473499068445 -555.62652380076179 0 0 0 0 -352.19342426976027 -148.28689327338361 0 -148.28689327338361 -222.6326016526582 0 0 0 0 -215.46285803243131 -43.309522888841457 0 -43.309522888841457 21.667086153765922 0 0 0 0 -201.32642527904608 -200.44636363966993 0 -200.44636363966993 -204.95377144280064 0 0 0 0 -268.52819314081739 -185.91579209483461 0 -185.91579209483461 -165.21173099809312 0 0 0 0 -233.89617513968392 -240.44238385364588 0 -240.44238385364588 -211.05881749108084 0 0 0 0 33.208815748082088 -172.29981271174984 0 -172.29981271174984 -500.64430386783351 0 0 0 0 -303.45594200751088 -265.02411810333433 0 -265.02411810333433 -217.3537206289202 0 0 0 0 -3.1661903230777453 2.6831255556892302 0 2.6831255556892302 -4.4720904737087892 0 0 0 0 -445.34352102810681 -234.67418455360166 0 -234.67418455360166 -136.60473279937287 0 0 0 0 -58.646291187355246 41.598246064402701 0 41.598246064402701 -40.933773749420652 0 0 0 0 -4.5322123986025451 -7.2322644686107793 0 -7.2322644686107793 -25.091411912360741 0 0 0 0 -187.52378862790829 187.54775037682703 0 187.54775037682703 53.46722221779055 0 0 0 0 -17.800991290410593 -12.021790237540699 0 -12.021790237540699 -46.891273612316581 0 0 0 0 -97.786736126727192 247.40807923156535 0 247.40807923156535 -121.64764750216273 0 0 0 0 28.925851841362146 9.0363549233079539 0 9.0363549233079539 -271.30347779496435 0 0 0 0 -129.99691450679961 316.28244231991266 0 316.28244231991266 -267.3239206252988 0 0 0 0 -178.72928767838448 252.06016313719738 0 252.06016313719738 -261.64159955927607 0 0 0 0 -62.033475528324317 226.74791509347597 0 226.74791509347597 -671.11787910218118 0 0 0 0 -8.6239556151231618 2.7207151741618958 0 2.7207151741618958 -6.7669899553769142 0 0 0 0 -219.70672279601331 -74.476881894734106 0 -74.476881894734106 -51.952773526754754 0 0 0 0 71.568116026037501 -237.63606947090557 0 -237.63606947090557 -346.46918906085193 0 0 0 0 6.3793359218794592 -407.31214396384894 0 -407.31214396384894 -606.99779204821971 0 0 0 0 -620.29391312236135 -59.272704815659381 0 -59.272704815659381 -633.62800020752184 0 0 0 0 -975.40572584199992 75.175989161376492 0 75.175989161376492 -595.76981028477894 0 0 0 0 -916.48158352965686 -83.882138256711187 0 -83.882138256711187 -319.80272845381478 0 0 0 0 -3.7150315251003505 1.4976327882177713 0 1.4976327882177713 -1.2027402266726597 0 0 0 0 -513.51836565130452 449.37987642208464 0 449.37987642208464 -370.68196502061619 0 0 0 0 -277.85870284763337 79.132391442413791 0 79.132391442413791 -273.42900004995317 0 0 0 0 -813.58121581819444 -223.38896475093497 0 -223.38896475093497 -440.86299544440408 0 0 0 0 -426.56139830870802 119.3193622621111 0 119.3193622621111 -791.98658855109534 0 0 0 0 -139.92660962105646 27.648451432462025 0 27.648451432462025 -470.02259628704269 0 0 0 0 -322.37523079196575 -162.98699135806237 0 -162.98699135806237 -197.07922135142144 0 0 0 0 -21.156751086645613 -77.911472332052654 0 -77.911472332052654 -547.94651432822502 0 0 0 0 -156.69743965810162 95.831261327926768 0 95.831261327926768 -678.95544103661086 0 0 0 0 -5.6199403933835015 26.611041708347329 0 26.611041708347329 -577.86072338000668 0 0 0 0 -163.30428084593271 -68.26158590767227 0 -68.26158590767227 -827.38259762249072 0 0 0 0 -34.753722015194086 303.79088169940587 0 303.79088169940587 -476.5470285101037 0 0 0 0 -135.96977301187411 -85.187531987699913 0 -85.187531987699913 361.71833115153277 0 0 0 0 -24.6179144465695 -99.883672366824612 0 -99.883672366824612 -183.80700832219736 0 0 0 0 -219.50554194526075 23.309457248084072 0 23.309457248084072 13.309391029666585 0 0 0 0 -265.07569439087456 312.19018484488515 0 312.19018484488515 -186.94221043644939 0 0 0 0 -191.40041856680023 -59.452597021125257 0 -59.452597021125257 -157.68255653027882 0 0 0 0 -40.695246036016101 224.32094765263901 0 224.32094765263901 73.918478982268425 0 0 0 0 86.139284262173987 -125.49673831683322 0 -125.49673831683322 72.606150797626469 0 0 0 0 -182.30708501591374 -37.27268844428545 0 -37.27268844428545 460.12318424863042 0 0 0 0 -6.614442551212278 118.60688339444823 0 118.60688339444823 -56.716257413630956 0 0 0 0 -58.500037025701488 374.14895525869679 0 374.14895525869679 -487.42960967840918 0 0 0 0 -277.58894851317064 449.62123644862731 0 449.62123644862731 -173.09153911744033 0 0 0 0 -148.23769190229814 238.63923229359352 0 238.63923229359352 -41.193769427292864 0 0 0 0 -282.51914848476355 268.17671163381215 0 268.17671163381215 108.08698020476731 0 0 0 0 151.61942644039118 -185.76853845435107 0 -185.76853845435107 -141.04300032157698 0 0 0 0 -851.78084504008984 1051.5806572743895 0 1051.5806572743895 -592.04747429443523 0 0 0 0 85.000034374544157 178.0882185501514 0 178.0882185501514 -2080.9832976010221 0 0 0 0 128.69624260478258 -814.76773729655906 0 -814.76773729655906 -1194.4150576903121 0 0 0 0 -280.54519121001954 -545.20710137746028 0 -545.20710137746028 -510.93845227561542 0 0 0 0 -198.25730231731632 -595.01264848904248 0 -595.01264848904248 -483.50282335012162 0 0 0 0 -206.50946311743945 11.650105179189268 0 11.650105179189268 -389.28908996359678 0 0 0 0 -332.52404165634016 -266.54739682337822 0 -266.54739682337822 -25.149751742937951 0 0 0 0 -257.97774019823441 -285.43074664107917 0 -285.43074664107917 -668.07925082244037 0 0 0 0 -230.10121181385637 -180.78759986450677 0 -180.78759986450677 -434.36321489104012 0 0 0 0 28.449060915346877 -429.70573196652549 0 -429.70573196652549 -1379.1072833668477 0 0 0 0 -0.60176759647357336 -1.7420198783898542 0 -1.7420198783898542 -0.72787688831954256 0 0 0 0 -285.70255003635572 -726.95325029933485 0 -726.95325029933485 -768.224253706132 0 0 0 0 -52.567660632201836 -89.159628392195373 0 -89.159628392195373 -798.4084271273714 0 0 0 0 -92.594824371654909 -298.33558674714368 0 -298.33558674714368 -636.7806158505482 0 0 0 0 -31.582036196755212 -186.12953326045317 0 -186.12953326045317 -525.64380223708577 0 0 0 0 0.94041149906947707 -6.1868334856476963 0 -6.1868334856476963 -0.35662535483127478 0 0 0 0 -60.34651540934351 -360.5189214147249 0 -360.5189214147249 -408.03611444800481 0 0 0 0 -81.087062820764231 -404.82322196817404 0 -404.82322196817404 -368.85706479398505 0 0 0 0 -15.32112723559419 -371.89005238831669 0 -371.89005238831669 -851.54043960534182 0 0 0 0 -46.524634184553975 -196.42167798727314 0 -196.42167798727314 -387.76129688895162 0 0 0 0 -84.896390813644757 -102.14264879186521 0 -102.14264879186521 -596.05608419334021 0 0 0 0 -174.60729692832217 -212.55094900377117 0 -212.55094900377117 -371.42271484008234 0 0 0 0 -151.83360062177439 -205.55944959214685 0 -205.55944959214685 -382.41888303198539 0 0 0 0 -18.267105011181229 -95.212037131968827 0 -95.212037131968827 -331.45971409042249 0 0 0 0 -141.62554260736738 -245.17299053743773 0 -245.17299053743773 -277.49825722316746 0 0 0 0 -90.370966369419875 -151.53918805352805 0 -151.53918805352805 -202.79550852696411 0 0 0 0 -19.362705634379779 -14.059057131770203 0 -14.059057131770203 -135.07989520665433 0 0 0 0 -58.912688797304327 -164.27776764921146 0 -164.27776764921146 -208.24555021846754 0 0 0 0 164.88615689963444 -84.151037240146252 0 -84.151037240146252 -134.1831142462006 0 0 0 0 384.67807278839734 149.670722976869 0 149.670722976869 11.056864248021157 0 0 0 0 49.702244676053397 1.6492779876643908 0 1.6492779876643908 -47.038155653513968 0 0 0 0 -3.0836721522849091 -10.910810913162614 0 -10.910810913162614 -27.248252552251301 0 0 0 0 5.6255942623508872 -429.72366900364432 0 -429.72366900364432 204.72024329740088 0 0 0 0 570.98905675726701 -89.218347882328089 0 -89.218347882328089 -154.33715417639905 0 0 0 0 277.77483340562691 495.61449884776448 0 495.61449884776448 -2411.9253154884718 0 0 0 0 -1608.7039676399863 232.91167459966528 0 232.91167459966528 1078.40312348921 0 0 0 0 -0.82819024554006626 -4.5830041754761126 0 -4.5830041754761126 -15.428075717707344 0 0 0 0 46.793815633079817 -683.98029593205138 0 -683.98029593205138 -292.39441650082154 0 0 0 0 -152.83176231963353 -325.3971171841622 0 -325.3971171841622 -40.288554046659783 0 0 0 0 -28.774344760328859 -107.84551724581979 0 -107.84551724581979 259.28005237934849 0 0 0 0 125.42082379372448 -691.13600181679612 0 -691.13600181679612 -1427.5716883252753 0 0 0 0 215.80593669293421 388.99253980432695 0 388.99253980432695 -2527.7761989718419 0 0 0 0 -1030.7180332696473 1052.9523017274878 0 1052.9523017274878 -497.65668627337436 0 0 0 0 0.039123937293570776 -3.4957658262885207 0 -3.4957658262885207 -23.6989042756895 0 0 0 0 70.074519330341218 -885.32708686040678 0 -885.32708686040678 -408.23867455834989 0 0 0 0 382.09459909551742 639.10428165830672 0 639.10428165830672 -2259.05058794043 0 0 0 0 755.20924448595088 710.48452382732648 0 710.48452382732648 -6.4737161122247926 0 0 0 0 -224.06557897581035 -568.05147918545208 0 -568.05147918545208 616.23910377093125 0 0 0 0 -184.20751284892276 230.91897677350244 0 230.91897677350244 876.41758127378125 0 0 0 0 0.0098706799197469941 0.067870154628693058 0 0.067870154628693058 -0.38960358115247118 0 0 0 0 -472.76703646424903 -539.50774980993083 0 -539.50774980993083 755.49386179592148 0 0 0 0 81.853232260074492 -26.703941285075416 0 -26.703941285075416 -175.63609153870493 0 0 0 0 -218.35842671970795 4.6151726820608019 0 4.6151726820608019 97.718614688157686 0 0 0 0 -821.78158859387713 457.74290987796121 0 457.74290987796121 180.03793290955946 0 0 0 0 -83.587651774346568 189.13792979271966 0 189.13792979271966 -252.42133048315009 0 0 0 0 -217.95434764452239 466.06439867964218 0 466.06439867964218 -697.47543259471422 0 0 0 0 -352.75847945566079 216.10974823183642 0 216.10974823183642 -78.81601103473804 0 0 0 0 245.41755219420952 145.99791305764666 0 145.99791305764666 -925.81085242638073 0 0 0 0 92.557363220214256 182.96895805343229 0 182.96895805343229 -899.60478201360092 0 0 0 0 87.827411981697594 169.21905380461067 0 169.21905380461067 -756.85370981575397 0 0 0 0 159.51890103739322 12.589861524935259 0 12.589861524935259 -1073.5001935875189 0 0 0 0 12.352632481242949 94.033642570146185 0 94.033642570146185 -671.98898512720189 0 0 0 0 66.646555449175821 22.043897232608288 0 22.043897232608288 -581.85429751883294 0 0 0 0 83.184758923039226 0.58487924003202352 0 0.58487924003202352 -817.89455168234417 0 0 0 0 77.346407681991195 135.17198978696979 0 135.17198978696979 -648.49053025775356 0 0 0 0 35.915227155454659 50.375198488036403 0 50.375198488036403 -544.69883090816438 0 0 0 0 -59.410450322239512 112.78541788259463 0 112.78541788259463 -258.38638766521763 0 0 0 0 76.239904791995968 121.15675898741756 0 121.15675898741756 -661.79585946891166 0 0 0 0 -63.437145449272293 244.90877663589345 0 244.90877663589345 -529.43807237585133 0 0 0 0 -83.038768345113226 101.93750663404717 0 101.93750663404717 -260.64065641550405 0 0 0 0 -147.71959612927287 13.859069161710067 0 13.859069161710067 -80.032496713523869 0 0 0 0 -119.52860241084772 67.585770065132238 0 67.585770065132238 -15.286611446259485 0 0 0 0 -75.481951129009303 21.30860466111335 0 21.30860466111335 -5.5340394914710487 0 0 0 0 13.194389741738291 44.22926473467669 0 44.22926473467669 -0.53211739160178695 0 0 0 0 -96.989889266643843 -5.1682049264309171 0 -5.1682049264309171 1.7651415836589877 0 0 0 0 -63.006851098152865 -39.954735924268562 0 -39.954735924268562 72.823833009373629 0 0 0 0 -66.566833353757602 72.800923377595609 0 72.800923377595609 -62.433855437877355 0 0 0 0 -103.90029164608018 70.151246029869071 0 70.151246029869071 -51.384973676249501 0 0 0 0 -71.002844117493851 167.00613032035108 0 167.00613032035108 -271.28355587334954 0 0 0 0 -108.00640736479721 120.18437967053615 0 120.18437967053615 11.276126367680263 0 0 0 0 684.729876366187 -128.95752510519378 0 -128.95752510519378 -275.2514312734711 0 0 0 0 43.745274382275511 80.350812320815749 0 80.350812320815749 -187.6330335456114 0 0 0 0 0.58446704053863918 -6.8128448683476286 0 -6.8128448683476286 -44.84813286407234 0 0 0 0 979.30807762969664 -308.14587156254674 0 -308.14587156254674 -1816.4835555621685 0 0 0 0 207.44823497248058 350.78718488607956 0 350.78718488607956 232.49848551933974 0 0 0 0 304.48548026311619 -189.87941448720812 0 -189.87941448720812 522.55462431710112 0 0 0 0 -0.39828685338966596 -1.4886585849261174 0 -1.4886585849261174 -1.8293309141179748 0 0 0 0 116.0799159344167 -57.267345645039313 0 -57.267345645039313 -29.863299751908926 0 0 0 0 -29.61225619756442 -161.62885688135066 0 -161.62885688135066 216.13052869553212 0 0 0 0 0.59555959326035657 -3.154596706675008 0 -3.154596706675008 -31.895456620364257 0 0 0 0 252.09804838613377 -122.58026579610669 0 -122.58026579610669 -8.5403574222145835 0 0 0 0 274.76878091193873 -109.9842597907118 0 -109.9842597907118 -75.878304864112579 0 0 0 0 448.31258811987493 175.51822674249888 0 175.51822674249888 -36.387138033867814 0 0 0 0 192.07512293279888 301.42448676345157 0 301.42448676345157 -300.12650552514242 0 0 0 0 -74.711584801876143 61.963157843863883 0 61.963157843863883 -44.720345862882823 0 0 0 0 26.812309932763583 193.41981273161946 0 193.41981273161946 -311.93237298873009 0 0 0 0 0.064581638314863632 0.19498851691955466 0 0.19498851691955466 -10.758940726992194 0 0 0 0 28.807907340079964 -33.78945296384336 0 -33.78945296384336 164.47166967122757 0 0 0 0 -499.52751922641892 429.52627699653385 0 429.52627699653385 -237.60059178467782 0 0 0 0 -55.186278012761932 70.414450775526348 0 70.414450775526348 0.45606744517499465 0 0 0 0 -169.44880655668157 -96.007771206837788 0 -96.007771206837788 37.968491542536867 0 0 0 0 -99.066813045556955 -73.547444734304008 0 -73.547444734304008 -129.93889918856439 0 0 0 0 -141.92360688801296 55.297850787821517 0 55.297850787821517 3.491693036587094 0 0 0 0 -125.34432488702021 -20.466461881018404 0 -20.466461881018404 -12.740939295676071 0 0 0 0 100.67843357124843 -17.93245672150988 0 -17.93245672150988 -19.7000608304661 0 0 0 0 -75.313800896531347 25.661231690239219 0 25.661231690239219 30.958758797729388 0 0 0 0 -0.39429180533678254 -2.2134501481563973 0 -2.2134501481563973 -4.6110767590206763 0 0 0 0 -87.054727742060464 -169.46265009419494 0 -169.46265009419494 -390.2985497204063 0 0 0 0 38.724320815598389 -148.42935452671736 0 -148.42935452671736 -561.98135910582278 0 0 0 0 -35.260195907493681 -237.03679493008713 0 -237.03679493008713 -579.56586216741925 0 0 0 0 -74.344646792753792 -109.13496066990047 0 -109.13496066990047 -416.40766477784382 0 0 0 0 -173.24826146000487 -177.51132071889151 0 -177.51132071889151 -462.28745594029897 0 0 0 0 -163.16368126946327 -91.598189774071216 0 -91.598189774071216 -410.57591180440841 0 0 0 0 143.86197744368883 -280.22237480751937 0 -280.22237480751937 -1291.0836762240579 0 0 0 0 -4.9003564051380675 5.3259149598324598 0 5.3259149598324598 -6.8407598821049049 0 0 0 0 134.93925299814327 184.64413547754521 0 184.64413547754521 26.923742557890364 0 0 0 0 186.08820103863832 282.70470290947742 0 282.70470290947742 -53.041447348485235 0 0 0 0 202.27494850967923 158.25358524516196 0 158.25358524516196 -278.68667349313182 0 0 0 0 91.707169756153235 8.0686977791265235 0 8.0686977791265235 -128.11841792585619 0 0 0 0 206.17404440788914 120.59756569367164 0 120.59756569367164 -23.334094906815153 0 0 0 0 132.99224130012954 171.20926528965788 0 171.20926528965788 -22.834588374549639 0 0 0 0 -15.222818308439077 17.428675121618028 0 17.428675121618028 -17.36381095039134 0 0 0 0 -26.558499910352161 24.50674866179331 0 24.50674866179331 -36.19331784848778 0 0 0 0 -45.312386004781416 -4.1931746730479063 0 -4.1931746730479063 -186.72918481622673 0 0 0 0 -83.703857436443371 3.3195674536036677 0 3.3195674536036677 -187.96633268251298 0 0 0 0 -2.0415099971278323 -4.9835149435675703 0 -4.9835149435675703 -64.537530921596044 0 0 0 0 11.645628575659543 -12.832317377630943 0 -12.832317377630943 -60.039137716550613 0 0 0 0 14.724262149337296 -12.200703011311788 0 -12.200703011311788 -43.808158975694909 0 0 0 0 24.066970702486287 50.387379491181491 0 50.387379491181491 -84.474826175937778 0 0 0 0 59.005343572782749 -28.630644692906571 0 -28.630644692906571 -79.97988498066843 0 0 0 0 2.8967745100408138 -16.224734709709082 0 -16.224734709709082 -92.029926952258393 0 0 0 0 42.636535863170138 37.55454611073219 0 37.55454611073219 -126.82089609913237 0 0 0 0 12.353699535031383 11.014848503955207 0 11.014848503955207 -28.179020655605626 0 0 0 0 6.9594293534652003 -25.5702953456925 0 -25.5702953456925 -40.716096139861151 0 0 0 0 49.473348642206361 -126.51198956105077 0 -126.51198956105077 -57.451000499568181 0 0 0 0 1.8843843953583814 -4.1724796309774774 0 -4.1724796309774774 -14.561774482646825 0 0 0 0 377.01712056621545 -105.22619373013367 0 -105.22619373013367 -132.44100452886778 0 0 0 0 325.25930745640835 105.47518931303057 0 105.47518931303057 -258.37105348018667 0 0 0 0 465.02483878171461 63.104658888660197 0 63.104658888660197 -372.60370039556437 0 0 0 0 334.90105793172643 18.993899257173325 0 18.993899257173325 -152.15135093887511 0 0 0 0 458.31452113013574 -215.32558509867158 0 -215.32558509867158 -242.42057803335774 0 0 0 0 492.39959688714862 -129.59776132185652 0 -129.59776132185652 -33.380646697536577 0 0 0 0 219.55105881390227 -112.84887411457748 0 -112.84887411457748 -22.2610516633722 0 0 0 0 12.658205186534554 15.701484048995951 0 15.701484048995951 -26.218643470524839 0 0 0 0 199.6397853925555 -581.69246507770004 0 -581.69246507770004 508.49427626252873 0 0 0 0 958.22887294212023 -553.65201567492477 0 -553.65201567492477 290.41963834717171 0 0 0 0 3.7504816680118829 -0.55647808238610708 0 -0.55647808238610708 -8.5408320474360409 0 0 0 0 55.585236692339066 156.33704519484718 0 156.33704519484718 15.753011368331499 0 0 0 0 186.2042658824812 14.155052289948799 0 14.155052289948799 -87.093528214863909 0 0 0 0 135.13845636641099 79.00247024235432 0 79.00247024235432 -38.620532593678945 0 0 0 0 26.870247454973146 -44.339985735861774 0 -44.339985735861774 -70.014072285332077 0 0 0 0 11.437279921171523 -20.137464873409044 0 -20.137464873409044 -80.219222437262943 0 0 0 0 23.83975374408692 76.726585383508791 0 76.726585383508791 -54.055614271463128 0 0 0 0 4.2633084847199001 -15.612498923705999 0 -15.612498923705999 -29.674451599714246 0 0 0 0 140.61701246075336 -149.57528281706618 0 -149.57528281706618 -176.51142142956087 0 0 0 0 -126.90637972566151 259.18015822908092 0 259.18015822908092 -113.44719530860311 0 0 0 0 67.220825594490179 -103.19051599894738 0 -103.19051599894738 -74.689888557931681 0 0 0 0 -37.345625122165984 21.295770252450893 0 21.295770252450893 27.006153965448902 0 0 0 0 -72.692461811377598 -69.852450404016054 0 -69.852450404016054 -50.495457552489825 0 0 0 0 11.351272478501139 13.627765308783339 0 13.627765308783339 -28.736726877756865 0 0 0 0 0.65854644228987524 3.3267262219865898 0 3.3267262219865898 -1.7463621857590681 0 0 0 0 13.201886527355782 -12.680203092768352 0 -12.680203092768352 -64.584526863989595 0 0 0 0 9.4847340162733644 -7.7880051401152741 0 -7.7880051401152741 -71.022887114166224 0 0 0 0 8.1990262029762562 -12.38763065862986 0 -12.38763065862986 -85.711461504593899 0 0 0 0 10.526409342062976 13.899451153625293 0 13.899451153625293 -16.37818413995555 0 0 0 0 9.3977102777956247 10.15654457380333 0 10.15654457380333 -64.230416276775941 0 0 0 0 -283.99324232903905 211.67830558618152 0 211.67830558618152 -346.40103386524424 0 0 0 0 -213.53335916208675 72.634072613414901 0 72.634072613414901 -440.83553638349258 0 0 0 0 -287.06027378579893 372.83747509662498 0 372.83747509662498 -723.98169416678138 0 0 0 0 -39.183691976079672 73.546328601998539 0 73.546328601998539 -441.30413998816221 0 0 0 0 -86.544984239553969 215.67073772603908 0 215.67073772603908 -714.39022816061333 0 0 0 0 -53.456808627457633 22.964478676425642 0 22.964478676425642 -416.74659861937107 0 0 0 0 20.100936916272531 -169.55636751774 0 -169.55636751774 -723.94044842484686 0 0 0 0 -40.015872458613217 -80.388062725696727 0 -80.388062725696727 -307.49074168789957 0 0 0 0 -87.527992469353194 -102.03759937200812 0 -102.03759937200812 -300.88141035186709 0 0 0 0 264.6664555689531 113.02067735199671 0 113.02067735199671 -1033.7884627771127 0 0 0 0 -0.19230459120593923 -1.124862198213421 0 -1.124862198213421 -2.94536142258886 0 0 0 0 -80.125673276407156 -240.32998189376485 0 -240.32998189376485 -250.75211786990985 0 0 0 0 -31.527479598175432 513.3414484101886 0 513.3414484101886 -754.3735093261057 0 0 0 0 160.83848588389446 -13.703669593618542 0 -13.703669593618542 -1013.0197142865036 0 0 0 0 264.6767452661984 275.0473581614242 0 275.0473581614242 -489.28842421856825 0 0 0 0 371.86106593336171 -35.207910330937011 0 -35.207910330937011 -514.03330705212375 0 0 0 0 157.75914273728017 99.968114700153819 0 99.968114700153819 -427.03998972949921 0 0 0 0 -15.899940117015831 -47.565521496282599 0 -47.565521496282599 -103.67564637790201 0 0 0 0 487.87220332037464 -130.60260449363705 0 -130.60260449363705 -479.68993350250821 0 0 0 0 359.96962112294796 -225.75143913641659 0 -225.75143913641659 -142.10014017444337 0 0 0 0 -353.82092203202319 105.49826909495459 0 105.49826909495459 -66.266419222920376 0 0 0 0 -519.58757103129824 11.336533042420342 0 11.336533042420342 -375.37584241954028 0 0 0 0 75.653909887228565 29.523310549317102 0 29.523310549317102 -394.66203828851576 0 0 0 0 7.4442421751372621 -14.940705349492646 0 -14.940705349492646 -97.276160317196627 0 0 0 0 -5.3137344299298093 -164.98048161777842 0 -164.98048161777842 226.91454078943934 0 0 0 0 806.88539747350978 -241.72511052124537 0 -241.72511052124537 -151.30560286784021 0 0 0 0 345.29713384835168 -238.42086192569695 0 -238.42086192569695 242.48500939007499 0 0 0 0 495.11006461090074 -52.789102331553295 0 -52.789102331553295 -132.72408076106149 0 0 0 0 497.11214974017071 26.753470018546068 0 26.753470018546068 199.60214519358124 0 0 0 0 1039.6058092918706 -525.55449828703422 0 -525.55449828703422 145.98969254386247 0 0 0 0 5.8451271341103954 2.8066504936679593 0 2.8066504936679593 -8.4581692988928978 0 0 0 0 439.13876516396675 -413.51395897429575 0 -413.51395897429575 257.56924384532613 0 0 0 0 645.33580839452907 156.37202895391238 0 156.37202895391238 -85.811568189004902 0 0 0 0 112.64256408526035 -226.51332493284281 0 -226.51332493284281 20.185769326137233 0 0 0 0 126.4818509168972 -135.89740366133628 0 -135.89740366133628 16.75504724450002 0 0 0 0 -86.888907837173065 -153.77469108734476 0 -153.77469108734476 11.970522709045326 0 0 0 0 -171.55674942243377 56.764249778669182 0 56.764249778669182 -178.43088129172975 0 0 0 0 -209.46032707515383 -38.569691194352345 0 -38.569691194352345 101.33448777017475 0 0 0 0 -191.46092842631151 42.352365331804322 0 42.352365331804322 -188.69095355716127 0 0 0 0 -154.30871667819019 0.048018278845120221 0 0.048018278845120221 -178.04110091681287 0 0 0 0 -195.511471390726 127.01772092476313 0 127.01772092476313 -307.12302948173601 0 0 0 0 -121.59696258747681 -109.99861117263208 0 -109.99861117263208 -83.277010672805773 0 0 0 0 -217.84573288219849 20.145368847286591 0 20.145368847286591 -33.585681335767731 0 0 0 0 -182.63905076978108 -63.48799181002687 0 -63.48799181002687 -155.89203247617843 0 0 0 0 -193.43582996758914 -89.517383610160323 0 -89.517383610160323 -170.91070945321553 0 0 0 0 -194.91832159153796 -94.016543550402275 0 -94.016543550402275 -174.60138723706768 0 0 0 0 -142.00124920710005 -57.031256118389138 0 -57.031256118389138 -130.76246644338755 0 0 0 0 -162.29669267520603 -122.02122447144211 0 -122.02122447144211 -150.68942852146574 0 0 0 0 -173.3777234119591 -128.4523829957634 0 -128.4523829957634 -130.05218233857886 0 0 0 0 -99.619548973837937 -207.04098602869999 0 -207.04098602869999 -547.06956683054887 0 0 0 0 -156.53815788420411 -143.96937240817351 0 -143.96937240817351 -284.98312626796542 0 0 0 0 -75.268372725533482 -107.41140400882432 0 -107.41140400882432 -290.74378935786626 0 0 0 0 -154.33633264208845 1.6575860641398776 0 1.6575860641398776 -261.79159249836812 0 0 0 0 -85.001964042858162 -65.698748754024564 0 -65.698748754024564 -427.88717792455282 0 0 0 0 -74.897724841664058 -29.630681565889972 0 -29.630681565889972 -308.34612770253443 0 0 0 0 -17.210487759611851 -0.26594764990295516 0 -0.26594764990295516 -466.0507467957359 0 0 0 0 -6.3859841566668365 -22.579445602510532 0 -22.579445602510532 -422.95109812054761 0 0 0 0 -25.368053225727181 -54.19420449460813 0 -54.19420449460813 -464.57676991538756 0 0 0 0 -7.426262903415136 -24.605330538270209 0 -24.605330538270209 -543.31113844469655 0 0 0 0 -24.415812176732516 33.22813016370128 0 33.22813016370128 -390.39143532156595 0 0 0 0 -57.556537487148944 29.989578953507589 0 29.989578953507589 -383.26696236634598 0 0 0 0 -31.478958905120123 -91.258659419908327 0 -91.258659419908327 -389.11337005347013 0 0 0 0 -64.756650374583842 -3.6228924517345149 0 -3.6228924517345149 -310.33623267584335 0 0 0 0 -149.52718423413353 255.15030551196105 0 255.15030551196105 -612.53315001542069 0 0 0 0 -365.28392449112152 -63.786275907645177 0 -63.786275907645177 -348.96468285326409 0 0 0 0 -149.55695068527746 37.98290295906736 0 37.98290295906736 -258.25485027760442 0 0 0 0 -77.882415422185659 135.4830004887117 0 135.4830004887117 -410.75035952336839 0 0 0 0 -34.880691452734141 -3.170816988342267 0 -3.170816988342267 -516.8206767533411 0 0 0 0 -29.510714027259837 -15.953188324499934 0 -15.953188324499934 -502.69054653310741 0 0 0 0 -18.292631809309526 -94.984246421067837 0 -94.984246421067837 -992.9453241242154 0 0 0 0 -377.18516038362736 -464.75620469453133 0 -464.75620469453133 -667.70759195590654 0 0 0 0 242.46907253420295 266.72254560564761 0 266.72254560564761 -238.12341494772409 0 0 0 0 -0.56926622130203741 1.7864901175412626 0 1.7864901175412626 -7.1300157040969623 0 0 0 0 -9.5339911365590524 -80.277886966119695 0 -80.277886966119695 159.67652271875704 0 0 0 0 -225.67202623826574 -188.12329335340837 0 -188.12329335340837 -188.47018326615216 0 0 0 0 -213.05655512305384 -240.43372307852405 0 -240.43372307852405 -254.38871683615434 0 0 0 0 -151.39747013893202 -137.3089533768507 0 -137.3089533768507 -242.63983149932756 0 0 0 0 -125.55788464836724 -12.344692174399825 0 -12.344692174399825 -46.970023215042602 0 0 0 0 -100.10108928105728 -111.75128713464073 0 -111.75128713464073 -121.89793336052389 0 0 0 0 -1.2385984825272667 3.5938176778785405 0 3.5938176778785405 -16.011236934339934 0 0 0 0 -179.65384728067465 -88.229228197145858 0 -88.229228197145858 -120.08910847759398 0 0 0 0 71.52891796051199 -77.211780236935738 0 -77.211780236935738 11.610026082955301 0 0 0 0 -58.293924183454237 -27.647248950139328 0 -27.647248950139328 124.30716420169483 0 0 0 0 121.35344176496073 -158.56320515043626 0 -158.56320515043626 101.894523813251 0 0 0 0 299.73575056212871 -19.358256344472466 0 -19.358256344472466 -14.85112318478059 0 0 0 0 86.013982319579554 -27.62277635835926 0 -27.62277635835926 -14.932476066864524 0 0 0 0 -9.8237556189556017 -86.294467257997894 0 -86.294467257997894 33.612202167059877 0 0 0 0 121.05132019585244 -66.543749080607085 0 -66.543749080607085 -12.785886973215383 0 0 0 0 -82.204695978292875 -1.1450919913331745 0 -1.1450919913331745 84.53578642145294 0 0 0 0 -146.33371697581424 -13.797884443082694 0 -13.797884443082694 94.032546162474318 0 0 0 0 -25.247802832793695 -69.890553614382952 0 -69.890553614382952 41.291481057065539 0 0 0 0 -49.448094860881611 -62.01497978666157 0 -62.01497978666157 38.766292276166496 0 0 0 0 -54.898431084704953 -9.9036608785754652 0 -9.9036608785754652 -24.459120785912091 0 0 0 0 -114.76597206956922 -93.975772705263807 0 -93.975772705263807 66.423901517373451 0 0 0 0 -173.03985913651968 -58.722734132927144 0 -58.722734132927144 65.477154356034589 0 0 0 0 -70.083902054244732 197.056818879194 0 197.056818879194 -63.735727055624011 0 0 0 0 -129.77356461114212 -129.90950680831884 0 -129.90950680831884 -193.3593385474087 0 0 0 0 17.260880128283759 -285.5192667782394 0 -285.5192667782394 -525.5658227475069 0 0 0 0 -15.119194467220041 55.383802192969597 0 55.383802192969597 -596.51992833286204 0 0 0 0 -94.29506154896103 68.689005389584054 0 68.689005389584054 -184.62489518367465 0 0 0 0 -79.731531926731577 -105.44710545352427 0 -105.44710545352427 -195.13533262595593 0 0 0 0 20.715044150173348 -40.383905085240258 0 -40.383905085240258 -8.0353613280922218 0 0 0 0 21.949339975994249 -36.526128395220439 0 -36.526128395220439 -7.3876228877943504 0 0 0 0 33.151988916295792 -13.112926517103915 0 -13.112926517103915 -18.896396013142294 0 0 0 0 124.35576347830406 28.104745569893566 0 28.104745569893566 -12.528267886013055 0 0 0 0 74.308694375423812 -56.428296166228392 0 -56.428296166228392 -90.937697484099772 0 0 0 0 128.14498919534935 162.47756349888004 0 162.47756349888004 32.455747605021315 0 0 0 0 -0.024515805924894774 1.5471757507435768 0 1.5471757507435768 -3.8977271205331476 0 0 0 0 -0.14131390185888423 -60.805663508336799 0 -60.805663508336799 -31.782657442308846 0 0 0 0 118.27941160324477 93.794607305437239 0 93.794607305437239 -443.68483725815895 0 0 0 0 0.38947744641454635 -161.66213438512932 0 -161.66213438512932 -759.93891757550591 0 0 0 0 76.722481308999107 -281.07000022476495 0 -281.07000022476495 -1031.7428632466763 0 0 0 0 0.025370918300868794 0.77755776888236028 0 0.77755776888236028 -2.6668956121505687 0 0 0 0 146.00674201952961 -197.09714823920513 0 -197.09714823920513 -1053.0402534577479 0 0 0 0 140.27141512305124 -232.29832227464067 0 -232.29832227464067 -902.18391484519816 0 0 0 0 10.842245870496185 19.909632588554814 0 19.909632588554814 -366.44332216263138 0 0 0 0 -9.8523469380132838 -384.49334843185352 0 -384.49334843185352 -863.96377528736775 0 0 0 0 -1.9596903233625653 -158.39402483891172 0 -158.39402483891172 -354.62378881743643 0 0 0 0 30.713216970510416 -122.45275682958891 0 -122.45275682958891 -396.05636803523521 0 0 0 0 -23.645810680534737 -115.68617546062887 0 -115.68617546062887 -794.82118631112098 0 0 0 0 47.351845776193656 -229.12690830719748 0 -229.12690830719748 -722.39990276076423 0 0 0 0 -4.3927706830939428 -57.252355508313485 0 -57.252355508313485 -722.4166692180097 0 0 0 0 -31.155542465894086 -184.65749689293443 0 -184.65749689293443 -664.91197345801629 0 0 0 0 272.15579333573214 -17.843107118722401 0 -17.843107118722401 -1323.228932067228 0 0 0 0 218.45977342127037 121.89292235544963 0 121.89292235544963 -942.61272506313981 0 0 0 0 272.12669060599001 -1.7448485384738888 0 -1.7448485384738888 -1166.6200719668195 0 0 0 0 -432.59726153448901 -215.89253649828606 0 -215.89253649828606 -706.284840353248 0 0 0 0 -25.563102764907399 128.55611874982424 0 128.55611874982424 -1239.7809147296648 0 0 0 0 94.39696456634374 -395.9041242254898 0 -395.9041242254898 -1442.1029076863633 0 0 0 0 -453.71361425077185 -647.53622269313928 0 -647.53622269313928 -782.74323633284075 0 0 0 0 -0.04808577927109875 0.63417603873688932 0 0.63417603873688932 -5.8216954249576247 0 0 0 0 350.63740978596832 406.64178055907905 0 406.64178055907905 -442.45133539385279 0 0 0 0 -228.9128419495768 -254.0487700523845 0 -254.0487700523845 -147.02585876778176 0 0 0 0 0.3479416307777683 97.816358546420815 0 97.816358546420815 -92.569856034748227 0 0 0 0 -100.78524735970927 -17.771323597129594 0 -17.771323597129594 -3.5690362179884687 0 0 0 0 -24.645178602711781 95.406755483840243 0 95.406755483840243 -279.7492011047143 0 0 0 0 150.01763684299908 -227.65750372848561 0 -227.65750372848561 -56.682326326808834 0 0 0 0 156.76637337225384 -199.71198019670555 0 -199.71198019670555 47.018299812529222 0 0 0 0 -47.498522244218066 -79.325092895516718 0 -79.325092895516718 12.480173064017436 0 0 0 0 133.23058759597484 -161.03696101905371 0 -161.03696101905371 -54.616865115240216 0 0 0 0 415.4699271104185 -44.280456878248515 0 -44.280456878248515 -92.743144911830314 0 0 0 0 0.81404838992279782 0.42094261651504894 0 0.42094261651504894 -14.242194593512323 0 0 0 0 35.848440412987827 30.954781468939473 0 30.954781468939473 5.977200306544546 0 0 0 0 1.819943684806995 1.2045950364378228 0 1.2045950364378228 -3.4910577409691825 0 0 0 0 179.09310770793314 -83.781857889494859 0 -83.781857889494859 73.428426353406394 0 0 0 0 -2.0680787582991371 -10.773285983090318 0 -10.773285983090318 2.9019271194774774 0 0 0 0 -1.1535592514379258 -5.3159903340291379 0 -5.3159903340291379 -10.942770638556311 0 0 0 0 -17.987275298073371 8.5545134133062675 0 8.5545134133062675 5.4327864766592029 0 0 0 0 -0.56353602640971956 -1.4076544222416985 0 -1.4076544222416985 -3.4219286805391675 0 0 0 0 177.02948773075633 -102.16061431134767 0 -102.16061431134767 -6.6593461765005486 0 0 0 0 0.11920578328331274 -34.555569068725163 0 -34.555569068725163 35.634076834132429 0 0 0 0 -0.10305972332757393 -0.64217604638237447 0 -0.64217604638237447 -1.4338714902093841 0 0 0 0 12.595417313247026 24.595785609199083 0 24.595785609199083 7.7154869880796468 0 0 0 0 0.33028201316440686 1.6320096499139254 0 1.6320096499139254 5.9248838925122982 0 0 0 0 -92.623811411145141 8.04244712135187 0 8.04244712135187 34.48284262814559 0 0 0 0 24.597681126277394 -42.82174261284672 0 -42.82174261284672 6.6992569465583074 0 0 0 0 -0.33525254058419812 -1.0821500974838187 0 -1.0821500974838187 -2.7804789294020509 0 0 0 0 22.209947510145682 -15.78760349921572 0 -15.78760349921572 -5.8623503419221379 0 0 0 0 -0.25864671542458706 -48.750477300996863 0 -48.750477300996863 -34.158683958648908 0 0 0 0 51.224827980607806 -38.622865665860445 0 -38.622865665860445 -137.13275674191391 0 0 0 0 59.150840499451959 8.7680040360246494 0 8.7680040360246494 -32.936352377906587 0 0 0 0 -83.678831545577481 249.28483180751482 0 249.28483180751482 -206.04445198162284 0 0 0 0 -0.12219099926217197 0.38682951966434231 0 0.38682951966434231 -2.6653326674105244 0 0 0 0 -47.385560093903898 -234.58557720711906 0 -234.58557720711906 -541.58156513815629 0 0 0 0 0.01148407383147565 -0.18292526348753313 0 -0.18292526348753313 -0.34496981912698743 0 0 0 0 -2.671931753030373 -6.5831300503181609 0 -6.5831300503181609 -9.1985139397351645 0 0 0 0 -65.862037515571842 50.041006184845173 0 50.041006184845173 38.906327543329098 0 0 0 0 8.3870931550277135 -41.087921458715755 0 -41.087921458715755 13.60448330516374 0 0 0 0 -21.263736800044853 62.051647243250045 0 62.051647243250045 -31.818637100925116 0 0 0 0 -0.13006643736397505 0.2186750747811459 0 0.2186750747811459 -1.3873121878045822 0 0 0 0 -0.14336549049455771 0.71847622016140633 0 0.71847622016140633 -5.5050302030224998 0 0 0 0 3.4718692227782881 9.4009905973061905 0 9.4009905973061905 5.5881489837047411 0 0 0 0 47.840523047937381 22.855837187191355 0 22.855837187191355 -522.10600059484568 0 0 0 0 -120.23933508366949 -217.67314001425257 0 -217.67314001425257 -225.09620204927342 0 0 0 0 -25.319315913002669 -101.35765783932595 0 -101.35765783932595 -279.96922596459626 0 0 0 0 32.191646276302436 40.558449373587791 0 40.558449373587791 -309.44712465585326 0 0 0 0 -49.345534228285032 61.367693279935338 0 61.367693279935338 -225.75266936833214 0 0 0 0 40.912264370916716 -51.319075005412742 0 -51.319075005412742 -273.55469198457286 0 0 0 0 46.899462335763701 31.574664334155386 0 31.574664334155386 -536.91159981917008 0 0 0 0 111.14249238190678 -45.502518439285552 0 -45.502518439285552 41.461934155639028 0 0 0 0 113.03871735819121 -176.23840526725689 0 -176.23840526725689 114.96807763718812 0 0 0 0 -18.677547641005731 -32.4978358022272 0 -32.4978358022272 119.47495036766486 0 0 0 0 26.737938496379002 -3.8616439987381455 0 -3.8616439987381455 2.1640841743501369 0 0 0 0 68.532552534958171 -10.0203828318663 0 -10.0203828318663 -35.429967930802377 0 0 0 0 -2.3681717968073253 -5.3539825834585741 0 -5.3539825834585741 -7.844081123385422 0 0 0 0 -81.283713505175001 -143.80970798680573 0 -143.80970798680573 122.33881945552275 0 0 0 0 -152.22332338087563 56.250389695011108 0 56.250389695011108 -33.715184171313012 0 0 0 0 -72.655524159137755 -165.91986886696668 0 -165.91986886696668 -340.54809604721231 0 0 0 0 -134.57411052075918 40.857423160647159 0 40.857423160647159 -21.996565651628771 0 0 0 0 -125.09337365750241 21.716731192514999 0 21.716731192514999 7.6126562423596624 0 0 0 0 -108.44789921333813 46.807593666613684 0 46.807593666613684 37.058465902082389 0 0 0 0 -135.18974467674593 65.156836169659073 0 65.156836169659073 -5.4137395291036228 0 0 0 0 -87.008063962971391 51.655858136989991 0 51.655858136989991 -71.827046129648807 0 0 0 0 -145.33668240905126 43.455045038288517 0 43.455045038288517 -16.608443738892674 0 0 0 0 -131.50604248463344 59.438409479540496 0 59.438409479540496 -56.049602777682594 0 0 0 0 -72.153999910680454 3.0572495206852182 0 3.0572495206852182 -203.68231721344637 0 0 0 0 -118.20222154080852 16.920254857752298 0 16.920254857752298 -120.04159061131941 0 0 0 0 -127.8061899711638 15.338876713816717 0 15.338876713816717 -63.50982983261747 0 0 0 0 -81.853999387528347 90.701939203871007 0 90.701939203871007 -202.4662056872603 0 0 0 0 -117.27234765851028 49.749764201029393 0 49.749764201029393 -71.947094710936653 0 0 0 0 -102.40450025855444 56.458644135433133 0 56.458644135433133 -204.11781175735814 0 0 0 0 -84.646145181779957 37.803614087675669 0 37.803614087675669 -218.96560928891995 0 0 0 0 -51.665280683092533 77.810028328298358 0 77.810028328298358 -245.3000824144583 0 0 0 0 -127.06298218394886 50.414301554141275 0 50.414301554141275 -57.674433742795372 0 0 0 0 -169.36573003336321 27.18402744742707 0 27.18402744742707 -15.875346047891071 0 0 0 0 -20.115618813614674 -106.2755375297711 0 -106.2755375297711 -122.6802643654737 0 0 0 0 -13.256480504604269 -61.528506085764093 0 -61.528506085764093 147.89786462036136 0 0 0 0 52.950519667374692 -52.501464405166189 0 -52.501464405166189 -38.746227597774123 0 0 0 0 114.02930836636551 -210.45716342276137 0 -210.45716342276137 143.19077757354535 0 0 0 0 -80.68967810459435 -17.510153719493246 0 -17.510153719493246 69.328819773825671 0 0 0 0 -108.16219308180916 43.313838720758213 0 43.313838720758213 24.556787208290189 0 0 0 0 -26.289706960026479 30.042496724945522 0 30.042496724945522 -66.696821751713287 0 0 0 0 13.586483740772564 -28.220013480352463 0 -28.220013480352463 -421.54523633150347 0 0 0 0 2.8488900902174237 -127.66953181149665 0 -127.66953181149665 -277.64894059891822 0 0 0 0 -51.870977993825363 -47.755614305269773 0 -47.755614305269773 -424.60254542854136 0 0 0 0 -62.468578103800155 -151.04839386268304 0 -151.04839386268304 -509.87896897777409 0 0 0 0 -8.35998119008309 -42.28851959265603 0 -42.28851959265603 -423.68941473958284 0 0 0 0 9.7892836846333466 -126.69542607286644 0 -126.69542607286644 -480.95306098796209 0 0 0 0 -36.486952461956207 -52.599471048553823 0 -52.599471048553823 -524.13687746041342 0 0 0 0 42.490197726046972 -44.286232990643839 0 -44.286232990643839 -376.87123479995137 0 0 0 0 -2.0151021698384284 -66.677216779638911 0 -66.677216779638911 -376.89058336331976 0 0 0 0 -38.483405875295375 -97.710981137162889 0 -97.710981137162889 -340.10847755218856 0 0 0 0 53.942910016470705 -24.068323230806527 0 -24.068323230806527 -319.33533017899299 0 0 0 0 5.7094957974265981 -109.14718423075954 0 -109.14718423075954 -248.29503669440146 0 0 0 0 -168.76191223935348 258.97658649002869 0 258.97658649002869 -734.98763920845522 0 0 0 0 9.5620335909975065 0.027041158842530777 0 0.027041158842530777 -1.14638855007383 0 0 0 0 -54.677953722932727 -19.015471177773406 0 -19.015471177773406 -170.40895592025481 0 0 0 0 68.259419202599474 76.935718188593455 0 76.935718188593455 -288.52584241808734 0 0 0 0 -760.71889100481349 29.374599025344651 0 29.374599025344651 -272.41698585750692 0 0 0 0 20.777205926139388 -1.0185878067611123 0 -1.0185878067611123 1.5901683506409672 0 0 0 0 181.10705988109703 -169.65962588168372 0 -169.65962588168372 -233.11776560527233 0 0 0 0 -75.986794230753276 -289.50653232845389 0 -289.50653232845389 -219.30635427922425 0 0 0 0 -222.83460144051037 -141.11551956313633 0 -141.11551956313633 -118.80186308453676 0 0 0 0 -138.73642674317944 377.56231017432128 0 377.56231017432128 -341.42658182639934 0 0 0 0 1.45477714374897 -2.5189752168213095 0 -2.5189752168213095 -3.5934530963456321 0 0 0 0 443.55000604295856 257.03545689279281 0 257.03545689279281 -602.38161540718193 0 0 0 0 148.16876960063291 -137.65936112133636 0 -137.65936112133636 -141.99058920641801 0 0 0 0 -5.2711934460846805 -107.6151621597453 0 -107.6151621597453 -321.6186062546567 0 0 0 0 63.853939714509579 -20.800351761076172 0 -20.800351761076172 -482.59194763106825 0 0 0 0 -55.562387022735493 -7.6683333514019978 0 -7.6683333514019978 -209.19382842968662 0 0 0 0 69.127869938551726 -27.396621536392558 0 -27.396621536392558 -371.67510716199286 0 0 0 0 0.63958232947220495 -11.58021835088266 0 -11.58021835088266 -517.62298622526396 0 0 0 0 -66.012694427043016 -87.162768287368635 0 -87.162768287368635 -382.70797259901224 0 0 0 0 46.40267775562404 -79.647880214115048 0 -79.647880214115048 -829.24973185473937 0 0 0 0 -97.712629011913577 -38.100535568644773 0 -38.100535568644773 -482.73172033076844 0 0 0 0 -52.287491854961445 -149.79648228976475 0 -149.79648228976475 -593.70586878862605 0 0 0 0 43.497268263801743 -121.18319843982317 0 -121.18319843982317 -597.12756372121657 0 0 0 0 29.463976340213726 53.628644722654066 0 53.628644722654066 -37.048806566632855 0 0 0 0 -46.694315701683081 -149.3778209623124 0 -149.3778209623124 -445.69677764297694 0 0 0 0 -43.501057206182708 -57.357382447773666 0 -57.357382447773666 5.6829890936536716 0 0 0 0 -24.357026027873417 -101.48042318490207 0 -101.48042318490207 -519.79539608335836 0 0 0 0 41.392627805537586 -89.432318841058986 0 -89.432318841058986 -571.55002367124416 0 0 0 0 -136.62335663963347 -92.503249801624861 0 -92.503249801624861 -571.59594198627474 0 0 0 0 32.6900715178067 -101.2804587062833 0 -101.2804587062833 -654.42342120476951 0 0 0 0 -79.883779504035374 -27.35191691784712 0 -27.35191691784712 -645.69027364915655 0 0 0 0 45.267636709486851 -142.96433359210687 0 -142.96433359210687 -855.60802856672581 0 0 0 0 -26.598219596271161 -59.395222110220651 0 -59.395222110220651 4.8751098220184073 0 0 0 0 1.85717061682044 -57.730450921508236 0 -57.730450921508236 -292.06969926582963 0 0 0 0 38.577259243265871 -85.224531994774225 0 -85.224531994774225 -290.95943486831277 0 0 0 0 21.677191572617843 54.607597823553817 0 54.607597823553817 -39.71554053087408 0 0 0 0 -23.291470424945601 -97.642997049127189 0 -97.642997049127189 -510.05142270574652 0 0 0 0 38.866403891417576 16.348420024234656 0 16.348420024234656 -309.5872386678675 0 0 0 0 -107.00839612669597 54.551404895690666 0 54.551404895690666 -162.63742747420611 0 0 0 0 -148.57168370498766 39.189736032948531 0 39.189736032948531 -311.53972364404035 0 0 0 0 -0.49863018060969821 -2.9912302981541021 0 -2.9912302981541021 -15.300043531423562 0 0 0 0 -16.130437998443085 -15.79132956543981 0 -15.79132956543981 -389.85223644784128 0 0 0 0 13.506957103649256 -55.898820308701943 0 -55.898820308701943 -706.31301987255574 0 0 0 0 15.354887969133415 -157.22059172756417 0 -157.22059172756417 -341.35319468979878 0 0 0 0 12.0939230961867 -31.233807033387166 0 -31.233807033387166 -555.27991766084597 0 0 0 0 43.313315304948105 -175.03130252375877 0 -175.03130252375877 -582.36534296879472 0 0 0 0 -3.2679921920735069 -155.49900357881234 0 -155.49900357881234 -540.67199268643878 0 0 0 0 51.396683670815719 -137.44041663282223 0 -137.44041663282223 -539.56594233094438 0 0 0 0 23.658471896633273 -186.64299003994256 0 -186.64299003994256 -551.93716221604382 0 0 0 0 -5.1423049946170067 -185.69230241471087 0 -185.69230241471087 -551.10540486448554 0 0 0 0 -5.5648861732915975 -160.34624299620646 0 -160.34624299620646 -574.66510199931145 0 0 0 0 -56.451353009329978 -180.37725967799361 0 -180.37725967799361 -539.71612535336226 0 0 0 0 -26.419110497239672 -128.01709945110633 0 -128.01709945110633 -569.8995877283744 0 0 0 0 -116.31719586943109 -107.27089561503817 0 -107.27089561503817 -570.66014508742342 0 0 0 0 -133.20658614346348 -159.86160012694972 0 -159.86160012694972 -656.42169695319535 0 0 0 0 -123.58793359836091 -23.740900556704219 0 -23.740900556704219 -1198.6069989782104 0 0 0 0 -101.84214663216562 -160.01874997386585 0 -160.01874997386585 -630.90691910067108 0 0 0 0 -2.9739026804691093 -154.8198059692977 0 -154.8198059692977 -659.7083985647605 0 0 0 0 -68.44249594354369 -167.59263201653266 0 -167.59263201653266 -656.55890062114486 0 0 0 0 -69.969581443229799 -198.73315260270374 0 -198.73315260270374 -596.10266368056909 0 0 0 0 -57.351586194526135 -133.88580790577635 0 -133.88580790577635 -636.27879995015792 0 0 0 0 -39.39936992343678 -0.085186872958274762 0 -0.085186872958274762 -33.498149940180156 0 0 0 0 43.399193632664151 47.668741147315586 0 47.668741147315586 -117.48732218040641 0 0 0 0 33.546853704702585 -71.660195368042281 0 -71.660195368042281 -447.73614694508524 0 0 0 0 11.479441690590875 68.610023775934678 0 68.610023775934678 -19.044609611095439 0 0 0 0 16.787935485090138 26.739938440625131 0 26.739938440625131 -29.97129202884215 0 0 0 0 -26.682354341431164 -142.78390729404691 0 -142.78390729404691 -457.63694038083446 0 0 0 0 -45.213991023361814 -181.68396823348496 0 -181.68396823348496 -523.46576707512122 0 0 0 0 20.894037589930157 23.061695021649115 0 23.061695021649115 -28.037826862950908 0 0 0 0 -50.416967562567379 -161.72269862319504 0 -161.72269862319504 -557.04304556918532 0 0 0 0 -1.6960145333014225 -130.03864992394847 0 -130.03864992394847 -601.67607514578162 0 0 0 0 1.7473628932923475 -147.77272551198672 0 -147.77272551198672 -522.14642278663268 0 0 0 0 -66.259674468105914 -8.3438457629058576 0 -8.3438457629058576 -608.72332893562429 0 0 0 0 -14.488459322678864 -81.065659895210842 0 -81.065659895210842 -569.22872562840382 0 0 0 0 -18.451418852610914 -87.610287853726049 0 -87.610287853726049 -533.97838513082161 0 0 0 0 -6.6305791090647581 -48.45661114767595 0 -48.45661114767595 -8.2529254579992486 0 0 0 0 -10.142997580812562 -77.744859151717606 0 -77.744859151717606 -739.35475165852404 0 0 0 0 42.99707210284987 -172.18441493372961 0 -172.18441493372961 -499.64937006237233 0 0 0 0 15.708296634926228 -129.94449370524489 0 -129.94449370524489 -425.12499044530432 0 0 0 0 48.375829431690363 -131.17139396939592 0 -131.17139396939592 -488.3715591352593 0 0 0 0 54.9777863614745 -97.572247870471983 0 -97.572247870471983 -400.19518225032215 0 0 0 0 -15.479724551016261 -122.63171619577315 0 -122.63171619577315 -400.07210452051612 0 0 0 0 -24.538323732839785 -151.76101245339999 0 -151.76101245339999 -526.03375676013457 0 0 0 0 -40.415650389451002 -139.83096077918663 0 -139.83096077918663 -487.50132901538382 0 0 0 0 17.210617262733649 -153.46068837208713 0 -153.46068837208713 -530.04866444121672 0 0 0 0 -0.03117547591773473 -192.26313237206045 0 -192.26313237206045 -517.88754106722809 0 0 0 0 25.149017244922106 -177.51576322680421 0 -177.51576322680421 -528.1438752324193 0 0 0 0 17.913077244842498 -178.71525223136632 0 -178.71525223136632 -526.54521750153754 0 0 0 0 12.206153707966223 -169.3490109196382 0 -169.3490109196382 -496.17856152887362 0 0 0 0 4.0998713212175062 -156.10774395544104 0 -156.10774395544104 -535.68976074511693 0 0 0 0 -31.452567773523697 -109.18238037967035 0 -109.18238037967035 -555.50551131973452 0 0 0 0 -24.735309886595132 -152.06520345816421 0 -152.06520345816421 -479.03946510306332 0 0 0 0 -10.559839839903361 -173.53428709494733 0 -173.53428709494733 -448.62002077252782 0 0 0 0 37.79325101388531 -133.56465232589835 0 -133.56465232589835 -472.92566115664249 0 0 0 0 -104.94730798431374 -98.320523522245594 0 -98.320523522245594 -397.45192106150125 0 0 0 0 10.484684481340992 -181.95524066179132 0 -181.95524066179132 -422.80134816824739 0 0 0 0 216.8436578200126 -101.5467002267419 0 -101.5467002267419 -461.56150709460326 0 0 0 0 3.0236171667326381 0.98100964840551619 0 0.98100964840551619 -1.0006011472640657 0 0 0 0 -423.20081744143317 74.858953506141006 0 74.858953506141006 -566.25249418177464 0 0 0 0 -4.6906596541602994 21.485455300403828 0 21.485455300403828 -114.81813973646354 0 0 0 0 28.214895235304539 -151.00361363960565 0 -151.00361363960565 -396.78417504173922 0 0 0 0 166.72795631259578 48.603050899440007 0 48.603050899440007 -335.0815798316662 0 0 0 0 107.9747906345201 -109.28258825602279 0 -109.28258825602279 -453.69906531375273 0 0 0 0 35.591034429078263 -76.927658535668343 0 -76.927658535668343 -314.48814726424371 0 0 0 0 -392.55429295498107 -210.06128980968197 0 -210.06128980968197 -518.0282606476577 0 0 0 0 369.47530531762641 -41.016244727763933 0 -41.016244727763933 -503.23181901150474 0 0 0 0 16.032869248518182 9.8669521855808853 0 9.8669521855808853 -168.10783222395639 0 0 0 0 17.502591056772847 -46.224216563892377 0 -46.224216563892377 -16.817180755241786 0 0 0 0 5.5963130190220909 -7.4838356313280201 0 -7.4838356313280201 -167.50376015531219 0 0 0 0 5.4792277590076992 21.722486413800652 0 21.722486413800652 -182.31993032752143 0 0 0 0 52.653613643620702 -6.6859152570341394 0 -6.6859152570341394 -167.42732361142953 0 0 0 0 2.5307946592434556 9.9819461204921627 0 9.9819461204921627 -99.117892728835017 0 0 0 0 4.7633038586209295 9.4826497565063619 0 9.4826497565063619 -131.39872721431311 0 0 0 0 3.0651052169641844 -20.831544303433475 0 -20.831544303433475 -232.06963155497215 0 0 0 0 77.217699108779016 -72.827672165299191 0 -72.827672165299191 -249.60859192160206 0 0 0 0 6.4294697433101895 -48.949226832363905 0 -48.949226832363905 -7.0594511545150187 0 0 0 0 21.903500034510216 -3.525149207767754 0 -3.525149207767754 -242.86491237985774 0 0 0 0 170.03820337912384 11.357261739485693 0 11.357261739485693 -228.1745438437265 0 0 0 0 15.141515631758011 76.893011686168393 0 76.893011686168393 -237.78870817533425 0 0 0 0 3.9798505792787466 -1.3116342596415791 0 -1.3116342596415791 1.5736344886390157 0 0 0 0 82.890381758782496 -192.54229279329957 0 -192.54229279329957 186.46357363562129 0 0 0 0 67.554369152225263 -37.659236261424667 0 -37.659236261424667 3.0267290007686825 0 0 0 0 323.4022413162902 -90.945254729527733 0 -90.945254729527733 -155.01092970294849 0 0 0 0 33.853592396151726 57.138957513949208 0 57.138957513949208 -168.42979519876008 0 0 0 0 2.8540452413372126 13.213392754061555 0 13.213392754061555 -98.681673950056009 0 0 0 0 -11.28187187079493 30.757480883108656 0 30.757480883108656 -163.707747739978 0 0 0 0 9.7020283304924178 2.8287981274367908 0 2.8287981274367908 -17.036678306473412 0 0 0 0 66.619462636223034 -47.276309206248698 0 -47.276309206248698 -36.760278776799169 0 0 0 0 25.042495698444327 35.338062144615833 0 35.338062144615833 -212.49123961198347 0 0 0 0 26.94200079268785 47.309626461141534 0 47.309626461141534 -264.84696850865657 0 0 0 0 30.538508484743943 -35.476074464720114 0 -35.476074464720114 46.587637912736682 0 0 0 0 8.779868547441815 -13.816086349344397 0 -13.816086349344397 0.60488837181094368 0 0 0 0 27.870891910761561 -1.3936215456324792 0 -1.3936215456324792 -115.51339927883654 0 0 0 0 32.57481792424187 40.924720270203125 0 40.924720270203125 -178.54793451650266 0 0 0 0 -20.696812853997216 112.04936842169502 0 112.04936842169502 -232.1795512409326 0 0 0 0 40.533566268179129 9.3082472636060629 0 9.3082472636060629 -235.95274327400597 0 0 0 0 44.476252896061851 41.378036410686946 0 41.378036410686946 -196.52026163721484 0 0 0 0 22.310244091587265 34.726458077951065 0 34.726458077951065 -161.61289623470793 0 0 0 0 39.378017712160727 24.315974015334177 0 24.315974015334177 -179.99424120685762 0 0 0 0 23.055592539429199 16.342695361656297 0 16.342695361656297 -157.7167400779187 0 0 0 0 21.144822822420167 -7.7979991434891929 0 -7.7979991434891929 -162.05814766772073 0 0 0 0 38.497577243645537 18.653712821232375 0 18.653712821232375 -157.41562560925831 0 0 0 0 14.10119274353292 22.293173643265391 0 22.293173643265391 -112.41365527111066 0 0 0 0 23.596919099213096 13.391005573154757 0 13.391005573154757 -106.44964875513733 0 0 0 0 20.538456241774384 20.843542768042425 0 20.843542768042425 -110.76573048671435 0 0 0 0 18.558756419366546 24.641128891661651 0 24.641128891661651 -106.94125850978912 0 0 0 0 174.10329866411075 -39.670726469459396 0 -39.670726469459396 -475.0661403574934 0 0 0 0 9.255636463470637 16.307233301691781 0 16.307233301691781 -72.121201630658561 0 0 0 0 7.9309109896850245 -1.1536652634920408 0 -1.1536652634920408 -12.176104273316231 0 0 0 0 2.6538894137322506 -18.665365092790527 0 -18.665365092790527 -3.1177475794168252 0 0 0 0 -122.68276937841813 2.496733598207868 0 2.496733598207868 -149.33087361125581 0 0 0 0 -1.3745515582131702 20.150685007823085 0 20.150685007823085 -46.241987002940846 0 0 0 0 -83.968701851315473 -137.82299456046576 0 -137.82299456046576 -164.99790351906017 0 0 0 0 15.684647400650443 -1.1049372242057043 0 -1.1049372242057043 -0.3959139354416007 0 0 0 0 19.117282347062201 21.168217637592221 0 21.168217637592221 -110.11028060973695 0 0 0 0 8.1341039996887048 23.65020122920896 0 23.65020122920896 -78.646719040943935 0 0 0 0 8.8962993269510093 -14.304347559927567 0 -14.304347559927567 -37.318880888275999 0 0 0 0 34.202613284818653 88.747997047063109 0 88.747997047063109 -146.03961007932139 0 0 0 0 -66.213209393172292 72.291981186675457 0 72.291981186675457 -65.96956949921082 0 0 0 0 -39.187270759842704 5.7921121850604322 0 5.7921121850604322 -28.19864267785033 0 0 0 0 21.77070021441466 35.327489766340079 0 35.327489766340079 -107.03719889920012 0 0 0 0 32.195295843268468 59.477907420000975 0 59.477907420000975 -168.93926140937947 0 0 0 0 47.271954725581054 34.660321941352777 0 34.660321941352777 -203.30417487247587 0 0 0 0 -74.184682729520318 222.03348974915798 0 222.03348974915798 -293.51923321626327 0 0 0 0 -257.41375241727746 141.24577051613824 0 141.24577051613824 -45.578027703696534 0 0 0 0 -137.20250072837916 -140.46392092046926 0 -140.46392092046926 -258.18350732482395 0 0 0 0 -0.90076820818462533 2.3652696364653707 0 2.3652696364653707 -2.966788131924428 0 0 0 0 23.643538503378295 73.502160375272069 0 73.502160375272069 -476.83554983377508 0 0 0 0 -52.56431390806938 22.01185138375331 0 22.01185138375331 14.304989824071527 0 0 0 0 11.779330852921703 16.330110431288176 0 16.330110431288176 -68.005142234140749 0 0 0 0 -1.9247098930059243 -5.4403386794648654 0 -5.4403386794648654 -12.252976344386248 0 0 0 0 -12.184634393252491 -26.553438788200815 0 -26.553438788200815 -46.002158221192417 0 0 0 0 -17.124354184086769 -72.002923992355591 0 -72.002923992355591 13.182387324190152 0 0 0 0 254.23031357367472 -144.39996783492825 0 -144.39996783492825 -84.89359625403813 0 0 0 0 195.27061708920883 -60.610435748822056 0 -60.610435748822056 -77.087037427663745 0 0 0 0 51.866132242313597 -72.243519864219934 0 -72.243519864219934 -248.64160455932779 0 0 0 0 160.9688616822059 -254.40583244338541 0 -254.40583244338541 87.417413427391693 0 0 0 0 -14.504169037995005 -19.360611601941795 0 -19.360611601941795 -24.857938967643992 0 0 0 0 1.9189759020173369 36.318694162964675 0 36.318694162964675 -163.76781317621771 0 0 0 0 160.72489305719586 -211.01805019184189 0 -211.01805019184189 -154.77271752747038 0 0 0 0 -126.16493688307673 -94.198504109887836 0 -94.198504109887836 156.54766100220331 0 0 0 0 -152.1366196601457 -325.17706767458367 0 -325.17706767458367 -143.98061983851539 0 0 0 0 -250.24810422066821 -219.05542020410439 0 -219.05542020410439 -255.65562710386803 0 0 0 0 -158.2334021506631 -128.02506783430181 0 -128.02506783430181 -50.526432393282448 0 0 0 0 -196.502591344866 -229.86136181567872 0 -229.86136181567872 -314.39277865145777 0 0 0 0 -9.6453106918997946 -145.07065763321043 0 -145.07065763321043 -219.90014214425173 0 0 0 0 2.030401169682591 -77.059211419084022 0 -77.059211419084022 -3.3052499617842841 0 0 0 0 -195.94890456922076 -102.45277869388337 0 -102.45277869388337 -54.040065698500257 0 0 0 0 -273.36128358242399 23.291927346467673 0 23.291927346467673 -217.18080743532119 0 0 0 0 -72.712900903070476 -79.743298966630391 0 -79.743298966630391 -81.830978924666852 0 0 0 0 -320.42404136052301 -118.20195465326833 0 -118.20195465326833 -3.3317055712141155 0 0 0 0 -316.51526362022105 -140.43989595624043 0 -140.43989595624043 -15.141406268583523 0 0 0 0 0.53357301294090576 -148.58749736608843 0 -148.58749736608843 -104.34870815340037 0 0 0 0 120.8129907396451 -107.93843727525018 0 -107.93843727525018 -114.75192748609425 0 0 0 0 307.37498411427623 25.325027155602584 0 25.325027155602584 -78.249171035929976 0 0 0 0 95.66175515568375 26.105626059618771 0 26.105626059618771 -6.7373181656301995 0 0 0 0 274.8144147222938 -57.161252423054975 0 -57.161252423054975 -148.40176398490439 0 0 0 0 91.423456494572747 88.516288354474455 0 88.516288354474455 -125.52936031779973 0 0 0 0 3.9968848265201316 -21.896969579001762 0 -21.896969579001762 -74.863600273529414 0 0 0 0 -8.4466283935253159 39.700019953994342 0 39.700019953994342 -303.08424828963325 0 0 0 0 0.4690733072529838 149.60327108779165 0 149.60327108779165 -55.720849837879996 0 0 0 0 -0.32938609166041743 0.17189156185623311 0 0.17189156185623311 -5.0080524434503237 0 0 0 0 15.464989475873502 5.6559093275434194 0 5.6559093275434194 -19.375230268123637 0 0 0 0 191.90060893783993 -65.453707381218919 0 -65.453707381218919 -68.913251380352449 0 0 0 0 108.84875022201959 -149.67978003773533 0 -149.67978003773533 -97.865593161222932 0 0 0 0 194.86565456301287 -69.67054626405843 0 -69.67054626405843 -165.73170889052926 0 0 0 0 2.8353321658737514 -5.4684029087111412 0 -5.4684029087111412 -70.960439684611629 0 0 0 0 4.8122263430145722 -1.2968740180804161 0 -1.2968740180804161 -63.65229955155155 0 0 0 0 5.6968768774766296 -8.8459229584877903 0 -8.8459229584877903 -74.930946609616512 0 0 0 0 3.7169827983856099 -8.0547581172577338 0 -8.0547581172577338 -59.673838471324416 0 0 0 0 11.324114389623933 13.286192434890779 0 13.286192434890779 -24.018068690667945 0 0 0 0 6.5914214601456358 -6.9432541786344615 0 -6.9432541786344615 -8.0402946882720912 0 0 0 0 6.3763098048419318 -22.499765433223459 0 -22.499765433223459 -27.958749566020686 0 0 0 0 1.2170626842266756 -7.5329772847071581 0 -7.5329772847071581 -74.292269039247913 0 0 0 0 4.1361436174119035 1.28005815792676 0 1.28005815792676 -71.354016378289089 0 0 0 0 -66.647615344239057 -22.707322618308353 0 -22.707322618308353 -68.973333546658978 0 0 0 0 13.481511550300183 20.213179844253702 0 20.213179844253702 -49.708798766426135 0 0 0 0 -0.65090388505106977 -2.9753942170989234 0 -2.9753942170989234 -21.969885273749064 0 0 0 0 -0.38968954408682066 -11.492729537771083 0 -11.492729537771083 -23.035340307349543 0 0 0 0 8.1309070411439279 16.179805264582683 0 16.179805264582683 -32.684769270970719 0 0 0 0 -182.96167725572923 -112.28211572959299 0 -112.28211572959299 -86.478741465336043 0 0 0 0 -52.810642655977915 63.122059921119217 0 63.122059921119217 115.77060437394539 0 0 0 0 4.9037507879455555 23.433020779805304 0 23.433020779805304 -50.24367504892971 0 0 0 0 -484.28053534140508 -131.00416752669116 0 -131.00416752669116 -79.420937387356389 0 0 0 0 -3.2589510134052868 3.5864659065336184 0 3.5864659065336184 -14.224738446047006 0 0 0 0 -154.25571604227542 -226.23257057329283 0 -226.23257057329283 -355.57993230435022 0 0 0 0 -460.8169570984831 -130.45358662455874 0 -130.45358662455874 -13.132393251744361 0 0 0 0 -330.86303669411791 -109.4351041702248 0 -109.4351041702248 -10.629988171560399 0 0 0 0 -304.62521766301245 -73.536166722406051 0 -73.536166722406051 -6.7898708381726465 0 0 0 0 -357.24840625979505 -110.35813455022799 0 -110.35813455022799 24.778775057347957 0 0 0 0 -399.54105875063965 -45.201087659108452 0 -45.201087659108452 -12.805387510165929 0 0 0 0 -162.77288511156257 -135.43046884466276 0 -135.43046884466276 -132.36255934939982 0 0 0 0 -42.813845787183709 -60.23486435200175 0 -60.23486435200175 -96.839598187892534 0 0 0 0 -97.648137043083352 -17.318540381205821 0 -17.318540381205821 -100.52855175614604 0 0 0 0 -50.121065826680478 -39.320024590119829 0 -39.320024590119829 -164.4918798086037 0 0 0 0 9.8232559554558065 -4.3311996007032576 0 -4.3311996007032576 -74.762669605903284 0 0 0 0 -3.9225521936605219 -2.9764312842053187 0 -2.9764312842053187 -133.68830058017193 0 0 0 0 20.187608721365148 15.654144133868868 0 15.654144133868868 -42.094115133150169 0 0 0 0 -8.8043824566502735 -55.170572368702778 0 -55.170572368702778 -124.9296143364154 0 0 0 0 9.8272240706174045 1.9614184120853224 0 1.9614184120853224 -56.814990520302672 0 0 0 0 -11.78395884944257 -43.106876111847669 0 -43.106876111847669 -93.162550093429672 0 0 0 0 23.995854988907716 3.2705537530515585 0 3.2705537530515585 -47.797316793110525 0 0 0 0 10.378788281096149 -9.7899516610523278 0 -9.7899516610523278 -68.596663815242209 0 0 0 0 -79.077950475477877 -36.737529219512226 0 -36.737529219512226 -177.60938916535088 0 0 0 0 -13.008072880419945 63.254659166628699 0 63.254659166628699 -488.75015115725546 0 0 0 0 27.979121572303484 -58.679743663571571 0 -58.679743663571571 -91.821300249757769 0 0 0 0 -56.936732378752964 -42.942519693454415 0 -42.942519693454415 -176.07531761874998 0 0 0 0 -37.264817897244072 -25.920076245868323 0 -25.920076245868323 -31.755244343041085 0 0 0 0 -29.107852898638157 -18.15135173271301 0 -18.15135173271301 -22.630184444889892 0 0 0 0 -36.76067256531951 -117.40218631446623 0 -117.40218631446623 26.312869173783838 0 0 0 0 -26.686988694844999 -19.206439863831619 0 -19.206439863831619 -13.198788160426815 0 0 0 0 -24.885262472411455 -9.0880408485500084 0 -9.0880408485500084 -545.93258899732609 0 0 0 0 -11.144563137667342 -6.204009102663754 0 -6.204009102663754 -4.7410962445432574 0 0 0 0 -387.37108711354858 161.80234025594837 0 161.80234025594837 -26.998059790865227 0 0 0 0 -180.8782229020868 39.336694997304221 0 39.336694997304221 -65.708384510668111 0 0 0 0 -17.068117605097058 -21.14135309825474 0 -21.14135309825474 -65.095435870876827 0 0 0 0 -617.05673288324283 -249.93677856207341 0 -249.93677856207341 -61.786705520491523 0 0 0 0 -422.04357772600451 -108.15706273933029 0 -108.15706273933029 32.15790739424483 0 0 0 0 -764.23467242770573 -678.94895321691592 0 -678.94895321691592 -815.04637201265723 0 0 0 0 -887.32262716596688 -191.02531555298629 0 -191.02531555298629 69.759901021760015 0 0 0 0 -544.12167930190299 -163.02249134402518 0 -163.02249134402518 -191.84600000557839 0 0 0 0 -322.82245427228554 14.189676963098464 0 14.189676963098464 -2014.2407756985922 0 0 0 0 -1026.7783002827171 -601.89463052027804 0 -601.89463052027804 -799.86758013750659 0 0 0 0 -719.62556298338609 569.10174597765399 0 569.10174597765399 -1342.1838656956243 0 0 0 0 -295.20074357707472 -236.05417937108359 0 -236.05417937108359 -632.81800026301426 0 0 0 0 427.14541653410924 -217.77076720794867 0 -217.77076720794867 -807.76812157867971 0 0 0 0 -35.192567682865047 125.69342705176678 0 125.69342705176678 -471.54909569959273 0 0 0 0 -489.07092932527257 -162.37269725774422 0 -162.37269725774422 -209.01394255065679 0 0 0 0 -475.45618676960748 -418.6830774786431 0 -418.6830774786431 -463.24990737200278 0 0 0 0 -50.611909475401717 -453.13259902489881 0 -453.13259902489881 -1219.8673697822305 0 0 0 0 -66.700892480419043 -123.28570128787032 0 -123.28570128787032 -2235.8349003481344 0 0 0 0 -64.167965862413325 87.929687263631422 0 87.929687263631422 -1045.7141626544981 0 0 0 0 39.366938058369271 -105.77999151618496 0 -105.77999151618496 -896.70474043202557 0 0 0 0 -57.360409157541199 11.036290672258474 0 11.036290672258474 -557.96828725952219 0 0 0 0 -24.506271940309617 -330.81844398103294 0 -330.81844398103294 -663.49740475930594 0 0 0 0 28.767589680199478 -153.4399140752721 0 -153.4399140752721 -542.494316164255 0 0 0 0 20.208668624812191 -33.068848011430724 0 -33.068848011430724 -113.62680841693728 0 0 0 0 490.59236691687875 -297.30365798018829 0 -297.30365798018829 -388.25607910156941 0 0 0 0 -0.99795066906727925 -13.866692841198486 0 -13.866692841198486 -36.072746804749272 0 0 0 0 632.00060105900957 289.6684411057322 0 289.6684411057322 5.9865318988922809 0 0 0 0 -1.9175896963388368 9.1748069137388484 0 9.1748069137388484 -371.45980982991568 0 0 0 0 34.81789310886893 -15.317115955643217 0 -15.317115955643217 -25.9282828232753 0 0 0 0 69.289987902080611 -51.204983063640611 0 -51.204983063640611 -505.61634481917918 0 0 0 0 121.25090392489847 -63.943498032674484 0 -63.943498032674484 -153.84224829173581 0 0 0 0 14.783958532922746 -11.013858805465949 0 -11.013858805465949 -106.00950105229147 0 0 0 0 71.871234788864967 -74.236766613563304 0 -74.236766613563304 -70.786677259458202 0 0 0 0 82.453139752131392 -104.04307285768391 0 -104.04307285768391 -138.20853430288628 0 0 0 0 17.150287185451816 29.413251001717981 0 29.413251001717981 -261.86159987007704 0 0 0 0 359.22948555162839 56.277098561572075 0 56.277098561572075 -163.15439742766466 0 0 0 0 285.37789416587032 -185.66234304378372 0 -185.66234304378372 -208.99729763180221 0 0 0 0 726.5388782564994 -249.20540669970023 0 -249.20540669970023 -284.62790346668771 0 0 0 0 -139.62526616124433 -250.61741546687699 0 -250.61741546687699 -103.22754701702797 0 0 0 0 -198.46257262201289 -347.913326736616 0 -347.913326736616 -113.24538667047455 0 0 0 0 182.04186625514217 -249.77117884521795 0 -249.77117884521795 -168.97353441388987 0 0 0 0 169.09452253488053 -171.08698315448055 0 -171.08698315448055 -165.61956946823193 0 0 0 0 -155.21892753798056 -178.09395401489019 0 -178.09395401489019 -33.134868491015368 0 0 0 0 -428.13453903209847 -284.13602886926674 0 -284.13602886926674 -39.943002983898623 0 0 0 0 -212.86497407978823 -224.7857110137702 0 -224.7857110137702 -182.26808789125062 0 0 0 0 -495.26474578694797 -433.84544971010109 0 -433.84544971010109 -336.49412825774198 0 0 0 0 -158.21958457105393 -128.39087743464188 0 -128.39087743464188 -855.79417315972387 0 0 0 0 201.38205347438088 -233.11672593726325 0 -233.11672593726325 2.3129333139731898 0 0 0 0 198.07601339617213 -191.61856239699409 0 -191.61856239699409 -426.77502584792092 0 0 0 0 -147.94710540182859 -259.13821587131315 0 -259.13821587131315 -386.16545975516055 0 0 0 0 756.52156763226958 121.21046631145873 0 121.21046631145873 -456.76304684845309 0 0 0 0 303.67886678292001 -106.01507628887055 0 -106.01507628887055 -535.58928801385628 0 0 0 0 307.27900851551954 -9.1802630464546837 0 -9.1802630464546837 -846.45601928963151 0 0 0 0 -115.91710399068143 48.879833193605009 0 48.879833193605009 -682.21223699234542 0 0 0 0 310.50424407972059 186.96752461019059 0 186.96752461019059 -1110.9608631908195 0 0 0 0 292.17921851785491 85.947225067454383 0 85.947225067454383 -534.26420934096677 0 0 0 0 801.7090096060092 -81.341792405437445 0 -81.341792405437445 -794.72676488664001 0 0 0 0 -307.73355649332734 -197.90151211009652 0 -197.90151211009652 -887.24221383971235 0 0 0 0 -27.365080534871822 151.11368299821243 0 151.11368299821243 -1653.7496459355461 0 0 0 0 437.15584454044256 -442.12887714712997 0 -442.12887714712997 -337.800744174805 0 0 0 0 -1.4179397656168078 -1.0204205952684333 0 -1.0204205952684333 -2.2402522793937578 0 0 0 0 -716.49950108011399 1103.0200244118751 0 1103.0200244118751 -1247.786452057373 0 0 0 0 101.89981802336661 -185.38709700448817 0 -185.38709700448817 81.039229486479599 0 0 0 0 -589.98800381948513 524.53042205518796 0 524.53042205518796 -494.04503853521601 0 0 0 0 -70.562190088010539 263.57591833394326 0 263.57591833394326 -467.34821138788539 0 0 0 0 104.05790325048292 455.47863198595223 0 455.47863198595223 -385.3690871726867 0 0 0 0 496.77238624441816 251.43649680123781 0 251.43649680123781 -588.44781730396789 0 0 0 0 529.01340714973048 329.84586916711123 0 329.84586916711123 -434.40579722721304 0 0 0 0 749.39030556763828 421.18767483153715 0 421.18767483153715 -238.36028259118029 0 0 0 0 419.02944844389276 209.12410341808572 0 209.12410341808572 -364.05044063609967 0 0 0 0 406.69599155415926 169.02676915415213 0 169.02676915415213 -475.81027009162062 0 0 0 0 272.89746808820928 -180.16804830510955 0 -180.16804830510955 -488.99268678267617 0 0 0 0 735.60535318576149 -5.7642332402829197 0 -5.7642332402829197 -647.57713237678399 0 0 0 0 984.82763758544752 125.1006764433987 0 125.1006764433987 -599.10044794071291 0 0 0 0 753.27401029982138 -275.06178770525366 0 -275.06178770525366 -470.31062194275728 0 0 0 0 612.58505458111904 113.2353633559469 0 113.2353633559469 -698.6740153065839 0 0 0 0 711.28097169471584 -246.39967340300063 0 -246.39967340300063 -61.821471472134363 0 0 0 0 19.120006640445748 -26.532135529485746 0 -26.532135529485746 -111.51156183580471 0 0 0 0 1335.8647961527222 -63.566245233352674 0 -63.566245233352674 -741.73409433026973 0 0 0 0 863.03041853174182 68.172198860491335 0 68.172198860491335 -577.65348685970821 0 0 0 0 855.21136442961142 -81.560522947445861 0 -81.560522947445861 -639.02402452919341 0 0 0 0 -5.1610451026754163 44.310751983084174 0 44.310751983084174 -563.34699146276853 0 0 0 0 3.7232911929822876 -44.605967263890307 0 -44.605967263890307 -666.72377376419468 0 0 0 0 -61.924471369926678 -51.918196395285491 0 -51.918196395285491 10.194595319417697 0 0 0 0 -327.04782578522645 -216.96714555612562 0 -216.96714555612562 -145.52554807958586 0 0 0 0 -96.949955751872039 -311.20627320959466 0 -311.20627320959466 -108.08504683159845 0 0 0 0 22.777080142430236 2.8291857473382152 0 2.8291857473382152 -623.36039212637115 0 0 0 0 116.93920348245047 58.923594627769489 0 58.923594627769489 -837.94022872699134 0 0 0 0 4.1086235089067014 27.449206856509957 0 27.449206856509957 1.519752567428867 0 0 0 0 -394.32209557177544 -658.94564312149441 0 -658.94564312149441 -1048.1592145553441 0 0 0 0 21.719324669410447 6.5492804597455461 0 6.5492804597455461 -144.66892915849712 0 0 0 0 14.308403239648472 2.4537865110082997 0 2.4537865110082997 -86.455070101168786 0 0 0 0 29.403067526316534 -1.5997184709540306 0 -1.5997184709540306 -84.392089474145905 0 0 0 0 19.533007901752171 0.64874480691287317 0 0.64874480691287317 -75.84317935726358 0 0 0 0 191.40352131697 -174.19898420218669 0 -174.19898420218669 -650.26029375564394 0 0 0 0 16.153630406430509 11.515886157650385 0 11.515886157650385 -28.012709249901498 0 0 0 0 140.11535034940971 -13.508306992793223 0 -13.508306992793223 -590.04715585155827 0 0 0 0 465.68605871620093 -35.908914347361133 0 -35.908914347361133 -819.29352750261023 0 0 0 0 539.02343030268639 103.52225413975611 0 103.52225413975611 -708.306391465856 0 0 0 0 159.0160332531068 141.02329368390929 0 141.02329368390929 -575.79448272538139 0 0 0 0 314.97398484110454 227.39938568730577 0 227.39938568730577 -591.62530990192317 0 0 0 0 -56.290119982371834 387.53279247584578 0 387.53279247584578 -479.2900182657695 0 0 0 0 231.15506812637068 47.606328017187479 0 47.606328017187479 -35.098940916024731 0 0 0 0 2.8541612469851838 0.31241888263370043 0 0.31241888263370043 -12.42748907319114 0 0 0 0 -203.54593436837422 345.32044700923143 0 345.32044700923143 -482.08044810535648 0 0 0 0 -146.07503402669681 126.37293051800953 0 126.37293051800953 -575.4764354509831 0 0 0 0 107.84605480861455 156.67451539701324 0 156.67451539701324 29.687749983742833 0 0 0 0 -26.235510803793659 70.859543852689967 0 70.859543852689967 10.226601934889914 0 0 0 0 -149.59488206567676 73.227954837242578 0 73.227954837242578 59.314972231673892 0 0 0 0 103.69056188316458 51.751006657302355 0 51.751006657302355 -9.8707439343124861 0 0 0 0 1.9699826413984791 0.58638325968927063 0 0.58638325968927063 -0.25585723825184203 0 0 0 0 106.42693084205783 113.2237956144935 0 113.2237956144935 -10.51724179489247 0 0 0 0 8.0483011766773416 -3.4679589489060163 0 -3.4679589489060163 -88.931506855347834 0 0 0 0 6.6518066462386081 0.20222103314432616 0 0.20222103314432616 -10.561732697825711 0 0 0 0 68.098106645987627 -76.538792840131464 0 -76.538792840131464 -139.53169043759044 0 0 0 0 10.778780706289579 -16.840576434977876 0 -16.840576434977876 -52.256906204559414 0 0 0 0 29.330608891418144 -7.181872754185477 0 -7.181872754185477 -14.049249678451392 0 0 0 0 0.14360066078370437 34.022294712143776 0 34.022294712143776 -194.97769642310504 0 0 0 0 31.585720037636747 111.36001802117971 0 111.36001802117971 -111.34712788484467 0 0 0 0 -54.711234930018691 4.5599815251043765 0 4.5599815251043765 40.66178471778403 0 0 0 0 -62.093457806508923 -42.42485874666454 0 -42.42485874666454 -216.38462626959517 0 0 0 0 136.1178636451391 -20.134682187483122 0 -20.134682187483122 -151.52666570268048 0 0 0 0 37.867272427344687 -138.77260392618336 0 -138.77260392618336 -153.71814021928003 0 0 0 0 -116.40579893130644 -79.943090537351964 0 -79.943090537351964 -138.94632621653727 0 0 0 0 0.2028094692200284 -13.795219092309708 0 -13.795219092309708 7.7400482020075287 0 0 0 0 -1.4228791745302347 -1.7871132784610069 0 -1.7871132784610069 0.70494819989545476 0 0 0 0 -16.109531625880209 -53.163604840072367 0 -53.163604840072367 -44.817109206043824 0 0 0 0 80.313770297636211 -59.029644429134351 0 -59.029644429134351 -374.55297231185978 0 0 0 0 8.2258304317179913 -3.887941150489894 0 -3.887941150489894 1.8517119094938295 0 0 0 0 -0.38004637281756004 -152.15634810469601 0 -152.15634810469601 -396.7473408576916 0 0 0 0 -0.98043330714059529 -0.32666962526533894 0 -0.32666962526533894 -2.9209331647806351 0 0 0 0 89.500917939280953 54.120882497882121 0 54.120882497882121 -65.490199998690514 0 0 0 0 6.5615620415974263 -25.41744755631953 0 -25.41744755631953 -58.487099523186771 0 0 0 0 -104.82736253969415 45.714110046712449 0 45.714110046712449 -36.319372736630612 0 0 0 0 9.2754271388996941 -6.4851438262160173 0 -6.4851438262160173 -15.264064541721865 0 0 0 0 23.876682371381321 26.56583912455244 0 26.56583912455244 -71.584975676276372 0 0 0 0 9.2740257812329219 -58.502570501063019 0 -58.502570501063019 6.5215589042782085 0 0 0 0 6.8243190617866958 -69.810983468971017 0 -69.810983468971017 100.10352883829182 0 0 0 0 -20.075846232340009 -51.214589590901035 0 -51.214589590901035 -14.450880558915543 0 0 0 0 33.701421376012377 -43.586051712928295 0 -43.586051712928295 -116.12180735367247 0 0 0 0 43.858080292739032 -82.91091046002839 0 -82.91091046002839 2.8244599777972326 0 0 0 0 53.118395891859109 -90.231278752020444 0 -90.231278752020444 -67.139593835043343 0 0 0 0 -0.99671927583687392 -42.419582362558444 0 -42.419582362558444 -58.732743528790976 0 0 0 0 -15.505828073212932 -57.777651859827998 0 -57.777651859827998 10.083199665764212 0 0 0 0 44.901780842181324 -5.815367820308893 0 -5.815367820308893 -143.71999856816547 0 0 0 0 3.5325003287970915 -3.5414006270650731 0 -3.5414006270650731 -11.845909220836475 0 0 0 0 14.29119173558313 -10.723440826216944 0 -10.723440826216944 -100.89799974720063 0 0 0 0 27.158811699046236 -25.1111343417302 0 -25.1111343417302 -86.545529297575399 0 0 0 0 5.1988097210196429 -58.40379617412691 0 -58.40379617412691 -38.988475839931198 0 0 0 0 19.610657555990656 -4.1918503550987225 0 -4.1918503550987225 -79.943597193123423 0 0 0 0 42.174686629195016 -22.659662504693856 0 -22.659662504693856 -102.74354813580607 0 0 0 0 4.2619494174323336 -132.66690684127661 0 -132.66690684127661 -156.15626372534871 0 0 0 0 17.911580205531724 1.8087974153630579 0 1.8087974153630579 -65.993819145487066 0 0 0 0 70.496461038937923 -323.45153941951867 0 -323.45153941951867 -201.92506677945494 0 0 0 0 21.505087916505449 -15.660935745355779 0 -15.660935745355779 -83.350999034601585 0 0 0 0 21.531302625952961 -0.85493217921050757 0 -0.85493217921050757 -47.330316816818183 0 0 0 0 24.326540185946669 -5.6401560511230855 0 -5.6401560511230855 -94.599207792303787 0 0 0 0 158.92378348597867 34.356545836017176 0 34.356545836017176 -295.98463843048376 0 0 0 0 58.056604636997349 -118.49778261432948 0 -118.49778261432948 -499.23475183075425 0 0 0 0 -7.8176517785220767 -277.40517749996798 0 -277.40517749996798 -527.88147992241647 0 0 0 0 8.2747652577561439 -309.63119723124692 0 -309.63119723124692 -654.66165471575732 0 0 0 0 7.5160516015282184 -7.6980596254333307 0 -7.6980596254333307 -0.4886198016206138 0 0 0 0 -139.1291460286692 -145.81401869514593 0 -145.81401869514593 -104.09100620439131 0 0 0 0 -103.41361020485488 -44.560608477750066 0 -44.560608477750066 99.314072528308316 0 0 0 0 -35.314102885043212 -122.22067875443099 0 -122.22067875443099 -220.20499351328908 0 0 0 0 -229.03811959475706 -273.11913197501417 0 -273.11913197501417 -257.34903659256088 0 0 0 0 -99.43498341202303 -208.26603593130858 0 -208.26603593130858 -399.1391916731518 0 0 0 0 -274.80975304881758 -90.587960513408689 0 -90.587960513408689 -75.060392551182304 0 0 0 0 6.42464749447754 42.381487439677585 0 42.381487439677585 -200.83193599868628 0 0 0 0 17.679976823163067 -7.9647302235122197 0 -7.9647302235122197 1.8179290641017412 0 0 0 0 27.046009224852241 204.095785270958 0 204.095785270958 188.82699042242166 0 0 0 0 139.74962685585706 38.679849335552717 0 38.679849335552717 -86.23566750850523 0 0 0 0 205.35677462932654 117.69221003324492 0 117.69221003324492 64.619206156372456 0 0 0 0 -11.927545497803749 86.586289771730662 0 86.586289771730662 -48.263862420353689 0 0 0 0 -5.5930307859302957 15.242067792423768 0 15.242067792423768 20.195766128143305 0 0 0 0 63.756322153250082 -10.066909961920828 0 -10.066909961920828 -114.9825470035139 0 0 0 0 63.114282047935376 -15.338200449114083 0 -15.338200449114083 -125.0125700411736 0 0 0 0 51.067412367941415 -84.686753002788464 0 -84.686753002788464 -187.35797258235107 0 0 0 0 3.0797034827181733 68.167806702465896 0 68.167806702465896 -228.51334840031632 0 0 0 0 64.874510843073494 -46.618975916884665 0 -46.618975916884665 -88.475012962415349 0 0 0 0 103.70506388156241 -83.336282774871506 0 -83.336282774871506 -131.52697044554952 0 0 0 0 98.322235475792297 -67.359483853040729 0 -67.359483853040729 -113.0070285978145 0 0 0 0 93.779473071180973 -73.248108928004513 0 -73.248108928004513 -120.5012856488861 0 0 0 0 62.221645222882536 -47.371979674471781 0 -47.371979674471781 -57.454846761313092 0 0 0 0 62.24542150950731 -40.092771713101683 0 -40.092771713101683 -66.789092730905395 0 0 0 0 22.30148670161384 -90.012149016169133 0 -90.012149016169133 82.959672069403155 0 0 0 0 84.668083195735335 -107.69320868014256 0 -107.69320868014256 -74.680607226342545 0 0 0 0 84.810845687483777 -119.13757343123871 0 -119.13757343123871 -156.24333905466483 0 0 0 0 -82.578575287416015 -144.32955373723235 0 -144.32955373723235 -3.7442519158212235 0 0 0 0 33.28161261040367 -119.29143084687166 0 -119.29143084687166 -40.858175026165554 0 0 0 0 33.301510320260604 -164.98226889497164 0 -164.98226889497164 -222.44855894947432 0 0 0 0 42.999255240455227 -10.883240574250522 0 -10.883240574250522 75.924197883599845 0 0 0 0 51.022116587710343 -123.03086648245153 0 -123.03086648245153 -40.232116217695875 0 0 0 0 -30.313478688581313 230.14014432868134 0 230.14014432868134 -285.12995816008788 0 0 0 0 61.726089955763484 43.868070937398443 0 43.868070937398443 -312.47237991391739 0 0 0 0 28.841008346143838 101.77615653923203 0 101.77615653923203 -413.98094009960187 0 0 0 0 -15.178394129758615 -123.64961458903917 0 -123.64961458903917 -336.68237294735445 0 0 0 0 34.807157923620366 -50.027531651547179 0 -50.027531651547179 -233.78864205764103 0 0 0 0 59.276679699635423 -110.19519200115246 0 -110.19519200115246 -217.53693844015652 0 0 0 0 90.851948121896385 -68.657521809713216 0 -68.657521809713216 -163.01114327417963 0 0 0 0 96.590294374916255 -83.676641337609908 0 -83.676641337609908 -129.52465731873235 0 0 0 0 127.57289585004833 -19.971863689421298 0 -19.971863689421298 -205.84093995092553 0 0 0 0 81.018025849754395 6.0282443712676468 0 6.0282443712676468 -79.264963242392696 0 0 0 0 189.31143166380548 129.89527588744022 0 129.89527588744022 -269.19726599183923 0 0 0 0 65.891821754746047 59.369467633543536 0 59.369467633543536 -267.19171700780862 0 0 0 0 133.01635537576749 226.92148176131013 0 226.92148176131013 104.25442044765487 0 0 0 0 1.1341117864931229 -0.72505579106706364 0 -0.72505579106706364 0.41323307303341039 0 0 0 0 188.16458510061204 200.05527268233345 0 200.05527268233345 9.9590510104135319 0 0 0 0 108.99964297174699 45.384655018053309 0 45.384655018053309 120.20548057944688 0 0 0 0 162.844058934445 47.995497521042125 0 47.995497521042125 -156.11103041081515 0 0 0 0 117.9371470005334 -28.50068204452873 0 -28.50068204452873 -78.196761250743293 0 0 0 0 132.784286664913 -35.973948188468057 0 -35.973948188468057 -127.61388953140704 0 0 0 0 83.585053879977579 40.546865864385836 0 40.546865864385836 6.4380778005070169 0 0 0 0 4.3446615852656612 -2.2899558048833626 0 -2.2899558048833626 0.64858639470631374 0 0 0 0 114.02033040032302 -6.7388856304314686 0 -6.7388856304314686 -37.453978061101225 0 0 0 0 99.870941935913834 -7.0439504044115893 0 -7.0439504044115893 -35.008238608985266 0 0 0 0 78.974943685869789 -42.266136017031386 0 -42.266136017031386 -90.534596335157403 0 0 0 0 21.041525577512061 2.3019742918768316 0 2.3019742918768316 16.044018315442372 0 0 0 0 -19.483466338433573 -69.789663716634095 0 -69.789663716634095 -112.56045040162462 0 0 0 0 -91.925397486162638 -120.04433384454751 0 -120.04433384454751 -124.9156397399056 0 0 0 0 -5.1112735076558238 -41.923967768954753 0 -41.923967768954753 -121.89613450756224 0 0 0 0 43.293648903896155 -126.69846902044446 0 -126.69846902044446 -155.31065900388057 0 0 0 0 26.19826127039596 -140.30336787582746 0 -140.30336787582746 -47.032891036869842 0 0 0 0 1.3122773478280578 -34.911581326683518 0 -34.911581326683518 -112.71874647123968 0 0 0 0 -16.983018845510742 -116.45359893322166 0 -116.45359893322166 -107.07914141041692 0 0 0 0 -17.411458071951643 -122.65227126758055 0 -122.65227126758055 -192.29877487852355 0 0 0 0 -0.29929816967887746 -50.29517666506581 0 -50.29517666506581 -220.68624741165695 0 0 0 0 -24.516987049046975 48.327887477325021 0 48.327887477325021 -305.91511410370003 0 0 0 0 -46.072296674626614 -13.179795098061732 0 -13.179795098061732 -171.4572210937331 0 0 0 0 11.075656680227439 -9.9761334001668729 0 -9.9761334001668729 -207.11450823099585 0 0 0 0 32.915534876588936 -36.619458167697303 0 -36.619458167697303 -150.06632575378171 0 0 0 0 16.672823052484091 14.161638712830609 0 14.161638712830609 -110.39956378807256 0 0 0 0 48.709786017227998 10.938710273178003 0 10.938710273178003 -123.51402077688545 0 0 0 0 10.0449040894581 85.80183605723596 0 85.80183605723596 -43.692300353082828 0 0 0 0 -0.87253839413901524 0.43335188039675643 0 0.43335188039675643 -0.91030688756429523 0 0 0 0 -95.419161783886011 148.61963394408667 0 148.61963394408667 170.83640427909995 0 0 0 0 349.7286915586792 -222.25808591420355 0 -222.25808591420355 -1382.2723956919872 0 0 0 0 -76.936539359183371 321.1288682166487 0 321.1288682166487 -53.325945564924041 0 0 0 0 -80.662854526415231 359.81596299737794 0 359.81596299737794 -265.45439340881421 0 0 0 0 -36.209331947018086 160.0823181139549 0 160.0823181139549 -342.17571218832745 0 0 0 0 -34.198513626490239 135.72912987686868 0 135.72912987686868 -55.900956413366202 0 0 0 0 9.0315878050860761 70.9133220310664 0 70.9133220310664 -166.17302635702072 0 0 0 0 -26.130208220510212 51.314432106824825 0 51.314432106824825 -136.86689792458492 0 0 0 0 -16.731628961243587 99.272224392983844 0 99.272224392983844 -629.18104160997609 0 0 0 0 -398.63455932602574 674.75877996817871 0 674.75877996817871 -659.71417978272802 0 0 0 0 23.533798650243853 300.68160994988102 0 300.68160994988102 -733.90333075704984 0 0 0 0 -73.410488694952619 93.453114897565683 0 93.453114897565683 -257.85743520347023 0 0 0 0 -15.360981404738027 -23.25660417182371 0 -23.25660417182371 -439.49630765567781 0 0 0 0 -2.5402218446990812 -1.284991749728178 0 -1.284991749728178 -1.5300972297015392 0 0 0 0 -92.507548766294349 22.532938656839178 0 22.532938656839178 -348.92640751243744 0 0 0 0 -82.506335136367738 -142.27566589022854 0 -142.27566589022854 -302.71748235492123 0 0 0 0 -56.113450423634276 -40.664575425927978 0 -40.664575425927978 -239.89697392877133 0 0 0 0 -75.611287214496997 245.53058009210145 0 245.53058009210145 -277.40398049028227 0 0 0 0 13.466332756559154 84.64851187459135 0 84.64851187459135 -170.95178489310638 0 0 0 0 -21.762546296857465 195.35845685814274 0 195.35845685814274 -503.43236900056945 0 0 0 0 26.22295043600343 25.129393262111989 0 25.129393262111989 -528.53151121218161 0 0 0 0 -67.38164663568142 210.10359156906998 0 210.10359156906998 -256.62945119656797 0 0 0 0 -80.535089684193167 213.11394135838782 0 213.11394135838782 -205.74067049016048 0 0 0 0 -123.82819542548978 -50.780633570357168 0 -50.780633570357168 -277.04354304179651 0 0 0 0 -53.256644956271543 243.2193197789893 0 243.2193197789893 -285.56463462777901 0 0 0 0 -0.29864198734124159 216.9801890837407 0 216.9801890837407 -286.85346985094657 0 0 0 0 -42.933874394995769 212.53267616402445 0 212.53267616402445 -259.40932544843963 0 0 0 0 -35.748339223237849 224.69543253626762 0 224.69543253626762 -281.91790829232195 0 0 0 0 17.297344022057587 -7.2104570480296388 0 -7.2104570480296388 -89.712087845116912 0 0 0 0 26.581857522189239 7.5025491603992123 0 7.5025491603992123 -66.480263890332935 0 0 0 0 -1.6404650538466967 -6.8812758920284978 0 -6.8812758920284978 -43.435931482104934 0 0 0 0 0.41914805719315096 -10.995141540545998 0 -10.995141540545998 -43.417204766483053 0 0 0 0 -35.823144441982549 -30.642186224131365 0 -30.642186224131365 -35.622278053400805 0 0 0 0 -24.57616041629808 -39.062406239412667 0 -39.062406239412667 -43.85589810062811 0 0 0 0 4.1594200451748904 -9.1008826572282437 0 -9.1008826572282437 -57.698055612446268 0 0 0 0 4.9799633741858997 -20.801810851316986 0 -20.801810851316986 -133.57256143879204 0 0 0 0 7.6231846064820274 3.0805059795425223 0 3.0805059795425223 -73.695554473080847 0 0 0 0 20.134626386116565 -24.428622095711489 0 -24.428622095711489 -65.646523011513636 0 0 0 0 6.0655370203239727 -22.663471659201605 0 -22.663471659201605 -52.09784510211648 0 0 0 0 5.5322033263565231 -15.413296891396612 0 -15.413296891396612 -74.104501959111076 0 0 0 0 2.1747934868385528 -31.130173660614673 0 -31.130173660614673 -65.761004337662598 0 0 0 0 0.82151182146571955 -24.719987180700628 0 -24.719987180700628 -84.146872075703868 0 0 0 0 6.8006436453856622 -33.557305451024149 0 -33.557305451024149 -226.90971245575201 0 0 0 0 0.8804681293558545 -0.73575092493103966 0 -0.73575092493103966 0.30864104528666303 0 0 0 0 -0.5288192506377527 -96.24063188132277 0 -96.24063188132277 62.222420449426863 0 0 0 0 -9.6572929195467623 -17.330686684130342 0 -17.330686684130342 -64.473998883462627 0 0 0 0 -12.897684806071993 -4.7221665049946751 0 -4.7221665049946751 -77.740499954084044 0 0 0 0 25.532308342276792 -7.3412213694173261 0 -7.3412213694173261 -38.276329434942454 0 0 0 0 38.227275888823897 14.602778841719555 0 14.602778841719555 -39.966015592231997 0 0 0 0 35.05171679992236 13.939288721285266 0 13.939288721285266 5.8864536025939742 0 0 0 0 40.652189042958071 -9.8136179158536834 0 -9.8136179158536834 -60.282467489494593 0 0 0 0 54.248705309722027 1.2882696482702158 0 1.2882696482702158 -54.576787503727246 0 0 0 0 53.818270227311586 -3.6339115455848514 0 -3.6339115455848514 -98.845353696553502 0 0 0 0 51.286616596737076 30.063024990769918 0 30.063024990769918 -58.611287999301567 0 0 0 0 -36.603113486034999 -30.766810638648167 0 -30.766810638648167 -1429.8130154088904 0 0 0 0 12.472474308618985 13.667554700739856 0 13.667554700739856 50.303080454228621 0 0 0 0 48.747690953270649 11.441187200383865 0 11.441187200383865 -38.300344513714663 0 0 0 0 48.353799141164927 15.598584779232624 0 15.598584779232624 -55.011399010244986 0 0 0 0 38.616350127856549 24.342907049413043 0 24.342907049413043 -61.63135946643888 0 0 0 0 110.65877392328366 229.02301656629425 0 229.02301656629425 -1181.6847850565568 0 0 0 0 -2.5323426316101703 3.634996337674977 0 3.634996337674977 -1.1332782101188723 0 0 0 0 -7.3640789451958426 -15.112051052168681 0 -15.112051052168681 -40.051453509164276 0 0 0 0 -0.4943934852935854 11.513914611161454 0 11.513914611161454 -39.423154125055589 0 0 0 0 131.32346416729342 25.918776100115792 0 25.918776100115792 -780.84972019390216 0 0 0 0 1.0408832911080026 -11.235423788366461 0 -11.235423788366461 -57.094282470934559 0 0 0 0 -5.5935259934576607 -4.487219578895747 0 -4.487219578895747 -38.256540457929077 0 0 0 0 -5.1724436906639752 3.253242378800195 0 3.253242378800195 -5.1209852049341151 0 0 0 0 1.2984282428087681 -15.10349437662444 0 -15.10349437662444 -25.99084012304229 0 0 0 0 3.7985478830380615 -2.1208863750139813 0 -2.1208863750139813 -7.8967725511376727 0 0 0 0 14.949173026328936 -21.374628116253007 0 -21.374628116253007 -104.48198894161033 0 0 0 0 0.38225353421375274 -1.2383500513798538 0 -1.2383500513798538 -9.3143411928442532 0 0 0 0 -48.879403013510455 -6.4748829177005973 0 -6.4748829177005973 -39.172895813302603 0 0 0 0 -71.460569302671502 -27.793496018781298 0 -27.793496018781298 43.37406582181211 0 0 0 0 -1.2541851768229568 -7.8801665862268635 0 -7.8801665862268635 -30.56597813564693 0 0 0 0 29.743538501694275 8.2632944243632664 0 8.2632944243632664 -59.714469973660016 0 0 0 0 -21.634346479956662 -3.3898643977335041 0 -3.3898643977335041 -2.5318631280874033 0 0 0 0 -4.6553590486512855 0.09422370539144076 0 0.09422370539144076 -0.65274595663294122 0 0 0 0 -130.88568948545435 -103.01929909206956 0 -103.01929909206956 -15.04419823801436 0 0 0 0 31.761217382158065 37.080764658265252 0 37.080764658265252 -84.796112873125821 0 0 0 0 -5.8891951985524429 10.964431838607197 0 10.964431838607197 38.552976214199589 0 0 0 0 -12.728290991525416 -1.1648469269569119 0 -1.1648469269569119 -0.17823921724705016 0 0 0 0 22.555393576337337 -4.3044472424408013 0 -4.3044472424408013 -539.50682369708625 0 0 0 0 9.6921731459169678 -51.492883240487572 0 -51.492883240487572 30.442267141630509 0 0 0 0 11.373840315103735 -49.034260364533111 0 -49.034260364533111 -45.857152457880147 0 0 0 0 -34.085519433363515 -73.618838590467931 0 -73.618838590467931 -56.802688892916194 0 0 0 0 -30.119363387995691 -39.127521909256757 0 -39.127521909256757 -23.417465867182727 0 0 0 0 -106.78162798199264 -40.683304318779847 0 -40.683304318779847 -23.210647426582909 0 0 0 0 37.390837018447655 -51.570443312244606 0 -51.570443312244606 96.347191568856942 0 0 0 0 38.051316011629751 -63.704750326898647 0 -63.704750326898647 -631.58919684386819 0 0 0 0 -3.9055083749865265 0.26708432895416934 0 0.26708432895416934 -0.48008978160479598 0 0 0 0 4.8645975614613235 -33.010187105904265 0 -33.010187105904265 87.250732174477889 0 0 0 0 2.777233611279371 -4.7915516786088119 0 -4.7915516786088119 7.8248036720906384 0 0 0 0 47.405551165184988 -57.581481596695085 0 -57.581481596695085 -3.7561894720347482 0 0 0 0 99.973087375174288 -214.25186512037794 0 -214.25186512037794 158.69275157627271 0 0 0 0 110.65800113645128 -111.0721620962322 0 -111.0721620962322 41.420615264438311 0 0 0 0 30.79509580019112 -81.570533946836804 0 -81.570533946836804 -0.41789826629337767 0 0 0 0 65.061279613380975 -103.07434243332682 0 -103.07434243332682 -27.699740722331626 0 0 0 0 7.7797933964516748 -34.143218865242055 0 -34.143218865242055 -60.246664956121521 0 0 0 0 23.119818655555264 -45.702009244517285 0 -45.702009244517285 -42.821278048366366 0 0 0 0 5.5767158724780375 -33.849941813622905 0 -33.849941813622905 -38.20157423995056 0 0 0 0 -16.473301347328515 -49.704850638793687 0 -49.704850638793687 -97.931797030245889 0 0 0 0 -45.257338975065068 -50.506630667139689 0 -50.506630667139689 -18.773283309266844 0 0 0 0 -26.87967595448572 -43.198614252745756 0 -43.198614252745756 -50.367720306669071 0 0 0 0 -8.5479794296588807 -65.290617007405672 0 -65.290617007405672 -24.354881374765682 0 0 0 0 19.387326097843925 -55.861707337234293 0 -55.861707337234293 -44.909180823378847 0 0 0 0 37.154343430812332 -72.525944752102077 0 -72.525944752102077 -50.371365033985057 0 0 0 0 11.810041164155336 -83.292749768217618 0 -83.292749768217618 -46.007368241880613 0 0 0 0 28.389367280957231 -33.154128967646102 0 -33.154128967646102 -158.15917969277871 0 0 0 0 10.99063271566456 -74.47646010097651 0 -74.47646010097651 -118.44013501916197 0 0 0 0 -1.9097771740598546 -41.818786095835094 0 -41.818786095835094 -50.358827828293215 0 0 0 0 3.7837344299532525 -55.8000081952895 0 -55.8000081952895 -41.152210169117716 0 0 0 0 0.75593460460520845 -0.76025948017345968 0 -0.76025948017345968 -12.259526827987386 0 0 0 0 -6.8465476930359728 -108.99376236475428 0 -108.99376236475428 -95.420663159047763 0 0 0 0 4.9095505748518917 -93.70884802841465 0 -93.70884802841465 102.76920561625229 0 0 0 0 -0.42498866539608571 -91.897883974493652 0 -91.897883974493652 -67.520472590214922 0 0 0 0 10.617801640741462 -0.99155616977596495 0 -0.99155616977596495 -31.634245269892006 0 0 0 0 -98.266511608482688 973.5943286642505 0 973.5943286642505 -1073.2634412906846 0 0 0 0 14.718308581882411 -174.05263761940478 0 -174.05263761940478 -149.50397260832028 0 0 0 0 -2.960795421020066 -141.7767536776455 0 -141.7767536776455 -51.269166629760548 0 0 0 0 24.059925580362908 21.462470776141338 0 21.462470776141338 -49.385788069401912 0 0 0 0 -5.0530520755937687 -195.33929559009812 0 -195.33929559009812 -86.002465499007485 0 0 0 0 1.3762184162015449 -0.78973890765254495 0 -0.78973890765254495 -12.840150236183845 0 0 0 0 -58.044267479225937 -189.45493373587578 0 -189.45493373587578 -192.71777445629414 0 0 0 0 1999.6276067752292 -1326.3242914255229 0 -1326.3242914255229 -3418.9270998567754 0 0 0 0 -7.5296936216727577 -7.0868268628926669 0 -7.0868268628926669 -9.24777575764322 0 0 0 0 -127.02992379519219 520.02042141584297 0 520.02042141584297 -845.49042918053419 0 0 0 0 -4.2015254637294319 -170.25198099366702 0 -170.25198099366702 -0.23409955797637849 0 0 0 0 -286.70579812879657 254.54245179746522 0 254.54245179746522 -283.67179346186458 0 0 0 0 60.413437569648522 -101.2239046772811 0 -101.2239046772811 -53.884622608513382 0 0 0 0 31.996449634649359 -45.837623633638877 0 -45.837623633638877 -47.372869610551788 0 0 0 0 92.823264185964035 -66.899897738186496 0 -66.899897738186496 28.921750531431599 0 0 0 0 -1.8895241401513232 -69.333018154084414 0 -69.333018154084414 69.314303761985684 0 0 0 0 -14.762820808462601 -35.700416393015857 0 -35.700416393015857 -9.6523060403583543 0 0 0 0 0.015080978580954252 -0.77939401946878206 0 -0.77939401946878206 -172.63189398317263 0 0 0 0 -1.097213523678704 -12.033563037635645 0 -12.033563037635645 -196.57989223450386 0 0 0 0 7.2613695655536503 16.393501972882405 0 16.393501972882405 -193.87326350316391 0 0 0 0 13.989037295540584 33.256683818916827 0 33.256683818916827 -158.80380817475725 0 0 0 0 -27.739456662362272 -49.571037795089978 0 -49.571037795089978 -185.15993874501328 0 0 0 0 25.364547989508083 -46.99968240754697 0 -46.99968240754697 -186.40952713272418 0 0 0 0 0.42299257955821323 0.94327580767777164 0 0.94327580767777164 1.4050450794766898 0 0 0 0 1.433368835228884 0.66160905069042997 0 0.66160905069042997 -0.55066050959964485 0 0 0 0 28.506625812499578 -27.999486090402115 0 -27.999486090402115 -274.10377122598584 0 0 0 0 -62.608482921949502 24.470263144205092 0 24.470263144205092 -324.68404743044721 0 0 0 0 106.39989409582267 10.144817085396426 0 10.144817085396426 -365.3723636472896 0 0 0 0 43.068577409446789 31.006518953590785 0 31.006518953590785 -331.87427208574445 0 0 0 0 -4.5087312460746034 -5.8645489990612987 0 -5.8645489990612987 -100.21735038644692 0 0 0 0 19.26797163835846 9.6555937871944479 0 9.6555937871944479 -95.068346926131653 0 0 0 0 18.426421519776554 -11.280882954722983 0 -11.280882954722983 -103.11971292186354 0 0 0 0 28.701425948400534 10.493557671629333 0 10.493557671629333 -126.86369870746785 0 0 0 0 12.735446457144548 29.254853998234534 0 29.254853998234534 -31.573474717149473 0 0 0 0 -11.908738162442489 12.687735691486694 0 12.687735691486694 -131.10647880805573 0 0 0 0 1.0240704329921897 -50.435087170735187 0 -50.435087170735187 -210.79575549681067 0 0 0 0 12.225236073157816 13.931651911349036 0 13.931651911349036 -116.33267011191083 0 0 0 0 -21.094799495141388 -6.1619491589922291 0 -6.1619491589922291 -120.96636075290644 0 0 0 0 19.239491276139006 -23.884249425239432 0 -23.884249425239432 -169.92812586656328 0 0 0 0 34.877688655002423 49.526376801687562 0 49.526376801687562 -44.362807541162198 0 0 0 0 -7.037278199366483 -4.1856558698482331 0 -4.1856558698482331 -101.72114082323048 0 0 0 0 13.573141926094497 30.094892140209815 0 30.094892140209815 -29.626832962918709 0 0 0 0 -2.9212925977785744 -4.4713944864988662 0 -4.4713944864988662 -126.28464831833608 0 0 0 0 72.78061000028697 4.8741576035254184 0 4.8741576035254184 -195.73080742975981 0 0 0 0 30.296487139212815 -17.817156940914515 0 -17.817156940914515 -153.39070235975305 0 0 0 0 36.428704740064838 21.69609428564371 0 21.69609428564371 -149.40391345393436 0 0 0 0 22.763268496291744 -16.330096165579562 0 -16.330096165579562 -85.822675642774357 0 0 0 0 4.298797413634702 45.993152969488619 0 45.993152969488619 -70.441699751173473 0 0 0 0 13.87608936900296 28.86285071719448 0 28.86285071719448 -31.088771851763724 0 0 0 0 10.737810468234272 -8.5107094455911465 0 -8.5107094455911465 -122.31791415283624 0 0 0 0 25.473046213080508 -22.123007595787385 0 -22.123007595787385 -236.62175136726364 0 0 0 0 2.3405812170886975 14.053697269398981 0 14.053697269398981 -133.06894155698137 0 0 0 0 23.770423280693223 -22.463543235327961 0 -22.463543235327961 -121.43698517475764 0 0 0 0 -41.914355670060218 -16.006769385630832 0 -16.006769385630832 -157.95472714054654 0 0 0 0 13.29862564772634 34.986610193669549 0 34.986610193669549 -235.11320763328149 0 0 0 0 2.8988658381024703 0.58908603840120932 0 0.58908603840120932 -0.69637725135758521 0 0 0 0 33.958957510878008 -26.891215133974583 0 -26.891215133974583 -310.32282150427847 0 0 0 0 72.033773208396497 -26.030775410779825 0 -26.030775410779825 -312.55183862779722 0 0 0 0 65.317783297957362 -112.53965982394948 0 -112.53965982394948 -198.06310438121 0 0 0 0 -25.930310321683031 -3.2868763848979796 0 -3.2868763848979796 -184.98112858558125 0 0 0 0 22.872466442589491 -4.5757656751571858 0 -4.5757656751571858 -185.40263283036074 0 0 0 0 -23.189778653337214 -44.225279811225846 0 -44.225279811225846 -171.87858575960126 0 0 0 0 1.517481003173959 0.63095791761204367 0 0.63095791761204367 -0.52401641966000234 0 0 0 0 49.111374021945835 -36.94184527774496 0 -36.94184527774496 -255.94231960595789 0 0 0 0 51.546445734232293 8.3116801581220443 0 8.3116801581220443 -314.80532637881879 0 0 0 0 77.719248673435914 -64.487259178292334 0 -64.487259178292334 -178.80460294202931 0 0 0 0 24.682950446119889 -44.793633970068868 0 -44.793633970068868 -169.92755009990015 0 0 0 0 -5.0614734962633889 -53.11249258195744 0 -53.11249258195744 -11.352751311040265 0 0 0 0 -104.98925585951446 -89.645859764375018 0 -89.645859764375018 -24.641744382609431 0 0 0 0 0.0039426857768956047 -36.378231420974068 0 -36.378231420974068 -24.052524515370969 0 0 0 0 -16.304442968475172 -49.253085423708626 0 -49.253085423708626 -43.607315875123732 0 0 0 0 1.2086571004506164 -35.384939536182493 0 -35.384939536182493 -21.415360814790333 0 0 0 0 23.459840762586822 -22.104979065267798 0 -22.104979065267798 -165.62114525953882 0 0 0 0 -26.013447319591421 45.191687623186226 0 45.191687623186226 -85.844225308028399 0 0 0 0 2.6435823796039699 -20.981984431175533 0 -20.981984431175533 -54.208128762857086 0 0 0 0 18.308442020619623 -3.0326091224251286 0 -3.0326091224251286 -37.06990309171124 0 0 0 0 78.617239300244592 -57.557345440102836 0 -57.557345440102836 -71.813791474151003 0 0 0 0 1.9719952142932407 -26.907466885134337 0 -26.907466885134337 -76.199814849311508 0 0 0 0 74.99395179084965 -3.2140674367923339 0 -3.2140674367923339 -177.86343888985721 0 0 0 0 3.372838436170694 -25.147587801764363 0 -25.147587801764363 -79.539081934818881 0 0 0 0 50.378449381700307 -147.2515750112143 0 -147.2515750112143 -51.141597290275968 0 0 0 0 -30.635353959739462 -145.08739960672574 0 -145.08739960672574 -46.023287977632208 0 0 0 0 -13.056318476945876 -63.068406278418479 0 -63.068406278418479 -30.9705990233997 0 0 0 0 296.10857759614169 -111.46555478100527 0 -111.46555478100527 -390.57316535984864 0 0 0 0 -178.57029550893458 -109.77856047597743 0 -109.77856047597743 269.77887183668645 0 0 0 0 169.71838358301829 140.07185222655244 0 140.07185222655244 -474.52179968137352 0 0 0 0 -125.13493055514891 -100.45464955761781 0 -100.45464955761781 -225.0835612580704 0 0 0 0 22.047409632487472 -57.485213253341499 0 -57.485213253341499 -131.5668304830433 0 0 0 0 43.710292380985493 55.076627049439594 0 55.076627049439594 -318.29693665710147 0 0 0 0 -2.47327463917718 0.26755068247836178 0 0.26755068247836178 0.48658603090148134 0 0 0 0 -78.928863380959683 -75.379009647187559 0 -75.379009647187559 -16.938302433973149 0 0 0 0 -45.539045865423759 -19.090791421744598 0 -19.090791421744598 29.030072682997343 0 0 0 0 6.6055721401344272 -2.0923195741888776 0 -2.0923195741888776 -34.146555308987445 0 0 0 0 8.2134985111541283 -26.263212651813802 0 -26.263212651813802 -24.371984302299097 0 0 0 0 0.69541567457918063 -19.039214868207637 0 -19.039214868207637 -82.431681614707486 0 0 0 0 11.089254547820929 -17.210641956171457 0 -17.210641956171457 -89.296110897186736 0 0 0 0 3.0146828181048022 -23.344968906989379 0 -23.344968906989379 -45.466047818382322 0 0 0 0 12.904824860862391 -27.357206546866109 0 -27.357206546866109 -93.486534746436519 0 0 0 0 11.650481243167302 -2.4474814526970832 0 -2.4474814526970832 -15.728398703617138 0 0 0 0 -17.207314572646737 18.332052884510631 0 18.332052884510631 -136.96360945787455 0 0 0 0 -1.9094606912515344 -36.127614360022719 0 -36.127614360022719 -65.146178807870029 0 0 0 0 17.217820653135732 -35.423196826377534 0 -35.423196826377534 -68.440984449709504 0 0 0 0 10.966889989104642 -19.125710534037189 0 -19.125710534037189 -91.493301924421075 0 0 0 0 4.3210479448275692 -18.723480715957066 0 -18.723480715957066 -105.47359350744273 0 0 0 0 13.585094623721204 -21.481884894251152 0 -21.481884894251152 -82.143292502671102 0 0 0 0 15.823453239691787 13.552791291510378 0 13.552791291510378 -49.20326573829248 0 0 0 0 14.916986578312828 -0.53790909171765655 0 -0.53790909171765655 -56.240048525744321 0 0 0 0 -5.2448799287276415 31.932808526428744 0 31.932808526428744 -97.231915200700314 0 0 0 0 7.9730128158191382 28.841951873082621 0 28.841951873082621 -71.704043301855577 0 0 0 0 22.844466193709195 6.0080017620766739 0 6.0080017620766739 -68.690213339177717 0 0 0 0 13.601569718270866 26.882582559544062 0 26.882582559544062 -75.040800637514621 0 0 0 0 4.838691497918262 21.005818732852276 0 21.005818732852276 -68.251321935468525 0 0 0 0 11.646709063578783 26.307568251787416 0 26.307568251787416 -88.036984112372011 0 0 0 0 -5.3659532055289674 18.909863827866502 0 18.909863827866502 -91.253090962025453 0 0 0 0 16.133548458955982 8.3870741044857215 0 8.3870741044857215 -45.32136802225196 0 0 0 0 4.9532047745015007 30.478193529128021 0 30.478193529128021 -92.789887185183034 0 0 0 0 -6.5670724718813229 46.834504485980275 0 46.834504485980275 -71.737185090699057 0 0 0 0 -3.9099479288715884 80.70419599457091 0 80.70419599457091 -71.625386460351365 0 0 0 0 -6.633907250111406 34.371375036777863 0 34.371375036777863 -76.438606978317694 0 0 0 0 -13.763643694503116 31.060297979856841 0 31.060297979856841 -77.949947235134459 0 0 0 0 33.317602966134473 41.117708578352904 0 41.117708578352904 -148.84540794742497 0 0 0 0 45.729321979478755 13.792026726470795 0 13.792026726470795 -149.88459366587995 0 0 0 0 31.669119416342255 41.697711267483101 0 41.697711267483101 -125.43879507329984 0 0 0 0 -14.475269481526084 53.392334566437057 0 53.392334566437057 -75.378577022253012 0 0 0 0 12.09121064712815 74.218353239875796 0 74.218353239875796 -182.14236861132667 0 0 0 0 56.598938554808228 61.514383637477295 0 61.514383637477295 -173.3355885827259 0 0 0 0 14.062280065894811 65.443042796506234 0 65.443042796506234 -148.9433223271044 0 0 0 0 1.9441662434674072 63.930909879571118 0 63.930909879571118 -142.10870268457074 0 0 0 0 -7.7515537849848215 32.706048651922174 0 32.706048651922174 -171.05825164314592 0 0 0 0 56.975226493796747 36.978250396944361 0 36.978250396944361 -152.7050200546073 0 0 0 0 127.51821467097579 35.460059892764548 0 35.460059892764548 -166.22853033846332 0 0 0 0 120.51847773039242 51.031544715605492 0 51.031544715605492 -102.6501899730938 0 0 0 0 74.238384235341982 -3.2520806277025258 0 -3.2520806277025258 -131.87293457227861 0 0 0 0 106.78055947483153 -118.5953577107357 0 -118.5953577107357 -55.125040295912186 0 0 0 0 220.95194574585821 -196.03844112905426 0 -196.03844112905426 -126.26220308746269 0 0 0 0 196.55119799830936 77.409519006192568 0 77.409519006192568 10.080998420009564 0 0 0 0 121.51565973752713 -91.48423174960044 0 -91.48423174960044 -143.66660747741116 0 0 0 0 7.5470608934215031 4.6127134204553784 0 4.6127134204553784 -24.984042970650691 0 0 0 0 90.832286667573953 -14.055770612802007 0 -14.055770612802007 -96.096525635861326 0 0 0 0 82.469450016216797 -6.0606820584653178 0 -6.0606820584653178 -42.525894522623275 0 0 0 0 -3.4319233343416879 -12.526326868957845 0 -12.526326868957845 15.044858802866031 0 0 0 0 11.963413937017719 -29.63239959666862 0 -29.63239959666862 -46.071393884401914 0 0 0 0 73.424067460440028 38.667902976837468 0 38.667902976837468 -197.61861959889939 0 0 0 0 35.181941194719002 -40.846029308682773 0 -40.846029308682773 -138.98887949178243 0 0 0 0 34.239380934669498 -21.003814552070253 0 -21.003814552070253 -322.21000579361862 0 0 0 0 -13.419671269331047 65.266273616787657 0 65.266273616787657 -255.77517555961822 0 0 0 0 -89.947225354090733 -164.60359190543022 0 -164.60359190543022 -337.1942377553496 0 0 0 0 -6.9389174527004798 -86.170475508370146 0 -86.170475508370146 -382.81102944364829 0 0 0 0 -47.499631915388818 51.035631174705486 0 51.035631174705486 -376.50725249583411 0 0 0 0 -14.155985652253548 103.58928796672262 0 103.58928796672262 -222.70534304461216 0 0 0 0 -58.487143047368136 -18.28115823731423 0 -18.28115823731423 -283.58296039381457 0 0 0 0 -36.813958322678445 -28.380232346524281 0 -28.380232346524281 -502.12212024072073 0 0 0 0 -17.740603453595668 -40.694258002773495 0 -40.694258002773495 -558.86106710442255 0 0 0 0 -14.933841577861131 135.11239416584067 0 135.11239416584067 -596.63746418075243 0 0 0 0 -2.4682839601782689 -20.085207633500431 0 -20.085207633500431 -501.0719681158298 0 0 0 0 -35.573571821692894 91.508787331229541 0 91.508787331229541 -272.26775834365981 0 0 0 0 -2.0587790860008681 82.123859148214251 0 82.123859148214251 -269.74634925668215 0 0 0 0 -191.55190019628435 145.00632097806738 0 145.00632097806738 -163.64748132898239 0 0 0 0 -12.165623514734762 35.587858920374856 0 35.587858920374856 -94.476206858369551 0 0 0 0 -72.365733031398349 -68.723364101874722 0 -68.723364101874722 -28.88472289575293 0 0 0 0 -2.3408376939395286 -5.6070513654101433 0 -5.6070513654101433 -6.3455226240337765 0 0 0 0 -76.958729349463738 83.852678817871492 0 83.852678817871492 -90.678292125630833 0 0 0 0 -25.845222496358929 54.425599364803929 0 54.425599364803929 -112.37152348900418 0 0 0 0 0.31611173318070129 -3.540546637232282 0 -3.540546637232282 -1.6473528057850615 0 0 0 0 -7.7728623441309423 46.595885826714039 0 46.595885826714039 -112.70912321968353 0 0 0 0 -26.114199057944916 46.249383467104053 0 46.249383467104053 -101.97158522335303 0 0 0 0 -27.903986477401105 40.152512340341445 0 40.152512340341445 -136.22675289253675 0 0 0 0 -29.638675572628017 81.365962501680769 0 81.365962501680769 -118.24722957781341 0 0 0 0 -25.155877663698448 13.639716068460984 0 13.639716068460984 -61.336887379426116 0 0 0 0 -46.286873614134038 76.303179879138042 0 76.303179879138042 -82.25164021449018 0 0 0 0 -12.22432877270785 34.990829235037381 0 34.990829235037381 -53.815454886425869 0 0 0 0 3.9570412509673147 7.0372285765243845 0 7.0372285765243845 -23.581770009810725 0 0 0 0 -14.793546497367299 49.616201884850263 0 49.616201884850263 -59.438327742390427 0 0 0 0 -29.067561354074769 50.47889837052935 0 50.47889837052935 -120.47515563782326 0 0 0 0 -29.317843475414861 53.231948207764731 0 53.231948207764731 -110.54639067339303 0 0 0 0 -12.146457202010406 57.948735279719422 0 57.948735279719422 -75.891594998235362 0 0 0 0 -101.65256153365135 -4.9199316708962897 0 -4.9199316708962897 -276.52689486023701 0 0 0 0 -12.59757753926278 39.422616744272403 0 39.422616744272403 -27.163640128616859 0 0 0 0 631.47644548005201 -30.342543258920159 0 -30.342543258920159 -932.76787215111653 0 0 0 0 -7.0103328240638803 43.697418375835696 0 43.697418375835696 -83.58021623157947 0 0 0 0 -11.387106570749438 40.957153501298308 0 40.957153501298308 -109.27794056112725 0 0 0 0 -16.098977533762081 52.336638246179064 0 52.336638246179064 -128.94699523223971 0 0 0 0 3.9962586424282707 0.17155784282338971 0 0.17155784282338971 -31.351365590566751 0 0 0 0 -11.8252291439568 29.213909482469845 0 29.213909482469845 -24.974203738562409 0 0 0 0 -3.9511037205302273 29.487890949305438 0 29.487890949305438 -121.26563257056671 0 0 0 0 -6.2477712713176921 27.180462760291448 0 27.180462760291448 2.8468577027813398 0 0 0 0 -27.05267433599488 19.915144260385205 0 19.915144260385205 -120.0189257858583 0 0 0 0 -11.147770285615024 45.044967966634431 0 45.044967966634431 -99.181064265700115 0 0 0 0 6.8659849290143029 38.11564212562007 0 38.11564212562007 -172.68284626957393 0 0 0 0 101.28475440089005 28.068035316762689 0 28.068035316762689 -133.09228179629463 0 0 0 0 20.580345056286717 32.544963933440386 0 32.544963933440386 -131.60698578587471 0 0 0 0 62.35057549801661 -80.67374861134067 0 -80.67374861134067 -118.46150186433806 0 0 0 0 31.075783834891695 -26.63292876639207 0 -26.63292876639207 -83.163338664227922 0 0 0 0 -3.3639595679528753 22.831022792017734 0 22.831022792017734 -50.518297808755122 0 0 0 0 -6.8880066631536465 -30.057129212045993 0 -30.057129212045993 -116.01137541813659 0 0 0 0 15.616201095795986 0.12559270257042954 0 0.12559270257042954 -44.987852923313767 0 0 0 0 5.9335464887798253 51.940438579149486 0 51.940438579149486 19.92605967678719 0 0 0 0 -54.02243263264171 -52.067156112502971 0 -52.067156112502971 -71.17439287774323 0 0 0 0 -43.606145303708672 11.669993355248153 0 11.669993355248153 -88.0287117898406 0 0 0 0 -3.6392201784367284 15.32223042659119 0 15.32223042659119 -14.133438026609973 0 0 0 0 -1.8135791586345151 2.0500778207859582 0 2.0500778207859582 -7.9141075644326264 0 0 0 0 -145.91116108556889 71.121003196051788 0 71.121003196051788 -112.6024667546767 0 0 0 0 9.8684645969094493 -34.280871184948339 0 -34.280871184948339 -24.720755908512846 0 0 0 0 -4.3771721349078323 -0.6623490197322397 0 -0.6623490197322397 -18.06083805762648 0 0 0 0 -11.895597983642119 -12.731761665779686 0 -12.731761665779686 -119.23352569621056 0 0 0 0 6.424762181222011 8.7308733235107354 0 8.7308733235107354 -28.205147233549745 0 0 0 0 0.58733511239195835 -34.489448810907945 0 -34.489448810907945 -45.778768335685662 0 0 0 0 -23.52568728249571 70.065329480252785 0 70.065329480252785 -264.15306788344742 0 0 0 0 -29.804394501750266 20.600461227263622 0 20.600461227263622 14.805546802042954 0 0 0 0 -30.745331296414633 -50.952733855579936 0 -50.952733855579936 31.425284492110222 0 0 0 0 15.738996005362594 -11.281684403485087 0 -11.281684403485087 -68.257891235070929 0 0 0 0 13.511144352629614 -0.18889745354715615 0 -0.18889745354715615 -108.12441626008695 0 0 0 0 -135.44307940519229 26.370183175902639 0 26.370183175902639 -105.58749604894911 0 0 0 0 -16.249223841141145 85.253705285193064 0 85.253705285193064 -213.46140208190809 0 0 0 0 -205.20704997700614 192.66960571316213 0 192.66960571316213 -235.98674782012313 0 0 0 0 128.38676814824998 181.27507110589158 0 181.27507110589158 -353.60024151462721 0 0 0 0 -21.072640801967964 130.39350021886094 0 130.39350021886094 -370.92171596084881 0 0 0 0 29.816986981118134 146.29605450766303 0 146.29605450766303 -392.01517279678001 0 0 0 0 -3.4969306409295937 -40.065567723235517 0 -40.065567723235517 -23.428007808768804 0 0 0 0 -14.365166679246158 -106.14778893425864 0 -106.14778893425864 -21.719220675674933 0 0 0 0 -20.67678283222449 61.293602922716673 0 61.293602922716673 -460.68942799935576 0 0 0 0 -39.590249876133839 84.935400537786336 0 84.935400537786336 -413.82217593725545 0 0 0 0 -58.921474184919134 8.7156338796949058 0 8.7156338796949058 -416.30364257121892 0 0 0 0 51.902773565441748 -12.238098986591467 0 -12.238098986591467 -568.77199285439383 0 0 0 0 -15.837786455628828 -44.798221376931977 0 -44.798221376931977 -25.757658507737375 0 0 0 0 -11.745445989024606 -8.7956956752797737 0 -8.7956956752797737 -17.088426656525026 0 0 0 0 59.270015821430206 -29.501296751333939 0 -29.501296751333939 -48.672676235043582 0 0 0 0 -56.616082496682793 235.44353544644673 0 235.44353544644673 -613.3613349449206 0 0 0 0 -22.315848362035467 147.05351087631516 0 147.05351087631516 -658.9173075384424 0 0 0 0 -52.820393799281419 86.208333730681034 0 86.208333730681034 -423.80517902010615 0 0 0 0 126.32766848843039 63.526211590692128 0 63.526211590692128 -307.65923984371557 0 0 0 0 2.2171620503977465 156.2954954415145 0 156.2954954415145 -372.37681121294554 0 0 0 0 -122.61426819204189 198.82688396628146 0 198.82688396628146 -487.32781134994912 0 0 0 0 -68.854963318556656 83.242554891449345 0 83.242554891449345 -240.01986431221667 0 0 0 0 -0.92572658049721213 43.384402564443008 0 43.384402564443008 -73.227449275141225 0 0 0 0 0.14578241151821203 50.872048777309828 0 50.872048777309828 -95.309450162625581 0 0 0 0 16.253417070961405 25.591489208738039 0 25.591489208738039 -219.69468799605875 0 0 0 0 -9.2912708047879189 20.738983734375104 0 20.738983734375104 4.677361411491983 0 0 0 0 -16.508729871515243 41.89425475742155 0 41.89425475742155 -94.628816338572506 0 0 0 0 -0.99909820785433112 41.769421600411079 0 41.769421600411079 -105.06496707730912 0 0 0 0 -30.105112322260538 48.312945227888122 0 48.312945227888122 -96.894138262887282 0 0 0 0 -30.105112322260538 48.312945227888122 0 48.312945227888122 -96.894138262880006 0 0 0 0 -5.2827975177671291 24.67988889618854 0 24.67988889618854 -61.921458110042671 0 0 0 0 25.229312773486527 -4.978835464511576 0 -4.978835464511576 -56.468613205066958 0 0 0 0 5.5032904955342019 59.189433581970661 0 59.189433581970661 -85.015728884722193 0 0 0 0 41.485845023151796 28.079406195132833 0 28.079406195132833 -94.386452666840341 0 0 0 0 6.784507661560383 20.244023181866396 0 20.244023181866396 -86.635669848494217 0 0 0 0 -0.71106690544960216 30.79172148905478 0 30.79172148905478 -78.58862083558725 0 0 0 0 12.16964811921207 22.162409729874526 0 22.162409729874526 -95.538463602968477 0 0 0 0 -10.656314006113462 47.66892125074628 0 47.66892125074628 -106.71870807926098 0 0 0 0 -7.4610553857619379 24.743093385646716 0 24.743093385646716 -102.9394336172154 0 0 0 0 2.4309667391817129 30.180921107178619 0 30.180921107178619 -101.30390721045114 0 0 0 0 -10.394663866066253 25.95105513473527 0 25.95105513473527 -108.40061871301987 0 0 0 0 -10.88743576260859 49.499788856638759 0 49.499788856638759 -137.94776046022707 0 0 0 0 -16.592818326794713 23.575051480273032 0 23.575051480273032 -81.757258423469466 0 0 0 0 -21.311714389329154 49.516975505510345 0 49.516975505510345 -131.63780155891254 0 0 0 0 9.5564656997029296 2.9439450251671424 0 2.9439450251671424 -43.489421863950071 0 0 0 0 -773.40034614173919 -156.04777603754928 0 -156.04777603754928 -64.913829828819871 0 0 0 0 -16.968759250414529 35.686804722095346 0 35.686804722095346 7.2455815884997481 0 0 0 0 -8.901293544422515 37.514585396027542 0 37.514585396027542 -109.79348224090791 0 0 0 0 -34.750713396284482 79.877081180691675 0 79.877081180691675 -138.07137040536236 0 0 0 0 -1.4265698540656331 244.690816079456 0 244.690816079456 -320.42877994670425 0 0 0 0 -30.105112322263267 48.312945227892669 0 48.312945227892669 -96.894138262898196 0 0 0 0 4.7621041637132819 -6.2998398966261355 0 -6.2998398966261355 -22.300341667563984 0 0 0 0 -79.7467600295073 153.90031423063556 0 153.90031423063556 -142.59537766694302 0 0 0 0 59.353773196983823 104.49302273399371 0 104.49302273399371 -174.34236817090277 0 0 0 0 26.820030672748391 91.740144754734501 0 91.740144754734501 -142.40444114524325 0 0 0 0 58.149317469147107 56.405755662192689 0 56.405755662192689 -135.04405950566434 0 0 0 0 60.194734512175238 79.632831805371097 0 79.632831805371097 -94.876234485572695 0 0 0 0 183.78362901526671 -241.07762754028863 0 -241.07762754028863 -58.255793189520773 0 0 0 0 -235.93465747913226 235.84479079170228 0 235.84479079170228 -192.57645763831533 0 0 0 0 108.88749514909023 -5.4087501763824548 0 -5.4087501763824548 213.85998947072949 0 0 0 0 50.630207874675705 -283.55322299250111 0 -283.55322299250111 -502.86731639707432 0 0 0 0 81.625049613067517 19.676040764868958 0 19.676040764868958 -520.03899465856057 0 0 0 0 -117.69134951910851 -358.24378695145606 0 -358.24378695145606 140.3258564134303 0 0 0 0 1.4113508667326187 11.236908449209295 0 11.236908449209295 -520.32829598338139 0 0 0 0 -1.4381227454178314 -2.2220065242916291 0 -2.2220065242916291 -2.5819588354685123 0 0 0 0 40.021848955399946 175.07651862198327 0 175.07651862198327 -441.69056253892632 0 0 0 0 -150.53772500636001 130.81528340724799 0 130.81528340724799 -449.95849523534707 0 0 0 0 -2.9162960319200986 -4.8314185276216932 0 -4.8314185276216932 -5.6337875525317713 0 0 0 0 29.525228134535041 121.26652526747057 0 121.26652526747057 -477.81188744008978 0 0 0 0 61.381024737395819 -99.420851068556658 0 -99.420851068556658 -99.232366005486256 0 0 0 0 11.636543316400093 178.8694855658905 0 178.8694855658905 -553.43329939175419 0 0 0 0 -85.66407193307532 39.18663081755949 0 39.18663081755949 -459.26197809961741 0 0 0 0 -56.873175959782202 27.338649921759497 0 27.338649921759497 -456.72516566771083 0 0 0 0 -102.43063639533121 14.643597438203869 0 14.643597438203869 -456.34157150005922 0 0 0 0 -100.09665694819978 100.82381246137084 0 100.82381246137084 -409.06781796757423 0 0 0 0 -81.81961525595375 46.429878599199583 0 46.429878599199583 -446.70685057729133 0 0 0 0 -158.08542226324403 75.92095250327111 0 75.92095250327111 -409.96083184547251 0 0 0 0 -156.38813106402608 16.395489969756454 0 16.395489969756454 -438.00664162456087 0 0 0 0 -106.73689660969512 -8.8331755257859186 0 -8.8331755257859186 -478.46638943704602 0 0 0 0 -103.52129990236972 38.296518919087248 0 38.296518919087248 -429.12053808257042 0 0 0 0 -72.492285168625259 -89.660952365582716 0 -89.660952365582716 145.20030596049764 0 0 0 0 -0.74219110979876457 -1.1727468755339672 0 -1.1727468755339672 -3.017679796119495 0 0 0 0 -59.321787955373864 46.90049382539928 0 46.90049382539928 51.220512446197972 0 0 0 0 118.50634436171849 -51.232592136286257 0 -51.232592136286257 5.6628798988094786 0 0 0 0 73.936295626545188 -197.37869841899374 0 -197.37869841899374 144.47093089203096 0 0 0 0 -2.4929238292875295 -4.0737881337067137 0 -4.0737881337067137 -4.7624607084586899 0 0 0 0 -13.467718123914494 32.720001179208339 0 32.720001179208339 -116.41939523186875 0 0 0 0 94.715795150980483 2.9167427671791302 0 2.9167427671791302 -114.55851398477535 0 0 0 0 6.8114309638521036 -63.900118630452198 0 -63.900118630452198 87.554029018778238 0 0 0 0 31.714850215693673 -146.57878769511444 0 -146.57878769511444 136.15026792283606 0 0 0 0 -2.6258617701224605 -4.9295688996493823 0 -4.9295688996493823 -7.9981892325054105 0 0 0 0 -1.1417903526132989 -1.42448096669807 0 -1.42448096669807 -1.63458901698624 0 0 0 0 1.9643019667660155 -78.155912867663574 0 -78.155912867663574 161.63871985995684 0 0 0 0 41.440095532874125 -135.3475062154539 0 -135.3475062154539 32.701045686677389 0 0 0 0 -128.19138266639561 146.33985063781915 0 146.33985063781915 -131.91935921012919 0 0 0 0 -30.006304530357738 101.00782968550629 0 101.00782968550629 -136.39104424464313 0 0 0 0 -118.73276937102997 84.268295726605174 0 84.268295726605174 -101.7009042121208 0 0 0 0 -71.341023420021912 120.27961436903206 0 120.27961436903206 -157.35545273992466 0 0 0 0 -79.826776674053804 98.500315965091431 0 98.500315965091431 -127.72085266560316 0 0 0 0 30.598268942547747 91.640323120944231 0 91.640323120944231 -161.46876261600846 0 0 0 0 -155.66049068779512 122.49083015983342 0 122.49083015983342 -150.12472939018699 0 0 0 0 -224.71456491322738 274.67864492444642 0 274.67864492444642 -401.77860303284979 0 0 0 0 -53.277092357514903 63.348107111749414 0 63.348107111749414 -536.83346812849777 0 0 0 0 -102.34147790473457 67.601201537981979 0 67.601201537981979 -350.96667959661863 0 0 0 0 -68.7514533513272 -3.181030225892755 0 -3.181030225892755 -202.5854557781422 0 0 0 0 -7.3136688351101533 -3.3606296715150421 0 -3.3606296715150421 -2.7447880134127693 0 0 0 0 -51.594693952787566 34.00524822686566 0 34.00524822686566 -471.91785983997397 0 0 0 0 26.860331957695962 56.876431153854355 0 56.876431153854355 -465.29727834966616 0 0 0 0 -5.2571329447903281 -22.618058823773026 0 -22.618058823773026 -487.66071312120766 0 0 0 0 -50.870744573823686 15.696845750288048 0 15.696845750288048 -467.69633245387377 0 0 0 0 -39.680129570810095 27.028167837430374 0 27.028167837430374 -465.1330027200213 0 0 0 0 14.494473295508669 -62.47176077534823 0 -62.47176077534823 -447.75127682155289 0 0 0 0 2.8119113024067701 -98.377091664722684 0 -98.377091664722684 -278.3731217548775 0 0 0 0 93.31997087525815 -25.410950375226093 0 -25.410950375226093 -493.09975417760143 0 0 0 0 158.12605386509608 -13.065757189579017 0 -13.065757189579017 -600.9122407353716 0 0 0 0 257.34694375563777 -185.97668086155318 0 -185.97668086155318 -806.27283503650688 0 0 0 0 311.40291721965878 -209.39620446501067 0 -209.39620446501067 -1007.6284599842038 0 0 0 0 258.68213629153433 186.30393201822881 0 186.30393201822881 -505.88854215473111 0 0 0 0 -50.042249916268702 14.437834664771799 0 14.437834664771799 -464.87611341796537 0 0 0 0 2.5143186525892816 33.092516898461326 0 33.092516898461326 -471.93306803876476 0 0 0 0 46.330027291741999 -354.38749018940689 0 -354.38749018940689 -34.914930412771355 0 0 0 0 -6.862379765794433 -4.1515317505833593 0 -4.1515317505833593 -3.1288185936272264 0 0 0 0 -1.0832872968809149 -3.3033602853564332 0 -3.3033602853564332 -4.4075380145557261 0 0 0 0 -35.871410591364565 -117.69332684742039 0 -117.69332684742039 132.19878947932739 0 0 0 0 -8.0325862016616156 223.3736362161435 0 223.3736362161435 -1350.9613907381281 0 0 0 0 -49.892223883785846 190.98317423342087 0 190.98317423342087 -1340.7991325061448 0 0 0 0 -112.22105993755758 -30.9735890161719 0 -30.9735890161719 -753.97393759099941 0 0 0 0 -415.02145797736739 -103.65319226379506 0 -103.65319226379506 -1514.0141090287943 0 0 0 0 140.23807391158653 -368.17848953667271 0 -368.17848953667271 -593.41552096676605 0 0 0 0 63.586751641546016 -549.91994512330712 0 -549.91994512330712 -902.64959953879588 0 0 0 0 712.70858426865175 249.11504411156784 0 249.11504411156784 -1782.6043524654815 0 0 0 0 683.65160013494642 325.69410768782836 0 325.69410768782836 -968.99728972819867 0 0 0 0 34.288721697492747 -200.06765803659073 0 -200.06765803659073 -173.1951667417743 0 0 0 0 24.34786808932131 -142.97123532192199 0 -142.97123532192199 -373.86037643588497 0 0 0 0 96.526545153137704 -235.94092877356888 0 -235.94092877356888 -410.22430699711549 0 0 0 0 44.331096305006213 29.233901464205701 0 29.233901464205701 -147.13643918041635 0 0 0 0 -22.075275758835687 -64.972216897578619 0 -64.972216897578619 -298.23411728188512 0 0 0 0 -34.829683639100949 -40.980536148737883 0 -40.980536148737883 -33.724818919828977 0 0 0 0 -36.215945364013351 109.49368030604091 0 109.49368030604091 -259.68820487962512 0 0 0 0 -31.377527382527717 62.846419440189038 0 62.846419440189038 -100.34297398962372 0 0 0 0 104.63512235979056 51.351283893069194 0 51.351283893069194 -98.793817475714604 0 0 0 0 31.735004228432217 72.73513344238745 0 72.73513344238745 55.525501246345812 0 0 0 0 4.0357879863295238 230.76335293441662 0 230.76335293441662 -1347.6244882282408 0 0 0 0 -211.41692965483662 399.8967963273044 0 399.8967963273044 -327.82687848067872 0 0 0 0 -134.69290037855899 405.73696260535507 0 405.73696260535507 -1111.1328336178558 0 0 0 0 -267.97122889039929 168.24331320928468 0 168.24331320928468 -342.4088830001383 0 0 0 0 132.81659832342848 198.16415018233965 0 198.16415018233965 -891.45337955585637 0 0 0 0 -2.3388287872680458 -1.2464752312113205 0 -1.2464752312113205 -1.472929833939407 0 0 0 0 0.46312163567563402 -90.304597776121227 0 -90.304597776121227 -602.59607990110817 0 0 0 0 -3.4046200827689912 -6.5302635888719323 0 -6.5302635888719323 -6.9067565593738891 0 0 0 0 60.203961478148813 -21.990472343997681 0 -21.990472343997681 -57.826558352448046 0 0 0 0 -50.199853534521935 -127.57943233039259 0 -127.57943233039259 -261.75567524717917 0 0 0 0 88.282474513809575 -65.058093094154174 0 -65.058093094154174 -677.43325622940029 0 0 0 0 0.68575807487650309 16.989144030179887 0 16.989144030179887 -68.52584979437961 0 0 0 0 -11.0832976971177 37.295799478757544 0 37.295799478757544 -102.65906569719664 0 0 0 0 14.184363948847022 38.730031311533821 0 38.730031311533821 -94.234347112007526 0 0 0 0 -7.0570772931578176 57.59838226789725 0 57.59838226789725 -127.98137977466104 0 0 0 0 43.236467131868721 37.972635297897796 0 37.972635297897796 -133.81133251421124 0 0 0 0 -54.374890878462793 64.125667764339596 0 64.125667764339596 -105.17147075014509 0 0 0 0 -8.0396236432625301 57.301619080273667 0 57.301619080273667 -126.74997745550354 0 0 0 0 -20.69277197736028 70.978348524651665 0 70.978348524651665 -131.84722575208434 0 0 0 0 -14.150993474638085 54.912944110687022 0 54.912944110687022 -115.90674721398682 0 0 0 0 -7.4153586438109187 44.587528158028363 0 44.587528158028363 -114.36809961647668 0 0 0 0 3.6593893680446854 35.405208043492166 0 35.405208043492166 -107.89170153015584 0 0 0 0 9.0896771096863631 49.618616917694453 0 49.618616917694453 -127.43639887616155 0 0 0 0 -7.2621462914821677 45.851877041404805 0 45.851877041404805 -107.59673148123511 0 0 0 0 -6.998518567910196 47.597255173623125 0 47.597255173623125 -108.210996976959 0 0 0 0 -34.024420559749615 50.279458184464602 0 50.279458184464602 -96.385571609062026 0 0 0 0 -10.978284791270653 55.205266401761037 0 55.205266401761037 -116.57774052354216 0 0 0 0 -41.174981221703092 61.958347580039117 0 61.958347580039117 -105.56392202946699 0 0 0 0 -47.521871062581795 65.415477205999196 0 65.415477205999196 -99.793680651229806 0 0 0 0 -50.260033436167305 55.499144398731005 0 55.499144398731005 -92.595757340986893 0 0 0 0 -18.931533959702392 25.028009840047162 0 25.028009840047162 -63.154261557770951 0 0 0 0 0.36750534988673067 12.507524770049997 0 12.507524770049997 -9.6660214031019347 0 0 0 0 0.24283763502951494 7.6173674403793115 0 7.6173674403793115 -19.657809570017164 0 0 0 0 3.8169174520380693 18.151065920072142 0 18.151065920072142 -69.586075944258482 0 0 0 0 12.207918685090434 4.0319428167181144 0 4.0319428167181144 -57.222264666799163 0 0 0 0 3.0262016843436674 -4.3402554806111908 0 -4.3402554806111908 -13.446958942957458 0 0 0 0 3.0733173024818825 23.203053799254121 0 23.203053799254121 -19.936085287598871 0 0 0 0 -20.656523370585091 -17.274852392918547 0 -17.274852392918547 -84.372455061664368 0 0 0 0 -34.128306416563646 -53.130546620883251 0 -53.130546620883251 -92.085708719579998 0 0 0 0 53.160071848308689 24.429465505396365 0 24.429465505396365 -175.95453092084426 0 0 0 0 -27.436920905740863 100.6776096236681 0 100.6776096236681 -144.67574207919097 0 0 0 0 -0.25783504725120121 2.7327965947906421 0 2.7327965947906421 -8.1673331083177629 0 0 0 0 -24.580880447313575 -17.119144103427971 0 -17.119144103427971 -55.609740414380212 0 0 0 0 1.7583748921767164 19.820698909806268 0 19.820698909806268 -32.435649042202272 0 0 0 0 -124.40443772977187 163.61798081815505 0 163.61798081815505 19.701988134178464 0 0 0 0 48.942133159671357 -22.677916321757948 0 -22.677916321757948 -120.3488387999605 0 0 0 0 -4.2323942111215729 -76.866786560167384 0 -76.866786560167384 -123.07321490655886 0 0 0 0 15.154655580186613 -43.212606823784881 0 -43.212606823784881 -16.143784680112731 0 0 0 0 1.5959096332508125 20.658399175150407 0 20.658399175150407 -82.004236206863425 0 0 0 0 11.702035421429287 -4.0159152789583459 0 -4.0159152789583459 -66.162304002966266 0 0 0 0 -27.64665553476561 42.238638791681467 0 42.238638791681467 -77.589801560869091 0 0 0 0 1.932485623407274 33.874261390708853 0 33.874261390708853 -96.787962747202982 0 0 0 0 -0.45238602017248297 29.784675946921197 0 29.784675946921197 -73.458159261299443 0 0 0 0 4.4725768903426353 14.196795879253841 0 14.196795879253841 -52.260096799494931 0 0 0 0 4.0294201775963074 6.5221931001469784 0 6.5221931001469784 -51.686115572337712 0 0 0 0 0.37076363949165625 16.170678717098781 0 16.170678717098781 -27.433528396504698 0 0 0 0 -3.6237121111669133 9.7945673619306035 0 9.7945673619306035 -19.472772993336548 0 0 0 0 -2.0371955698680466 17.643969516639572 0 17.643969516639572 -27.162824308725249 0 0 0 0 2.8882909184132473 15.640401551005425 0 15.640401551005425 -54.606484889001877 0 0 0 0 -4.7402398170045643 29.367230308374928 0 29.367230308374928 -71.808186071957607 0 0 0 0 -0.23849178289903961 26.633492718116727 0 26.633492718116727 -3.6340081968007309 0 0 0 0 23.606206616788768 11.657009484799346 0 11.657009484799346 -143.60074923116917 0 0 0 0 7.7789390027683112 29.500138776860695 0 29.500138776860695 -147.6266363302675 0 0 0 0 4.5889407749742279 2.5839914220347566 0 2.5839914220347566 -9.5103731305851582 0 0 0 0 81.527978297270039 -25.840396587969735 0 -25.840396587969735 -56.909873872093158 0 0 0 0 -5.0906403159122204 -6.90940197622065 0 -6.90940197622065 -16.258599563751233 0 0 0 0 80.687271779451606 13.817036319836404 0 13.817036319836404 -189.03630575463467 0 0 0 0 1.1908111383940503 0.73372945065628414 0 0.73372945065628414 0.23180883246132566 0 0 0 0 -47.090879703790165 -14.760919938111329 0 -14.760919938111329 -59.511188373733603 0 0 0 0 204.5811727129136 157.52754132017435 0 157.52754132017435 -420.9922696799913 0 0 0 0 -315.42391085672421 -30.350416071800282 0 -30.350416071800282 -70.861513701631338 0 0 0 0 -8.824264417038421 30.343572295409103 0 30.343572295409103 -174.70510212153204 0 0 0 0 -47.541124716451208 71.059447077728692 0 71.059447077728692 -155.72304907320358 0 0 0 0 55.103166453167645 51.959862478266587 0 51.959862478266587 -152.6663386226719 0 0 0 0 -11.033457926001359 44.843311632770792 0 44.843311632770792 -145.07202681945637 0 0 0 0 -4.080208156636937 27.729588394639876 0 27.729588394639876 0.81100059848052153 0 0 0 0 0.47175093831037884 29.806859819953388 0 29.806859819953388 -74.828892623563263 0 0 0 0 25.14045030360969 32.17017129838041 0 32.17017129838041 -186.57926481375398 0 0 0 0 -4.3447881078966475 24.565883930197742 0 24.565883930197742 -45.130618180282909 0 0 0 0 -0.63425313312586695 11.592861448392796 0 11.592861448392796 -34.385134771109733 0 0 0 0 -1.9993397241958064 12.15357380335854 0 12.15357380335854 -34.313798808667343 0 0 0 0 2.3248100726218581 17.456205474776652 0 17.456205474776652 -30.567835380024917 0 0 0 0 -0.54911900425622662 18.973995777432719 0 18.973995777432719 -45.979190718553582 0 0 0 0 -11.650174346570111 18.829358504764059 0 18.829358504764059 -45.321338797963108 0 0 0 0 -3.5499421275308123 10.281222941279339 0 10.281222941279339 -33.66808525712986 0 0 0 0 2.580581767696458 8.8225185771589167 0 8.8225185771589167 -38.067703070184507 0 0 0 0 -8.3944167111935712 26.644835016846628 0 26.644835016846628 -43.64503648335085 0 0 0 0 1.253375601163043 8.9012438208301319 0 8.9012438208301319 -22.548812126216944 0 0 0 0 2.990457541703563 14.356606088358603 0 14.356606088358603 -31.186461983488698 0 0 0 0 5.5582932417582924 11.463685391279796 0 11.463685391279796 -35.754557721487799 0 0 0 0 11.556278885338259 -0.65679392695165006 0 -0.65679392695165006 -16.353711996547645 0 0 0 0 -1.2056637895693643 7.1291780429661085 0 7.1291780429661085 -19.735633212259273 0 0 0 0 5.4370493692622404 35.641181049577426 0 35.641181049577426 -65.780572325096728 0 0 0 0 20.20149263676845 1.5924033743822292 0 1.5924033743822292 -21.437412729639618 0 0 0 0 -0.28003651989956779 10.900359852726979 0 10.900359852726979 -30.862487447095191 0 0 0 0 0.53905478436434295 7.8690201601036591 0 7.8690201601036591 -10.405337708927746 0 0 0 0 21.768381839907875 -19.528180596449602 0 -19.528180596449602 16.791979677978816 0 0 0 0 2.3229985403379487 11.977243980883941 0 11.977243980883941 -35.494939761963906 0 0 0 0 1.9283115866683147 10.267939194280189 0 10.267939194280189 -32.671296581364004 0 0 0 0 -49.774490076029679 54.482184290638543 0 54.482184290638543 -22.539810150298536 0 0 0 0 -2.0367816372167971 12.722344124269384 0 12.722344124269384 -7.8420954345127303 0 0 0 0 2.759119870172563 9.5007837312229118 0 9.5007837312229118 -35.525892547432363 0 0 0 0 1.1399103886997182 18.646409343078631 0 18.646409343078631 -60.998588786791515 0 0 0 0 15.776004616788281 53.855035114109342 0 53.855035114109342 -146.90459026977771 0 0 0 0 -8.9307205708478605 27.72718280290654 0 27.72718280290654 0.22095978747284128 0 0 0 0 6.8782724297697229 84.361509885573469 0 84.361509885573469 -121.52668999134039 0 0 0 0 -0.37888029651756483 53.539873987749161 0 53.539873987749161 -130.20226244238438 0 0 0 0 5.4421323195955225 95.947490088916993 0 95.947490088916993 -103.70243074335303 0 0 0 0 -0.60176233390767209 52.540899682999225 0 52.540899682999225 -67.897631359723164 0 0 0 0 -19.755145400157232 82.044571763166459 0 82.044571763166459 -107.24969769793825 0 0 0 0 14.133400422970624 4.4304137713261298 0 4.4304137713261298 -22.779917006220785 0 0 0 0 64.835332219936447 -57.112275459883676 0 -57.112275459883676 18.429804204039101 0 0 0 0 5.6652025276596305 5.3282855304096302 0 5.3282855304096302 -19.170333350099099 0 0 0 0 1.2491856176357854 1.2127999437518326 0 1.2127999437518326 -19.651274634143761 0 0 0 0 11.434390066031554 7.4081061297983979 0 7.4081061297983979 -22.425769046029018 0 0 0 0 1.7028970558172887 5.4125803689221357 0 5.4125803689221357 -20.20350351763409 0 0 0 0 1.951457545574069 1.6847965806184653 0 1.6847965806184653 -21.149849930771623 0 0 0 0 11.138171831103932 8.2470311458855576 0 8.2470311458855576 -30.481299770592159 0 0 0 0 4.5522756741577988 5.9299218708011736 0 5.9299218708011736 -3.9496161636433369 0 0 0 0 30.480114469896762 22.130344867000531 0 22.130344867000531 -3.7722635333338985 0 0 0 0 47.560132265916309 8.807709901520866 0 8.807709901520866 -40.415777051104669 0 0 0 0 6.5955520848142442 3.9887325563631748 0 3.9887325563631748 -34.195470960425155 0 0 0 0 1.1283058910697057 6.6891036345182648 0 6.6891036345182648 -13.928187334368246 0 0 0 0 -32.057163707365817 2.0848178641099366 0 2.0848178641099366 -9.1609439803942223 0 0 0 0 1.5914650570494331 6.3761369732410458 0 6.3761369732410458 -16.809550566700636 0 0 0 0 -2.851954751705398 6.8359087778424623 0 6.8359087778424623 -9.111176972476942 0 0 0 0 1.1982716597278795 5.4452491705233115 0 5.4452491705233115 -14.497450734488666 0 0 0 0 4.1385610043110956 3.2033766125366085 0 3.2033766125366085 -14.501227312326272 0 0 0 0 9.2661344539063748 2.0444511379846517 0 2.0444511379846517 -19.043683261166734 0 0 0 0 2.8685167877406457 5.5023545437325083 0 5.5023545437325083 -19.342167446666281 0 0 0 0 1.8562133627012596 2.140993364564542 0 2.140993364564542 -13.58111277493353 0 0 0 0 2.4997776321860101 2.6364978615856671 0 2.6364978615856671 -17.388223490943346 0 0 0 0 2.4760960203529976 4.6035140041203704 0 4.6035140041203704 -17.009795240534004 0 0 0 0 9.9662079579461533 11.091578504938298 0 11.091578504938298 -44.372228917643952 0 0 0 0 -0.80629679255833975 2.1089738379059444 0 2.1089738379059444 -0.35703941037800746 0 0 0 0 -3.8060446553432712 -8.6863667236066249 0 -8.6863667236066249 -19.943590726266848 0 0 0 0 -20.478244111648564 17.355400050772005 0 17.355400050772005 -5.7639670637004201 0 0 0 0 -14.849669598140011 18.142609151120269 0 18.142609151120269 -20.012994266522583 0 0 0 0 13.645675904544532 6.5406464379539102 0 6.5406464379539102 -23.537718281884736 0 0 0 0 0.91363351236313406 0.4802298828176248 0 0.4802298828176248 -5.3518516959151619 0 0 0 0 0.6568728709402365 5.8180494603571091 0 5.8180494603571091 -23.243494616731155 0 0 0 0 3.4946581310812661 1.6494388367581223 0 1.6494388367581223 -21.023177454932011 0 0 0 0 23.899438301505143 -1.9484363480441971 0 -1.9484363480441971 -32.95999647982535 0 0 0 0 37.494430013990154 77.165281483668878 0 77.165281483668878 -5.0299468162556877 0 0 0 0 -68.861010615717078 97.048109017472598 0 97.048109017472598 4.3251400084118359 0 0 0 0 61.251799617341021 19.817342925893172 0 19.817342925893172 -29.690364413763746 0 0 0 0 7.1185373568941941 14.098768979041779 0 14.098768979041779 -28.767722825133205 0 0 0 0 12.843930756237341 22.007798723356245 0 22.007798723356245 -19.682636623096187 0 0 0 0 -3.3353192167012367 14.614710586385627 0 14.614710586385627 -21.896532299339015 0 0 0 0 -4.0217538929318835 20.415339299204788 0 20.415339299204788 -12.971336926646472 0 0 0 0 -16.337683289092411 19.16369555842175 0 19.16369555842175 -11.423134365117221 0 0 0 0 -4.32411439632358 30.443354006343725 0 30.443354006343725 -2.21380636349204 0 0 0 0 -12.52724295755192 11.4179277512103 0 11.4179277512103 2.1438263786621974 0 0 0 0 -1.79196977779156 0.6722205702884736 0 0.6722205702884736 0.95184645485094421 0 0 0 0 -43.890153566294828 6.0775271494348999 0 6.0775271494348999 15.520745688889292 0 0 0 0 -30.72704080511167 13.159330815678913 0 13.159330815678913 2.0947414666807163 0 0 0 0 -30.888507772380763 40.266809974338685 0 40.266809974338685 -3.7984563741483726 0 0 0 0 -22.674395033032852 25.614418952205597 0 25.614418952205597 21.179988342191791 0 0 0 0 -81.248206648202085 30.288246479325608 0 30.288246479325608 21.070518814610296 0 0 0 0 -0.027514322272736536 5.1524796697702229 0 5.1524796697702229 -7.8367682581568037 0 0 0 0 -2.1864959736566334 -0.3008793028875516 0 -0.3008793028875516 -36.455367378581286 0 0 0 0 -194.92919276681687 42.611708601714781 0 42.611708601714781 -101.12213923100717 0 0 0 0 112.33502570545579 20.38939889192261 0 20.38939889192261 -164.56310563805891 0 0 0 0 112.67877058379463 28.647525797576236 0 28.647525797576236 -35.161717541021062 0 0 0 0 -0.57078954947041893 3.7075170296102442 0 3.7075170296102442 -28.466526131269347 0 0 0 0 0.42816590316010661 1.9863865693187108 0 1.9863865693187108 -28.772789727613144 0 0 0 0 5.315027752664756 9.8123350484587846 0 9.8123350484587846 -18.811145640115598 0 0 0 0 64.048113603716871 159.67186824802411 0 159.67186824802411 77.589352648876684 0 0 0 0 3.7839268152051764 10.697049711280538 0 10.697049711280538 -17.210021879014946 0 0 0 0 -96.171503954814341 -120.55920899582816 0 -120.55920899582816 -41.158052942303129 0 0 0 0 -144.93922451021083 122.57399781839376 0 122.57399781839376 86.22479116193108 0 0 0 0 5.9040718633335132 35.080889151009615 0 35.080889151009615 -26.09292022712043 0 0 0 0 -117.80837060351226 140.0939244825222 0 140.0939244825222 -441.2260013811283 0 0 0 0 -166.0211298565938 -116.64727498811953 0 -116.64727498811953 -7.2318893482970452 0 0 0 0 -136.4796937227494 -12.530687608758399 0 -12.530687608758399 103.88536325676978 0 0 0 0 -121.37206425466594 -73.618813618568765 0 -73.618813618568765 30.873583383105142 0 0 0 0 -25.606347943807805 -46.130035555092036 0 -46.130035555092036 38.762606456999492 0 0 0 0 -31.593504296362202 45.140237836822052 0 45.140237836822052 64.074554022301527 0 0 0 0 61.047989734457587 -78.420302529593755 0 -78.420302529593755 -173.94067484215248 0 0 0 0 1.266368220192138 15.317489535752898 0 15.317489535752898 -24.631281745767886 0 0 0 0 12.076700228914646 17.415124624931195 0 17.415124624931195 -46.46655196817369 0 0 0 0 -82.459204220241247 60.425439882459614 0 60.425439882459614 256.30110812983912 0 0 0 0 0.482107265770503 -0.79586569291807052 0 -0.79586569291807052 -11.157916985695273 0 0 0 0 -85.40628340809883 16.765303030737414 0 16.765303030737414 -73.442928603064502 0 0 0 0 18.483891791815552 6.4674162449628056 0 6.4674162449628056 -10.099879288092779 0 0 0 0 -6.6515968132012517 -5.4992983758056653 0 -5.4992983758056653 13.501263087377083 0 0 0 0 0.77314065042752134 9.5465818491757091 0 9.5465818491757091 -19.503824022598565 0 0 0 0 -1.7148507030863698 10.32027263904456 0 10.32027263904456 -10.675041727801727 0 0 0 0 -3.7901495760846728 11.451634638078758 0 11.451634638078758 -3.6728420688486949 0 0 0 0 6.8965826202320386 9.1699856481900497 0 9.1699856481900497 -23.611211424387875 0 0 0 0 -32.203923449656372 -35.412349722955696 0 -35.412349722955696 -30.224619395072438 0 0 0 0 4.7109988175031958 21.261994283318927 0 21.261994283318927 -1.5242579009172914 0 0 0 0 -5.3765866669104696 -0.37861621256672606 0 -0.37861621256672606 -8.5929658326398268 0 0 0 0 -0.8706735767705398 13.501032172242549 0 13.501032172242549 -23.526017810328092 0 0 0 0 -2.9202083597768933 -63.034078392425727 0 -63.034078392425727 -116.48630393629719 0 0 0 0 -53.420410664678656 -0.36474510402422311 0 -0.36474510402422311 -30.055566774241015 0 0 0 0 -1.7757008314619043 -8.681393796694465 0 -8.681393796694465 -22.477636761032045 0 0 0 0 -45.414551610293131 -2.5995094165291448 0 -2.5995094165291448 -23.196331425264361 0 0 0 0 5.5578754076645964 9.3950489834351174 0 9.3950489834351174 -22.641770714746599 0 0 0 0 8.0136202103958443 11.369823635453713 0 11.369823635453713 -25.724474618476762 0 0 0 0 -0.99728923051338825 27.202741739776684 0 27.202741739776684 33.78115879280449 0 0 0 0 -4.6321623896050141 -11.666676413432469 0 -11.666676413432469 -18.87714819924804 0 0 0 0 11.066171710508229 -9.2457494914142444 0 -9.2457494914142444 -77.968061342908186 0 0 0 0 -13.682570291319411 3.008339491138095 0 3.008339491138095 -10.163030852476879 0 0 0 0 -79.956035148914452 -41.589236927044112 0 -41.589236927044112 -95.485064751541358 0 0 0 0 -0.69022298211434796 6.8881903490356979 0 6.8881903490356979 -28.975760227344409 0 0 0 0 43.568444519742229 18.13908536978488 0 18.13908536978488 -53.153693082151221 0 0 0 0 2.6654014146494376 56.930657883257936 0 56.930657883257936 -93.650052697397768 0 0 0 0 11.367084921750319 -18.14742659773583 0 -18.14742659773583 -22.480268158473336 0 0 0 0 128.98494517993424 9.3166855291474349 0 9.3166855291474349 -26.925220552023802 0 0 0 0 39.593411502313586 -104.64800764078609 0 -104.64800764078609 -30.304217897257331 0 0 0 0 -225.30383456143696 -213.43282651424306 0 -213.43282651424306 -201.90445698212307 0 0 0 0 -0.15852619580985483 4.7215429491073131 0 4.7215429491073131 -23.144112170333067 0 0 0 0 -97.531428928670152 -148.15860437166521 0 -148.15860437166521 -432.64482406648858 0 0 0 0 -464.01537130724194 -554.02231361192116 0 -554.02231361192116 -514.33634945715676 0 0 0 0 -602.73348272100372 -990.01918449201185 0 -990.01918449201185 -1884.6832649998905 0 0 0 0 -0.25400104532879919 1.3043808746548411 0 1.3043808746548411 -10.023318018250279 0 0 0 0 10.283176601139274 462.7176791013344 0 462.7176791013344 -496.2159648662564 0 0 0 0 -169.08158840231812 -189.58585289462007 0 -189.58585289462007 -2071.0054715398433 0 0 0 0 15.729406302660806 -295.87517050778388 0 -295.87517050778388 -1770.1621179221438 0 0 0 0 -106.09611527340573 -338.25897994295519 0 -338.25897994295519 -1744.9073932380725 0 0 0 0 181.51587129470289 -57.450334354375627 0 -57.450334354375627 -2038.940491739244 0 0 0 0 35.707184648436559 -333.10451025677139 0 -333.10451025677139 -2499.494970831538 0 0 0 0 -402.02004960139101 -460.92784642233983 0 -460.92784642233983 -1898.382645748281 0 0 0 0 105.53293471422282 -558.76361515761846 0 -558.76361515761846 -1892.0752281324603 0 0 0 0 210.83896397870859 -734.43268007996812 0 -734.43268007996812 -2499.5992007872405 0 0 0 0 185.61413959745471 -890.66517069640577 0 -890.66517069640577 -1901.1517152483029 0 0 0 0 91.95198653716588 -410.51508352280325 0 -410.51508352280325 -1388.798464710002 0 0 0 0 -25.747001056758705 -754.5338455817855 0 -754.5338455817855 -1695.2022351750747 0 0 0 0 253.08193251127773 118.3959794259481 0 118.3959794259481 -1660.6058044676479 0 0 0 0 -103.82906756879035 -255.97569464534172 0 -255.97569464534172 -639.69130004745602 0 0 0 0 0.76967522914127073 5.1198388160842114 0 5.1198388160842114 -584.69497670876808 0 0 0 0 -41.955914211807915 -204.6399383665721 0 -204.6399383665721 -318.29976030931357 0 0 0 0 -75.491577838574699 -302.46268449054332 0 -302.46268449054332 -381.25410163063316 0 0 0 0 43.763779437546418 179.20480834909176 0 179.20480834909176 56.317414854031085 0 0 0 0 -157.70752638018271 -625.2572426139559 0 -625.2572426139559 -982.55562670261497 0 0 0 0 -83.64630178322183 -226.1886423172291 0 -226.1886423172291 -490.20756938712657 0 0 0 0 17.533294647544977 -972.4402640457829 0 -972.4402640457829 -1835.5541153350223 0 0 0 0 3.5533459372846696 -774.96096128242948 0 -774.96096128242948 -1484.0509542103064 0 0 0 0 155.31785740899642 -1140.4914547062235 0 -1140.4914547062235 -2499.3531175212975 0 0 0 0 -367.20262099346428 -1403.006396259414 0 -1403.006396259414 -1805.8811546089455 0 0 0 0 -444.54089858496377 -1111.6316937391084 0 -1111.6316937391084 -1859.4570339949205 0 0 0 0 -505.42738908492873 -926.69813910786797 0 -926.69813910786797 -1005.8332351231038 0 0 0 0 -410.64848649202349 -160.05657503448833 0 -160.05657503448833 -155.59861205086418 0 0 0 0 -1686.940303402235 -1312.1246372355126 0 -1312.1246372355126 -693.24509697762915 0 0 0 0 -2010.1961576793797 -1740.3464120048757 0 -1740.3464120048757 -1252.2425304955104 0 0 0 0 -2.3222948562111339 -1.9472089612298662 0 -1.9472089612298662 -19.656446032543087 0 0 0 0 -3708.0378845611917 -93.359394504979718 0 -93.359394504979718 -2502.8324117327793 0 0 0 0 -946.74060051634842 -1790.3244909643981 0 -1790.3244909643981 -2757.6615602212114 0 0 0 0 -1177.6547159144491 1331.3274308654004 0 1331.3274308654004 -1554.2357740056759 0 0 0 0 -392.01046339186183 1202.7981155240559 0 1202.7981155240559 -2707.0868749806273 0 0 0 0 -320.7137097829962 931.69851949814256 0 931.69851949814256 -1777.0680509515369 0 0 0 0 -662.10845322221235 840.96238306803207 0 840.96238306803207 -916.38227523516252 0 0 0 0 -0.71346333729418376 1.8670773207048443 0 1.8670773207048443 -2.6312127908808236 0 0 0 0 -122.5118932750598 781.06326748379252 0 781.06326748379252 -1733.5824694911862 0 0 0 0 -131.54393460139227 -66.610024053739835 0 -66.610024053739835 103.78559616620259 0 0 0 0 -423.8095126140874 362.53973330744611 0 362.53973330744611 -0.35965235228650272 0 0 0 0 67.312918036427618 -41.093070027554859 0 -41.093070027554859 -72.249712377713877 0 0 0 0 -203.74199402480644 41.392111424458562 0 41.392111424458562 279.04813920411107 0 0 0 0 -161.77973061316357 -214.39348641178367 0 -214.39348641178367 242.19196956609085 0 0 0 0 3.852897413810239 -9.8290510060776484 0 -9.8290510060776484 -5.364437890632118 0 0 0 0 33.471657285888341 -222.17745694848418 0 -222.17745694848418 -381.17787795207914 0 0 0 0 2.7698436237043382 -2.9128377830957133 0 -2.9128377830957133 -48.641367677001625 0 0 0 0 13.484723777036038 -1.5501051726187143 0 -1.5501051726187143 -25.855372645102761 0 0 0 0 13.863527174182082 171.92515626720433 0 171.92515626720433 -20.802827830517344 0 0 0 0 1.4876082181445467 2.1255518344063118 0 2.1255518344063118 -20.1936764709301 0 0 0 0 8.3949391699492057 4.242583462607314 0 4.242583462607314 -25.84896647238439 0 0 0 0 15.752615958310798 -0.93465211056536646 0 -0.93465211056536646 -27.302397571293113 0 0 0 0 2.9124629548265002 -1.0492608160268446 0 -1.0492608160268446 -13.750130445099785 0 0 0 0 1.1197695848658369 1.4069363672531361 0 1.4069363672531361 -16.421015304067652 0 0 0 0 329.69525982323057 -136.45970188525462 0 -136.45970188525462 -164.30707781013916 0 0 0 0 1.5630968381617549 -6.3813164413477352 0 -6.3813164413477352 -421.22923027586876 0 0 0 0 -373.78481704137965 310.01914901148484 0 310.01914901148484 -600.02055019445424 0 0 0 0 104.11929618392833 -136.76006363097076 0 -136.76006363097076 -584.52477974176236 0 0 0 0 189.67294102067368 -225.97389266083292 0 -225.97389266083292 -577.87216925827852 0 0 0 0 409.51045267316448 -32.588410331160048 0 -32.588410331160048 -977.52201077553309 0 0 0 0 398.31810679397358 -12.056664258753699 0 -12.056664258753699 -784.24608452539826 0 0 0 0 -40.696089603458404 614.25744530046359 0 614.25744530046359 -719.81373403285443 0 0 0 0 258.31612455934476 -254.71673737952756 0 -254.71673737952756 -6.2227263540935382 0 0 0 0 -307.66977725094949 -197.25054133677077 0 -197.25054133677077 -200.32012754984953 0 0 0 0 39.189582342051537 -266.34509603235983 0 -266.34509603235983 -277.75937355988071 0 0 0 0 -208.05228650632569 -43.964706336627842 0 -43.964706336627842 -196.14715688162687 0 0 0 0 186.92729451691929 -91.040478014849214 0 -91.040478014849214 -278.98478468299436 0 0 0 0 32.616350093407505 -73.675828453679969 0 -73.675828453679969 -269.2387123122644 0 0 0 0 -17.706914528744434 -110.58369269024456 0 -110.58369269024456 -164.42688796969742 0 0 0 0 10.677381017786558 -67.507425359794524 0 -67.507425359794524 -193.64736376850124 0 0 0 0 -62.692993333545644 -27.015224834321998 0 -27.015224834321998 -84.098318692367684 0 0 0 0 5.8935981982615999 -47.664137248558291 0 -47.664137248558291 -291.03520201183164 0 0 0 0 20.644488034501819 -27.095830115054923 0 -27.095830115054923 -292.84243896179578 0 0 0 0 -26.446349728206087 -58.357556894152822 0 -58.357556894152822 -122.52273272238381 0 0 0 0 2.4918877081630058 -35.873119577845955 0 -35.873119577845955 -219.28411899594539 0 0 0 0 -21.490758548988026 -23.522152195645504 0 -23.522152195645504 -148.59017837736792 0 0 0 0 -61.340050484635981 -51.427112651673269 0 -51.427112651673269 -72.044010396414365 0 0 0 0 -85.554314496741654 -109.78522543526014 0 -109.78522543526014 -167.57303964250355 0 0 0 0 -11.777367709263274 -83.333699989288107 0 -83.333699989288107 -359.92286384722502 0 0 0 0 -35.447104962359163 -102.3567657994472 0 -102.3567657994472 -239.84376957018685 0 0 0 0 3.5285894955421782 17.781971033085938 0 17.781971033085938 -49.994619228797092 0 0 0 0 47.652895656822494 64.820148495633475 0 64.820148495633475 -44.549913590170036 0 0 0 0 -1.0517829037511761 9.3414803221309821 0 9.3414803221309821 -31.504996790661224 0 0 0 0 2.4887032264294362 7.0810422544318499 0 7.0810422544318499 -22.942992177719134 0 0 0 0 -10.596887923591453 25.898184785098238 0 25.898184785098238 -49.980001037813054 0 0 0 0 -60.02597029973515 -30.163134058306241 0 -30.163134058306241 -37.233320020289739 0 0 0 0 -47.578488039425793 -54.471521899926302 0 -54.471521899926302 -209.00972655282567 0 0 0 0 -79.574498547548401 -76.084294869457835 0 -76.084294869457835 -104.80865864064253 0 0 0 0 -56.660442370372664 16.068479108071188 0 16.068479108071188 12.632814045361556 0 0 0 0 -85.955158475548416 -123.18582543870161 0 -123.18582543870161 -150.47994516078052 0 0 0 0 -70.638977798313135 -88.499394335050965 0 -88.499394335050965 -271.31766739312843 0 0 0 0 -110.14191156234628 -183.70918025362812 0 -183.70918025362812 -281.3717625704503 0 0 0 0 -62.881234776945462 -211.30242516447743 0 -211.30242516447743 -604.51004824559959 0 0 0 0 -165.88711007984452 -368.70538892367495 0 -368.70538892367495 -531.2571085404843 0 0 0 0 29.926923805599557 -31.934957655042808 0 -31.934957655042808 -429.35778446577569 0 0 0 0 29.56077291079032 -193.05870650061343 0 -193.05870650061343 -578.42057263329843 0 0 0 0 53.548018493632981 -159.64945063118648 0 -159.64945063118648 -563.2688934605103 0 0 0 0 -13.561634586987168 -160.64564245928887 0 -160.64564245928887 -583.60719954426895 0 0 0 0 -36.480868296959898 -138.78590647057354 0 -138.78590647057354 -365.93032354868706 0 0 0 0 86.266215558209637 -170.44242746261352 0 -170.44242746261352 -600.1928634262822 0 0 0 0 7.6542726356756248 -216.73104615532611 0 -216.73104615532611 -627.17062341931887 0 0 0 0 27.000869830444373 -152.8764523954502 0 -152.8764523954502 -957.83090289308166 0 0 0 0 216.00207098419497 -23.231958938464572 0 -23.231958938464572 -1462.299328535426 0 0 0 0 52.560474025389453 135.94828842400238 0 135.94828842400238 -1099.8689397714325 0 0 0 0 73.091407288926888 -39.644097733056014 0 -39.644097733056014 -576.95492441894567 0 0 0 0 7.9810560753585378 94.477650381984859 0 94.477650381984859 -822.84689114806588 0 0 0 0 18.099141793148647 -350.32475117897047 0 -350.32475117897047 -1153.4694929941606 0 0 0 0 -19.007838486361038 -143.59754572926067 0 -143.59754572926067 -904.9142819765666 0 0 0 0 205.29918758134841 43.163170192942744 0 43.163170192942744 -1759.4003756678758 0 0 0 0 180.3775426709114 -65.079325016668349 0 -65.079325016668349 -1829.1853849469371 0 0 0 0 389.17071381542308 204.2636900859643 0 204.2636900859643 -2499.7122675967421 0 0 0 0 415.0592709227098 701.79092086128571 0 701.79092086128571 -1235.9402014651132 0 0 0 0 397.81425771894857 298.09047021878268 0 298.09047021878268 -1599.7329473200589 0 0 0 0 444.70230047614336 615.37643473831031 0 615.37643473831031 -2499.8533235056138 0 0 0 0 320.58134635707302 1256.7080962062309 0 1256.7080962062309 -2495.8327592990249 0 0 0 0 -0.45773272929376141 4.1994763918463738 0 4.1994763918463738 -11.866688763891517 0 0 0 0 -680.70277910379582 1431.5075182184949 0 1431.5075182184949 -692.15521994597111 0 0 0 0 59.14871376864707 139.51664455508126 0 139.51664455508126 -39.942863559120269 0 0 0 0 1.355810580331422 691.29808062314714 0 691.29808062314714 -1130.5176188033347 0 0 0 0 0.018730102666542847 7.0092232600014768 0 7.0092232600014768 -21.701857249385988 0 0 0 0 945.66292241221026 269.98737114270443 0 269.98737114270443 -423.65537619636962 0 0 0 0 700.99230437006918 -338.31225990041276 0 -338.31225990041276 -719.96515241699854 0 0 0 0 178.83452087767381 -151.06247928737866 0 -151.06247928737866 43.376652368269788 0 0 0 0 146.51834299683816 7.5245779540859985 0 7.5245779540859985 -621.9373643650797 0 0 0 0 98.053124050566907 217.96005027324782 0 217.96005027324782 171.64763145620236 0 0 0 0 -542.83490176177929 759.51598933505875 0 759.51598933505875 -153.14310715194142 0 0 0 0 -0.44302681972248908 3.672648580033834 0 3.672648580033834 -9.5747835030925579 0 0 0 0 866.17034476655442 596.06642545839952 0 596.06642545839952 -257.42710497129247 0 0 0 0 374.79081477624277 241.92802224046363 0 241.92802224046363 -73.228416959384958 0 0 0 0 -197.31439230582143 343.75413459966876 0 343.75413459966876 68.462021050142084 0 0 0 0 -244.25514436909921 563.42406928727223 0 563.42406928727223 -88.20142809751087 0 0 0 0 -362.60462867605293 547.12002249689363 0 547.12002249689363 -6.6557448878829746 0 0 0 0 -496.84430398612972 366.20127543905141 0 366.20127543905141 9.543469979756992 0 0 0 0 -201.69434358863259 525.00067831242791 0 525.00067831242791 -883.76607806754373 0 0 0 0 -202.31055345576419 465.20315801426926 0 465.20315801426926 -536.09928954068619 0 0 0 0 -37.66816137652313 133.65601011909212 0 133.65601011909212 -302.89869972006022 0 0 0 0 53.868923251502565 512.7049314340718 0 512.7049314340718 222.38862028449375 0 0 0 0 825.94149915655146 -618.63274460129162 0 -618.63274460129162 -1173.9847649430349 0 0 0 0 773.39004013102431 172.21360490911309 0 172.21360490911309 -2495.6577521674294 0 0 0 0 103.70529117639651 435.55424326082209 0 435.55424326082209 -1477.7830187733889 0 0 0 0 301.53359484572292 80.759413275600195 0 80.759413275600195 -952.06955151489694 0 0 0 0 -555.43060737999804 1420.9318405328449 0 1420.9318405328449 -2497.255602960422 0 0 0 0 -2316.2647891042861 849.56422865161676 0 849.56422865161676 -398.42937569154719 0 0 0 0 -20.910298158427395 -588.30602720832758 0 -588.30602720832758 -1209.7231324277045 0 0 0 0 -826.69856718028518 -1786.4214603060027 0 -1786.4214603060027 -2495.3726749845 0 0 0 0 -3.9922727548690551 2.968154925361091 0 2.968154925361091 -12.896248746516493 0 0 0 0 -344.57291830768008 138.19636619044263 0 138.19636619044263 -201.7703724232797 0 0 0 0 -2.2542536173180014 10.059683180279944 0 10.059683180279944 -32.655926402273472 0 0 0 0 -261.91700879928067 -629.94971676195928 0 -629.94971676195928 -1186.1046947403549 0 0 0 0 -299.6683364095079 -5.1412238356797388 0 -5.1412238356797388 22.442566067018561 0 0 0 0 -489.13727418140934 245.01298675036469 0 245.01298675036469 5.5488285099054337 0 0 0 0 -599.12952560870986 159.74186784132519 0 159.74186784132519 -49.480235322859698 0 0 0 0 -865.71585332931977 548.57542292827429 0 548.57542292827429 -103.43795813381735 0 0 0 0 -1251.1076305858392 458.12439737533964 0 458.12439737533964 -131.10498656288291 0 0 0 0 -831.58802579108612 1101.8743009051518 0 1101.8743009051518 -1122.8747552730044 0 0 0 0 -633.51061534284781 -26.419546114021614 0 -26.419546114021614 -17.176850458136414 0 0 0 0 248.86058639328664 -572.54917726770509 0 -572.54917726770509 -2500.7402195869713 0 0 0 0 43.462793749209212 -766.04864777653256 0 -766.04864777653256 -1912.5090341821033 0 0 0 0 -28.079454899118474 -640.83337061447833 0 -640.83337061447833 -1428.7629254502754 0 0 0 0 -126.54760179062049 -436.2216955617755 0 -436.2216955617755 -914.78576728940516 0 0 0 0 -180.88518876156115 -224.65541381146113 0 -224.65541381146113 -727.40782605977529 0 0 0 0 56.686776360492814 -343.28561107213591 0 -343.28561107213591 -1430.6691661175246 0 0 0 0 141.79996661323656 -20.132285593901543 0 -20.132285593901543 -1189.8830524360055 0 0 0 0 47.793457720119278 -397.89547753647651 0 -397.89547753647651 -1461.5385319494671 0 0 0 0 26.768816935899508 -251.501075958613 0 -251.501075958613 -1206.2232789339121 0 0 0 0 52.352888880397472 -329.89091369179005 0 -329.89091369179005 -1606.8767630439561 0 0 0 0 72.939001741938455 -224.01753067302707 0 -224.01753067302707 -1605.2425583742547 0 0 0 0 219.59261077764168 -142.80776741171394 0 -142.80776741171394 -1451.7463180509694 0 0 0 0 42.405758655787508 -258.20790917834347 0 -258.20790917834347 -1380.7088251772657 0 0 0 0 -26.093396723942305 -67.85839605149522 0 -67.85839605149522 -1372.3972123368458 0 0 0 0 -18.206151520112513 -386.54388695655052 0 -386.54388695655052 -1567.1465117578718 0 0 0 0 34.298316835698515 -388.1549596100308 0 -388.1549596100308 -1982.4240732040253 0 0 0 0 0.31147250583921959 1.2446924863206732 0 1.2446924863206732 -16.090873854003803 0 0 0 0 -3.1397446634051427 0.28520114653181139 0 0.28520114653181139 -8.2410111925115626 0 0 0 0 0.001469943939443219 -7.1096414106719656 0 -7.1096414106719656 -21.99770588859365 0 0 0 0 -3.5551381202123893 9.58780609967544 0 9.58780609967544 -19.087523974417628 0 0 0 0 -2.025492999690317 -0.25765442400356164 0 -0.25765442400356164 2.061036329301789 0 0 0 0 -3.2273844747312634 10.20542269142685 0 10.20542269142685 -10.286758847108853 0 0 0 0 2.7567554181779981 4.0689642888933371 0 4.0689642888933371 -14.310835699281499 0 0 0 0 -3.6806036906857571 8.2199332813464707 0 8.2199332813464707 -43.640357596201056 0 0 0 0 -3.0241822047682945 15.435243130076515 0 15.435243130076515 -32.646089353523166 0 0 0 0 -2.9627667038932941 18.79601470746627 0 18.79601470746627 -40.335638896132934 0 0 0 0 -9.3600535427921159 38.734901274925505 0 38.734901274925505 -708.37989031039342 0 0 0 0 -1.8308049172014109 8.7439501422155548 0 8.7439501422155548 -3.5950862009015285 0 0 0 0 3.1695484614037923 8.175954422529685 0 8.175954422529685 -5.6515081906250302 0 0 0 0 -6.0096600815234069 15.536086944761678 0 15.536086944761678 -22.495343061037602 0 0 0 0 3.1362086280445984 11.1637263043923 0 11.1637263043923 -21.261586897434242 0 0 0 0 4.5546944334910222 4.8925516153544777 0 4.8925516153544777 1.8963386851523865 0 0 0 0 -3.7628604292574437 15.01784323459583 0 15.01784323459583 -33.444235212489048 0 0 0 0 -4.239451146677311 13.982618918231708 0 13.982618918231708 -16.620921294163963 0 0 0 0 -119.90931281392932 23.876724111763906 0 23.876724111763906 -49.42804874126341 0 0 0 0 -114.92575180610766 190.23216949989273 0 190.23216949989273 -119.91791391254742 0 0 0 0 -489.1307141876855 374.74936674462015 0 374.74936674462015 -45.333897048273457 0 0 0 0 -529.0339639979162 325.64926575526169 0 325.64926575526169 -90.941872425404654 0 0 0 0 -289.60735499719885 52.046847570664568 0 52.046847570664568 22.901158676626437 0 0 0 0 -153.7284960668494 112.2024437466157 0 112.2024437466157 -118.10436406185909 0 0 0 0 -4.4421166615964003 13.026546797646086 0 13.026546797646086 -23.945491033497586 0 0 0 0 0.037760458233265126 16.332061531475688 0 16.332061531475688 -35.304740711483532 0 0 0 0 -20.020107167296828 56.020512399311883 0 56.020512399311883 -91.752713893696637 0 0 0 0 -98.967578217435403 -48.211290032149918 0 -48.211290032149918 48.308422979096235 0 0 0 0 0.51105673500609683 3.5842158858834621 0 3.5842158858834621 -9.065243275219105 0 0 0 0 69.498111735179464 42.97015247688978 0 42.97015247688978 -18.92036148909574 0 0 0 0 -14.113125611652663 10.782572183299635 0 10.782572183299635 -7.0070932743110461 0 0 0 0 -2.4922746494087171 1.9673851618428007 0 1.9673851618428007 -5.9082351431990849 0 0 0 0 -84.652111482327655 56.769947227174271 0 56.769947227174271 -22.759810996054512 0 0 0 0 -2.2109127878034158 13.269604089849311 0 13.269604089849311 -16.457283194382782 0 0 0 0 1.7153327662435913 9.2425438983755157 0 9.2425438983755157 -14.862613277663314 0 0 0 0 4.8112624500371544 16.831790167034637 0 16.831790167034637 -11.243464871621438 0 0 0 0 -262.89336221878398 446.2027454414083 0 446.2027454414083 -535.37583346960855 0 0 0 0 -1.1112973647664672 -1.5548075098843324 0 -1.5548075098843324 -0.056327174716537698 0 0 0 0 66.980385498532542 80.074869006688459 0 80.074869006688459 -73.98187526399488 0 0 0 0 4.1206432972437748 0.95602878644455558 0 0.95602878644455558 0.17175184373031627 0 0 0 0 0.52013754414940649 58.363892697899246 0 58.363892697899246 -230.45215844809809 0 0 0 0 68.474049700146224 -23.175516135484031 0 -23.175516135484031 -232.98790114325064 0 0 0 0 -19.624311905127115 -80.504956583259627 0 -80.504956583259627 -103.09251651064903 0 0 0 0 30.48277898723677 -78.633419499581123 0 -78.633419499581123 -309.37098852418603 0 0 0 0 12.210018792639062 24.000450598751286 0 24.000450598751286 -90.298401466458017 0 0 0 0 12.781268649982906 10.69708152217504 0 10.69708152217504 -69.682950264354076 0 0 0 0 8.5821657712213177 7.5238039938396559 0 7.5238039938396559 -3.1068154638643364 0 0 0 0 4.5773039829643949 1.8827938683261891 0 1.8827938683261891 -48.135209791473244 0 0 0 0 -4.137954839192048 24.181427565348713 0 24.181427565348713 -55.073006963368243 0 0 0 0 -0.091865294532832625 7.1630184207958889 0 7.1630184207958889 -17.127143892329102 0 0 0 0 20.908366943776286 8.380827322305322 0 8.380827322305322 -69.246173743842519 0 0 0 0 21.975299782369262 14.658547726427059 0 14.658547726427059 -35.28269445019032 0 0 0 0 -6.5670093430378529 -12.881374691226483 0 -12.881374691226483 -38.704765051496906 0 0 0 0 -118.14668579992849 107.7734611252431 0 107.7734611252431 -48.396314109772447 0 0 0 0 -379.4550079636158 226.02224108722294 0 226.02224108722294 -89.570557009260483 0 0 0 0 -1.6718605767000572 2.50696375035659 0 2.50696375035659 -6.1532500612070322 0 0 0 0 197.14650390796407 -55.209070434733803 0 -55.209070434733803 -620.36748276934759 0 0 0 0 -157.89567410205223 -271.52348455770175 0 -271.52348455770175 -366.49454072061599 0 0 0 0 -17.127314778803793 533.7493431756161 0 533.7493431756161 -468.70186625032875 0 0 0 0 122.45249839200127 -63.636730925685193 0 -63.636730925685193 -376.48634265357032 0 0 0 0 122.87903189210374 -97.027381699805119 0 -97.027381699805119 -360.0943212500315 0 0 0 0 -26.072155435519477 -46.378152761385188 0 -46.378152761385188 -25.44054786115046 0 0 0 0 -895.64533333845156 -122.97919359620573 0 -122.97919359620573 -328.63069844602774 0 0 0 0 21.806614671157149 25.455468144247789 0 25.455468144247789 59.248359690646794 0 0 0 0 168.92839419566917 265.71085786357116 0 265.71085786357116 -654.03321317562222 0 0 0 0 -381.52827652573797 -430.42653687782513 0 -430.42653687782513 -410.87241861709663 0 0 0 0 58.103445203429374 44.173926595364719 0 44.173926595364719 -270.01405784728377 0 0 0 0 15.77515330866936 15.175940193905262 0 15.175940193905262 -265.09597676421981 0 0 0 0 -25.363166547342988 -47.199431738008386 0 -47.199431738008386 -26.237885674727227 0 0 0 0 83.603138866014433 -6.9683270277564588 0 -6.9683270277564588 -258.10942371211513 0 0 0 0 126.02658354634957 -4.0596122637821281 0 -4.0596122637821281 -285.13753510073911 0 0 0 0 85.006837848411521 0.83684491509006875 0 0.83684491509006875 -351.02410136259823 0 0 0 0 139.86324718411515 52.873473333012043 0 52.873473333012043 -303.96417612349887 0 0 0 0 -366.29156242178215 -26.845909884165849 0 -26.845909884165849 261.57915402235585 0 0 0 0 -31.642516317913305 246.89488080756337 0 246.89488080756337 -491.47632657349095 0 0 0 0 -45.736287064133649 98.03211554129939 0 98.03211554129939 52.297534188961436 0 0 0 0 -0.97213212784440017 -36.244887231989772 0 -36.244887231989772 -17.404956401358142 0 0 0 0 63.875918513786473 -243.18509993046382 0 -243.18509993046382 -504.84864413418654 0 0 0 0 -41.433144575014921 -204.23875489058446 0 -204.23875489058446 139.13799902864594 0 0 0 0 184.32305143854023 88.490721272762244 0 88.490721272762244 -323.81546558317677 0 0 0 0 -16.406701214119977 -42.751279386999343 0 -42.751279386999343 -24.550087283115325 0 0 0 0 -48.522235538271161 68.452625252606254 0 68.452625252606254 -217.73701210608488 0 0 0 0 1.3077158431078715 -5.6906096036891824 0 -5.6906096036891824 -376.20836775505268 0 0 0 0 29.645762034948348 64.46625576850829 0 64.46625576850829 -296.70338485321145 0 0 0 0 -41.62251510345277 76.271865559368734 0 76.271865559368734 -233.90749821165991 0 0 0 0 -48.101063162439004 41.331853847488446 0 41.331853847488446 -41.4007816553667 0 0 0 0 24.109103061963651 10.033265742551521 0 10.033265742551521 -208.18511504601861 0 0 0 0 -20.693619287126239 63.243489542877114 0 63.243489542877114 -60.711102223270743 0 0 0 0 -4.2678107416695639 -36.118136530379616 0 -36.118136530379616 -61.823342428167052 0 0 0 0 24.693314882875711 10.322216290580911 0 10.322216290580911 2.6357603222496913 0 0 0 0 -81.716509955946094 180.71390939566174 0 180.71390939566174 74.878258872687383 0 0 0 0 -255.05322600756881 151.67296508589072 0 151.67296508589072 78.264383163355888 0 0 0 0 -190.9869147925092 -24.589721362935052 0 -24.589721362935052 4.4964924332214196 0 0 0 0 -3.6155872298058469 1.4373879721222345 0 1.4373879721222345 -0.56838306212998191 0 0 0 0 -254.62145052506094 207.25914071794523 0 207.25914071794523 -292.33864611531317 0 0 0 0 93.451314680231008 -24.736515577114005 0 -24.736515577114005 -193.75018397606254 0 0 0 0 20.535319717643084 -21.889365239901128 0 -21.889365239901128 -50.83279275140027 0 0 0 0 75.118441578744751 -134.70813258808107 0 -134.70813258808107 -363.22194559632317 0 0 0 0 125.96027088087976 93.589659719441102 0 93.589659719441102 -200.50741875013046 0 0 0 0 131.4694248177384 113.51638780537314 0 113.51638780537314 -408.94370357976373 0 0 0 0 -22.000893039954008 -21.621170426858953 0 -21.621170426858953 -87.693648601682071 0 0 0 0 -22.219345139385979 28.000431912933998 0 28.000431912933998 -68.394556324467118 0 0 0 0 -52.795615909443313 -8.5494540370145842 0 -8.5494540370145842 -5.170034468646918 0 0 0 0 -1.2907082635669633 3.7011859120338251 0 3.7011859120338251 -3.9636894986582263 0 0 0 0 -219.62712754646896 -33.610291380067792 0 -33.610291380067792 6.5173969564029903 0 0 0 0 -14.004222786531955 93.749711646031926 0 93.749711646031926 -275.78215771839314 0 0 0 0 -8.1059296249346602 -125.16200330437135 0 -125.16200330437135 -106.03138314179523 0 0 0 0 -21.240736728597557 33.808720281296537 0 33.808720281296537 -28.608022627426081 0 0 0 0 -2.5171621602530649 46.275726032683451 0 46.275726032683451 -40.158860253548482 0 0 0 0 -246.95911572425348 55.987836529953711 0 55.987836529953711 54.240216177380717 0 0 0 0 -85.52515054855985 34.754046869718877 0 34.754046869718877 -20.696879560455272 0 0 0 0 28.259250206159322 110.39739411969913 0 110.39739411969913 -202.18896275556472 0 0 0 0 -27.816032000445375 85.489560297835851 0 85.489560297835851 183.13390664086967 0 0 0 0 0.43350654460625648 4.1584465936276906 0 4.1584465936276906 -8.3393935923940816 0 0 0 0 -80.185732896111972 225.79175440501331 0 225.79175440501331 -166.7117711341125 0 0 0 0 -8.4592401659692484 -5.6274253081048613 0 -5.6274253081048613 -1.2617177673039395 0 0 0 0 74.615419406552974 160.97873175996938 0 160.97873175996938 -597.29679218243837 0 0 0 0 35.487338375972172 -48.351637116600614 0 -48.351637116600614 -1915.29958108342 0 0 0 0 -9.3204726192584531 -125.49642573792516 0 -125.49642573792516 -7.0241239548977319 0 0 0 0 -81.70632126827104 241.26907172640495 0 241.26907172640495 -297.91608450190688 0 0 0 0 61.429721737002183 75.464201231359766 0 75.464201231359766 -213.36717614074405 0 0 0 0 125.37191579380942 43.870818154089648 0 43.870818154089648 -339.13946009908977 0 0 0 0 121.14061459490927 24.520885117453872 0 24.520885117453872 -170.04335452558735 0 0 0 0 190.80414803093481 -516.30192895258369 0 -516.30192895258369 -626.83779091040219 0 0 0 0 -160.84319287296421 151.16281568485283 0 151.16281568485283 -288.42564103542827 0 0 0 0 -4.4407495976861711 -1.082146482333755 0 -1.082146482333755 -1.4228308335543929 0 0 0 0 -185.32060128407522 336.30916543087642 0 336.30916543087642 -214.50128503059204 0 0 0 0 -147.66571654084385 -57.569623797690838 0 -57.569623797690838 -1777.0361193640965 0 0 0 0 -5.3954455197941371 8.8764758055311788 0 8.8764758055311788 -6.8918390148887143 0 0 0 0 -20.917670417697082 -4.289594376286459 0 -4.289594376286459 9.7535701898850675 0 0 0 0 11.205113435423755 -22.53401016917087 0 -22.53401016917087 9.7931679969151446 0 0 0 0 -7.0435254784558925 26.176986048025451 0 26.176986048025451 -13.204786601336231 0 0 0 0 -13.766265152079541 4.3866392839954642 0 4.3866392839954642 66.786896809080076 0 0 0 0 -7.0344809801521251 4.6908383777294631 0 4.6908383777294631 58.833647112501296 0 0 0 0 -10.0197429791979 7.3296737747580627 0 7.3296737747580627 5.3559723253551974 0 0 0 0 -6.2209826767261678 3.8737433628244169 0 3.8737433628244169 5.4318853296733138 0 0 0 0 44.439439345315577 75.358860422911221 0 75.358860422911221 -171.96609026600345 0 0 0 0 74.72453643417748 36.953389897367742 0 36.953389897367742 -154.92727459679736 0 0 0 0 74.675341002221899 33.841416768571889 0 33.841416768571889 -157.02494616812328 0 0 0 0 69.27291350203086 38.076906384014364 0 38.076906384014364 -152.15817001436517 0 0 0 0 47.254290372596259 -256.00635684027588 0 -256.00635684027588 -276.23812940069183 0 0 0 0 -0.93949710616263893 0.85598734588058889 0 0.85598734588058889 -0.78036637347611304 0 0 0 0 -5.3532492663848448 19.984777418343427 0 19.984777418343427 -23.934515032943327 0 0 0 0 -5.5737859949048332 -9.705501992727779 0 -9.705501992727779 -5.066824270012086 0 0 0 0 143.68003427936446 18.746194658211607 0 18.746194658211607 -22.03146623342036 0 0 0 0 -75.550807986577183 -347.52019049804221 0 -347.52019049804221 -1716.0248873531114 0 0 0 0 -5.0092027880996284 143.49674836703343 0 143.49674836703343 -78.591008678995422 0 0 0 0 -375.91850355413499 97.39720011047757 0 97.39720011047757 -156.54933029940548 0 0 0 0 -135.58304317879902 11.618844991833612 0 11.618844991833612 2.5746317100101805 0 0 0 0 -115.32656080902746 277.09189730530488 0 277.09189730530488 -278.26309968222267 0 0 0 0 -2.1566306229554901 0.23568822141510459 0 0.23568822141510459 2.1027930702553519 0 0 0 0 -20.789687720392237 -97.683736237058838 0 -97.683736237058838 -1817.1374073241122 0 0 0 0 -65.952813513073465 -312.13663318524959 0 -312.13663318524959 -1801.5078338457661 0 0 0 0 94.761496846006736 17.44036351406794 0 17.44036351406794 -2244.6371472781539 0 0 0 0 -34.688372670622279 -197.56732118927016 0 -197.56732118927016 -1920.1835349354187 0 0 0 0 45.215022643983218 -134.70607007248509 0 -134.70607007248509 -2017.3500578648009 0 0 0 0 31.686047590933583 -140.16291224029919 0 -140.16291224029919 -1967.3631120779617 0 0 0 0 44.827888564381283 -81.366580954882011 0 -81.366580954882011 -1969.9554240568104 0 0 0 0 37.460336327124551 -98.62216511263432 0 -98.62216511263432 -1973.9646040879343 0 0 0 0 91.246218690369744 -62.885529032742852 0 -62.885529032742852 -2007.0647320852167 0 0 0 0 69.818663876194904 -137.95493420207004 0 -137.95493420207004 -2092.1153002058563 0 0 0 0 220.94504839711036 -172.34617015940785 0 -172.34617015940785 -2499.4388369169319 0 0 0 0 152.98945315149325 -59.545092206846675 0 -59.545092206846675 -2142.6776326317618 0 0 0 0 149.0667015847003 -317.54276789201958 0 -317.54276789201958 -2131.86958327504 0 0 0 0 156.41490200842173 -413.99856819673005 0 -413.99856819673005 -1977.8818264888891 0 0 0 0 -241.31676883585149 92.44211616893881 0 92.44211616893881 -1799.6612097068064 0 0 0 0 -36.487814440574198 48.25389864865474 0 48.25389864865474 -1966.951594873135 0 0 0 0 -33.89618237556445 28.49871761004033 0 28.49871761004033 -1829.0351831700937 0 0 0 0 -300.26358463780741 10.463556235008582 0 10.463556235008582 -1805.0164661417712 0 0 0 0 66.001427906250001 -57.202240981700015 0 -57.202240981700015 -1925.5043274823693 0 0 0 0 40.919531534650289 2.5274409618114078 0 2.5274409618114078 -1978.3270956817432 0 0 0 0 84.707183706462502 21.385352359749959 0 21.385352359749959 -2100.157953824244 0 0 0 0 91.969246964681645 -48.549398500052121 0 -48.549398500052121 -2009.073414470894 0 0 0 0 144.78635104557466 -24.070951630121272 0 -24.070951630121272 -2107.3620967820198 0 0 0 0 140.06200402520361 208.45518353474472 0 208.45518353474472 -2499.5559699400128 0 0 0 0 156.45712221794565 364.02268863135714 0 364.02268863135714 -1794.4150924993737 0 0 0 0 184.26478114510704 575.90873465409277 0 575.90873465409277 -2499.7520200683684 0 0 0 0 -387.37383559535658 61.712002898157152 0 61.712002898157152 -1745.1703792591597 0 0 0 0 -356.04711784909966 247.20206293285446 0 247.20206293285446 -937.40681663841133 0 0 0 0 75.139362295333953 -28.947556356522909 0 -28.947556356522909 -455.32692508524315 0 0 0 0 77.010976464686649 692.58455228964522 0 692.58455228964522 -1728.364446965039 0 0 0 0 101.42884309609418 880.71433261371931 0 880.71433261371931 -715.24677309975323 0 0 0 0 17.999728918129421 638.94776219884443 0 638.94776219884443 -1039.4780590003502 0 0 0 0 -3.3040119793456881 1158.4693358872137 0 1158.4693358872137 -1469.0773524746128 0 0 0 0 100.43798651721593 915.66793590476482 0 915.66793590476482 -1652.7309591203875 0 0 0 0 91.581339652535092 812.22474512432711 0 812.22474512432711 -2003.8755017981312 0 0 0 0 -198.4217209526866 1208.5175671711222 0 1208.5175671711222 -2497.4878397908651 0 0 0 0 -1019.7895929205552 1511.5843734163682 0 1511.5843734163682 -2070.5780560044677 0 0 0 0 -1629.3174948580101 1489.2310228446458 0 1489.2310228446458 -1394.440654213643 0 0 0 0 -1.4442309193303622 0.21455436478889567 0 0.21455436478889567 -8.5749105612470089 0 0 0 0 -913.13510391788191 32.591785281452758 0 32.591785281452758 28.327898024312162 0 0 0 0 -122.78876438649164 794.40261237600498 0 794.40261237600498 -1497.2932987550812 0 0 0 0 -510.58642850718019 -436.10343829845806 0 -436.10343829845806 -709.87312824655237 0 0 0 0 -1085.8425032002049 -1303.1798054850151 0 -1303.1798054850151 -1188.1564947138613 0 0 0 0 199.38271547392856 -942.56602307786125 0 -942.56602307786125 -2495.3804889029561 0 0 0 0 -2.5410553040914343 -2.1860043396744935 0 -2.1860043396744935 -10.342694705842177 0 0 0 0 -1.2012468336493216 -4.0075654074484035 0 -4.0075654074484035 -4.6354359888030636 0 0 0 0 -11.850672389078255 -13.033702075164911 0 -13.033702075164911 -60.914803886087611 0 0 0 0 15.666657595247216 20.84340892038017 0 20.84340892038017 -109.68469538754653 0 0 0 0 -3.6029020513562955 -11.822655117957765 0 -11.822655117957765 -62.699125453724264 0 0 0 0 -3.9422133364881971 1.8219817848135662 0 1.8219817848135662 -7.4131138219419839 0 0 0 0 -394.14665306515872 210.55204849837901 0 210.55204849837901 14.507752418649034 0 0 0 0 -735.42445098516282 1315.5773371367613 0 1315.5773371367613 -696.97760273752647 0 0 0 0 152.06981850490058 293.5394847776671 0 293.5394847776671 -609.10421202464204 0 0 0 0 1.5030578521991669 -0.81681038325715605 0 -0.81681038325715605 -10.885556209465168 0 0 0 0 -17.715016841498255 31.676082157573546 0 31.676082157573546 -166.05717325908336 0 0 0 0 -2.4519035558879585 -7.8634707348273363 0 -7.8634707348273363 -33.452041240953008 0 0 0 0 -6.1078398141357866 -12.415606077408484 0 -12.415606077408484 -57.768144892288547 0 0 0 0 1.2584137500374613 -6.1842867852856216 0 -6.1842867852856216 -40.743164768039875 0 0 0 0 -43.483902611303165 89.25920784781556 0 89.25920784781556 -247.11781450895978 0 0 0 0 3.5509176901704533 -3.8969784587951146 0 -3.8969784587951146 -7.0341191450851852 0 0 0 0 1.8260064490074781 4.5724036089963764 0 4.5724036089963764 -2.8060356123051022 0 0 0 0 5.6319389441393355 33.891303596205944 0 33.891303596205944 -118.10746618388293 0 0 0 0 7.8972342758768264 8.6196276945332606 0 8.6196276945332606 -33.023317409244086 0 0 0 0 -0.81209454173813356 -4.142169593127619 0 -4.142169593127619 -55.281456748325581 0 0 0 0 -0.75834089826093987 -10.263060379331364 0 -10.263060379331364 -59.144181540272257 0 0 0 0 -11.522560017269825 -8.7106439435665379 0 -8.7106439435665379 -61.092981389654597 0 0 0 0 -6.4697195031340016 -5.36427805879066 0 -5.36427805879066 -63.2926804285853 0 0 0 0 7.7625627993507464 1.5812842491683519 0 1.5812842491683519 -44.853745085975191 0 0 0 0 2.4104197451820255 -63.822603977807375 0 -63.822603977807375 -118.33581645381561 0 0 0 0 22.099814776850081 -84.731310383969003 0 -84.731310383969003 -104.7189387452454 0 0 0 0 9.2206189589944074 -154.89580050313998 0 -154.89580050313998 -144.11499355813248 0 0 0 0 -45.690763445233543 -146.34351622021404 0 -146.34351622021404 -300.59631471597459 0 0 0 0 -27.686358860551337 -78.492095469853666 0 -78.492095469853666 -45.039763028798916 0 0 0 0 -296.88642193772694 -200.12630456412808 0 -200.12630456412808 -17.898683074879955 0 0 0 0 -118.86218257555618 -133.26694829672124 0 -133.26694829672124 -14.469583528070757 0 0 0 0 -129.06002678135201 -148.89686782355784 0 -148.89686782355784 52.125107688818389 0 0 0 0 -248.78185220897581 -39.837479895704746 0 -39.837479895704746 -46.15735864580347 0 0 0 0 -74.67643573506416 -53.566360583292408 0 -53.566360583292408 -182.87070421799581 0 0 0 0 -267.62266935587314 -410.98686903896669 0 -410.98686903896669 -545.50710686404273 0 0 0 0 -461.66136756836488 -18.286789743486224 0 -18.286789743486224 -185.95013008000933 0 0 0 0 -105.12327246510074 359.54477371403664 0 359.54477371403664 -900.50105810000787 0 0 0 0 306.96208690596757 -242.92788371504776 0 -242.92788371504776 -374.26488858066659 0 0 0 0 254.86699638731258 268.90315050818754 0 268.90315050818754 27.621091625733243 0 0 0 0 -306.71667246902325 133.73723356940354 0 133.73723356940354 -423.01575395715918 0 0 0 0 -284.20898124921018 146.66078518757422 0 146.66078518757422 -396.31195626415592 0 0 0 0 -13.795552850500371 21.294782510651203 0 21.294782510651203 -525.25157599624072 0 0 0 0 -377.35734104609702 407.06958595920696 0 407.06958595920696 -802.41644015675411 0 0 0 0 273.67081855917638 704.3884358790674 0 704.3884358790674 -2494.2415849807367 0 0 0 0 -575.63133367293119 889.75994145874029 0 889.75994145874029 -983.93789648851453 0 0 0 0 364.47897554934758 201.88318292166673 0 201.88318292166673 -1733.2647272660179 0 0 0 0 362.96948391409779 237.93189926632112 0 237.93189926632112 -1557.1398383899577 0 0 0 0 -282.5508017269965 21.048864581251109 0 21.048864581251109 -437.72370238414805 0 0 0 0 195.92656451461295 -131.7749840538545 0 -131.7749840538545 -886.6324180897027 0 0 0 0 248.25532458141771 -156.55900113926418 0 -156.55900113926418 -1478.7283693067657 0 0 0 0 38.15793515757025 280.13264553321642 0 280.13264553321642 -1544.6697393282138 0 0 0 0 86.548004047785525 -226.24574404940358 0 -226.24574404940358 -1181.1924494099258 0 0 0 0 166.92271581587295 -33.359570293481738 0 -33.359570293481738 -1580.3983456941205 0 0 0 0 72.743121495638803 35.909772252995026 0 35.909772252995026 -159.66409093448783 0 0 0 0 -2.4246500539930249 -1.0024305258378803 0 -1.0024305258378803 0.086352137751291025 0 0 0 0 523.87427758209401 -50.161656079462773 0 -50.161656079462773 -2501.4856275546008 0 0 0 0 372.21979497694764 -416.70019012427838 0 -416.70019012427838 -1807.6911495291188 0 0 0 0 353.58198448303597 -395.37613798743769 0 -395.37613798743769 -1784.7736659550701 0 0 0 0 315.07813177002993 -457.32038052894131 0 -457.32038052894131 -1866.3152531535443 0 0 0 0 214.6737406165185 -588.61826938184095 0 -588.61826938184095 -1823.6931437300454 0 0 0 0 -41.723931106878325 -36.50220649936 0 -36.50220649936 -6.6835015937285789 0 0 0 0 216.51309646147024 -524.0857127124691 0 -524.0857127124691 -1662.6999131198427 0 0 0 0 -21.654830173812115 -14.566023057392158 0 -14.566023057392158 -61.893813155307726 0 0 0 0 -6.4858106363406485 -14.415964006961921 0 -14.415964006961921 -66.832228628263692 0 0 0 0 -16.096161535447322 -28.444684921283624 0 -28.444684921283624 -74.411214006009686 0 0 0 0 2.5448832403703818 -6.3754935419128742 0 -6.3754935419128742 -84.619668440551322 0 0 0 0 -8.3005791435011815 -0.21695593573531369 0 -0.21695593573531369 -55.933249419491403 0 0 0 0 -11.921887493950408 -7.7930688773703878 0 -7.7930688773703878 -43.815988140722766 0 0 0 0 2.6534576866370116 -2.9621960492786457 0 -2.9621960492786457 -43.293501225345835 0 0 0 0 -19.887520454650939 16.036133445075393 0 16.036133445075393 -35.552170992552419 0 0 0 0 -19.457833668896683 -24.257954002168844 0 -24.257954002168844 12.952417608368705 0 0 0 0 1.0500200430418545 -18.778496252127297 0 -18.778496252127297 -113.6855347796627 0 0 0 0 -2.7732262250707147 2.5000431586885057 0 2.5000431586885057 -0.76596831583414371 0 0 0 0 -30.754652692304376 24.948144198027876 0 24.948144198027876 -92.953295903847902 0 0 0 0 -14.9816286713517 -12.440619340115518 0 -12.440619340115518 -44.45438825164274 0 0 0 0 154.0801665736667 -39.891618151676084 0 -39.891618151676084 -260.7181313324254 0 0 0 0 -77.804777091970095 83.439632632645953 0 83.439632632645953 54.147000886296382 0 0 0 0 33.407211443428764 -39.532461625887663 0 -39.532461625887663 -228.51646558930588 0 0 0 0 -1.1260253493052199 0.86710479448451849 0 0.86710479448451849 -0.71140556384001741 0 0 0 0 -108.19550466061092 -167.80939724503605 0 -167.80939724503605 38.529476863099262 0 0 0 0 -112.72773221186355 -38.121924723984193 0 -38.121924723984193 -36.265610470538377 0 0 0 0 -0.47700526304060986 -95.07886793702346 0 -95.07886793702346 -125.0591596749 0 0 0 0 34.107052533587193 -66.921503973848303 0 -66.921503973848303 -30.983575084195763 0 0 0 0 -3.4776911228728418 -32.99660653349045 0 -32.99660653349045 -18.684457383159373 0 0 0 0 -34.761377803011897 -44.220361611794942 0 -44.220361611794942 132.98876412877507 0 0 0 0 -22.539539827126646 32.337172984451172 0 32.337172984451172 -187.94306256677373 0 0 0 0 81.316020589298887 117.92562375084526 0 117.92562375084526 46.038864851019753 0 0 0 0 -68.971839918099221 261.94201325862377 0 261.94201325862377 -344.47180136049428 0 0 0 0 23.542833275867821 -7.379791905336333 0 -7.379791905336333 -284.70408315132227 0 0 0 0 264.73350688963762 253.6405773941442 0 253.6405773941442 -247.81178161988646 0 0 0 0 -13.217811153658658 -21.680396371797542 0 -21.680396371797542 191.09804006565355 0 0 0 0 -1.2720142708027402 -0.30367786543513375 0 -0.30367786543513375 -0.42012642781502763 0 0 0 0 44.786492322819754 173.22652123624721 0 173.22652123624721 -188.1476279967319 0 0 0 0 8.6516019543926177 -1.7289641769675654 0 -1.7289641769675654 -8.0218987729022047 0 0 0 0 -54.630527114702545 -18.811010672186057 0 -18.811010672186057 78.158434756274801 0 0 0 0 18.409832453308752 0.025382886333318311 0 0.025382886333318311 90.107452363736229 0 0 0 0 4.3932650966335132 -35.277208577637793 0 -35.277208577637793 121.27417750690074 0 0 0 0 81.801513027666488 -3.381952795522011 0 -3.381952795522011 132.07589680908131 0 0 0 0 103.46819361415214 -68.330073240573256 0 -68.330073240573256 102.79100022277271 0 0 0 0 25.11518457826935 -57.54340467857719 0 -57.54340467857719 122.23026954970555 0 0 0 0 3.8512251917018148 -21.475682614276593 0 -21.475682614276593 74.534670099292271 0 0 0 0 15.781126917934671 -119.50860548540004 0 -119.50860548540004 200.57405202619702 0 0 0 0 -5.0732470649585366 -82.657903602833358 0 -82.657903602833358 119.08924619643949 0 0 0 0 -22.791539071191437 -52.375794111991127 0 -52.375794111991127 177.61196288370411 0 0 0 0 -8.4932833847959124 -5.3132156603409584 0 -5.3132156603409584 -3.3121922938143058 0 0 0 0 61.111602198019682 -80.661734150689881 0 -80.661734150689881 87.819102256660699 0 0 0 0 -31.842059484749882 -130.04912036927112 0 -130.04912036927112 64.79865573484858 0 0 0 0 -11.168536922612475 -106.60505102746538 0 -106.60505102746538 35.084189821889595 0 0 0 0 -39.175399798608169 -65.355126128029951 0 -65.355126128029951 42.873046511347638 0 0 0 0 -35.961063121756524 -38.859712747063895 0 -38.859712747063895 79.999197909222858 0 0 0 0 -99.773426907446265 -40.094679734225792 0 -40.094679734225792 33.871453759515134 0 0 0 0 -118.9315958581501 -165.71843411059672 0 -165.71843411059672 14.217186983496504 0 0 0 0 -1.6138557381370902 -141.58956829540875 0 -141.58956829540875 -74.348559974474483 0 0 0 0 156.97063280283692 -85.307203616612242 0 -85.307203616612242 50.933477550213865 0 0 0 0 28.125361100015652 -233.17959695342142 0 -233.17959695342142 -176.09524200070155 0 0 0 0 198.66464869432821 -86.245452578441473 0 -86.245452578441473 -69.598028083433746 0 0 0 0 106.39684936198137 -213.22939517760824 0 -213.22939517760824 -91.65256595183746 0 0 0 0 -3.4022274620164055 -2.8438618426870121 0 -2.8438618426870121 -1.2842026783935694 0 0 0 0 -38.378994206799689 -77.933373723106342 0 -77.933373723106342 -24.074262136957259 0 0 0 0 -15.884468495438341 -190.33427787309483 0 -190.33427787309483 -11.783156956586026 0 0 0 0 36.029342548628847 -120.74516325328295 0 -120.74516325328295 64.271819057918037 0 0 0 0 -25.69913999193875 2.6639354175877088 0 2.6639354175877088 -89.95254625112284 0 0 0 0 -13.697343302150902 -9.3054639827414434 0 -9.3054639827414434 -2.9450837997812869 0 0 0 0 -1.2598278722869249 -30.296318029458803 0 -30.296318029458803 -24.69709475242027 0 0 0 0 -11.744093178232333 2.9098164965471369 0 2.9098164965471369 -110.1979737961592 0 0 0 0 -11.378663938117349 -15.139672791932973 0 -15.139672791932973 -22.707217334381568 0 0 0 0 10.128165328325849 -1.6407407560473075 0 -1.6407407560473075 3.1355389392701909 0 0 0 0 -28.256316758107459 -61.822577772440127 0 -61.822577772440127 58.77783306427591 0 0 0 0 -59.268793634324538 23.70054853156762 0 23.70054853156762 2.4740932196214089 0 0 0 0 31.193681248688335 -13.609994357871983 0 -13.609994357871983 -376.97291684873926 0 0 0 0 -6.1657035047271638 0.4590022018982296 0 0.4590022018982296 0.91452223043594927 0 0 0 0 -48.0631553147457 -33.499074142635436 0 -33.499074142635436 -115.65219222474843 0 0 0 0 51.924691207405886 -127.56412576585353 0 -127.56412576585353 -225.65388721573981 0 0 0 0 3.628782457656655 4.7315761363208537 0 4.7315761363208537 -4.1700062517723921 0 0 0 0 -25.746305426202525 -303.1249363380557 0 -303.1249363380557 -659.06303132520407 0 0 0 0 -19.563025864091287 -136.88783126909038 0 -136.88783126909038 -650.70120960715576 0 0 0 0 -43.8302419524789 -71.376039128423145 0 -71.376039128423145 -72.917650457100535 0 0 0 0 113.37013727779959 -174.69451191371627 0 -174.69451191371627 -206.99013303807442 0 0 0 0 27.188990645362537 11.327212315314682 0 11.327212315314682 -438.49266244026694 0 0 0 0 14.450106213043 -189.24221258758189 0 -189.24221258758189 -662.14576574467355 0 0 0 0 -236.85642255897346 -207.3034941024307 0 -207.3034941024307 -559.5819531275265 0 0 0 0 1.7479530395985012 1.3344195298040233 0 1.3344195298040233 -3.520768366917423 0 0 0 0 -66.702263138900889 -378.72254832600902 0 -378.72254832600902 -1178.4867328933324 0 0 0 0 39.443296697289952 -264.78140758975496 0 -264.78140758975496 -317.59043608384673 0 0 0 0 131.36648253499607 -147.24451321210654 0 -147.24451321210654 -216.88671395675919 0 0 0 0 2.5610256175896211 469.4360392889721 0 469.4360392889721 -364.23499421349243 0 0 0 0 -211.99126170836644 -261.0663480125877 0 -261.0663480125877 -111.11882492524455 0 0 0 0 -255.94278600253438 -121.78839015387348 0 -121.78839015387348 -8.5834779368597083 0 0 0 0 -100.08477049313296 177.44872758140264 0 177.44872758140264 -878.60773765137128 0 0 0 0 -270.39797255501253 12.593511663588288 0 12.593511663588288 -565.65962660525111 0 0 0 0 -131.28123082780303 -173.86446589720208 0 -173.86446589720208 -799.87689151613449 0 0 0 0 -52.185803230537203 -50.51963805944979 0 -50.51963805944979 -749.71845018836757 0 0 0 0 -125.34092955649817 15.211927563348581 0 15.211927563348581 -5.8467112029757118 0 0 0 0 18.705037832034577 45.693627094828116 0 45.693627094828116 -1033.0805321411171 0 0 0 0 -4.4183650717186058 -2.4951514260374665 0 -2.4951514260374665 -2.1460190498002731 0 0 0 0 -42.510164372482677 -68.980652706413821 0 -68.980652706413821 -66.660339094585652 0 0 0 0 -31.58980313824577 10.408940017157875 0 10.408940017157875 -209.20365911648332 0 0 0 0 -68.604795547433639 -66.120797570143623 0 -66.120797570143623 -59.283740656508598 0 0 0 0 -36.401161324203315 -52.373895607047245 0 -52.373895607047245 -48.481281969849448 0 0 0 0 -4.3852704137325276 -13.370907955713236 0 -13.370907955713236 -38.806604642530687 0 0 0 0 -39.655667058912286 -103.27054025407915 0 -103.27054025407915 -145.89195416713483 0 0 0 0 -76.639601287524712 -63.870735209437953 0 -63.870735209437953 -47.061150889458077 0 0 0 0 -59.885882525985892 1.5872239446562162 0 1.5872239446562162 32.933027771450725 0 0 0 0 -10.955876709170905 1.4947573228730402 0 1.4947573228730402 -17.800397422142574 0 0 0 0 -205.89961437776185 -63.83053173821645 0 -63.83053173821645 116.72012301204632 0 0 0 0 -96.349030428949717 -140.56841117714839 0 -140.56841117714839 -60.258772520137427 0 0 0 0 -102.6416974025643 -119.40026703449439 0 -119.40026703449439 -7.7736103505812935 0 0 0 0 -80.678311249382489 -69.211641946676536 0 -69.211641946676536 -18.558797502714697 0 0 0 0 -64.014994366176779 -83.008807848207653 0 -83.008807848207653 -60.527608890290139 0 0 0 0 -86.113230664108414 -82.957010666148562 0 -82.957010666148562 -52.592450382137031 0 0 0 0 -36.544828017196437 -96.062223598230048 0 -96.062223598230048 -25.175037650100421 0 0 0 0 0.48507979889374753 -7.7240458962238137 0 -7.7240458962238137 -30.436019133575066 0 0 0 0 -32.051264282646912 -95.75107045169716 0 -95.75107045169716 -66.164247567081475 0 0 0 0 -57.187447604565818 -97.591629699216355 0 -97.591629699216355 -58.281828969920753 0 0 0 0 -17.958639817391031 -71.332229188955353 0 -71.332229188955353 -90.531372068282508 0 0 0 0 -37.94950694605042 -60.064612364976625 0 -60.064612364976625 -26.587326338031126 0 0 0 0 -36.022399332055613 -90.011145984376981 0 -90.011145984376981 -97.360273115944437 0 0 0 0 -21.987495984044017 -65.099027661090076 0 -65.099027661090076 -97.817019909023657 0 0 0 0 -30.853892048145038 -57.178098579835272 0 -57.178098579835272 -33.65282682003631 0 0 0 0 -153.98736015893155 -122.50442437259335 0 -122.50442437259335 59.741292288381374 0 0 0 0 -14.364912483413946 -38.321931995262275 0 -38.321931995262275 -123.88818138657552 0 0 0 0 17.328352095999435 -41.409948265754792 0 -41.409948265754792 -137.80672528484865 0 0 0 0 -504.46674234150123 -501.41821721133601 0 -501.41821721133601 -102.42972280148206 0 0 0 0 -171.56199005016424 -25.472679066813726 0 -25.472679066813726 63.623253042077522 0 0 0 0 -92.553202610295557 -473.8898615602011 0 -473.8898615602011 -951.17112950532464 0 0 0 0 2.6027778844856719 -2.7536709347494224 0 -2.7536709347494224 -22.966837999268336 0 0 0 0 -43.757761331389702 -40.543390772363637 0 -40.543390772363637 -385.52489650720236 0 0 0 0 31.436250830648532 -65.167245586024364 0 -65.167245586024364 -135.07830518284027 0 0 0 0 -27.836560794145498 -71.743877927334324 0 -71.743877927334324 -324.65156832270441 0 0 0 0 -39.209212482943258 65.185879132979608 0 65.185879132979608 -410.31433312755325 0 0 0 0 23.741907465928307 -94.880831771086378 0 -94.880831771086378 -391.26376521805651 0 0 0 0 8.8365226211935806 -4.6908168174413731 0 -4.6908168174413731 -598.63644228634075 0 0 0 0 74.615733804453157 -178.58220839384376 0 -178.58220839384376 -570.92692527846521 0 0 0 0 -101.49400068373029 -275.39727575298639 0 -275.39727575298639 -490.99911539671302 0 0 0 0 -81.980377880121523 -190.09055758461182 0 -190.09055758461182 -473.02275918309169 0 0 0 0 90.016205604535571 -106.69088775447744 0 -106.69088775447744 -485.38420107359525 0 0 0 0 47.854506832336483 -214.22912010661821 0 -214.22912010661821 -543.41119917686592 0 0 0 0 -36.484167926540067 -210.72830466751111 0 -210.72830466751111 -464.00632131259772 0 0 0 0 254.05469815664401 68.221207210626744 0 68.221207210626744 -342.35052769729919 0 0 0 0 19.479356415919522 18.533881494219486 0 18.533881494219486 -118.14317022787674 0 0 0 0 235.57926977410898 304.51713907111116 0 304.51713907111116 -107.17643200803468 0 0 0 0 47.878143787233057 -97.508714516998225 0 -97.508714516998225 -279.72488338020048 0 0 0 0 60.277306526004622 210.02928630908582 0 210.02928630908582 -194.01529510811088 0 0 0 0 -231.06498556773113 -132.17713399518834 0 -132.17713399518834 47.443154713655531 0 0 0 0 18.579365534064252 13.303785557749855 0 13.303785557749855 -123.85556482188585 0 0 0 0 177.19024850586629 -6.8492758881511691 0 -6.8492758881511691 -662.04942543468496 0 0 0 0 25.542247638722756 -42.97182722117941 0 -42.97182722117941 -321.11935084124434 0 0 0 0 -42.285428146217171 -66.143325366807403 0 -66.143325366807403 -186.62761475562002 0 0 0 0 -110.32685117081792 -201.31668156921933 0 -201.31668156921933 -377.61893718312058 0 0 0 0 -16.32769343088593 -52.528416868455679 0 -52.528416868455679 -259.97607590849748 0 0 0 0 106.27965047843207 75.764929876700535 0 75.764929876700535 -224.74083533019075 0 0 0 0 163.47759636847081 -34.982107061323404 0 -34.982107061323404 -442.1981171492298 0 0 0 0 115.94388237819794 24.242512284816257 0 24.242512284816257 -79.00794992945157 0 0 0 0 365.00987713999621 304.48879416747877 0 304.48879416747877 -129.70224883047558 0 0 0 0 306.47816826217445 46.560741262442207 0 46.560741262442207 -163.17576778210059 0 0 0 0 20.119181628058207 14.971984279150455 0 14.971984279150455 -112.01035490640982 0 0 0 0 7.8580071317100106 -2.8762751298845615 0 -2.8762751298845615 -161.33836948636599 0 0 0 0 -42.446646142772231 -60.95999371972357 0 -60.95999371972357 -156.13527675207479 0 0 0 0 -40.840398166524665 -52.61392405795641 0 -52.61392405795641 -121.20525526705387 0 0 0 0 21.87152823545712 10.946427016760328 0 10.946427016760328 -99.698230489013341 0 0 0 0 -57.925013576852287 -63.60186312076803 0 -63.60186312076803 -121.24717817666209 0 0 0 0 -0.05690676127866201 8.4839445468204957 0 8.4839445468204957 -19.170400352945265 0 0 0 0 160.25043479393298 83.634899556085657 0 83.634899556085657 -13.909777161409693 0 0 0 0 -75.478627110302369 -103.34484580982007 0 -103.34484580982007 -198.05619901307182 0 0 0 0 -59.772909333861207 125.15851572291649 0 125.15851572291649 -153.26431470320676 0 0 0 0 3.5668866623254871 96.340857455990772 0 96.340857455990772 -402.83917373491568 0 0 0 0 -106.06863254928567 -20.546635899067041 0 -20.546635899067041 47.84577956290741 0 0 0 0 -0.64121981811149453 63.060422463153373 0 63.060422463153373 -111.82410039420938 0 0 0 0 -137.39702461871275 -18.433553957067488 0 -18.433553957067488 -157.94555569041404 0 0 0 0 -5.4315743311783535 29.130762681213128 0 29.130762681213128 -617.60947437970026 0 0 0 0 -112.69946494911346 -55.94130316810697 0 -55.94130316810697 -490.76853613097046 0 0 0 0 -224.99406917663464 69.523131882815505 0 69.523131882815505 -269.65756642133056 0 0 0 0 -35.398937375925925 18.816140209812147 0 18.816140209812147 -569.1314682900138 0 0 0 0 -97.042478021534407 74.931067326102493 0 74.931067326102493 -270.56061734943796 0 0 0 0 -145.90684849797549 111.74031774202354 0 111.74031774202354 -83.680150323358248 0 0 0 0 -162.53364004545256 52.153852953269961 0 52.153852953269961 -64.102237191604218 0 0 0 0 -109.81516665762592 169.01502232839266 0 169.01502232839266 -110.67833488053657 0 0 0 0 -132.93638718475279 100.52093772447097 0 100.52093772447097 -409.38575558776938 0 0 0 0 -95.85466275383169 -62.549385572689062 0 -62.549385572689062 -612.67005280092053 0 0 0 0 13.982381369754876 135.27850339283032 0 135.27850339283032 -126.85490076360293 0 0 0 0 -3.3772765958701711 -39.324410807141248 0 -39.324410807141248 -275.52867049674387 0 0 0 0 32.439642320672419 78.711352165324342 0 78.711352165324342 -59.161201540802722 0 0 0 0 398.40431992250979 362.45439526003247 0 362.45439526003247 -91.855365708812315 0 0 0 0 32.062547272099437 76.480906941953435 0 76.480906941953435 155.8807003884358 0 0 0 0 343.25988762015731 -42.107341388640634 0 -42.107341388640634 -512.53453591425205 0 0 0 0 -270.38913957449131 -20.19332352956917 0 -20.19332352956917 336.10509995237226 0 0 0 0 -97.298294290401827 215.93240689935919 0 215.93240689935919 -13.828105588181643 0 0 0 0 -3.2897069498509666 2.1988009304908473 0 2.1988009304908473 -0.4310221048159093 0 0 0 0 -29.645092359271075 48.807908713992219 0 48.807908713992219 -128.96345116282464 0 0 0 0 -117.52251706620336 -112.39694835012051 0 -112.39694835012051 24.882958337184391 0 0 0 0 -22.218241138318263 53.612381291444763 0 53.612381291444763 -156.39651408784994 0 0 0 0 -50.438872054131934 110.9337510543628 0 110.9337510543628 -189.10001152758923 0 0 0 0 -43.324698419161905 71.538652048599033 0 71.538652048599033 -26.103253454042715 0 0 0 0 -112.47162613529872 121.32083151153347 0 121.32083151153347 -24.899155149807484 0 0 0 0 -120.3305081410856 122.516526626222 0 122.516526626222 -18.200903586795903 0 0 0 0 -120.29206423253345 117.85190438086283 0 117.85190438086283 58.435500240699184 0 0 0 0 -124.92840934529431 56.066578074944118 0 56.066578074944118 4.8467169484283659 0 0 0 0 -89.409062879940393 79.454579605007893 0 79.454579605007893 -89.76683627924649 0 0 0 0 -37.438792648852541 -2.4113735028695373 0 -2.4113735028695373 23.212549251664313 0 0 0 0 -108.26985024665737 84.391447013207653 0 84.391447013207653 54.851612119731726 0 0 0 0 -94.356401380804982 63.785653719955008 0 63.785653719955008 -19.262030436148052 0 0 0 0 -3.6510405508997792 7.9912397026309918 0 7.9912397026309918 -6.8775832599349087 0 0 0 0 -1.868809775264479 0.98263481485913839 0 0.98263481485913839 0.13674345019197176 0 0 0 0 3.1479865869209789 -3.5506045882866601 0 -3.5506045882866601 -7.4193944504804676 0 0 0 0 -2.5862377988782939 1.4236771646772439 0 1.4236771646772439 1.0285301138552825 0 0 0 0 -10.582157259259475 31.239822310417367 0 31.239822310417367 -36.619354889342503 0 0 0 0 -14.993302752311592 -9.2955381729429973 0 -9.2955381729429973 -8.4761738255037926 0 0 0 0 -2.0062298047547849 -0.27153559089238399 0 -0.27153559089238399 0.0093531762551890552 0 0 0 0 -2.6133620443151813 -3.1188562964016455 0 -3.1188562964016455 3.151204423886611 0 0 0 0 -2.9150129242069198 6.8035466282702828 0 6.8035466282702828 -9.1639474026233074 0 0 0 0 -4.1340841066921712 12.858193375566771 0 12.858193375566771 -14.248928096989403 0 0 0 0 -17.012320442454438 8.4721974582280382 0 8.4721974582280382 2.2097702203036533 0 0 0 0 1.8873227158774171 -15.915978913417348 0 -15.915978913417348 42.78146623178327 0 0 0 0 -14.793568558163315 14.120008008627337 0 14.120008008627337 -1.9324879640444124 0 0 0 0 -0.19123054124015582 -0.94694543549376675 0 -0.94694543549376675 -0.81539518066242067 0 0 0 0 -0.93734960151267188 -1.7528343463054057 0 -1.7528343463054057 -4.0807565661443164 0 0 0 0 3.6793290134464769 -2.2468173225715873 0 -2.2468173225715873 -1.7004964950174326 0 0 0 0 -4.4781055868670592 5.3218926754525455 0 5.3218926754525455 -3.9979944782171515 0 0 0 0 -10.836250884141919 -1.8290026956383372 0 -1.8290026956383372 13.067245963247842 0 0 0 0 -6.0931117622358215 3.8408548299557879 0 3.8408548299557879 1.0650424230334465 0 0 0 0 -6.9679409274876889 5.1003461422260443 0 5.1003461422260443 -0.3790289581156685 0 0 0 0 -0.18701574212024852 0.65156496220012627 0 0.65156496220012627 -1.5349983757328083 0 0 0 0 -9.0206736931443174 10.565330698322214 0 10.565330698322214 -0.9061179212803836 0 0 0 0 -108.69379568062698 50.822991226035811 0 50.822991226035811 206.40748883830383 0 0 0 0 -14.691009214209771 27.195785823962069 0 27.195785823962069 3.5939310913236113 0 0 0 0 -4.678151005152257 6.1454717134944872 0 6.1454717134944872 -4.4540548411959406 0 0 0 0 -3.0450969804171981 5.957488951836492 0 5.957488951836492 6.5298663289431715 0 0 0 0 4.9368553530628674 11.722277661713406 0 11.722277661713406 4.0226513338711811 0 0 0 0 -0.49437808527900629 1.1216345362738167 0 1.1216345362738167 -2.7522672702638005 0 0 0 0 -10.215293429855592 -2.0028300101403147 0 -2.0028300101403147 -5.4013321995298611 0 0 0 0 -22.862292940069892 20.400352988566738 0 20.400352988566738 -25.313459099364991 0 0 0 0 -5.453326792997359 -13.141903426982026 0 -13.141903426982026 -16.226884731368045 0 0 0 0 11.6675193649844 -116.51233106970176 0 -116.51233106970176 -39.47078441674239 0 0 0 0 7.1561403589941897 7.1564912310648907 0 7.1564912310648907 -11.783157600302097 0 0 0 0 65.714410844209851 -12.669827027595602 0 -12.669827027595602 -119.78786466320889 0 0 0 0 13.12590773205595 9.3674321846287398 0 9.3674321846287398 -15.764575898881077 0 0 0 0 202.4710894857044 192.0505340798336 0 192.0505340798336 30.117959167488152 0 0 0 0 -79.55572617877624 188.31570353616553 0 188.31570353616553 232.82460995072324 0 0 0 0 -1.4373005272750348 0.69165069074298913 0 0.69165069074298913 -1.4236380171271321 0 0 0 0 83.365369700019073 233.63083340899902 0 233.63083340899902 188.65171539748553 0 0 0 0 47.789029059315908 88.41406485900734 0 88.41406485900734 -41.470724791615794 0 0 0 0 -64.12833168594625 -50.144370532631001 0 -50.144370532631001 -83.991167768021114 0 0 0 0 19.645889336052878 -0.25296014975238279 0 -0.25296014975238279 -83.880585171670049 0 0 0 0 -32.189492542876323 -21.109807094006662 0 -21.109807094006662 -22.796896618582117 0 0 0 0 -63.34014817237221 -47.000431366723205 0 -47.000431366723205 -86.850184907440052 0 0 0 0 -11.258755251963699 -8.6763461461114844 0 -8.6763461461114844 -15.44724591610634 0 0 0 0 -17.826676249534785 -11.776585224384689 0 -11.776585224384689 -33.929640031696181 0 0 0 0 -13.198274982159131 5.2690759742634796 0 5.2690759742634796 -2.5082692144328576 0 0 0 0 -23.548428873430566 -4.7414019924854074 0 -4.7414019924854074 1.9287703162117396 0 0 0 0 -6.532946813235732 -1.1279990936719457 0 -1.1279990936719457 -2.0711475083539028 0 0 0 0 -28.635567121014901 17.301844625340891 0 17.301844625340891 -8.4789968607201445 0 0 0 0 -27.935854273486257 1.3387534755856905 0 1.3387534755856905 28.962879358206465 0 0 0 0 -67.601959818548494 54.400697728488012 0 54.400697728488012 26.772820729252999 0 0 0 0 -11.917826534826418 -16.040732828190812 0 -16.040732828190812 -103.52528760267887 0 0 0 0 -5.8687469935858783 -3.5305754439250556 0 -3.5305754439250556 -3.6439920903750647 0 0 0 0 -19.618593991182934 -31.523164379574155 0 -31.523164379574155 -61.03928191435989 0 0 0 0 -26.314380387963865 -26.328839441099262 0 -26.328839441099262 -35.667084022701601 0 0 0 0 -21.402165988003617 -7.736169928626623 0 -7.736169928626623 -64.358686029656383 0 0 0 0 -20.962106703766949 3.5274030867076362 0 3.5274030867076362 -4.0091698779524449 0 0 0 0 1.9499113366795282 0.03138959233363714 0 0.03138959233363714 -18.467958707426561 0 0 0 0 -8.9478099459056466 -5.4931477220779925 0 -5.4931477220779925 2.1926400289084995 0 0 0 0 -5.1865732803884725 26.584712220062102 0 26.584712220062102 -130.52732125669718 0 0 0 0 -17.176349463534279 -6.7275332547724247 0 -6.7275332547724247 14.035368010401726 0 0 0 0 -49.434983362029016 36.505071474999568 0 36.505071474999568 -11.555526820520754 0 0 0 0 -79.403010217531119 196.0480299625051 0 196.0480299625051 -163.35648326289083 0 0 0 0 -37.326037112025006 8.0444698727296782 0 8.0444698727296782 21.006161775832879 0 0 0 0 -9.3911392043596607 17.115637091637836 0 17.115637091637836 -23.313489592183032 0 0 0 0 -16.64487822054889 8.6737968381166866 0 8.6737968381166866 2.7961487301727175 0 0 0 0 -28.430580146302418 27.013192580947361 0 27.013192580947361 -23.305191966705024 0 0 0 0 -15.228851489298904 18.146375711556175 0 18.146375711556175 -27.577154393224191 0 0 0 0 -14.288319381339534 23.56032856173988 0 23.56032856173988 -27.741603559828945 0 0 0 0 -3.1895396181412252 19.310902556338078 0 19.310902556338078 5.9776973602274666 0 0 0 0 -21.732754861004878 7.3331463283802805 0 7.3331463283802805 3.0316204275150085 0 0 0 0 -8.5276671967276343 3.2023149119704613 0 3.2023149119704613 4.3029843646218069 0 0 0 0 32.402150786557854 -47.919185101351104 0 -47.919185101351104 -187.49104818953765 0 0 0 0 17.054941809654679 -40.225879289857403 0 -40.225879289857403 -74.939517005148502 0 0 0 0 -205.78660276444771 -10.565724604441129 0 -10.565724604441129 -68.050354468738078 0 0 0 0 12.533553624538854 -37.691277331528909 0 -37.691277331528909 -17.068956093375448 0 0 0 0 12.687287632158586 -6.8834688887782249 0 -6.8834688887782249 -79.311106431567168 0 0 0 0 0.27330820222042806 10.112480601933076 0 10.112480601933076 -20.237765432857287 0 0 0 0 49.451171953230471 72.464536221537173 0 72.464536221537173 -80.481244652775786 0 0 0 0 -54.892398764966401 -55.561144724959377 0 -55.561144724959377 -121.16818957333686 0 0 0 0 -59.546966335172328 -54.129066253757628 0 -54.129066253757628 -82.096095641292777 0 0 0 0 -58.564594539966492 -35.328281292771862 0 -35.328281292771862 -126.29797730975588 0 0 0 0 -42.318945166597587 -29.380732903427997 0 -29.380732903427997 -87.686089173416349 0 0 0 0 -4.9235279181621454 4.4936290890018569 0 4.4936290890018569 -28.10274362109844 0 0 0 0 10.94940165729588 -44.581237323454843 0 -44.581237323454843 -58.356261144892414 0 0 0 0 -37.405808590722032 -37.360171883287208 0 -37.360171883287208 -20.346471736127867 0 0 0 0 -82.206563450432895 -50.054836952392179 0 -50.054836952392179 91.172872212911898 0 0 0 0 -38.45037226283057 -8.8050021666276734 0 -8.8050021666276734 9.2245570644445252 0 0 0 0 -24.695464687865297 -9.4081043090875838 0 -9.4081043090875838 -3.4677261948446443 0 0 0 0 -59.534391835657516 4.9117526037771313 0 4.9117526037771313 -18.88606537245505 0 0 0 0 -76.894302538517877 7.9083278936705028 0 7.9083278936705028 15.425356743746306 0 0 0 0 -116.03333314042175 2.5910749492322793 0 2.5910749492322793 60.558202903839629 0 0 0 0 -6.9031641599167415 -56.639255329464504 0 -56.639255329464504 -96.705934131714457 0 0 0 0 -51.50491669459916 -125.98770260439414 0 -125.98770260439414 32.062539304579332 0 0 0 0 -136.50763258076677 -108.24534930561276 0 -108.24534930561276 28.406927983101923 0 0 0 0 -20.023958376128913 -34.648305171238292 0 -34.648305171238292 -19.49375420170956 0 0 0 0 -60.849961175907993 -112.02920338262265 0 -112.02920338262265 37.560696530606947 0 0 0 0 37.500221041096665 -31.703593154044938 0 -31.703593154044938 -58.989775271318649 0 0 0 0 -15.43586710170166 -22.459459148652968 0 -22.459459148652968 73.472867660619158 0 0 0 0 -2.1791004099860203 -27.213208610667138 0 -27.213208610667138 -23.241388912195589 0 0 0 0 -5.7864236435535794 -7.8198662588576084 0 -7.8198662588576084 3.0923152509460721 0 0 0 0 -4.7584871719700459 -9.9218952588489628 0 -9.9218952588489628 -2.9350848564426997 0 0 0 0 -1.5953759193307633 -18.54101967274255 0 -18.54101967274255 6.8542798089110875 0 0 0 0 4.9456478996271471 -2.6404721913277172 0 -2.6404721913277172 1.2906404927343829 0 0 0 0 -1.0449673433642452 1.8565592465339122 0 1.8565592465339122 1.1100449611195486 0 0 0 0 3.3368321521320468 13.622929220040533 0 13.622929220040533 -47.642834754420619 0 0 0 0 -4.8826444679471024 5.2875861295506184 0 5.2875861295506184 -51.730390947916021 0 0 0 0 -113.4557919238913 13.630855037375113 0 13.630855037375113 -1.3310891688743141 0 0 0 0 -41.580658513054004 60.918877310992684 0 60.918877310992684 -95.998999722021836 0 0 0 0 -3.0092074417553647 -1.1622289338462224 0 -1.1622289338462224 -0.48981335219831124 0 0 0 0 7.1559216941961949 17.380337993208286 0 17.380337993208286 -8.0477221870023641 0 0 0 0 14.319062537691934 -37.841229601504892 0 -37.841229601504892 -236.96689534945472 0 0 0 0 -41.469547158189016 -158.34244842985754 0 -158.34244842985754 -195.14335321472572 0 0 0 0 20.110011245142232 -7.7172194601862429 0 -7.7172194601862429 -105.71484611765482 0 0 0 0 -1.3203372086954914 7.2615184962360217 0 7.2615184962360217 -54.33736446515104 0 0 0 0 -9.5422064060230696 -9.6911787133303733 0 -9.6911787133303733 -36.911635331241996 0 0 0 0 -3.5416661350827781 -12.511453218718088 0 -12.511453218718088 -90.050186820350063 0 0 0 0 -11.369732322400523 -32.287567985546048 0 -32.287567985546048 -59.059489742474398 0 0 0 0 -18.231234191416661 -26.779578129680885 0 -26.779578129680885 -60.192494440270821 0 0 0 0 6.1678313461143262 -54.91120239979864 0 -54.91120239979864 -152.56337049589638 0 0 0 0 -11.587440220613644 -37.099259323036677 0 -37.099259323036677 -72.590415890863369 0 0 0 0 -41.769999920574264 -106.94748024741602 0 -106.94748024741602 -98.375847957449878 0 0 0 0 -37.97851287794947 -92.806065952885547 0 -92.806065952885547 -55.447380899931886 0 0 0 0 -55.888412543079539 -76.52623232379301 0 -76.52623232379301 -45.389754770381842 0 0 0 0 -93.069786247544471 -107.38971977924484 0 -107.38971977924484 -50.9719325204087 0 0 0 0 -50.907757517850769 -131.67182722810685 0 -131.67182722810685 -83.039449121419239 0 0 0 0 -58.893240132530536 -145.15179541435509 0 -145.15179541435509 -38.032313183786755 0 0 0 0 -35.42398731669573 -115.38368397020258 0 -115.38368397020258 -91.928153448578087 0 0 0 0 -75.394288234940177 22.728773724917119 0 22.728773724917119 20.221236609693733 0 0 0 0 -62.980610997984513 47.354835409761108 0 47.354835409761108 -22.646732439381594 0 0 0 0 -55.392000623611239 36.703698331922169 0 36.703698331922169 -26.797099601601076 0 0 0 0 -73.665913734748756 57.624110007505806 0 57.624110007505806 -27.992298431061499 0 0 0 0 -57.137179392428152 58.38530072737376 0 58.38530072737376 -76.085997243440943 0 0 0 0 -72.595069049151789 64.076865208449817 0 64.076865208449817 -48.160055090826063 0 0 0 0 -66.761242862179643 55.709672710909217 0 55.709672710909217 -62.382090839622833 0 0 0 0 -81.076262958278676 56.324856582399661 0 56.324856582399661 -1.7636800582040451 0 0 0 0 -45.213734088669298 -48.906342221078376 0 -48.906342221078376 -48.192339169319894 0 0 0 0 47.815478788262226 8.6538192423622604 0 8.6538192423622604 -165.36290254891173 0 0 0 0 -0.87121244582668611 -4.2378282811184569 0 -4.2378282811184569 -18.354053538325758 0 0 0 0 -90.373708904004161 -71.176724442968407 0 -71.176724442968407 -45.463078996990362 0 0 0 0 -42.642926544605871 -64.303013923527033 0 -64.303013923527033 -45.764031480999051 0 0 0 0 -50.994911176429014 -49.474080343765308 0 -49.474080343765308 -29.445542491797823 0 0 0 0 31.923137538817173 4.1833876625905759 0 4.1833876625905759 -47.531976603910152 0 0 0 0 -13.575490651888686 10.006846468868389 0 10.006846468868389 10.510094256216689 0 0 0 0 -46.315569431934819 5.8999581787556963 0 5.8999581787556963 91.848839826034236 0 0 0 0 25.838716085743727 -22.465615628234445 0 -22.465615628234445 -27.731617857627498 0 0 0 0 -1.2006713779570681 -2.4581877544313357 0 -2.4581877544313357 -6.1625807702286579 0 0 0 0 -26.690356808725483 6.4258298736822326 0 6.4258298736822326 -8.3709938123702159 0 0 0 0 -37.079706510495271 32.932099326119896 0 32.932099326119896 -12.071460376413597 0 0 0 0 -52.294570823476533 29.29089704303442 0 29.29089704303442 0.97408062219619751 0 0 0 0 -0.66938212444993539 -5.5615446083251179 0 -5.5615446083251179 -9.9511473821000465 0 0 0 0 3.3330621863497072 -12.242099105417765 0 -12.242099105417765 -43.466125075716263 0 0 0 0 6.7505095160686324 -12.725104714214467 0 -12.725104714214467 -14.911881942487526 0 0 0 0 -0.26041912875118012 -5.8900029151233682 0 -5.8900029151233682 -25.034727107988672 0 0 0 0 10.662663673625502 -2.3858514349431061 0 -2.3858514349431061 -22.078367195270403 0 0 0 0 -2.1778160893336462 -13.8918153993327 0 -13.8918153993327 -8.4784336340380833 0 0 0 0 0.53747609767995641 1.8447825094067554 0 1.8447825094067554 -5.8022957635791954 0 0 0 0 7.6657280385043123 -11.910505282696249 0 -11.910505282696249 -14.542666998378991 0 0 0 0 1.2176840255257568 -7.3951186312942951 0 -7.3951186312942951 -18.406686094885288 0 0 0 0 5.8059604438258248 -16.826888912726645 0 -16.826888912726645 -24.245542266846314 0 0 0 0 3.6185120211084723 -8.6230116119222657 0 -8.6230116119222657 -20.71189847293499 0 0 0 0 5.2593150843416225 -5.2255007106776361 0 -5.2255007106776361 -14.481898064049233 0 0 0 0 18.27628483141234 -7.2258407338595134 0 -7.2258407338595134 -21.575361429346685 0 0 0 0 4.5725214890073218 0.19542945233304465 0 0.19542945233304465 -13.872122316454114 0 0 0 0 12.621534293053603 8.8194590752677016 0 8.8194590752677016 -20.828115530746221 0 0 0 0 13.767056264992789 -2.9818360762428711 0 -2.9818360762428711 -28.255664941415944 0 0 0 0 7.0503278417038615 -0.027834873444589903 0 -0.027834873444589903 -24.855046740694373 0 0 0 0 12.372126765956637 12.348968440350291 0 12.348968440350291 -23.397004948385074 0 0 0 0 11.096327149829888 10.797663533150775 0 10.797663533150775 -54.048093336392384 0 0 0 0 0.48395891150903481 34.699585339000805 0 34.699585339000805 -16.103404440304985 0 0 0 0 35.730759601131922 58.860629208568753 0 58.860629208568753 -28.667753900956086 0 0 0 0 -25.578529385787988 47.184963098496155 0 47.184963098496155 -23.666489834564345 0 0 0 0 -3.8824268903808843 -2.872433911285043 0 -2.872433911285043 -4.0365633714764044 0 0 0 0 -1.5481046799741307 22.692825043752237 0 22.692825043752237 -56.616445071700582 0 0 0 0 0.82838986293664618 0.8976295521465758 0 0.8976295521465758 -1.1768258406056447 0 0 0 0 -5.3691120176335971 -29.092018099101551 0 -29.092018099101551 -82.309186730140937 0 0 0 0 19.190423538116484 9.1108973176904939 0 9.1108973176904939 -32.85478302674133 0 0 0 0 -13.850121431318939 -22.987431107123484 0 -22.987431107123484 -76.17958214565806 0 0 0 0 15.04151890449748 -4.5354109185236666 0 -4.5354109185236666 -70.497716575438517 0 0 0 0 16.21737133236843 -1.3515066465274685 0 -1.3515066465274685 -61.994534055100758 0 0 0 0 8.3513588460292763 -7.4591753489811241 0 -7.4591753489811241 -23.950082287051778 0 0 0 0 11.442123154436558 3.9928282529617718 0 3.9928282529617718 -63.603419076429645 0 0 0 0 3.5833414497242302 9.0104844537297595 0 9.0104844537297595 -52.195923771317212 0 0 0 0 61.798716680042162 73.186005029774606 0 73.186005029774606 -26.926298206606589 0 0 0 0 45.315499515111696 17.482531709521027 0 17.482531709521027 -74.314783675472654 0 0 0 0 8.5632247798017431 10.631435090537352 0 10.631435090537352 -54.532753273615313 0 0 0 0 46.987662317740615 32.364157291756783 0 32.364157291756783 -33.353532623619685 0 0 0 0 90.27325996046784 35.506388647121639 0 35.506388647121639 -72.399168657480914 0 0 0 0 58.546098171783342 57.017145000271739 0 57.017145000271739 -84.225090670861391 0 0 0 0 92.564246987216393 51.627876542572608 0 51.627876542572608 -83.520212411160173 0 0 0 0 32.025934456839423 38.797863708076875 0 38.797863708076875 -59.282263933073352 0 0 0 0 11.225938930415079 7.8979017828080096 0 7.8979017828080096 -59.164661066848311 0 0 0 0 -25.831667292059137 25.743444006433492 0 25.743444006433492 -19.458431590338478 0 0 0 0 -47.163269500932074 41.759956187299395 0 41.759956187299395 -31.031785483603016 0 0 0 0 -48.690420705228462 27.552265628557507 0 27.552265628557507 -12.30556246809283 0 0 0 0 -53.023380449511706 18.780102333047807 0 18.780102333047807 -21.076635718480247 0 0 0 0 44.620459618772657 30.657595046185634 0 30.657595046185634 -41.60209594315711 0 0 0 0 -19.717693826074537 46.299185731404577 0 46.299185731404577 -34.787470518665941 0 0 0 0 7.3807268649889011 31.146410585715785 0 31.146410585715785 -45.297855882636213 0 0 0 0 26.570814160009832 55.215486622202661 0 55.215486622202661 -58.846342653272586 0 0 0 0 33.433783352202227 34.625004659216756 0 34.625004659216756 -69.210559437622578 0 0 0 0 14.414696166646536 53.864622098377367 0 53.864622098377367 -88.273977439566806 0 0 0 0 6.6829803517248365 34.647462633576652 0 34.647462633576652 -80.731239949491282 0 0 0 0 -25.387981222364033 53.926367971738728 0 53.926367971738728 -60.621590418164487 0 0 0 0 -42.928906483306491 61.199603243709134 0 61.199603243709134 -73.414362818266454 0 0 0 0 -22.26267658412462 44.6602496543901 0 44.6602496543901 -64.099308824759646 0 0 0 0 -48.389261407968661 45.445771568691271 0 45.445771568691271 -47.292600238117302 0 0 0 0 -52.585949806813005 44.982556702820148 0 44.982556702820148 -30.791300972671024 0 0 0 0 -62.652903926522413 58.693145565182931 0 58.693145565182931 -50.48662182993121 0 0 0 0 -38.822576550730446 56.871693983111982 0 56.871693983111982 -94.172630301000027 0 0 0 0 -49.359852730935017 56.887819746527384 0 56.887819746527384 -94.156778425502125 0 0 0 0 -44.906696993151854 61.435943748962927 0 61.435943748962927 -133.90555144285827 0 0 0 0 -42.622374685961404 57.034077436792359 0 57.034077436792359 -171.13472727144836 0 0 0 0 -26.481846096981826 71.208538946986664 0 71.208538946986664 -207.42952045274433 0 0 0 0 -27.590906309505954 63.584803746449325 0 63.584803746449325 -165.89645333794761 0 0 0 0 -13.062929010196967 42.305697479107039 0 42.305697479107039 -150.1621305051558 0 0 0 0 -35.0304379263398 69.857026313915412 0 69.857026313915412 -125.23009405251469 0 0 0 0 -19.144582860897117 44.603710152185386 0 44.603710152185386 -98.168519921135157 0 0 0 0 6.6679296687652823 34.290833612685674 0 34.290833612685674 -120.17017106918865 0 0 0 0 -18.079669912494523 58.039968716734393 0 58.039968716734393 -100.37148329621414 0 0 0 0 11.05238518178885 51.856407038898396 0 51.856407038898396 -121.47890709036801 0 0 0 0 30.934468049385032 32.011247598420596 0 32.011247598420596 -102.99659894448268 0 0 0 0 14.761966159447184 38.920822708234482 0 38.920822708234482 -151.73344086432735 0 0 0 0 31.238325227555379 26.567337269394784 0 26.567337269394784 -143.2777858659465 0 0 0 0 9.1774824505882862 21.576711398809493 0 21.576711398809493 -169.25118960599684 0 0 0 0 -11.869518252688181 56.98235082861936 0 56.98235082861936 -142.67370994878002 0 0 0 0 21.402152720300592 0.38276914839661913 0 0.38276914839661913 -236.95358989619126 0 0 0 0 23.249456652767549 13.947563070352771 0 13.947563070352771 -199.10513210767022 0 0 0 0 24.693856721431075 0.69206327759275155 0 0.69206327759275155 -181.29595046825307 0 0 0 0 30.045149828169087 -33.014639640792666 0 -33.014639640792666 -225.92635417508063 0 0 0 0 36.363760462339997 -17.371649543043532 0 -17.371649543043532 -188.19142578490209 0 0 0 0 27.828468578883985 15.210594257014236 0 15.210594257014236 -338.35745367815616 0 0 0 0 28.569176604365566 3.5803713057612185 0 3.5803713057612185 -242.19918785616755 0 0 0 0 -9.0556044536740785 49.271997964265523 0 49.271997964265523 -247.05155777167965 0 0 0 0 -4.6404549424696597 38.864208161125134 0 38.864208161125134 -239.57530521481749 0 0 0 0 -5.7601415247700061 30.434242775576422 0 30.434242775576422 -198.08471165791707 0 0 0 0 3.4141444476190372 42.546812674730973 0 42.546812674730973 -202.7692713312681 0 0 0 0 74.852763247123221 61.080872245609498 0 61.080872245609498 -87.165287365314725 0 0 0 0 35.960274168619435 76.373191190200487 0 76.373191190200487 -93.029789557636832 0 0 0 0 11.158258484354398 13.84381408277283 0 13.84381408277283 -24.573664089464877 0 0 0 0 132.12204654085508 15.327904415877128 0 15.327904415877128 -71.78966442901401 0 0 0 0 50.383443691744105 34.506796081577704 0 34.506796081577704 -103.59363013830375 0 0 0 0 87.964707114333578 61.254229940240293 0 61.254229940240293 -108.81501543300328 0 0 0 0 51.853357462852728 35.259368129318318 0 35.259368129318318 -88.651753682440813 0 0 0 0 42.142838203610154 51.826382031269986 0 51.826382031269986 -115.66083839442945 0 0 0 0 59.00421447716144 27.597289656901921 0 27.597289656901921 -146.31199174095127 0 0 0 0 28.94252335434976 36.070355435579586 0 36.070355435579586 -111.61530456821492 0 0 0 0 34.363471142943126 28.29806154566495 0 28.29806154566495 -141.05410321933596 0 0 0 0 15.450071028946695 -18.618304355571127 0 -18.618304355571127 -165.22328845113407 0 0 0 0 49.64693327533314 3.2959976231222754 0 3.2959976231222754 -170.35622127795432 0 0 0 0 85.347059220814117 48.214795648445943 0 48.214795648445943 -120.3350391804961 0 0 0 0 72.697168053236965 24.499306943771444 0 24.499306943771444 -126.94667417672463 0 0 0 0 44.852767834467159 12.03293513961944 0 12.03293513961944 -103.01110362258987 0 0 0 0 69.239687026216416 41.187153966800906 0 41.187153966800906 -91.981908763962565 0 0 0 0 89.070112747107487 -3.4462672672216286 0 -3.4462672672216286 -79.556579469760436 0 0 0 0 82.216349327365151 17.099382821048721 0 17.099382821048721 -107.0747402610541 0 0 0 0 12.279785366512442 -25.13455309656274 0 -25.13455309656274 20.082405249773956 0 0 0 0 7.7701608217607827 -72.675372716421748 0 -72.675372716421748 -214.9830227835082 0 0 0 0 -6.036804842255151 -28.956177119282074 0 -28.956177119282074 -146.68488830966362 0 0 0 0 -18.630620289482977 -85.152569426096989 0 -85.152569426096989 -226.71961172566444 0 0 0 0 -89.981250208747952 -242.28662835170871 0 -242.28662835170871 -80.207861030151435 0 0 0 0 -24.203596759058655 -311.57001113344359 0 -311.57001113344359 -444.41666092372543 0 0 0 0 -47.485963190412463 544.29250245323533 0 544.29250245323533 -897.41805587351155 0 0 0 0 -68.533683070176266 -189.62339244034047 0 -189.62339244034047 49.025431098178387 0 0 0 0 -2.9109109440277088 -3.982782629945266 0 -3.982782629945266 -3.743554127437303 0 0 0 0 69.051081711154438 -47.475972190555694 0 -47.475972190555694 -407.17859638139998 0 0 0 0 60.362450396264649 -18.043986445865812 0 -18.043986445865812 -323.02052181088948 0 0 0 0 63.405325626603371 -78.166865876561133 0 -78.166865876561133 -295.25989151117852 0 0 0 0 41.985304824584091 -13.666573999598768 0 -13.666573999598768 -295.30663459711286 0 0 0 0 50.297698427348223 -93.584449028480776 0 -93.584449028480776 -260.28193696094786 0 0 0 0 204.95995309204955 -148.53435424392774 0 -148.53435424392774 -759.30652637139428 0 0 0 0 158.39051352495972 -43.838000720184027 0 -43.838000720184027 -355.05418551793809 0 0 0 0 94.059847821814401 -95.043087701042168 0 -95.043087701042168 -393.71902043043792 0 0 0 0 77.709439268972801 -35.074654707375657 0 -35.074654707375657 -370.00980482541127 0 0 0 0 43.529190468128945 -89.011542758164978 0 -89.011542758164978 -454.23259123500429 0 0 0 0 -47.447645115229534 65.875073896650065 0 65.875073896650065 -343.01119900923914 0 0 0 0 40.059363679663875 40.938662770638075 0 40.938662770638075 -468.91307421998317 0 0 0 0 -437.53359755675956 65.752022899481744 0 65.752022899481744 -403.98973493893664 0 0 0 0 -46.635204674092165 58.524116609776684 0 58.524116609776684 -510.36955022602797 0 0 0 0 -51.044659786683496 151.88801418041976 0 151.88801418041976 -538.32061409958806 0 0 0 0 0.19695170127615569 2.8001850211746007 0 2.8001850211746007 -6.8944325448633421 0 0 0 0 -139.15113405110515 -328.14964167562175 0 -328.14964167562175 -854.90236797123271 0 0 0 0 6.1585348044527564 -31.923603635223571 0 -31.923603635223571 -309.40506166692467 0 0 0 0 490.75570711222645 183.46793053208057 0 183.46793053208057 -179.03946043544238 0 0 0 0 -0.16462200270390603 6.898256482285321 0 6.898256482285321 -15.247993306951244 0 0 0 0 -214.06676530992195 593.98533244973896 0 593.98533244973896 59.137104681140045 0 0 0 0 1.2816536050268041 -234.99179363509029 0 -234.99179363509029 -445.88992433863223 0 0 0 0 -303.21555277335028 -400.81775546981407 0 -400.81775546981407 -217.78336164180655 0 0 0 0 -32.567936457900032 -82.147186955560755 0 -82.147186955560755 -109.23800821215991 0 0 0 0 -38.048916769326752 -94.977469488918359 0 -94.977469488918359 -33.289197342694024 0 0 0 0 -60.117645015678136 -102.16585323280196 0 -102.16585323280196 -23.608132974651653 0 0 0 0 82.706470600220655 -113.46980698531138 0 -113.46980698531138 -70.211498291046155 0 0 0 0 -219.22155484864743 -78.221672152305473 0 -78.221672152305473 -21.733184372409596 0 0 0 0 -139.86158661270383 -172.04314660682212 0 -172.04314660682212 -75.049606207018769 0 0 0 0 -66.304156091329787 -131.67188201944009 0 -131.67188201944009 -49.525941494324798 0 0 0 0 -49.870355699309584 -115.72533876942452 0 -115.72533876942452 -60.896678722849174 0 0 0 0 -81.159737620479973 -84.809451864579387 0 -84.809451864579387 -27.684236784734821 0 0 0 0 -142.23002008965341 -91.823839746921294 0 -91.823839746921294 -26.129687315020419 0 0 0 0 -0.49221303321501608 -0.86225529362639008 0 -0.86225529362639008 -1.8524469706975637 0 0 0 0 -275.20515670678287 -26.777105365858006 0 -26.777105365858006 1341.8346857321449 0 0 0 0 -68.686553697500131 36.252046821917247 0 36.252046821917247 -88.66286423864949 0 0 0 0 -119.35460804515424 -9.4120526249462273 0 -9.4120526249462273 -40.856685368540639 0 0 0 0 -56.212458965181213 -30.629199375180178 0 -30.629199375180178 -45.438733875991602 0 0 0 0 -183.81903859976865 -14.690886151264749 0 -14.690886151264749 -40.525253893756599 0 0 0 0 -164.68870933619473 37.602464737148694 0 37.602464737148694 -103.55964873381254 0 0 0 0 -108.70338501019796 9.4675130237646954 0 9.4675130237646954 -101.89541805952581 0 0 0 0 -89.487099587269768 52.314327561017308 0 52.314327561017308 -118.14350908224878 0 0 0 0 -70.542311520974181 46.154013511884841 0 46.154013511884841 -90.658418914448703 0 0 0 0 -79.764737746230821 64.920964527693286 0 64.920964527693286 -65.732585558262144 0 0 0 0 -80.919538738307892 58.792378159909276 0 58.792378159909276 -123.70983774659544 0 0 0 0 -97.834712511852558 59.025493362598354 0 59.025493362598354 -96.387335794988758 0 0 0 0 -72.893270554799528 71.066606620381208 0 71.066606620381208 -81.034966441406141 0 0 0 0 -66.393451454907336 60.107252392979717 0 60.107252392979717 -107.17268403974595 0 0 0 0 -87.775758982930711 77.578002860951528 0 77.578002860951528 -117.0141953967177 0 0 0 0 -65.749428854473081 80.480360984540312 0 80.480360984540312 -143.55118638203021 0 0 0 0 -54.645004099744256 68.309280031244271 0 68.309280031244271 -155.57185095290333 0 0 0 0 -87.814027133146737 93.674228939085879 0 93.674228939085879 -169.61963853153247 0 0 0 0 -112.59482845760067 45.843165280468384 0 45.843165280468384 -115.90979565365706 0 0 0 0 -112.33701808271871 81.782519748951017 0 81.782519748951017 -137.21664952070932 0 0 0 0 -83.184156968316529 71.761081801163527 0 71.761081801163527 -168.79816797018429 0 0 0 0 -170.68427487811277 87.851952266006265 0 87.851952266006265 -142.30011416370326 0 0 0 0 -89.807708957825525 77.972869832465221 0 77.972869832465221 -232.70161231458042 0 0 0 0 -116.06647716882435 112.08327563525563 0 112.08327563525563 -207.51921726451474 0 0 0 0 -80.986455597154418 103.92705016269792 0 103.92705016269792 -233.89302299270821 0 0 0 0 -42.808492525942711 69.280542192436769 0 69.280542192436769 -218.05996765223972 0 0 0 0 -9.1133749940763238 53.221807480674968 0 53.221807480674968 -339.16696003320249 0 0 0 0 -235.20156882534866 140.05305015937847 0 140.05305015937847 -1109.2149436848704 0 0 0 0 -253.5031838498694 135.22558514087723 0 135.22558514087723 -210.73843561843387 0 0 0 0 -0.90538857808035234 -2.0278221177958144 0 -2.0278221177958144 -7.1154729347548482 0 0 0 0 -562.90052818348886 -124.54051074251947 0 -124.54051074251947 20.792432270536665 0 0 0 0 -151.65018011229586 169.75897642235395 0 169.75897642235395 -359.87140341962549 0 0 0 0 -30.438084029625998 63.708457497566997 0 63.708457497566997 21.91724316849286 0 0 0 0 14.202137186567384 -24.249455121622304 0 -24.249455121622304 -109.57991991922609 0 0 0 0 -0.46682976060072429 -1.936353407593657 0 -1.936353407593657 -5.917579689651717 0 0 0 0 2.8632426758243588 -664.65838692116085 0 -664.65838692116085 -1499.2526673162938 0 0 0 0 3.5223921984674558 1.7726855248944986 0 1.7726855248944986 0.38026014159949284 0 0 0 0 -55.467868082797629 -117.94668946917955 0 -117.94668946917955 -164.32552021479205 0 0 0 0 -387.05288833386521 567.51294471450092 0 567.51294471450092 -700.49331524857553 0 0 0 0 0.0096793854212057304 -10.103162296531082 0 -10.103162296531082 -4.2793493258432136 0 0 0 0 229.23404442635774 146.31430300101783 0 146.31430300101783 -378.13842581906829 0 0 0 0 -3.6171069456648457 -7.6730301484732877 0 -7.6730301484732877 -13.018963916238391 0 0 0 0 -63.076805148225048 201.51259496287457 0 201.51259496287457 -347.11860122812504 0 0 0 0 276.21104863342498 470.97660496016761 0 470.97660496016761 -420.83013867607224 0 0 0 0 -80.508142672738813 -197.61230472771422 0 -197.61230472771422 -432.48301076646021 0 0 0 0 4.1395294883364215 2.7692064672266881 0 2.7692064672266881 -8.0107295124137465 0 0 0 0 -829.65685904294833 466.05294789461914 0 466.05294789461914 -23.794701837425237 0 0 0 0 -43.365480427300099 225.18651693113861 0 225.18651693113861 -322.74301383460988 0 0 0 0 -379.158229516137 246.21073811095266 0 246.21073811095266 -307.17513933718146 0 0 0 0 11.23236643288258 4.419674518540063 0 4.419674518540063 -5.0237938086890352 0 0 0 0 -59.815944976075571 -121.33427209118963 0 -121.33427209118963 -239.66290001645393 0 0 0 0 -58.611382944643992 -104.68215192225398 0 -104.68215192225398 347.10652536121052 0 0 0 0 14.852864597859252 220.65711341791393 0 220.65711341791393 -330.262280775416 0 0 0 0 127.37873803839119 103.12355936502718 0 103.12355936502718 -8.9781769587571034 0 0 0 0 3.219613973018447 4.1081656761989196 0 4.1081656761989196 -24.221175028207426 0 0 0 0 169.40005491958345 -192.82896226486628 0 -192.82896226486628 -877.11737096123397 0 0 0 0 11.302951657255226 7.6479439547391479 0 7.6479439547391479 -1.9601471622363675 0 0 0 0 43.44739957979823 24.668158514265087 0 24.668158514265087 42.311367669208266 0 0 0 0 -55.978083900213022 -29.883459292723273 0 -29.883459292723273 -71.865588642685907 0 0 0 0 16.384535043581081 78.009319395569037 0 78.009319395569037 10.580695154261775 0 0 0 0 -8.7256436455393214 147.4922038779041 0 147.4922038779041 108.5745140563231 0 0 0 0 -123.00678707594602 -12.3403153019608 0 -12.3403153019608 208.65066730923718 0 0 0 0 -129.668024025303 -117.55793087238271 0 -117.55793087238271 -28.781746657063195 0 0 0 0 225.03755368806264 -197.91656425707697 0 -197.91656425707697 -1249.1938511164772 0 0 0 0 -1.4875748905219632 3.0636855573470569 0 3.0636855573470569 -2.4705630960885685 0 0 0 0 171.57209497375811 188.45694646895208 0 188.45694646895208 -1039.9619961967401 0 0 0 0 184.17615811000235 215.07438113617172 0 215.07438113617172 529.65764433515142 0 0 0 0 -483.78912782776052 630.76667921927219 0 630.76667921927219 811.99140485154931 0 0 0 0 -501.18492795743759 554.53373289101 0 554.53373289101 533.03450816831901 0 0 0 0 -1.0399552257742395 1.4038241620478047 0 1.4038241620478047 -9.9466407785626245 0 0 0 0 -102.46315871062207 -301.12225139362408 0 -301.12225139362408 -306.07689517138351 0 0 0 0 -46.029536694771537 -207.30983092946553 0 -207.30983092946553 -472.07011669126223 0 0 0 0 -125.85454678084375 -166.23640619417711 0 -166.23640619417711 13.927790483663557 0 0 0 0 -99.992708509757264 -31.194552810582536 0 -31.194552810582536 -518.20001604571007 0 0 0 0 -0.24570002737497346 -32.385735672654846 0 -32.385735672654846 -510.16855089422097 0 0 0 0 -113.19716705166302 6.9991234340777737 0 6.9991234340777737 -95.621671097353101 0 0 0 0 -55.300535126018623 -69.963766323242453 0 -69.963766323242453 -245.88987648564216 0 0 0 0 -182.59376882131198 -93.935985305673967 0 -93.935985305673967 -90.546139391721226 0 0 0 0 -143.73787459833127 -173.03780538812134 0 -173.03780538812134 -137.99768340765149 0 0 0 0 25.160410906379564 -195.29040414243809 0 -195.29040414243809 -1172.7021570293073 0 0 0 0 -173.2605412086464 -365.28514536155126 0 -365.28514536155126 -1262.3062989237333 0 0 0 0 0.42941998491239652 -98.544581672572178 0 -98.544581672572178 -1693.2532627784822 0 0 0 0 202.10908065290431 -412.48430923045089 0 -412.48430923045089 -2498.4683265844214 0 0 0 0 -91.006058251624282 -786.83470757129157 0 -786.83470757129157 -1298.6821105285126 0 0 0 0 -91.197746870286949 -683.44939884196356 0 -683.44939884196356 -1603.7328934223915 0 0 0 0 -446.19222942094217 -938.81842281273202 0 -938.81842281273202 -1024.0768022564298 0 0 0 0 -476.45057212803465 -265.55362444800403 0 -265.55362444800403 -617.93229250619333 0 0 0 0 -119.7382545612537 -178.67251235537515 0 -178.67251235537515 -1327.4867658483126 0 0 0 0 -435.87730829307839 -130.56397929543527 0 -130.56397929543527 -1105.3237136971802 0 0 0 0 72.842961879591371 -60.886194493352377 0 -60.886194493352377 -1108.4057716257666 0 0 0 0 29.503200529392927 655.21024609071537 0 655.21024609071537 -666.55332498925418 0 0 0 0 -131.16901894220769 -370.23765593966527 0 -370.23765593966527 -728.14026533243873 0 0 0 0 281.56336426912821 95.312109796865116 0 95.312109796865116 -206.95291929345331 0 0 0 0 525.14900778219226 17.465190039896697 0 17.465190039896697 -185.43626542505808 0 0 0 0 -26.77304297370938 -621.03206758048327 0 -621.03206758048327 -156.07841061601948 0 0 0 0 310.3721807541865 -208.52149424924937 0 -208.52149424924937 16.580719055680675 0 0 0 0 298.41315018186071 238.37990340237229 0 238.37990340237229 -205.98420892133436 0 0 0 0 -18.923082169429563 -711.99138157688867 0 -711.99138157688867 -702.12209048471414 0 0 0 0 -215.76904613609267 -1609.2002148912761 0 -1609.2002148912761 -2496.5260578227062 0 0 0 0 -423.8910847609925 -402.61781445526333 0 -402.61781445526333 -202.14049831021111 0 0 0 0 4.0643692239694076 -4.5324798542211937 0 -4.5324798542211937 -2.4800501392919045 0 0 0 0 566.93039729223074 255.92469511853415 0 255.92469511853415 110.55337556093582 0 0 0 0 840.58098361807924 55.018257616982737 0 55.018257616982737 -285.88080953802273 0 0 0 0 -378.87028986774953 -241.02115263707128 0 -241.02115263707128 -13.135473784306669 0 0 0 0 -92.85040935690192 621.53559096202662 0 621.53559096202662 -2500.2624830993664 0 0 0 0 265.05908826356017 -175.85697950139001 0 -175.85697950139001 -279.0725938295509 0 0 0 0 -767.9100551573008 -222.48526058625066 0 -222.48526058625066 405.54033254589012 0 0 0 0 -7.3786384551526041 -2.2438183520019095 0 -2.2438183520019095 -2.9647755146080073 0 0 0 0 -1529.0529065506121 -1348.5201561333088 0 -1348.5201561333088 -226.85019387675129 0 0 0 0 0.47536937683798897 -7.880577694006206 0 -7.880577694006206 -21.819822609977564 0 0 0 0 -0.55244747846004216 -7.3643014591921343 0 -7.3643014591921343 -5.9675766712294021 0 0 0 0 70.615078617614216 -651.80661892222997 0 -651.80661892222997 -2496.6767250912671 0 0 0 0 -4.8536323139902606 2.5691936595103471 0 2.5691936595103471 -38.346142413494817 0 0 0 0 -3.8335976705320718 0.97611889193649404 0 0.97611889193649404 -40.146881330118049 0 0 0 0 -704.75962585437162 740.61399803756649 0 740.61399803756649 -810.95493477524724 0 0 0 0 -4.4054097378232697 -5.7087036237322337 0 -5.7087036237322337 -6.0895994933493327 0 0 0 0 -9.7244837578294714 -10.096053915640596 0 -10.096053915640596 -19.142446886068399 0 0 0 0 -5.1636789526512361 -2.5570122302443252 0 -2.5570122302443252 -6.5221399408977447 0 0 0 0 260.2891574969799 -49.84231372018985 0 -49.84231372018985 -34.29436378578248 0 0 0 0 -33.0437037338843 195.21660387918382 0 195.21660387918382 -1626.1662207169575 0 0 0 0 -17.63915265320324 -10.918374761308584 0 -10.918374761308584 -7.1997672190520063 0 0 0 0 -43.248019518328043 206.99159421195509 0 206.99159421195509 -1600.9719757369385 0 0 0 0 -0.50111924084876591 -8.5265021703162347 0 -8.5265021703162347 -20.764393075951375 0 0 0 0 26.011327444939525 12.29822860006243 0 12.29822860006243 -1.9784251920646057 0 0 0 0 8.0043483822077306 -4.7035386316117496 0 -4.7035386316117496 -16.555203783555754 0 0 0 0 3.2870838908639559 -0.73751047330900121 0 -0.73751047330900121 -3.3319639287161635 0 0 0 0 29.525969594896196 37.763966668317153 0 37.763966668317153 -57.337703947014234 0 0 0 0 0.39748918411976408 -10.005643880264884 0 -10.005643880264884 -13.018847654042091 0 0 0 0 1.7373653218296568 -9.3238232433286612 0 -9.3238232433286612 -20.599022447908283 0 0 0 0 -2.3193420221746237 -8.1605628927281941 0 -8.1605628927281941 -20.640480585410842 0 0 0 0 0.62540696271855722 -6.7111355400866159 0 -6.7111355400866159 -19.944047874916578 0 0 0 0 -0.4783283384356416 -8.5482146090757851 0 -8.5482146090757851 -13.958657336076868 0 0 0 0 -2.2183676242270849 -12.859594018817006 0 -12.859594018817006 -12.225512904886273 0 0 0 0 -13.297973093216001 26.976109230741713 0 26.976109230741713 -19.281469711175305 0 0 0 0 -17.88442713403424 17.43222612194586 0 17.43222612194586 -34.738978420515195 0 0 0 0 -5.9017915532408551 -91.593945307969989 0 -91.593945307969989 38.593888318020618 0 0 0 0 80.445643821110025 -59.311494751374994 0 -59.311494751374994 -14.951498934802657 0 0 0 0 116.02537779210138 -29.386760085326387 0 -29.386760085326387 -57.909112598528736 0 0 0 0 119.24646002007762 21.582297776087216 0 21.582297776087216 -23.090706625363964 0 0 0 0 192.66354406157848 -48.718729340842401 0 -48.718729340842401 -57.6481940117759 0 0 0 0 -27.887033888295718 9.2167662864521844 0 9.2167662864521844 -8.0016257370334642 0 0 0 0 -1.0798346076399232 8.7059481421784426 0 8.7059481421784426 -9.4250877499170969 0 0 0 0 -34.785986616255286 -3.894007435264939 0 -3.894007435264939 -30.996485127296182 0 0 0 0 -1.1051341042243887 1.1930851186276143 0 1.1930851186276143 2.1794511976090689 0 0 0 0 20.263868099351384 33.754964960902726 0 33.754964960902726 -154.2819292556087 0 0 0 0 -18.036240186470195 42.598634672109256 0 42.598634672109256 -150.09369962163328 0 0 0 0 -16.082083858442957 43.901713082537754 0 43.901713082537754 -133.55579274583579 0 0 0 0 6.1693726681946828 51.920504290408644 0 51.920504290408644 -298.37686461539124 0 0 0 0 -25.457416904350339 77.619637435163895 0 77.619637435163895 -289.87109749216506 0 0 0 0 32.977710656918589 124.64304094405088 0 124.64304094405088 -405.82121164743148 0 0 0 0 12.645179886222081 5.9320138214206963 0 5.9320138214206963 -352.4176478002264 0 0 0 0 26.508611152742105 113.5743206010884 0 113.5743206010884 -325.26567861920921 0 0 0 0 -7.5992973416493896 19.804469944261655 0 19.804469944261655 -141.44978051015642 0 0 0 0 175.46232913805096 442.38906696766571 0 442.38906696766571 174.09507822418527 0 0 0 0 -1.476554028082675 8.2335617770704204 0 8.2335617770704204 -6.5576974400057537 0 0 0 0 37.971615130141572 10.267985574064369 0 10.267985574064369 -490.82272405056938 0 0 0 0 344.2860131918905 -7.4570307807298377 0 -7.4570307807298377 255.34123196001747 0 0 0 0 -67.821472485677987 19.838461747352994 0 19.838461747352994 -411.45259595823882 0 0 0 0 7.6419990360184329 -191.25534822981717 0 -191.25534822981717 -915.85843266903248 0 0 0 0 92.861634707001713 180.79147341603129 0 180.79147341603129 -353.5362604966067 0 0 0 0 -29.770143457621998 174.57229707093575 0 174.57229707093575 -281.37958772237835 0 0 0 0 159.34431663417456 36.336374349666585 0 36.336374349666585 -498.70354266447248 0 0 0 0 52.354670560312115 161.67436677146543 0 161.67436677146543 -191.30114853325358 0 0 0 0 137.16406986465756 17.984683573045913 0 17.984683573045913 -273.46911539520988 0 0 0 0 13.930368335184085 149.9194918336143 0 149.9194918336143 -341.62512118027371 0 0 0 0 274.54174515365253 -235.49495796319025 0 -235.49495796319025 197.29202902802353 0 0 0 0 3.1337936503031782 1.213958292571661 0 1.213958292571661 0.78814546179135903 0 0 0 0 268.91471741048861 161.06643795181299 0 161.06643795181299 -377.81667221865064 0 0 0 0 -56.963721099036093 283.78565660280037 0 283.78565660280037 -329.56865022822603 0 0 0 0 -261.14331121269333 43.243115636811126 0 43.243115636811126 -281.65925075644736 0 0 0 0 -36.048966433477744 32.928554594749585 0 32.928554594749585 -378.6741760538207 0 0 0 0 -119.2496645769354 -33.150370465931701 0 -33.150370465931701 -472.52186380331113 0 0 0 0 -130.86101416649808 -28.856260516797192 0 -28.856260516797192 -402.30274571788323 0 0 0 0 5.5608722290169226 70.393919925369119 0 70.393919925369119 -342.30726366391173 0 0 0 0 -56.560031679926794 27.110293844572652 0 27.110293844572652 -362.0288987820386 0 0 0 0 -21.719524150888219 134.65686792170527 0 134.65686792170527 -316.15789094452157 0 0 0 0 -63.020988654010793 107.77744899643244 0 107.77744899643244 -324.36516306438716 0 0 0 0 11.263563251245159 -39.793967310873995 0 -39.793967310873995 -702.86167478446805 0 0 0 0 16.308799794510833 34.44959575312896 0 34.44959575312896 -414.70606488894919 0 0 0 0 -11.508910872204069 21.159187308730907 0 21.159187308730907 -387.02049393122434 0 0 0 0 -69.163498194314116 -78.164410840523487 0 -78.164410840523487 -431.716913088414 0 0 0 0 -25.666067282824145 -38.93915481052727 0 -38.93915481052727 -493.10189302352228 0 0 0 0 -74.77646644428205 -97.974878731911303 0 -97.974878731911303 -472.59886951539011 0 0 0 0 -5.0920479501178306 -68.036069054574909 0 -68.036069054574909 -495.25185524709013 0 0 0 0 -189.69727457895078 -127.60009290179005 0 -127.60009290179005 -514.17693145597514 0 0 0 0 -195.19856696183297 133.56168528084163 0 133.56168528084163 -569.29326500193565 0 0 0 0 -0.42042930234720188 18.100359591655433 0 18.100359591655433 -504.50513950882305 0 0 0 0 -64.802259356331888 -275.52682229001584 0 -275.52682229001584 -554.3132848621317 0 0 0 0 44.094348257318416 126.95273808104321 0 126.95273808104321 -704.72425797270262 0 0 0 0 -128.74907917295366 286.97917352617696 0 286.97917352617696 -437.04364640159474 0 0 0 0 -194.01441959777503 -153.89595815934081 0 -153.89595815934081 -134.01629515386594 0 0 0 0 -0.9161820575622408 -1.5444990891638639 0 -1.5444990891638639 -3.9269512511163214 0 0 0 0 -137.3103702862245 32.692154710326577 0 32.692154710326577 49.339787294273265 0 0 0 0 -39.504724915565475 -50.845698251843714 0 -50.845698251843714 -315.84496963751735 0 0 0 0 -183.16099329863664 -84.680919464757608 0 -84.680919464757608 -10.056909604070825 0 0 0 0 -78.512392750643812 -15.558236660763214 0 -15.558236660763214 -10.270552208879963 0 0 0 0 -47.978748335761338 -17.892483660703874 0 -17.892483660703874 0.96019997176335892 0 0 0 0 -90.735015161005322 -11.829392763989745 0 -11.829392763989745 7.7176987682178151 0 0 0 0 -102.30809767263918 -55.514931842498299 0 -55.514931842498299 1.4713206130982144 0 0 0 0 39.203950070629617 -14.845096472388832 0 -14.845096472388832 -12.191801139764721 0 0 0 0 49.374312885867312 11.472612919718813 0 11.472612919718813 -25.47297370985325 0 0 0 0 -1.6276142730597538 -4.1607443218007631 0 -4.1607443218007631 -9.8848430777021861 0 0 0 0 -90.080210538684696 8.3903556289660628 0 8.3903556289660628 11.5851397428778 0 0 0 0 -2.4265242047222273 60.740008768960251 0 60.740008768960251 1.2481917226614314 0 0 0 0 -18.119030952947469 14.17690733159543 0 14.17690733159543 1.2617797906059423 0 0 0 0 -18.218922328536792 2.0646970858506393 0 2.0646970858506393 -4.7387716708326479 0 0 0 0 16.375646184869765 2.9176044448104221 0 2.9176044448104221 -117.35024260724822 0 0 0 0 -28.33848167994347 36.754203300894005 0 36.754203300894005 -20.85162302810204 0 0 0 0 -72.510843112899295 105.42128661309198 0 105.42128661309198 -186.52903695309942 0 0 0 0 -54.086925583187622 17.311259659320058 0 17.311259659320058 -89.404005900516495 0 0 0 0 -19.853262534285022 102.99970763098827 0 102.99970763098827 -283.33340219884849 0 0 0 0 -33.275393067404366 44.645178767012112 0 44.645178767012112 -313.47117957685259 0 0 0 0 6.2018964514554682 28.218321997344901 0 28.218321997344901 -222.99225572625437 0 0 0 0 4.1607763244410307 82.12576319580694 0 82.12576319580694 -371.76347605848787 0 0 0 0 -11.980503625671986 -15.091470465109524 0 -15.091470465109524 -44.512356533305137 0 0 0 0 -46.151123505097985 68.698877802849893 0 68.698877802849893 -121.8294071751443 0 0 0 0 -23.373067557915419 0.0076555156847462058 0 0.0076555156847462058 -109.35284263277936 0 0 0 0 -7.0312919994134973 27.416628126789874 0 27.416628126789874 -1.4958846980371163 0 0 0 0 0.97652390115436116 3.6867173797721549 0 3.6867173797721549 -14.723671267337124 0 0 0 0 -1.2432262588703598 0.6183062890732316 0 0.6183062890732316 -5.7115648932893777 0 0 0 0 0.45188043498546904 -0.68580251027015038 0 -0.68580251027015038 -8.8502499983806047 0 0 0 0 -1.6195656996584162 -3.5017000598142047 0 -3.5017000598142047 -5.9927912608229406 0 0 0 0 -0.9846781670312339 -3.1349584034542204 0 -3.1349584034542204 -6.9464097185846185 0 0 0 0 -2.1776591130338048 -3.1114153733524006 0 -3.1114153733524006 -6.2235527159245123 0 0 0 0 -25.093825490837787 -34.92727205319261 0 -34.92727205319261 11.491484632206266 0 0 0 0 1.4843544267689595 -4.5208377045564703 0 -4.5208377045564703 -12.50172033070703 0 0 0 0 1.6559482936767038 -0.029145591366543044 0 -0.029145591366543044 -3.3931121250883507 0 0 0 0 -1.2649761625312976 -7.5634567408869771 0 -7.5634567408869771 -17.282521021465072 0 0 0 0 -4.7795395718926557 -4.5000702689430909 0 -4.5000702689430909 -9.4439148632591241 0 0 0 0 -1.0318079188798492 -7.0206766601768322 0 -7.0206766601768322 -21.241963063774165 0 0 0 0 -0.84705193526001121 -1.7089685952376783 0 -1.7089685952376783 -1.997342797677959 0 0 0 0 -1.4232493218469287 -4.8139056772865203 0 -4.8139056772865203 -11.679779958312253 0 0 0 0 0.18565671726456046 -2.096925112321756 0 -2.096925112321756 -9.1222087763186721 0 0 0 0 -0.68010574987647487 -6.1249644752060703 0 -6.1249644752060703 -14.19480566397624 0 0 0 0 -1.3193737200964506 -10.514906183962921 0 -10.514906183962921 -22.171463061720715 0 0 0 0 0.5371493876559148 -3.9815418770822788 0 -3.9815418770822788 -8.0415735862332269 0 0 0 0 -1.5115637664462156 -3.3678996925300453 0 -3.3678996925300453 -14.091830669865885 0 0 0 0 -1.8926266042694193 -1.7021057026154409 0 -1.7021057026154409 -9.8754736813549755 0 0 0 0 -4.7932192827436761 -8.8412975933903937 0 -8.8412975933903937 -9.2494931593191723 0 0 0 0 -2.9387765096944349 -4.8943265015768702 0 -4.8943265015768702 -29.429986070826999 0 0 0 0 -10.157471017881107 -12.866570087411674 0 -12.866570087411674 -22.650567233466063 0 0 0 0 -3.4849607769654085 -0.076892273789781029 0 -0.076892273789781029 -37.26829792191711 0 0 0 0 -0.79089292736853167 -2.2978185612737434 0 -2.2978185612737434 -13.994093537985464 0 0 0 0 0.90762270507075504 -1.5738432191584906 0 -1.5738432191584906 -18.466308634569003 0 0 0 0 -2.0644526079389607 -4.6154390683768725 0 -4.6154390683768725 -18.172266058478272 0 0 0 0 -0.47833126867695785 -6.115433716258508 0 -6.115433716258508 -7.7385475962859687 0 0 0 0 -2.5335840674590493 -7.6121419149938845 0 -7.6121419149938845 -28.112272584408487 0 0 0 0 -3.0855205751835744 0.83252101957315006 0 0.83252101957315006 -9.3405717901038372 0 0 0 0 -63.209920686859782 -598.88597350890632 0 -598.88597350890632 -2496.1358662833081 0 0 0 0 -2.8437449629212779 1.7558591201668605 0 1.7558591201668605 -41.223644372847048 0 0 0 0 135.52327700634731 -2.0299233495170483 0 -2.0299233495170483 -1073.254092854826 0 0 0 0 -7.980041044194877 3.1195680436358089 0 3.1195680436358089 -38.262436457414879 0 0 0 0 375.95107023655163 348.22625716844777 0 348.22625716844777 -2497.4930104286232 0 0 0 0 -2.9897723517615549 -5.013572582587102 0 -5.013572582587102 -7.8731087869580634 0 0 0 0 -560.72373196961814 264.42793805211295 0 264.42793805211295 -156.3696105418494 0 0 0 0 271.3905439118613 611.37538605064401 0 611.37538605064401 -2496.4223032730793 0 0 0 0 -3.4365831469964783 -7.1945981350936137 0 -7.1945981350936137 -6.5401506834176644 0 0 0 0 -1.5655548978486209 -8.8264331236185143 0 -8.8264331236185143 -9.1827875035850681 0 0 0 0 -13.132919804509925 -2.4714671665387868 0 -2.4714671665387868 -27.217350257444195 0 0 0 0 -3.5647442675403909 -7.06194985928596 0 -7.06194985928596 -30.928273613237252 0 0 0 0 2.4242392184451091 0.60573054144333582 0 0.60573054144333582 -38.544879412846058 0 0 0 0 -3.7692742324003348 -0.91734801117127063 0 -0.91734801117127063 -30.008266229051515 0 0 0 0 -3.1151903124081506 -10.108675940027823 0 -10.108675940027823 -4.8456031276506337 0 0 0 0 70.23926091721836 94.556455495789123 0 94.556455495789123 -845.47253468411509 0 0 0 0 -2.3205670747615734 2.9806870778711243 0 2.9806870778711243 -19.388172792817272 0 0 0 0 -15.607087635144467 -13.120791673003623 0 -13.120791673003623 -11.328863244387321 0 0 0 0 -11.55073864183646 -19.179074270519777 0 -19.179074270519777 -13.347790966217872 0 0 0 0 -3.2028850581280466 -2.3489315652606848 0 -2.3489315652606848 -6.2562672538504103 0 0 0 0 -3.3214473176522006 -4.1138419672861346 0 -4.1138419672861346 -18.283532960209413 0 0 0 0 -11.794650175140305 -11.279757339150819 0 -11.279757339150819 -10.55641284698504 0 0 0 0 -6.5711500676054584 -1.3116783561490593 0 -1.3116783561490593 -9.4928707438812125 0 0 0 0 -18.873476309872331 -2.9834687875063537 0 -2.9834687875063537 -2.5720841351430863 0 0 0 0 -52.453752940860795 -0.75683123729686486 0 -0.75683123729686486 3.0050260804273421 0 0 0 0 -18.479206664102094 -4.0404517057249905 0 -4.0404517057249905 -7.5824262772875954 0 0 0 0 1.5947256426006788 -7.4334640722372569 0 -7.4334640722372569 -5.295156712672906 0 0 0 0 -1.1387171614250065 5.4404486870835171 0 5.4404486870835171 -9.2796794926398434 0 0 0 0 -30.573033100254634 -27.619859608614206 0 -27.619859608614206 -11.861948333273176 0 0 0 0 -31.374979472081577 -8.8940534206703887 0 -8.8940534206703887 -3.4455180773511529 0 0 0 0 -28.414214402596826 -21.796084223700745 0 -21.796084223700745 -0.78694146165798884 0 0 0 0 -57.335629831231017 -22.347509432191146 0 -22.347509432191146 1.8107344802410807 0 0 0 0 -42.354240836072222 -43.866061383272609 0 -43.866061383272609 3.7056808888009982 0 0 0 0 -3.8263723633663176 -78.260561059094471 0 -78.260561059094471 2.0444012133666547 0 0 0 0 -41.697795316155862 -46.022221768835152 0 -46.022221768835152 -5.9814793083423865 0 0 0 0 45.280970507329585 -35.521127656647877 0 -35.521127656647877 -26.782948260415196 0 0 0 0 -9.0960107558494201 -33.719764227149426 0 -33.719764227149426 -26.645293293063787 0 0 0 0 -2.0239204800927837 -40.087865254998178 0 -40.087865254998178 -30.111721620472963 0 0 0 0 -17.568348087516824 -43.592485700566613 0 -43.592485700566613 -5.8036987541354392 0 0 0 0 19.594781442245221 -20.679655393098074 0 -20.679655393098074 -39.540491214091162 0 0 0 0 9.7214441770533178 -38.745679265613944 0 -38.745679265613944 23.878249918721849 0 0 0 0 53.853922003880569 -6.1233245752227958 0 -6.1233245752227958 -45.193361790676136 0 0 0 0 0.69093080713589383 -22.533063613164206 0 -22.533063613164206 -21.336170061240381 0 0 0 0 -7.1130386084691963 -38.151756138659152 0 -38.151756138659152 -37.761863967534737 0 0 0 0 -8.5626814727511373 -23.861587262996181 0 -23.861587262996181 -27.249181288976615 0 0 0 0 -2.3755326121436156 -23.366485713107977 0 -23.366485713107977 -57.38765342633269 0 0 0 0 -6.0994636847341166 -16.858033560327556 0 -16.858033560327556 -21.631368079940486 0 0 0 0 -11.93010182055059 -22.609552420744876 0 -22.609552420744876 -24.933418854372576 0 0 0 0 -10.227297244067291 -15.028621879777958 0 -15.028621879777958 -10.384575047142562 0 0 0 0 -6.0538860970749573 -2.3089051026696694 0 -2.3089051026696694 -9.9573458713868419 0 0 0 0 -2.39253591898796 -10.910213610475694 0 -10.910213610475694 -46.602087285205926 0 0 0 0 -13.373639823598751 -16.608118634059792 0 -16.608118634059792 -44.483813387123519 0 0 0 0 0.5183555461760514 -3.5832036702695964 0 -3.5832036702695964 -47.863057122626174 0 0 0 0 68.187033571942194 -9.7512328475050083 0 -9.7512328475050083 -131.4419312314858 0 0 0 0 -2.520838487027504 -16.282738476358645 0 -16.282738476358645 -34.061005710429527 0 0 0 0 -4.6042359255101761 2.1270648886411481 0 2.1270648886411481 -6.1184512483602873 0 0 0 0 -279.96456852552706 602.22940381220701 0 602.22940381220701 -1350.2114371017597 0 0 0 0 40.568861657017692 -27.065244731509665 0 -27.065244731509665 -1135.685594884897 0 0 0 0 -35.317173688205415 -1116.7506130466063 0 -1116.7506130466063 -2495.730127528077 0 0 0 0 -391.43191091411279 244.51127718913085 0 244.51127718913085 276.83877897119055 0 0 0 0 -4.7901242488316056 3.7063224404216228 0 3.7063224404216228 -4.3359963368761427 0 0 0 0 253.81849140272556 -582.23484356478002 0 -582.23484356478002 -2501.0153176491249 0 0 0 0 -10.727303485902929 9.2671934056660561 0 9.2671934056660561 -12.356290479366251 0 0 0 0 253.85840696407379 -583.86213806751766 0 -583.86213806751766 -2493.9368549246997 0 0 0 0 161.94085404304013 62.011739518501145 0 62.011739518501145 -383.00708536549791 0 0 0 0 145.24936755576164 101.82180061528925 0 101.82180061528925 -14.135877479588089 0 0 0 0 -0.22417990322219339 -133.42909699569645 0 -133.42909699569645 -204.33135702717482 0 0 0 0 -143.61444274085898 -17.742488595315081 0 -17.742488595315081 -118.05281638617453 0 0 0 0 39.058526557994355 18.614220558691159 0 18.614220558691159 -111.12153129468061 0 0 0 0 -237.70344574113233 -136.12567726453926 0 -136.12567726453926 163.48506947346687 0 0 0 0 108.80830224819033 -99.523774812458214 0 -99.523774812458214 -33.294813402939326 0 0 0 0 135.21245696455799 -101.05093072892487 0 -101.05093072892487 -198.75620567338592 0 0 0 0 11.271213305883236 -30.220988596136664 0 -30.220988596136664 -26.430037451758537 0 0 0 0 19.682461562055551 -0.15688029058219399 0 -0.15688029058219399 88.945440314892039 0 0 0 0 283.27774110058408 140.04484970068734 0 140.04484970068734 -167.41978452261537 0 0 0 0 89.940609822558599 74.409605750755873 0 74.409605750755873 62.80201954414224 0 0 0 0 46.442931341177427 -166.56100888873334 0 -166.56100888873334 -162.3807663491491 0 0 0 0 47.166857524854095 -91.69527860974631 0 -91.69527860974631 -49.769948975626903 0 0 0 0 41.765396306507171 -40.341754216158279 0 -40.341754216158279 -23.233306735754013 0 0 0 0 -211.69242964278419 -249.77410471899202 0 -249.77410471899202 -497.10893411785946 0 0 0 0 -80.386851193242364 -148.27461365460476 0 -148.27461365460476 179.63118044604198 0 0 0 0 -0.80536800812485732 -33.47451027615989 0 -33.47451027615989 -19.066611646331801 0 0 0 0 -167.52268711954167 -307.51183615821265 0 -307.51183615821265 158.04365847627196 0 0 0 0 -3.3910169041686551 -1.2440762732039587 0 -1.2440762732039587 -0.58384415476881202 0 0 0 0 -144.51869333159868 -258.86643668313263 0 -258.86643668313263 -8.8600602214864921 0 0 0 0 363.93347852600107 -72.474261701896467 0 -72.474261701896467 -918.00611147622112 0 0 0 0 -101.23604732633339 -394.79778552113567 0 -394.79778552113567 -269.18512081612425 0 0 0 0 -50.427534777091751 -91.603347487704013 0 -91.603347487704013 66.214698076177228 0 0 0 0 -111.14030291628478 -161.43952345937214 0 -161.43952345937214 82.636890973401023 0 0 0 0 21.41356415700011 -231.11016914290667 0 -231.11016914290667 -101.29358798373141 0 0 0 0 -58.303184486180726 -71.322965646635566 0 -71.322965646635566 138.60707854236534 0 0 0 0 2.8505576851830483 -9.482196528755594 0 -9.482196528755594 109.13269002943707 0 0 0 0 -36.807678800200392 -69.860179607640021 0 -69.860179607640021 92.365181101864437 0 0 0 0 -20.843599108581202 -39.134906480212521 0 -39.134906480212521 41.891314819455147 0 0 0 0 -24.445963894918521 -35.505238118596026 0 -35.505238118596026 48.796803878823994 0 0 0 0 -17.834785937572178 -23.400669452325019 0 -23.400669452325019 99.77429568459047 0 0 0 0 19.885056330394946 -17.131636825506575 0 -17.131636825506575 42.311695070104179 0 0 0 0 4.2166612777768933 -4.5241403034797258 0 -4.5241403034797258 46.372979980515083 0 0 0 0 -12.179158612587468 -7.3861335201670499 0 -7.3861335201670499 -4.8535078033964538 0 0 0 0 5.2426374713080008 -8.6100822815660649 0 -8.6100822815660649 18.173156649922021 0 0 0 0 -16.923619013221554 -42.280032977980227 0 -42.280032977980227 35.494140909053385 0 0 0 0 -9.2283797147558744 -35.597641593789376 0 -35.597641593789376 -4.8236757007471169 0 0 0 0 -16.997122608835774 -12.277393619723171 0 -12.277393619723171 -7.5530428481907563 0 0 0 0 -38.09684568247124 -92.094271346741834 0 -92.094271346741834 -3.0442146610439522 0 0 0 0 -2.3693066879027822 -12.874206411946041 0 -12.874206411946041 -18.412929503204282 0 0 0 0 3.2437247950688288 -27.610569261349156 0 -27.610569261349156 -12.328963190691866 0 0 0 0 -1.2122018088789446 -25.418374767778005 0 -25.418374767778005 -10.004289192016586 0 0 0 0 14.00815937947371 -13.272287583960633 0 -13.272287583960633 -30.941588916539331 0 0 0 0 3.763958662124594 -1.7449238450407734 0 -1.7449238450407734 -4.8627190746780684 0 0 0 0 61.16079026758598 -111.62226501407713 0 -111.62226501407713 71.839188197758631 0 0 0 0 -31.36625175035806 -36.323055001892499 0 -36.323055001892499 20.884656322152296 0 0 0 0 80.433773208404091 -29.125030294059798 0 -29.125030294059798 -48.418823927859194 0 0 0 0 -39.251540540193673 -30.473883431986906 0 -30.473883431986906 -25.281815556299989 0 0 0 0 -14.731706888136614 7.7851401840525796 0 7.7851401840525796 -108.47237776673865 0 0 0 0 -48.51406296836285 -75.732764738248079 0 -75.732764738248079 -63.347576996093267 0 0 0 0 -51.934566669618107 -29.443657635478303 0 -29.443657635478303 -137.06041058994742 0 0 0 0 98.819609410045814 -45.682653506260976 0 -45.682653506260976 -178.92020971198508 0 0 0 0 47.098520801720042 -46.396297783601767 0 -46.396297783601767 -433.80362711317139 0 0 0 0 -27.470164762045897 -39.849726689877571 0 -39.849726689877571 -85.42813758518605 0 0 0 0 -45.341774391905346 16.679424999070761 0 16.679424999070761 -109.16098936988783 0 0 0 0 -3.8303723529139062 -3.5956551754480932 0 -3.5956551754480932 0.44606409986832318 0 0 0 0 106.62473703516844 -2.2975012596216402 0 -2.2975012596216402 -70.872416382713709 0 0 0 0 -4.1057265081944934 5.7178489767902647 0 5.7178489767902647 -139.06330509213149 0 0 0 0 100.43036237471779 3.5555301080930803 0 3.5555301080930803 -568.82889804721344 0 0 0 0 102.3618801785924 45.17658423346802 0 45.17658423346802 -410.29399093103711 0 0 0 0 -8.9322087513555743 -5.5057218646543333 0 -5.5057218646543333 -429.991828763792 0 0 0 0 96.535908681888259 49.409142488015277 0 49.409142488015277 -628.10451806869241 0 0 0 0 26.581815415598612 117.36352119758521 0 117.36352119758521 -450.36399254361731 0 0 0 0 103.40541106343963 79.791570378899905 0 79.791570378899905 -636.97956424903532 0 0 0 0 68.821285122538939 92.746376491842966 0 92.746376491842966 -629.62164977293787 0 0 0 0 101.58445052565276 107.63660265376893 0 107.63660265376893 -889.83375485114811 0 0 0 0 -265.36911088462875 59.449488958704023 0 59.449488958704023 -577.20076850769055 0 0 0 0 4.7247654908692311 -135.39241184993261 0 -135.39241184993261 -932.18137195813324 0 0 0 0 -16.190620699108422 -110.62092643816868 0 -110.62092643816868 -717.93450101200142 0 0 0 0 11.77804353732779 -18.181298270944353 0 -18.181298270944353 -867.26903572755691 0 0 0 0 -64.30600869408272 -66.844124739494873 0 -66.844124739494873 -334.90983287769268 0 0 0 0 27.047829657862394 105.60443854340474 0 105.60443854340474 -604.04012176199467 0 0 0 0 -52.300198734465084 132.38510290600971 0 132.38510290600971 -371.47345818793838 0 0 0 0 2.0226951130880479 3.4606142450720654 0 3.4606142450720654 -5.9422516345293843 0 0 0 0 3.9265350225123825 2.1867079214995897 0 2.1867079214995897 -7.4052647760793633 0 0 0 0 19.048985084078595 140.37513541381486 0 140.37513541381486 -91.619540641115236 0 0 0 0 0.94125768038309765 -0.66523346748100209 0 -0.66523346748100209 -4.6880478914367245 0 0 0 0 -29.120266026786112 -4.3295358222903815 0 -4.3295358222903815 -9.3148480855743401 0 0 0 0 2.7099953979140992 0.45410779368830845 0 0.45410779368830845 -6.3946861852309667 0 0 0 0 -17.890808849885616 93.990420781465218 0 93.990420781465218 -626.45165951521631 0 0 0 0 -0.25678882382278978 -0.57534568773385786 0 -0.57534568773385786 -2.5928730064595413 0 0 0 0 -1.4913027734896165 -2.5734652457565801 0 -2.5734652457565801 -4.4950540476653487 0 0 0 0 -150.83929672870045 -115.61610614126403 0 -115.61610614126403 -6.7220081456907792 0 0 0 0 -23.920288519612882 156.41784694133275 0 156.41784694133275 -1034.7211137026752 0 0 0 0 92.765779806022692 -163.93960914223135 0 -163.93960914223135 -900.00069556447124 0 0 0 0 -45.373931554792762 -292.45635355548802 0 -292.45635355548802 -605.33499891660176 0 0 0 0 83.785854808450949 -58.636391629035643 0 -58.636391629035643 -555.76816399404197 0 0 0 0 16.982905676777136 -16.605364196559094 0 -16.605364196559094 -416.69446181408421 0 0 0 0 95.812812559174745 -59.019008884039067 0 -59.019008884039067 -637.0499427839278 0 0 0 0 -44.336839640538074 -33.995576431592781 0 -33.995576431592781 -147.38397168773736 0 0 0 0 48.03785425420665 -93.163715990973287 0 -93.163715990973287 -378.49299922879436 0 0 0 0 0.33291569665312259 0.62022071122612488 0 0.62022071122612488 -0.78263076222202699 0 0 0 0 28.321302660658603 -60.480904222142271 0 -60.480904222142271 -89.731436176109128 0 0 0 0 -72.441738038794028 -260.01137927414675 0 -260.01137927414675 -351.30889685711736 0 0 0 0 -47.342257111157096 -108.60085741198782 0 -108.60085741198782 111.27669940215128 0 0 0 0 1.7950669698211641 5.2916038526745979 0 5.2916038526745979 -7.0199619336126489 0 0 0 0 -1.7528616968966162 65.673810758235049 0 65.673810758235049 47.842374470554205 0 0 0 0 1.9630965637591125 4.2839132536233109 0 4.2839132536233109 -7.0930673694145696 0 0 0 0 38.245466712509369 51.000743137708923 0 51.000743137708923 -33.670608962307597 0 0 0 0 -39.694417232065462 -25.564338012100052 0 -25.564338012100052 23.959984196626465 0 0 0 0 0.62939195556310779 3.7225900940688916 0 3.7225900940688916 -6.8091729506195406 0 0 0 0 0.33107708214140175 2.0445267827096387 0 2.0445267827096387 -1.4556596834978643 0 0 0 0 -11.129977583093023 35.212601557563175 0 35.212601557563175 36.661053815172636 0 0 0 0 0.75559922402876012 5.4239245314292504 0 5.4239245314292504 -5.4514313053616519 0 0 0 0 2.0774966215867607 3.576392715844122 0 3.576392715844122 -11.548195477334957 0 0 0 0 1.0068259959251247 1.7900967375302486 0 1.7900967375302486 0.25353273553773903 0 0 0 0 0.41874510665218168 2.3881839875939477 0 2.3881839875939477 -8.3106209577526897 0 0 0 0 1.5738859298918086 2.7091517205167577 0 2.7091517205167577 -1.4794163131868689 0 0 0 0 0.85545641484668522 3.3757809831895429 0 3.3757809831895429 -11.702799320541089 0 0 0 0 0.39718762159918697 3.0125571955977648 0 3.0125571955977648 -8.8872128502116539 0 0 0 0 0.47549983244107352 2.1716123595178942 0 2.1716123595178942 -6.1814695954308263 0 0 0 0 3.1990929839364526 3.090898304075381 0 3.090898304075381 -8.9912356187414844 0 0 0 0 -1.4757342910788793 1.4848101988936833 0 1.4848101988936833 -7.6983365884007071 0 0 0 0 -1.309663450168955 0.99775799254712183 0 0.99775799254712183 -6.3337536490653292 0 0 0 0 1.1705822585831811 2.0379204445016512 0 2.0379204445016512 -8.0511923087615287 0 0 0 0 -1.961549038243902 0.9148323532572249 0 0.9148323532572249 -7.6087600594246396 0 0 0 0 -1.903902308650137 3.238140618555839 0 3.238140618555839 -5.1210548709933619 0 0 0 0 -2.221879445372906 2.8909961947829288 0 2.8909961947829288 -8.2610648241006857 0 0 0 0 -3.2397379965304935 3.6134723676768772 0 3.6134723676768772 -1.7819457768709981 0 0 0 0 -2.828847191703062 6.8584358146472368 0 6.8584358146472368 -3.0671921113535063 0 0 0 0 -4.1725871791569986 4.3326643765534314 0 4.3326643765534314 -3.304775334022878 0 0 0 0 -0.938470458535416 0.40447429649974254 0 0.40447429649974254 0.23468825347472944 0 0 0 0 2.6771792605650262 12.531342279093224 0 12.531342279093224 -13.604699262488339 0 0 0 0 -17.475952223146123 9.3588623475952772 0 9.3588623475952772 4.0106465213902993 0 0 0 0 -3.8929954525397079 9.0265679734402511 0 9.0265679734402511 -10.463437680125935 0 0 0 0 -5.8345229882343119 7.8735322988504777 0 7.8735322988504777 -4.9593970109108341 0 0 0 0 -1.8145390616837176 6.111726936433115 0 6.111726936433115 -4.3536071605412872 0 0 0 0 -3.6617323314222237 4.8173912109378207 0 4.8173912109378207 -5.2061263630858434 0 0 0 0 -6.0144259915533951 6.2191361217714132 0 6.2191361217714132 -6.0252117134290586 0 0 0 0 -4.5191977511594814 4.3632129246361728 0 4.3632129246361728 -4.03164745164122 0 0 0 0 1.027700428296157 6.1906005554956209 0 6.1906005554956209 -3.6100088315070025 0 0 0 0 -0.9994446647069708 6.4432716750598047 0 6.4432716750598047 -7.7579071291620494 0 0 0 0 -5.0488480629773456 7.073233220591689 0 7.073233220591689 -8.975312456189215 0 0 0 0 1.2995353853426224 21.285950977027369 0 21.285950977027369 -14.049588428730203 0 0 0 0 -2.2803142218403281 5.0513092454525292 0 5.0513092454525292 -6.5753978258213408 0 0 0 0 6.571779163364738 17.007789044141759 0 17.007789044141759 -22.075920198876702 0 0 0 0 -3.7069934537194058 17.134421573020518 0 17.134421573020518 -13.81283190941258 0 0 0 0 -10.927982077320848 16.82561401743078 0 16.82561401743078 -11.385059213414934 0 0 0 0 1.9146370197668148 14.542567052885715 0 14.542567052885715 -27.845123379956931 0 0 0 0 -0.68376921982348904 13.072259705306351 0 13.072259705306351 -44.853148502843396 0 0 0 0 0.56537511706392252 2.2749552514578681 0 2.2749552514578681 -5.0467658997649778 0 0 0 0 -30.408452488885359 -1.4011107419701148 0 -1.4011107419701148 -0.61178626705077477 0 0 0 0 23.426614464385239 2.2757691857914324 0 2.2757691857914324 -52.511034809649573 0 0 0 0 -1.1888781262100245 8.9650737755171601 0 8.9650737755171601 -20.940858977475642 0 0 0 0 3.3700721300144245 0.72895996061485846 0 0.72895996061485846 -4.9659256227803326 0 0 0 0 -2.9428559875036342 13.309457917152258 0 13.309457917152258 -21.751210639748024 0 0 0 0 -20.940608692461865 8.0206877669261303 0 8.0206877669261303 2.3177950354602217 0 0 0 0 28.14970446068719 24.112350618954224 0 24.112350618954224 -0.90166636354842922 0 0 0 0 0.6314777581310409 -8.4396589791103906 0 -8.4396589791103906 14.576512005194672 0 0 0 0 0.057355554163672551 0.45615142796800967 0 0.45615142796800967 -0.26199621431273101 0 0 0 0 13.585005469209136 -7.3425604711519554 0 -7.3425604711519554 -102.74655879550482 0 0 0 0 -4.0665912765275607 0.5060710669895343 0 0.5060710669895343 -51.13512504704704 0 0 0 0 -23.887215269439366 54.898149435164669 0 54.898149435164669 94.417345460191427 0 0 0 0 15.093178708310916 7.7316908825523569 0 7.7316908825523569 34.203782449258142 0 0 0 0 1.0887986359690505 0.16737316816993797 0 0.16737316816993797 -0.99772033302573959 0 0 0 0 12.290189185056079 -13.399083400421659 0 -13.399083400421659 -40.768501532555092 0 0 0 0 8.7044315229356926 39.197753517115416 0 39.197753517115416 -67.979866083034722 0 0 0 0 25.041838983510843 15.882893160523963 0 15.882893160523963 -40.805734449473675 0 0 0 0 -4.7627975251380121 12.400281606533099 0 12.400281606533099 -14.995727970279404 0 0 0 0 -3.7668230232789028 30.012931953693624 0 30.012931953693624 -25.460817105660681 0 0 0 0 3.8295653325922103 -16.22062160893438 0 -16.22062160893438 25.42559496773174 0 0 0 0 9.7812102400112053 37.979124183984823 0 37.979124183984823 -27.382756181352306 0 0 0 0 -5.2970122294198063 10.366775618802421 0 10.366775618802421 -32.134890190442093 0 0 0 0 5.9594073641073919 -4.0698792763650999 0 -4.0698792763650999 -43.682465811500151 0 0 0 0 2.9485099336234271 1.8074326811620267 0 1.8074326811620267 -51.385393193950222 0 0 0 0 4.0693774480632783 5.6154280338596436 0 5.6154280338596436 -64.591827885444218 0 0 0 0 -0.50787613632350848 0.67696030894248338 0 0.67696030894248338 2.5066701105863416 0 0 0 0 -11.484548334708506 14.162062208692078 0 14.162062208692078 -47.149024263722822 0 0 0 0 5.0540462746112098 4.2649971958162496 0 4.2649971958162496 -44.068033288058359 0 0 0 0 7.2051419258359601 9.264626002193836 0 9.264626002193836 -36.798962140957883 0 0 0 0 -5.8838053919098456 -0.90300740479870001 0 -0.90300740479870001 -37.972069143790577 0 0 0 0 0.076915861347515602 4.388339492114028 0 4.388339492114028 -35.616782355966279 0 0 0 0 4.4499736271964139 2.4120901537971804 0 2.4120901537971804 -36.801814124060911 0 0 0 0 2.6425721712244012 -6.8911862973654934 0 -6.8911862973654934 -28.547538825834636 0 0 0 0 -6.0961846140319267 2.3070165287208511 0 2.3070165287208511 -37.796910287048377 0 0 0 0 -2.6154287300355463 2.7963146268411947 0 2.7963146268411947 -37.896132471931196 0 0 0 0 0.28787122767589146 0.88554067530691327 0 0.88554067530691327 -0.45471783620253348 0 0 0 0 7.6611688165644409 37.243047500949615 0 37.243047500949615 54.473697750989231 0 0 0 0 4.6225712902510168 5.8852379457093775 0 5.8852379457093775 13.95102329513611 0 0 0 0 -0.80499163853619393 2.9707528047292726 0 2.9707528047292726 -6.0920846019034798 0 0 0 0 12.452745837480165 24.157051828915428 0 24.157051828915428 4.2627205823810073 0 0 0 0 16.933688586512289 20.245644735859969 0 20.245644735859969 -16.083643156722246 0 0 0 0 -1.9316966260407753 10.403687850037386 0 10.403687850037386 -10.293623410747387 0 0 0 0 -12.967047518265417 19.642980564371101 0 19.642980564371101 -9.8011250520357862 0 0 0 0 0.09092916636291748 0.36258005551688655 0 0.36258005551688655 0.10103032369622156 0 0 0 0 43.797754722353147 16.913658277080685 0 16.913658277080685 -2.8453165736427763 0 0 0 0 9.5618792989661188 39.014082809318097 0 39.014082809318097 -4.0594597688032081 0 0 0 0 1.010671292956804 0.9749035369923007 0 0.9749035369923007 -1.0429324030471534 0 0 0 0 0.87679416956052592 2.2892802351125283 0 2.2892802351125283 -12.929941078335105 0 0 0 0 11.510416460031138 20.078000213905398 0 20.078000213905398 18.987534835709084 0 0 0 0 0.62460975270367314 4.1610737684171824 0 4.1610737684171824 -7.8595118782105118 0 0 0 0 0.092173008854174787 1.885269080852968 0 1.885269080852968 -6.8711002628939752 0 0 0 0 1.4374568224664541 3.3454845883542959 0 3.3454845883542959 -11.696810861202607 0 0 0 0 5.5357441685032427 -0.71674712434469257 0 -0.71674712434469257 -16.0536415806273 0 0 0 0 1.0198432365033341 1.6438778506189919 0 1.6438778506189919 -9.2376441343367333 0 0 0 0 2.8572357250548066 3.8405439436619417 0 3.8405439436619417 -17.487753083187272 0 0 0 0 0.79926646256652267 0.13550545080272158 0 0.13550545080272158 -16.997710710110482 0 0 0 0 3.1465773142626858 9.4060430733516114 0 9.4060430733516114 -11.584085361828329 0 0 0 0 5.198732640934395 2.314218769344734 0 2.314218769344734 -29.970642550222692 0 0 0 0 4.9881080880504669 1.4047451721999096 0 1.4047451721999096 -33.098526605841471 0 0 0 0 2.7189558267442688 -1.7040685722184108 0 -1.7040685722184108 -4.6626266370149381 0 0 0 0 -1.2384719417891574 -3.9333308842651604 0 -3.9333308842651604 -16.377519641857361 0 0 0 0 4.492874911634317 3.8648989391513169 0 3.8648989391513169 -24.052730619092472 0 0 0 0 4.9178983920046448 2.678954373805027 0 2.678954373805027 -30.265111651664483 0 0 0 0 5.0775000107678352 -0.72078444599901559 0 -0.72078444599901559 -31.838112027980969 0 0 0 0 5.3392445296922233 3.0323121162946336 0 3.0323121162946336 -39.0341092038434 0 0 0 0 5.8610514851507105 4.9205803313889191 0 4.9205803313889191 -33.728709591483494 0 0 0 0 5.4947749836992443 4.7843006434486597 0 4.7843006434486597 -31.733111893205205 0 0 0 0 3.058363267605273 2.7714267669216497 0 2.7714267669216497 -29.42979289390496 0 0 0 0 2.1476853570047751 8.1399858570948709 0 8.1399858570948709 -32.462409102954553 0 0 0 0 4.9011085411311797 1.1920067049868521 0 1.1920067049868521 -30.270042256233864 0 0 0 0 4.0195765613598269 1.6126913294865517 0 1.6126913294865517 -28.059404480140074 0 0 0 0 0.19998330588754509 3.1962734693044084 0 3.1962734693044084 -15.370579082253983 0 0 0 0 -0.90635272910731146 5.4919362061918946 0 5.4919362061918946 -26.702376806695611 0 0 0 0 0.23529048079601256 -0.63362340219387647 0 -0.63362340219387647 -15.203053310098881 0 0 0 0 14.466580695029506 -28.512271282565052 0 -28.512271282565052 28.325905117424554 0 0 0 0 -1.1957309563218801 -4.0982547701133214 0 -4.0982547701133214 -11.401679166428579 0 0 0 0 2.0798860933000469 0.95998090482316911 0 0.95998090482316911 -8.3074751243984792 0 0 0 0 14.173803821119691 -20.590826693874988 0 -20.590826693874988 -19.416966712364228 0 0 0 0 -1.2661291310402163 -1.9805071618703209 0 -1.9805071618703209 -11.109848422401642 0 0 0 0 -10.48739691357332 -9.1025090926268604 0 -9.1025090926268604 4.8685384145687749 0 0 0 0 -5.4358399844840051 9.2088678527570664 0 9.2088678527570664 1.3364444022881798 0 0 0 0 -18.024042686916346 -41.691106799211411 0 -41.691106799211411 -33.168734875507653 0 0 0 0 -59.482227317962042 2.1393484551881556 0 2.1393484551881556 -47.975699507496756 0 0 0 0 14.246830757750331 19.209221905390223 0 19.209221905390223 -6.0479405080986908 0 0 0 0 -44.490743344442308 43.173409162271128 0 43.173409162271128 -11.609255061672229 0 0 0 0 27.089316143160431 -24.794937395610759 0 -24.794937395610759 -132.34981468603655 0 0 0 0 -24.062242374955076 97.605573230754999 0 97.605573230754999 -259.66341893214849 0 0 0 0 -67.586270864532025 6.7900460072451096 0 6.7900460072451096 6.6751137392566307 0 0 0 0 -39.182419989216669 27.381768204020773 0 27.381768204020773 19.018445934889314 0 0 0 0 -1.345296439022805 7.135691346174184 0 7.135691346174184 -2.0379957428055784 0 0 0 0 4.4447788621478139 9.1412692906887969 0 9.1412692906887969 -32.219233006391732 0 0 0 0 6.5587369034947187 37.379602968052495 0 37.379602968052495 -48.943609762587585 0 0 0 0 -0.74268627639732632 -0.18218451270531233 0 -0.18218451270531233 0.88574573992147521 0 0 0 0 -15.627636529537995 22.639750428425032 0 22.639750428425032 -12.313929943200492 0 0 0 0 -21.86385303586485 -1.5627011985197896 0 -1.5627011985197896 9.7403742401952513 0 0 0 0 -0.47298805894917706 7.6130123494047979 0 7.6130123494047979 -0.76974255790413437 0 0 0 0 22.620665811538856 -21.343506197466922 0 -21.343506197466922 -61.842777113524789 0 0 0 0 10.644511006608354 13.256981938313402 0 13.256981938313402 -28.894458303439023 0 0 0 0 -0.042019847870180982 0.67033568315173397 0 0.67033568315173397 -0.73145980448245496 0 0 0 0 -2.0243564002792027 -36.911636387460021 0 -36.911636387460021 -49.974960218278284 0 0 0 0 -0.025605125652131022 0.40370401276892665 0 0.40370401276892665 -0.38044668019692551 0 0 0 0 21.550595635183072 11.941521088498121 0 11.941521088498121 -327.34461030547027 0 0 0 0 19.632614297141117 -79.513980929596983 0 -79.513980929596983 -230.83427542263234 0 0 0 0 32.167323295442884 -113.20330638216547 0 -113.20330638216547 -325.50187693918997 0 0 0 0 -26.094955794796533 16.26752879126434 0 16.26752879126434 -127.08739658822014 0 0 0 0 18.911950632712845 -48.934632876637124 0 -48.934632876637124 -337.67069924160023 0 0 0 0 17.329167265639171 24.399672198087501 0 24.399672198087501 -502.56621604561224 0 0 0 0 -47.078906915680363 -105.54543677072343 0 -105.54543677072343 -405.12324879911466 0 0 0 0 -32.335014301401202 -128.1528228543757 0 -128.1528228543757 -463.10870816280658 0 0 0 0 -113.26476308029339 -93.346011740029098 0 -93.346011740029098 -422.1053732396831 0 0 0 0 -94.486166055027752 -142.63316641705023 0 -142.63316641705023 -459.63428998616291 0 0 0 0 -56.136761597535951 -203.64822789003483 0 -203.64822789003483 -578.93244594385033 0 0 0 0 8.2726326232450447 129.97813545845202 0 129.97813545845202 -422.42646887731098 0 0 0 0 1.2796683083979588 -86.093375666903739 0 -86.093375666903739 -353.69401848787675 0 0 0 0 46.262380204843794 -52.689918831914838 0 -52.689918831914838 -494.2189447804285 0 0 0 0 1.079620568800814 -1.3491108737617594 0 -1.3491108737617594 -5.232758727663537 0 0 0 0 -59.83226112239845 22.03685540297738 0 22.03685540297738 99.322527007469034 0 0 0 0 405.03877600974897 252.5326240293507 0 252.5326240293507 -505.02166644142562 0 0 0 0 -399.41004611625783 -397.64451958615064 0 -397.64451958615064 -203.5004108397261 0 0 0 0 -260.69313566186156 213.21356258392188 0 213.21356258392188 -456.21057882512287 0 0 0 0 -119.05889748751497 -234.85723367700848 0 -234.85723367700848 -674.77987781361662 0 0 0 0 -378.38797197473514 -179.79132385326739 0 -179.79132385326739 -431.972064601694 0 0 0 0 90.834870657675083 -27.832418903410144 0 -27.832418903410144 -472.54694409924559 0 0 0 0 328.94534220078708 -8.5437270702022943 0 -8.5437270702022943 -365.94761362412828 0 0 0 0 103.29251126769827 -428.04595458805852 0 -428.04595458805852 -505.23787874074696 0 0 0 0 66.188870425280811 122.59746209298464 0 122.59746209298464 -303.39823294278176 0 0 0 0 135.66570472460336 169.76398150192108 0 169.76398150192108 -530.43506384068314 0 0 0 0 29.951272409746707 128.29959869787126 0 128.29959869787126 -299.67432514633401 0 0 0 0 47.445538893606852 -18.655036048485272 0 -18.655036048485272 -355.26666000398109 0 0 0 0 52.864517128741795 34.061705477892247 0 34.061705477892247 -51.193524641683325 0 0 0 0 -45.54366570965658 -88.142003897090035 0 -88.142003897090035 -42.64191746438064 0 0 0 0 -48.708805395405648 -144.5874777177014 0 -144.5874777177014 -109.94428487219557 0 0 0 0 -77.967606619784874 -76.368891447433271 0 -76.368891447433271 -28.035412745259237 0 0 0 0 198.73095855753229 -294.75090108173754 0 -294.75090108173754 -196.84844620427612 0 0 0 0 1.8663383569717888 -1.6462381939111452 0 -1.6462381939111452 -10.305824445680202 0 0 0 0 310.44503731973487 -71.520544747105305 0 -71.520544747105305 -169.46135222679732 0 0 0 0 7.6012033964379953 -5.7671686669564224 0 -5.7671686669564224 84.87512495010742 0 0 0 0 -61.349301694641667 -91.669015529507305 0 -91.669015529507305 45.922730872174725 0 0 0 0 -325.19772100657508 -168.30658373566985 0 -168.30658373566985 50.210612216037589 0 0 0 0 -390.5163852646366 -15.028821848837651 0 -15.028821848837651 39.628919114285964 0 0 0 0 -2.7636208606081296 -1.9319513462733511 0 -1.9319513462733511 -2.3005307600570859 0 0 0 0 -38.683923496096668 -48.361685412892257 0 -48.361685412892257 -25.653742878203047 0 0 0 0 0.05905538095513263 -0.73777160887244975 0 -0.73777160887244975 -2.881557287282547 0 0 0 0 -140.92123785810327 -161.26832807845312 0 -161.26832807845312 -312.90907850117947 0 0 0 0 5.6183406081694756 9.1703962591709569 0 9.1703962591709569 -407.669070133692 0 0 0 0 -394.49583633727792 251.41770669505058 0 251.41770669505058 105.48944992216275 0 0 0 0 -195.61324663980315 -522.37128699184541 0 -522.37128699184541 -272.74418011980015 0 0 0 0 -4.8223531358548826 -151.02051299073355 0 -151.02051299073355 -80.86555712302652 0 0 0 0 14.726212711718745 -286.45136810730037 0 -286.45136810730037 -52.200865781444008 0 0 0 0 142.67444375653281 -172.45818582172978 0 -172.45818582172978 -129.33768549906381 0 0 0 0 -620.19066143052657 -187.9059602853722 0 -187.9059602853722 -5.0149016730138101 0 0 0 0 -215.59973864534913 -166.26131101289866 0 -166.26131101289866 -32.814052653899125 0 0 0 0 -0.80716644716813901 -1.7052426352840051 0 -1.7052426352840051 -4.0582027469589264 0 0 0 0 -149.87260751210124 -81.236453153884213 0 -81.236453153884213 -0.37312553346419008 0 0 0 0 -54.79881590505056 -178.72541022994483 0 -178.72541022994483 -48.826777334310464 0 0 0 0 24.304016002306525 -50.980097318722983 0 -50.980097318722983 57.604577745312781 0 0 0 0 -104.65072655688436 -112.33147780851868 0 -112.33147780851868 -130.09587492417359 0 0 0 0 -0.065392689360397327 0.49665884557427376 0 0.49665884557427376 -4.0594934547437056 0 0 0 0 -101.82561250684216 -84.433778402850294 0 -84.433778402850294 -84.054410276847193 0 0 0 0 42.31357883916553 -53.996091888984665 0 -53.996091888984665 8.8602431656545377 0 0 0 0 44.104316047637894 -62.586030554171884 0 -62.586030554171884 31.351769279135624 0 0 0 0 164.3222669001334 66.596999802844948 0 66.596999802844948 -93.252794696436467 0 0 0 0 -8.6601464098544056 -183.20869932210553 0 -183.20869932210553 -157.22692263113277 0 0 0 0 -114.84372086283201 -117.60650124555832 0 -117.60650124555832 -76.10958192884118 0 0 0 0 174.64713570572167 -13.907093887231895 0 -13.907093887231895 -196.00522996749169 0 0 0 0 -12.14867209480019 -6.5082636197839747 0 -6.5082636197839747 76.096713952159917 0 0 0 0 2.79297923992248 2.3035343707201932 0 2.3035343707201932 -18.428981534162773 0 0 0 0 -0.27572744303552099 1.0510184300983383 0 1.0510184300983383 -16.470168295723852 0 0 0 0 1.8508209928428379 5.356412208162979 0 5.356412208162979 -15.642270312613647 0 0 0 0 84.088148007868767 264.02627260976442 0 264.02627260976442 -85.086446746612637 0 0 0 0 0.79620530513079757 4.2352950584427163 0 4.2352950584427163 -20.028192503144965 0 0 0 0 3.6253196374495928 7.6317716235826083 0 7.6317716235826083 -17.669678000740532 0 0 0 0 0.51278728886497493 2.7434313482712156 0 2.7434313482712156 -10.517218875046709 0 0 0 0 3.7615963340126655 11.661674580500403 0 11.661674580500403 -12.262032716815156 0 0 0 0 3.6174065378704654 12.863844043888093 0 12.863844043888093 -15.144344815456861 0 0 0 0 0.079610428926692123 6.8236722781150903 0 6.8236722781150903 -12.010023429112579 0 0 0 0 11.799410097529858 55.370084749105445 0 55.370084749105445 64.17079218733852 0 0 0 0 -66.761449674633127 -27.881150879687993 0 -27.881150879687993 23.867311100271763 0 0 0 0 -0.87975132263677014 0.37143059581586613 0 0.37143059581586613 -0.012838734391266371 0 0 0 0 -57.224083292866226 72.61529673574114 0 72.61529673574114 90.97549929447996 0 0 0 0 13.483156698113021 197.16086670028744 0 197.16086670028744 26.894019143321202 0 0 0 0 -14.580534537507333 -135.06128818425441 0 -135.06128818425441 14.947423442776198 0 0 0 0 -0.071752779889247886 0.22923403048528712 0 0.22923403048528712 -0.25231147874285398 0 0 0 0 -13.413110521991999 -99.66599360123837 0 -99.66599360123837 -62.891070870711701 0 0 0 0 -38.481827916638963 -17.536074075411307 0 -17.536074075411307 79.172621944224375 0 0 0 0 -28.099421117035774 25.993381173429952 0 25.993381173429952 -340.77545119202478 0 0 0 0 -21.567430544101512 -25.072481387396692 0 -25.072481387396692 -100.51383249801074 0 0 0 0 -161.09142387823738 -206.26340468887793 0 -206.26340468887793 -299.92189431767474 0 0 0 0 4.5525804059612653 13.911898856870721 0 13.911898856870721 -472.24915269867051 0 0 0 0 -261.26654078033283 114.4879366278401 0 114.4879366278401 21.441113438679167 0 0 0 0 0.70488653698345027 -0.70156155264109543 0 -0.70156155264109543 -5.2876970309249884 0 0 0 0 -343.59692162626902 -334.82991165438216 0 -334.82991165438216 -179.50355970942474 0 0 0 0 253.09842822765654 255.41182501503317 0 255.41182501503317 -204.47256350613316 0 0 0 0 -1.4717510204527073 -29.823826703126542 0 -29.823826703126542 -223.78708478034241 0 0 0 0 -6.2159064853589143 -70.190763890484959 0 -70.190763890484959 -274.5624398511427 0 0 0 0 -27.259615294629157 -53.149167704905267 0 -53.149167704905267 -211.61190197261021 0 0 0 0 -6.3061340764436409 -53.119768042226497 0 -53.119768042226497 -240.13799171135906 0 0 0 0 19.162005765446118 -56.222180203703829 0 -56.222180203703829 -239.76025961316918 0 0 0 0 -34.067052714582182 -111.35909935726158 0 -111.35909935726158 -157.50249908187106 0 0 0 0 -4.152009179705729 -33.006522941555886 0 -33.006522941555886 -227.32705250987055 0 0 0 0 -9.3006453867010208 -32.409690495871473 0 -32.409690495871473 -103.59877575676001 0 0 0 0 -33.070308082262414 -76.211231942031873 0 -76.211231942031873 -36.717051299652667 0 0 0 0 -16.820561574713683 -69.712915960191822 0 -69.712915960191822 -110.74073567452433 0 0 0 0 -32.161487236670418 -54.90960166019795 0 -54.90960166019795 -70.472963795764372 0 0 0 0 -12.71644138123561 -12.56624647901117 0 -12.56624647901117 -50.071656942585832 0 0 0 0 -23.560314188729578 -29.545791925658705 0 -29.545791925658705 -13.425642793681618 0 0 0 0 -7.879324717386722 -33.635275482891302 0 -33.635275482891302 -97.179345422671759 0 0 0 0 7.2190238898067491 -10.723847986017063 0 -10.723847986017063 16.50748903726344 0 0 0 0 -12.829641973991528 4.429434294863313 0 4.429434294863313 5.6289989642391447 0 0 0 0 -16.593875341800093 -49.658825984570285 0 -49.658825984570285 -87.101794704125496 0 0 0 0 2.0864413531184862 -13.060021194447472 0 -13.060021194447472 -55.168345303405658 0 0 0 0 -18.414770056434072 -17.222285801079124 0 -17.222285801079124 -38.557475601961414 0 0 0 0 5.9239468301779681 -23.945015002649598 0 -23.945015002649598 -170.05784524057526 0 0 0 0 -0.010887265833239838 -15.552871068914101 0 -15.552871068914101 -119.47985957961646 0 0 0 0 -8.3051534857832578 -64.995062946101825 0 -64.995062946101825 -190.34621717146365 0 0 0 0 -25.442087260018532 -54.469045421814371 0 -54.469045421814371 -191.07397010215891 0 0 0 0 -12.892818804511702 -61.49013001460844 0 -61.49013001460844 -188.24498865546411 0 0 0 0 1.3345526348887997 -45.563109369944868 0 -45.563109369944868 -277.38266353181098 0 0 0 0 -22.161105330825443 -67.091633714720956 0 -67.091633714720956 -258.93428984666207 0 0 0 0 -2.1834477070808376 -33.142595254721527 0 -33.142595254721527 -247.48697453614295 0 0 0 0 -0.060948021800661042 -31.585575111072103 0 -31.585575111072103 -265.08654706483503 0 0 0 0 7.1439693111958178 -87.013276462294016 0 -87.013276462294016 -367.15613739838591 0 0 0 0 -0.0016557145414953225 -9.678873355001997 0 -9.678873355001997 -28.270368538982439 0 0 0 0 0.057259022661989213 0.27891120558254556 0 0.27891120558254556 -0.64411408370662571 0 0 0 0 -3.5384116977988285 -7.5764113094955974 0 -7.5764113094955974 -19.306524085121055 0 0 0 0 -2.0483906774823879 -10.965915399996447 0 -10.965915399996447 -26.200244559418934 0 0 0 0 -0.032855002497833484 1.130688759208951 0 1.130688759208951 -0.9182315536609309 0 0 0 0 8.172585193629331 -59.017072732669476 0 -59.017072732669476 -290.63696382911439 0 0 0 0 7.7560480790337447 -57.374727782145783 0 -57.374727782145783 -282.8282447772217 0 0 0 0 -13.096780677167757 0.53827860055025667 0 0.53827860055025667 -190.39552098811691 0 0 0 0 -0.85261012482818022 0.839544157610149 0 0.839544157610149 -2.9659796954418738 0 0 0 0 -3.8236684426478362 -9.4943505383489537 0 -9.4943505383489537 -16.60726080380482 0 0 0 0 -6.1747770656342587 -7.648522025127221 0 -7.648522025127221 -9.672927730519433 0 0 0 0 -4.7961412201088969 -7.3139456586141023 0 -7.3139456586141023 -16.064435639229487 0 0 0 0 -2.1910608279123593 -13.052900449569279 0 -13.052900449569279 -12.472903948058956 0 0 0 0 10.136498828697036 -91.734497882028904 0 -91.734497882028904 67.235288520096219 0 0 0 0 -16.24337012690421 154.12103072104946 0 154.12103072104946 199.85929773089447 0 0 0 0 143.80437243420101 63.832721371938533 0 63.832721371938533 -447.7369953299567 0 0 0 0 83.264365312521022 353.50107371450576 0 353.50107371450576 -439.1765439679948 0 0 0 0 118.10393056650832 -23.423051587295049 0 -23.423051587295049 -724.36858166095044 0 0 0 0 -402.17132349619908 -712.94788310920922 0 -712.94788310920922 -171.47385453723837 0 0 0 0 -6.9224345877410398 -10.460943785154683 0 -10.460943785154683 -13.894529233668891 0 0 0 0 -308.60401219637561 785.74906878930778 0 785.74906878930778 -176.16953839561029 0 0 0 0 1.9761184757734505 -13.221549913305353 0 -13.221549913305353 -11.110223573959956 0 0 0 0 -0.002965098827877247 -11.215958930428314 0 -11.215958930428314 -14.37331748050201 0 0 0 0 1.2437147981047563 -7.774991957965085 0 -7.774991957965085 -8.7845436113711912 0 0 0 0 0.77523191870097463 -9.545492738528992 0 -9.545492738528992 -19.256145740924694 0 0 0 0 -3.5758684918815788 -10.22533135860067 0 -10.22533135860067 -12.723977169454884 0 0 0 0 -4.7383323097286034 12.397872399487824 0 12.397872399487824 -89.73138250829652 0 0 0 0 5.1121820900099344 43.297491131757852 0 43.297491131757852 -152.94704915120383 0 0 0 0 5.6100145567448214 39.434114061120454 0 39.434114061120454 -155.32154304761207 0 0 0 0 -39.679760049400798 51.646478357659362 0 51.646478357659362 -66.317320599162485 0 0 0 0 -3.8828748485149518 22.564632374385837 0 22.564632374385837 -113.98301070697926 0 0 0 0 0.019096944209515684 0.20306896805777797 0 0.20306896805777797 -151.33175553192996 0 0 0 0 27.24227596157727 -16.116636817198014 0 -16.116636817198014 -205.87250809666511 0 0 0 0 25.338181415102241 12.066985296354687 0 12.066985296354687 -204.32131442250102 0 0 0 0 25.057537112499688 18.430571810346009 0 18.430571810346009 -169.10695519222645 0 0 0 0 29.192078642073852 38.533147431859106 0 38.533147431859106 -260.22084021824412 0 0 0 0 23.768646729522601 55.081427710352727 0 55.081427710352727 -166.62211146779009 0 0 0 0 64.300460990131839 -15.874908814832452 0 -15.874908814832452 -250.19643194569289 0 0 0 0 73.686574030024417 90.482059378518898 0 90.482059378518898 -553.03633917984553 0 0 0 0 77.779939165490816 22.391082115376776 0 22.391082115376776 -285.67395537314587 0 0 0 0 -55.136865302207852 273.71688654491481 0 273.71688654491481 -672.70324108604109 0 0 0 0 -17.676911926434233 135.78988340310025 0 135.78988340310025 -320.45917606310104 0 0 0 0 -51.391385781341341 176.93364685487177 0 176.93364685487177 -329.06920445729338 0 0 0 0 -20.567942201689434 101.97759205911279 0 101.97759205911279 -148.55490233429009 0 0 0 0 12.139145273956302 102.08403758584609 0 102.08403758584609 -323.11483115765805 0 0 0 0 -227.63654693633544 251.37946041447503 0 251.37946041447503 -299.62505357549526 0 0 0 0 -0.85123152064378371 -3.6829236070798501 0 -3.6829236070798501 -12.801398682579332 0 0 0 0 43.746289730484953 290.19416830688351 0 290.19416830688351 -324.46843991905916 0 0 0 0 38.642363278384536 -472.53386725777091 0 -472.53386725777091 1761.995670200442 0 0 0 0 -0.39448270575835165 -3.4557506972003313 0 -3.4557506972003313 -11.900094095408917 0 0 0 0 35.819763267723829 151.23800902804942 0 151.23800902804942 118.86520785768516 0 0 0 0 76.588804225912071 270.64249935922635 0 270.64249935922635 -144.91010088677285 0 0 0 0 49.088955457535803 195.87556317607232 0 195.87556317607232 83.167753818124766 0 0 0 0 42.239102193229201 270.52020260584686 0 270.52020260584686 -80.702297958661802 0 0 0 0 111.5007410794712 290.55876025188627 0 290.55876025188627 -331.32031304808334 0 0 0 0 -44.703909126356905 -758.49352368613654 0 -758.49352368613654 819.99457834282657 0 0 0 0 123.60209496144292 251.8874815700101 0 251.8874815700101 -677.87885098034167 0 0 0 0 160.19316564971874 133.7633200290893 0 133.7633200290893 -383.720188203617 0 0 0 0 161.85292761160042 142.42393417307176 0 142.42393417307176 -659.08352983463556 0 0 0 0 107.89878408306834 220.39775137760444 0 220.39775137760444 -351.33510378321807 0 0 0 0 122.7437442081781 248.32995129798655 0 248.32995129798655 -422.42953330313321 0 0 0 0 21.768151582266057 -207.75881890321034 0 -207.75881890321034 -516.85534571905737 0 0 0 0 158.42201284822463 5.4132159978844356 0 5.4132159978844356 -459.3573382551258 0 0 0 0 157.02966050245402 -21.701900753891096 0 -21.701900753891096 -857.00001556212374 0 0 0 0 101.6743484520531 -64.872735161421588 0 -64.872735161421588 -530.77993582590716 0 0 0 0 890.48064657847237 555.05761742439427 0 555.05761742439427 -1519.3337049145703 0 0 0 0 -21.423708383007437 22.884231182237272 0 22.884231182237272 -46.039883062883746 0 0 0 0 -83.711336920115798 123.87889832574001 0 123.87889832574001 -131.75670317970798 0 0 0 0 -189.50903512890795 138.15559765146463 0 138.15559765146463 -52.647721487664967 0 0 0 0 -115.76187349824727 41.138242085424281 0 41.138242085424281 53.857456827507121 0 0 0 0 -66.671974093004167 -45.808486149602686 0 -45.808486149602686 58.443144727914387 0 0 0 0 25.301404843827616 12.246888295223471 0 12.246888295223471 -33.081332151588867 0 0 0 0 -0.045613875512458352 -4.2786847055482014 0 -4.2786847055482014 -30.734780746301226 0 0 0 0 71.886189165539193 -53.172283448107919 0 -53.172283448107919 -41.609098291984992 0 0 0 0 2.8333494420860177 -11.131926042915438 0 -11.131926042915438 -11.285390668417676 0 0 0 0 -28.45145218169128 -203.68583213602687 0 -203.68583213602687 -49.419516987007228 0 0 0 0 -91.858398448467028 -21.997473618073855 0 -21.997473618073855 209.98220819601556 0 0 0 0 -17.975695391809836 -54.434545962372795 0 -54.434545962372795 -43.319080185698112 0 0 0 0 17.676062590359436 -187.27529783339924 0 -187.27529783339924 -229.41156912923907 0 0 0 0 -55.127781521521797 -62.499137799104574 0 -62.499137799104574 -28.752827830030583 0 0 0 0 109.15065330883048 120.89811555359483 0 120.89811555359483 43.971641530646593 0 0 0 0 5.1978704155154389 122.65734426934796 0 122.65734426934796 154.62965962165617 0 0 0 0 -42.448991742695966 42.550829267216614 0 42.550829267216614 47.76816205153591 0 0 0 0 -13.872617162945176 66.00195257949963 0 66.00195257949963 52.103532602239284 0 0 0 0 28.602519535819205 -22.686860656365752 0 -22.686860656365752 -34.740949724728125 0 0 0 0 166.54364130371118 38.974352470107988 0 38.974352470107988 -39.168321359349648 0 0 0 0 0.55161978907635234 -4.7115591384255531 0 -4.7115591384255531 -35.402227329289076 0 0 0 0 14.222525911803309 -29.319559217714414 0 -29.319559217714414 -27.149442925583571 0 0 0 0 5.0275965086264591 -15.518323024021811 0 -15.518323024021811 -27.148380737202388 0 0 0 0 -13.171244082253406 -14.550831995828048 0 -14.550831995828048 -25.006714101415128 0 0 0 0 -3.4248010834539819 -25.663781286788435 0 -25.663781286788435 -37.265276053018169 0 0 0 0 4.5649137789369831 -5.9554076212298241 0 -5.9554076212298241 -51.556672807666473 0 0 0 0 -17.156722012721737 6.121568402639241 0 6.121568402639241 -34.288285880247713 0 0 0 0 -8.9496201076895812 9.8970497519621858 0 9.8970497519621858 -91.151060570118716 0 0 0 0 6.5998176234215293 -10.642113727153628 0 -10.642113727153628 -56.517313597869361 0 0 0 0 -11.493407631022551 2.9390557542938041 0 2.9390557542938041 -51.255122933544044 0 0 0 0 -0.072799848164060238 -2.3481251903467637 0 -2.3481251903467637 -88.296782235189312 0 0 0 0 -18.71435019770491 -30.014613224724599 0 -30.014613224724599 -63.836463006113263 0 0 0 0 0.025877985241193339 11.08605992064313 0 11.08605992064313 -18.274217409576522 0 0 0 0 -0.05269728116695007 -0.013730367482111205 0 -0.013730367482111205 -0.055509671379354586 0 0 0 0 -0.27562402827993504 0.10251928553407197 0 0.10251928553407197 -4.8698857773269992 0 0 0 0 -0.10103976086566489 -0.3208755615687835 0 -0.3208755615687835 -0.7009348169912073 0 0 0 0 -2.9351391746047639 -10.081242997905065 0 -10.081242997905065 -0.79580466664629057 0 0 0 0 -0.00083929237777423762 -0.4500209553831791 0 -0.4500209553831791 -8.9713639360270463 0 0 0 0 0.039554989816906243 -0.62905521319856916 0 -0.62905521319856916 -0.92427030147422329 0 0 0 0 -0.0091309709505501685 -0.12571601355772088 0 -0.12571601355772088 -1.3498840385469641 0 0 0 0 -11.306086477499349 -17.30350678171817 0 -17.30350678171817 -19.887071892910171 0 0 0 0 5.7348389498269228 -20.375334344280418 0 -20.375334344280418 -29.005110961192258 0 0 0 0 -3.4395512706184945 -15.051542090477597 0 -15.051542090477597 -23.955785173515324 0 0 0 0 -3.3388493591562849 -15.086055294377729 0 -15.086055294377729 -25.684207254169451 0 0 0 0 -5.9960578095732586 -7.4853167337059858 0 -7.4853167337059858 -6.5212521620269399 0 0 0 0 1.1429817987025437 -0.96535422421800376 0 -0.96535422421800376 -8.8377295006603624 0 0 0 0 3.8872973057207787 -11.761371791595593 0 -11.761371791595593 -22.541460846092377 0 0 0 0 1.678122849786496 -4.6622676041150442 0 -4.6622676041150442 -16.304359171449562 0 0 0 0 4.4632311238684572 -12.059503033502551 0 -12.059503033502551 -28.113338019989897 0 0 0 0 0.030787725402660726 0.76786520420137094 0 0.76786520420137094 -9.8505488886730745 0 0 0 0 0.0061002535878537266 2.7735194288029419 0 2.7735194288029419 -7.5667118547291636 0 0 0 0 2.9070436385314906 1.6265317946381401 0 1.6265317946381401 -16.554214607313043 0 0 0 0 1.0910939372697765 1.5043691650055422 0 1.5043691650055422 -12.497948068859019 0 0 0 0 0.82257494421935462 2.4166761898777622 0 2.4166761898777622 -13.706985190314299 0 0 0 0 0.78640888173140411 1.3343678615055978 0 1.3343678615055978 -9.8036848660267424 0 0 0 0 -0.32153435319706913 -0.42025851026726002 0 -0.42025851026726002 -9.7890294178884574 0 0 0 0 1.2507300692489713 0.50760786411652248 0 0.50760786411652248 -9.1782920959316243 0 0 0 0 0.31993844484407497 1.267714308733872 0 1.267714308733872 -7.7837864932248522 0 0 0 0 0.00090724237012525092 -0.43184394687705208 0 -0.43184394687705208 -8.9832970074639888 0 0 0 0 0.57666309296573104 1.0680652352748439 0 1.0680652352748439 -10.622386018845646 0 0 0 0 -0.1454521257634617 0.66456408773569819 0 0.66456408773569819 -1.7898493572778875 0 0 0 0 -0.23239152969130403 -1.1797341563215014 0 -1.1797341563215014 -9.9062829377107846 0 0 0 0 0.073872425371359851 5.6430263151378313 0 5.6430263151378313 -16.663549253520614 0 0 0 0 -0.019828139008034387 1.2062071207619738 0 1.2062071207619738 -10.145818862263695 0 0 0 0 -0.028068053056994145 0.010426387873692988 0 0.010426387873692988 -0.067658165421022431 0 0 0 0 -0.39119460843284348 1.0244762615710385 0 1.0244762615710385 -2.6973936586233833 0 0 0 0 -0.74322668826862792 4.2508482245684718 0 4.2508482245684718 -11.094258616532898 0 0 0 0 -5.7607088688574208 2.0870691255840939 0 2.0870691255840939 1.830491633474594 0 0 0 0 -11.827767771362559 -0.031104367706575431 0 -0.031104367706575431 2.700520933009102 0 0 0 0 0.16927128041732864 0.90023864599788794 0 0.90023864599788794 -9.319328748708358 0 0 0 0 -3.8422017707933449 -2.5945159245020477 0 -2.5945159245020477 -6.5510162855498493 0 0 0 0 -5.1153605615177513 4.6887058024149155 0 4.6887058024149155 -1.6567097780935001 0 0 0 0 -10.266123344713666 -19.698350455117179 0 -19.698350455117179 -37.892949203353055 0 0 0 0 -12.206225410115085 -1.6650387551053427 0 -1.6650387551053427 -5.6653385550307576 0 0 0 0 -18.556787468466688 -21.16332980813786 0 -21.16332980813786 -25.164921865463839 0 0 0 0 -0.022170817563734957 -8.9970191132124455 0 -8.9970191132124455 -36.579914799105609 0 0 0 0 -6.6230082550708698 -14.387226973216457 0 -14.387226973216457 -27.62168356764596 0 0 0 0 -8.4045815796383749 19.44990840749233 0 19.44990840749233 29.985748516846797 0 0 0 0 -2.2914704605822465 4.5660399643311393 0 4.5660399643311393 11.088939318055054 0 0 0 0 -7.8030879240425293 -0.3446428346724133 0 -0.3446428346724133 19.366709726047702 0 0 0 0 -1.8830235639875248 1.2423123178337647 0 1.2423123178337647 2.6744443052681106 0 0 0 0 2.2591255954139911 7.7643288214749191 0 7.7643288214749191 1.2266087151583633 0 0 0 0 -20.659749951881892 -3.1960918407639838 0 -3.1960918407639838 14.528092154403566 0 0 0 0 -4.9922497488464455 -1.7171831520390697 0 -1.7171831520390697 1.8244686191901565 0 0 0 0 8.2842714035522249 19.873676102113677 0 19.873676102113677 6.2949092327326071 0 0 0 0 -0.74088722151998554 0.41400875172453766 0 0.41400875172453766 0.94902541990117584 0 0 0 0 -7.064990561481423 -1.0215052119383472 0 -1.0215052119383472 9.0513497618230758 0 0 0 0 -1.2825576900627151 6.4799401713574412 0 6.4799401713574412 -5.1460414663530969 0 0 0 0 -1.8419192191045088 3.2914149887879773 0 3.2914149887879773 -3.1211000620837552 0 0 0 0 -0.95983325770951566 5.1129290575254345 0 5.1129290575254345 -0.52318478676897939 0 0 0 0 -7.7304676601720033 1.2239859479741426 0 1.2239859479741426 7.5202009242784698 0 0 0 0 0.84163894306313125 10.978964937450655 0 10.978964937450655 7.4082896569161676 0 0 0 0 -2.1141601342481322 3.8694127350929648 0 3.8694127350929648 -3.2658443839423796 0 0 0 0 -0.96301360160714466 5.0187207495910116 0 5.0187207495910116 -3.0715927522396669 0 0 0 0 -1.2013884795074272 5.9438978550312385 0 5.9438978550312385 -11.593239523214834 0 0 0 0 -10.749610773767927 -1.0926890650880523 0 -1.0926890650880523 -4.9835467559169047 0 0 0 0 -1.4549961415068537 -3.0567602889495902 0 -3.0567602889495902 -19.005604805308394 0 0 0 0 -2.6087835221933346 11.930019078456098 0 11.930019078456098 -5.1377019757351263 0 0 0 0 -1.5469213160742834 4.8124789448085323 0 4.8124789448085323 -5.7318103859469716 0 0 0 0 0.24006441432837278 1.7641585101140009 0 1.7641585101140009 -0.66428376434996039 0 0 0 0 0.47642384759467404 8.4678722921962617 0 8.4678722921962617 -15.075342001122408 0 0 0 0 -3.1366268413164562 7.4248614572934457 0 7.4248614572934457 -14.57443630216585 0 0 0 0 1.4838456395822277 8.5292135771269386 0 8.5292135771269386 -17.246000859100604 0 0 0 0 0.14562881756394175 9.3812489099260716 0 9.3812489099260716 -4.5797411286787266 0 0 0 0 0.57029906012712672 6.8259698348556412 0 6.8259698348556412 -15.925217733165482 0 0 0 0 1.5023702996774766 2.458997314764801 0 2.458997314764801 -4.3071921925651679 0 0 0 0 0.49168868822857803 4.1117853281029966 0 4.1117853281029966 -16.159523749702203 0 0 0 0 0.15904733170328933 5.798113019144985 0 5.798113019144985 -5.3960578820450849 0 0 0 0 0.25096403388920407 5.7460193422011798 0 5.7460193422011798 -14.046147137974913 0 0 0 0 2.418773645216024 6.4154557174927049 0 6.4154557174927049 -5.7324565902910027 0 0 0 0 -3.2272238804562221 6.493719948863145 0 6.493719948863145 -10.526320364937419 0 0 0 0 1.6595407861343574 5.0608735650603194 0 5.0608735650603194 -14.324035363133589 0 0 0 0 1.1603987303808099 2.2872246677103618 0 2.2872246677103618 -10.255297081556307 0 0 0 0 32.820520360127091 5.0349672043157625 0 5.0349672043157625 -50.485058144869981 0 0 0 0 1.6386334147578592 -2.953061538015838 0 -2.953061538015838 -20.418613968345255 0 0 0 0 0.67545421667909977 2.6206968326296192 0 2.6206968326296192 -18.325237555863623 0 0 0 0 -7.5056172102230221 0.84315385344962124 0 0.84315385344962124 -33.526834538395633 0 0 0 0 1.9956488389708724 1.2862525454092406 0 1.2862525454092406 -9.6654171504669648 0 0 0 0 46.762859834359659 -14.222718914577854 0 -14.222718914577854 -29.664800429756724 0 0 0 0 13.361181156017771 -11.66098912255984 0 -11.66098912255984 -28.307446218343102 0 0 0 0 -0.98401681695622756 17.918324393511284 0 17.918324393511284 -45.534904552089756 0 0 0 0 7.4470023216497339 19.474180794344647 0 19.474180794344647 -15.734236461168621 0 0 0 0 -14.094370830958042 45.614943951331952 0 45.614943951331952 -6.1648955077980645 0 0 0 0 9.20819603360016 23.642334577085421 0 23.642334577085421 -93.585733481741045 0 0 0 0 -1.45502470718308 1.1351949689784604 0 1.1351949689784604 2.2736386333589849 0 0 0 0 3.595697141836979 0.26987013132020365 0 0.26987013132020365 -38.520769864058821 0 0 0 0 18.055610284173817 45.755946363131443 0 45.755946363131443 -17.91244953655405 0 0 0 0 69.256787687227941 29.112926338682882 0 29.112926338682882 -25.858854772959603 0 0 0 0 21.378448366715517 61.315355671444195 0 61.315355671444195 6.2066148870217148 0 0 0 0 -7.6825996791105808 41.429098133019579 0 41.429098133019579 -3.6863254754571244 0 0 0 0 -0.97557975043196166 48.645952930841304 0 48.645952930841304 -7.0774845487612765 0 0 0 0 -6.3172330724223684 44.315460533936857 0 44.315460533936857 22.691305146872764 0 0 0 0 -27.802467354002033 43.557842551570502 0 43.557842551570502 22.790766237370917 0 0 0 0 -17.134112597506402 31.049697233054758 0 31.049697233054758 6.6809772686683573 0 0 0 0 -3.853604282849119 19.302435207748204 0 19.302435207748204 4.5206418996458524 0 0 0 0 -26.021489309445315 28.709781235040282 0 28.709781235040282 27.310131157762953 0 0 0 0 -19.86222801466306 21.648836808119086 0 21.648836808119086 23.749890210281592 0 0 0 0 -15.691977499497398 24.202629181585507 0 24.202629181585507 29.275523641023028 0 0 0 0 -6.4110839506483899 13.756584064176423 0 13.756584064176423 13.390317559147661 0 0 0 0 0.056744469536170072 25.065898371423827 0 25.065898371423827 8.7238380421331385 0 0 0 0 14.406308653535916 -11.321798730932642 0 -11.321798730932642 41.598285136031336 0 0 0 0 -28.225275331429202 15.750888205351657 0 15.750888205351657 41.994965844049148 0 0 0 0 -4.6163529992663825 12.644025616638828 0 12.644025616638828 -25.291693880979437 0 0 0 0 -2.698420941923132 -3.3910284719459014 0 -3.3910284719459014 34.515737998091936 0 0 0 0 0.13718999957231937 1.1230596495527294 0 1.1230596495527294 -0.058555387956502614 0 0 0 0 -10.953432969247501 -4.0971682910603704 0 -4.0971682910603704 51.814377621820313 0 0 0 0 -9.5449867445069003 13.992894705970684 0 13.992894705970684 -22.704478903964628 0 0 0 0 -1.8277356864155081 5.1379316834281781 0 5.1379316834281781 -20.206324750106432 0 0 0 0 -4.3510874136090933 8.0022017181181582 0 8.0022017181181582 -19.188482059893431 0 0 0 0 -4.4110823046819405 8.8087554740923224 0 8.8087554740923224 -25.419194997113664 0 0 0 0 0.021723165272817369 0.51295496088854975 0 0.51295496088854975 -0.22420880372542484 0 0 0 0 -7.2885964581696498 5.0738078157883137 0 5.0738078157883137 -19.416330638319778 0 0 0 0 -7.0213640580009269 6.1994580470054643 0 6.1994580470054643 -15.713415101970895 0 0 0 0 -10.029063506955026 8.7375581916858209 0 8.7375581916858209 -17.532881694613025 0 0 0 0 1.0878590222018103 -0.11394848013533476 0 -0.11394848013533476 -5.1658358425291482 0 0 0 0 -0.35275576356396465 3.0813151529925022 0 3.0813151529925022 -1.4505806670174284 0 0 0 0 -1.7437873647127162 5.1144569641182898 0 5.1144569641182898 -20.920315046998439 0 0 0 0 -0.110411859018825 3.8977301528102544 0 3.8977301528102544 -6.6127493470703484 0 0 0 0 0.47373333900519032 6.5268236211150139 0 6.5268236211150139 -16.08129248213254 0 0 0 0 0.680622399862159 5.0780723742209375 0 5.0780723742209375 -20.999867555772653 0 0 0 0 3.7143855371124346 10.661713761084684 0 10.661713761084684 -11.944923330505844 0 0 0 0 3.257245994417076 12.519148373712596 0 12.519148373712596 -12.420049094318529 0 0 0 0 0.35027194952681384 7.5713837626826717 0 7.5713837626826717 -13.002835277459781 0 0 0 0 -1.787278903210537 9.8849134831951346 0 9.8849134831951346 -13.341002171944353 0 0 0 0 6.23493879817579 14.754601266962709 0 14.754601266962709 -23.523153364196332 0 0 0 0 -2.0025518345903492 2.562417671593721 0 2.562417671593721 -18.731989091218566 0 0 0 0 -5.8999708228725467 4.365640760093811 0 4.365640760093811 -22.359292273889878 0 0 0 0 -5.8822037579502648 3.9965519880643114 0 3.9965519880643114 -16.701961860897427 0 0 0 0 -13.34910401148818 3.2246304707805393 0 3.2246304707805393 -16.799317432156386 0 0 0 0 -7.065241699238868 -13.488155071725487 0 -13.488155071725487 -48.619521577071282 0 0 0 0 -24.130016198406906 2.5477298564273951 0 2.5477298564273951 -22.395340399816632 0 0 0 0 -13.193951820184111 20.558928061202096 0 20.558928061202096 -50.842785457018181 0 0 0 0 1.7988177392660418 3.2156087134426343 0 3.2156087134426343 -38.908259500924032 0 0 0 0 0.30149694333392363 8.7435672743193038 0 8.7435672743193038 -18.65585095146514 0 0 0 0 -0.23670666317502764 7.3797255155732273 0 7.3797255155732273 -12.861820892387186 0 0 0 0 24.605978160820769 100.67467832862894 0 100.67467832862894 47.53360839645029 0 0 0 0 -17.979266187403937 28.298394958808785 0 28.298394958808785 -9.8865015608753311 0 0 0 0 -0.48157693318217198 8.3071164122998766 0 8.3071164122998766 -13.810672403819893 0 0 0 0 -1.2489682388041352 1.0903159851616664 0 1.0903159851616664 2.4435010706608011 0 0 0 0 25.549024254715928 9.4810315583332851 0 9.4810315583332851 -0.10680652958399151 0 0 0 0 1.5114481180997628 9.1811541873839957 0 9.1811541873839957 -8.8258696474589939 0 0 0 0 -7.118296821346803 19.487850996942143 0 19.487850996942143 30.54104731832922 0 0 0 0 15.362693102991386 18.433395609981062 0 18.433395609981062 -23.60671360976994 0 0 0 0 4.9173937818900413 9.9157374059723224 0 9.9157374059723224 -14.326006009143384 0 0 0 0 7.6622636993365631 14.119854153552296 0 14.119854153552296 -25.241019587658229 0 0 0 0 5.2478264687665614 8.8569771968759596 0 8.8569771968759596 -12.903260728324312 0 0 0 0 -0.95072894781674222 9.4277507375009009 0 9.4277507375009009 -9.2369272649666527 0 0 0 0 4.1928986210915582 4.7108783662697533 0 4.7108783662697533 -22.100147580546036 0 0 0 0 0.11825381379187139 0.49270474702015576 0 0.49270474702015576 -2.6392201095251835 0 0 0 0 1.6662177860807788 1.552183677762514 0 1.552183677762514 -23.185414403196773 0 0 0 0 0.13532161328099557 6.5015870389985508 0 6.5015870389985508 -12.215192849859477 0 0 0 0 9.9741236458862659 9.0097155418407056 0 9.0097155418407056 -33.074014450605318 0 0 0 0 -2.4473803135897469 2.0719938610636746 0 2.0719938610636746 -24.405347445397638 0 0 0 0 -5.8819386555570645 13.634849391155512 0 13.634849391155512 -26.067495018258342 0 0 0 0 3.3847870094018617 4.1712178988018422 0 4.1712178988018422 -16.800473232578952 0 0 0 0 9.6461367146143857 15.813437044773309 0 15.813437044773309 -24.744898756234761 0 0 0 0 21.043098967997139 19.915639929873578 0 19.915639929873578 -12.860812098144379 0 0 0 0 32.133024350702726 13.251012983524561 0 13.251012983524561 -24.929660125315422 0 0 0 0 14.17172615454956 3.2282325881751603 0 3.2282325881751603 -25.185912519315025 0 0 0 0 0.48442819034043921 -1.1702374404663531 0 -1.1702374404663531 0.085960772615152337 0 0 0 0 48.446056317482999 18.209957735984062 0 18.209957735984062 -20.745907951408299 0 0 0 0 52.447092092566891 11.243620474146155 0 11.243620474146155 -9.3998044932814082 0 0 0 0 26.385207388546746 8.6722198866900726 0 8.6722198866900726 -23.978583442905801 0 0 0 0 26.783710478215198 18.065244397650531 0 18.065244397650531 3.1791687393706525 0 0 0 0 2.3686872899329501 10.673930702083453 0 10.673930702083453 -19.07760436141325 0 0 0 0 6.2418733186032114 5.0384524858891382 0 5.0384524858891382 -12.072498502457165 0 0 0 0 25.277607730346972 7.01602657912008 0 7.01602657912008 -14.402509839477716 0 0 0 0 15.423556270440258 14.704011722540599 0 14.704011722540599 -16.436330950476986 0 0 0 0 -12.141069330504934 11.142885895380459 0 11.142885895380459 -15.189714509135229 0 0 0 0 -8.5566355521070818 5.8783168940608448 0 5.8783168940608448 -13.676986282589496 0 0 0 0 -1.3414115639391184 2.4125635034579318 0 2.4125635034579318 -18.607760679238709 0 0 0 0 -0.07237268775537764 0.44801778072276477 0 0.44801778072276477 0.37427236494411886 0 0 0 0 25.548897651755397 34.326168003615749 0 34.326168003615749 -5.2651139515801333 0 0 0 0 18.719739774806385 20.613436712468683 0 20.613436712468683 -32.316545312431117 0 0 0 0 14.882160534230479 20.044423126833863 0 20.044423126833863 73.557131400033541 0 0 0 0 -4.7919849893751234 -17.271808324279846 0 -17.271808324279846 104.44860372665426 0 0 0 0 35.037593527624267 17.832122442239779 0 17.832122442239779 33.920775415695971 0 0 0 0 34.77220777083312 20.930883561886731 0 20.930883561886731 -2.2450250040055835 0 0 0 0 24.434995030277832 27.914985090919799 0 27.914985090919799 34.238929774350254 0 0 0 0 27.077453840093767 -10.564087323931744 0 -10.564087323931744 45.330909377382341 0 0 0 0 26.481341913188317 -3.1529969320690725 0 -3.1529969320690725 -1.8565671555079462 0 0 0 0 -0.23776281401414501 -0.15807494049127513 0 -0.15807494049127513 1.7070952423787418 0 0 0 0 25.966547462219182 -13.433968395824195 0 -13.433968395824195 3.7917166295519564 0 0 0 0 25.185921653681135 -10.106311804836878 0 -10.106311804836878 17.829030806453375 0 0 0 0 -0.014875646530176367 -0.92160893626193485 0 -0.92160893626193485 7.130435903655723 0 0 0 0 -9.3464490248845777 8.6079625343481894 0 8.6079625343481894 13.030313744098748 0 0 0 0 3.3692095939131832 19.044855943284347 0 19.044855943284347 -40.203538641435443 0 0 0 0 -45.281997574610841 24.592579867021414 0 24.592579867021414 -7.6050108578633626 0 0 0 0 0.83928281602834431 3.4239136135547596 0 3.4239136135547596 -8.564193746278761 0 0 0 0 5.145695929683491 18.61807733580099 0 18.61807733580099 18.382576371092 0 0 0 0 4.4158629578646469 -9.4217426436516689 0 -9.4217426436516689 27.712943774618907 0 0 0 0 45.822427021926842 0.44793879096323508 0 0.44793879096323508 27.693525872819009 0 0 0 0 8.3516140076726515 -4.5942751249167486 0 -4.5942751249167486 30.17064518679399 0 0 0 0 -15.264553313985289 12.161632857911172 0 12.161632857911172 56.976144908858259 0 0 0 0 -7.7722662998651231 7.3899958069232525 0 7.3899958069232525 23.443365832499694 0 0 0 0 -25.056074301225181 21.440099728337373 0 21.440099728337373 -20.426918659184594 0 0 0 0 -37.918185093455804 16.236427682408248 0 16.236427682408248 30.816148292702565 0 0 0 0 -27.52853066169655 38.852994519118511 0 38.852994519118511 35.477842055057408 0 0 0 0 -28.412493101659948 20.80057193923858 0 20.80057193923858 24.814185367817117 0 0 0 0 -35.598026692296799 27.824273204794736 0 27.824273204794736 28.186487554718042 0 0 0 0 -38.039282289010771 22.438140670958092 0 22.438140670958092 24.721775626876479 0 0 0 0 -34.263299251426588 26.335361212266434 0 26.335361212266434 8.2554775988828624 0 0 0 0 -48.093444585847465 24.514227789564757 0 24.514227789564757 32.541209303424694 0 0 0 0 -53.171044989864185 -7.4965238811128074 0 -7.4965238811128074 58.882270682523085 0 0 0 0 -36.209759669289724 38.914561213918205 0 38.914561213918205 44.370705095687299 0 0 0 0 -43.720455791524103 -21.167276174055587 0 -21.167276174055587 -30.195567278729868 0 0 0 0 -18.904170897723816 24.768163060420193 0 24.768163060420193 -77.316483096168668 0 0 0 0 22.747441736609062 -0.073615494096884504 0 -0.073615494096884504 -106.84888877208869 0 0 0 0 13.003536447827742 -36.688021963047504 0 -36.688021963047504 -241.65075071208412 0 0 0 0 -24.73504811217299 20.818114704105028 0 20.818114704105028 -20.526335851100157 0 0 0 0 -19.359206922772728 52.941459633184422 0 52.941459633184422 -85.027550320060982 0 0 0 0 4.1824825333992521 75.186020413231745 0 75.186020413231745 -74.349602807120391 0 0 0 0 -59.461798210689039 134.34518995136386 0 134.34518995136386 -128.34602265103604 0 0 0 0 -7.1247239413063284 159.0488365464069 0 159.0488365464069 -117.0776652492932 0 0 0 0 96.202753430515315 130.28578324849514 0 130.28578324849514 -347.37270454809186 0 0 0 0 135.63087231130339 105.29696646257071 0 105.29696646257071 -416.34340772335418 0 0 0 0 100.29677811916508 -48.113235181444452 0 -48.113235181444452 -281.98124561569421 0 0 0 0 16.763779191339154 75.042889095495411 0 75.042889095495411 -230.40382232538832 0 0 0 0 81.12576401614524 128.03400333804893 0 128.03400333804893 -202.57188420601597 0 0 0 0 -6.6437264192207177 179.73804077711679 0 179.73804077711679 -232.60002208822698 0 0 0 0 127.77680421991522 225.95449836835905 0 225.95449836835905 -273.65487658843631 0 0 0 0 139.43142979029903 210.90238479351683 0 210.90238479351683 -443.04171249673527 0 0 0 0 82.571585184555943 234.12915667999187 0 234.12915667999187 -269.73285575822229 0 0 0 0 109.54740751300764 302.93842900293566 0 302.93842900293566 -182.47461270284839 0 0 0 0 93.419010566120505 242.30346931658278 0 242.30346931658278 -156.8788595425176 0 0 0 0 82.878163234853901 238.96741966732952 0 238.96741966732952 -202.1680139440432 0 0 0 0 56.683510811719998 236.93852423949284 0 236.93852423949284 -199.61245055903419 0 0 0 0 54.382981607170905 242.90174103000754 0 242.90174103000754 -102.56271123203624 0 0 0 0 154.68810723933268 240.74546226521488 0 240.74546226521488 -177.21665165791183 0 0 0 0 162.85040268222781 141.92609264710336 0 141.92609264710336 -1.2721359291754197 0 0 0 0 -85.706136609122836 201.15959086749353 0 201.15959086749353 -122.52331948859501 0 0 0 0 -19.215120467050838 271.10945256338891 0 271.10945256338891 -175.68615020786092 0 0 0 0 -267.94484011156737 50.285690663105925 0 50.285690663105925 -1.9137282044939639 0 0 0 0 -140.81551275496986 258.6007517764665 0 258.6007517764665 -181.40324408171 0 0 0 0 -195.16854998029532 179.31464499775575 0 179.31464499775575 -183.91883769190463 0 0 0 0 -0.0050353991357619254 -0.034111154088529716 0 -0.034111154088529716 2.2470126459346886 0 0 0 0 40.738968945407848 11.360556238999379 0 11.360556238999379 -44.349277389526833 0 0 0 0 -1.508262559287914 -6.0631964460771997 0 -6.0631964460771997 -25.873608192196116 0 0 0 0 -127.2920709691432 40.21481116884388 0 40.21481116884388 -17.643455256420566 0 0 0 0 -13.282122466885255 -15.61937651881999 0 -15.61937651881999 -51.397645571538305 0 0 0 0 -63.292775846579332 -52.266661003931745 0 -52.266661003931745 -42.654484492180927 0 0 0 0 -9.9771869233603638 -27.508790010961093 0 -27.508790010961093 -112.40489716724551 0 0 0 0 -25.740684418714864 -61.971405798849446 0 -61.971405798849446 -124.11307501372448 0 0 0 0 45.49867934128099 18.706458944285259 0 18.706458944285259 -94.888737014816797 0 0 0 0 55.612861755491096 9.5092811126996821 0 9.5092811126996821 -55.867949518633395 0 0 0 0 168.9467938103775 87.034769587939081 0 87.034769587939081 -18.883163390637492 0 0 0 0 65.689898405739712 -1.0684845862997463 0 -1.0684845862997463 -45.467530155401619 0 0 0 0 21.202684921057994 -57.256105307787948 0 -57.256105307787948 -54.093117966953287 0 0 0 0 71.20218115278135 -19.724466663966268 0 -19.724466663966268 -54.930827535514254 0 0 0 0 14.331458761172485 -26.761710150996805 0 -26.761710150996805 -19.865255546515982 0 0 0 0 38.934302537530186 -29.560105592841865 0 -29.560105592841865 -54.031330423086274 0 0 0 0 39.420752083353193 -1.3547255574521841 0 -1.3547255574521841 -41.711728373298683 0 0 0 0 42.191522797936031 -15.038168623411366 0 -15.038168623411366 -23.289255848467292 0 0 0 0 40.220736301155448 -19.059166315293623 0 -19.059166315293623 -24.025132759532426 0 0 0 0 10.683324185721387 1.4564917505204704 0 1.4564917505204704 -15.619682463947441 0 0 0 0 -13.085000772037802 49.291151660025207 0 49.291151660025207 -25.650787349567054 0 0 0 0 32.983105467584721 -9.7889991815500252 0 -9.7889991815500252 -10.057762502445257 0 0 0 0 18.05128333150833 -14.106009471295692 0 -14.106009471295692 1.992326064115332 0 0 0 0 24.622406875564138 -19.473006235803041 0 -19.473006235803041 -18.296519240648195 0 0 0 0 -2.5669819875134863 -9.9951808806108602 0 -9.9951808806108602 2.0641736807519919 0 0 0 0 4.8960533824122194 -24.429264707177936 0 -24.429264707177936 -5.6281123596345424 0 0 0 0 2.2987384802917177 -44.933278927219362 0 -44.933278927219362 -39.385493943393158 0 0 0 0 -35.831899541082066 -16.178836913561099 0 -16.178836913561099 1.415730502907536 0 0 0 0 -10.208947828710087 -11.267927951725824 0 -11.267927951725824 4.7718215820787009 0 0 0 0 -3.0967308495844463 -12.255447144292702 0 -12.255447144292702 -1.4561681754203164 0 0 0 0 -0.93857577041853801 -4.4153206368646352 0 -4.4153206368646352 9.3885479609598406 0 0 0 0 2.9465958199594571 -5.2711047486598659 0 -5.2711047486598659 4.1114111168841987 0 0 0 0 -4.1827098368476072 -4.7816508493269794 0 -4.7816508493269794 9.4046822627169604 0 0 0 0 1.8386214792899409 -0.91494113671797095 0 -0.91494113671797095 -2.0065548456877877 0 0 0 0 6.8952468949623835 -8.7762032160026138 0 -8.7762032160026138 5.6658607301978918 0 0 0 0 11.767527824585386 -8.0450894656387391 0 -8.0450894656387391 1.8507523135631345 0 0 0 0 -5.3227031097979989 -12.65997452927877 0 -12.65997452927877 4.5434260657275445 0 0 0 0 7.4297203103132921 -5.4325703773546365 0 -5.4325703773546365 0.08792358444876669 0 0 0 0 -9.6976926000288586 -12.972234779979772 0 -12.972234779979772 -8.8000412519322708 0 0 0 0 16.005326626786882 -7.3144537521511666 0 -7.3144537521511666 -60.25020829141431 0 0 0 0 -5.00194179268874 35.883384070402826 0 35.883384070402826 -58.418195722103064 0 0 0 0 1.9162595049384663 3.6072416479271396 0 3.6072416479271396 -14.659941677760798 0 0 0 0 15.312080028837954 -6.9849677684615017 0 -6.9849677684615017 -17.949311115546152 0 0 0 0 11.686069793604474 3.1455432426337211 0 3.1455432426337211 -35.017370359317283 0 0 0 0 14.044788358746473 25.510668011040252 0 25.510668011040252 -24.912193852251221 0 0 0 0 25.153126451141816 28.169052688608645 0 28.169052688608645 -31.588622556366317 0 0 0 0 14.37384892994487 25.582038559266948 0 25.582038559266948 -24.755400698919402 0 0 0 0 11.805663943251375 17.559684547034522 0 17.559684547034522 -39.915878174899262 0 0 0 0 -13.582739950359155 15.5926013660428 0 15.5926013660428 -13.389926619449398 0 0 0 0 10.43032542680794 31.732990483782487 0 31.732990483782487 -35.022631167979853 0 0 0 0 4.2967143901828422 13.70185120471433 0 13.70185120471433 -16.302454245320405 0 0 0 0 10.723158752331074 9.9569076609441254 0 9.9569076609441254 -15.736921633826569 0 0 0 0 28.043449463971456 28.323464983321173 0 28.323464983321173 -24.939051776440465 0 0 0 0 12.844873542139339 26.572822883979825 0 26.572822883979825 -7.9416474260942778 0 0 0 0 2.9207047496420273 4.9302065284427954 0 4.9302065284427954 -35.408652026409982 0 0 0 0 -0.096109769653430988 -0.31056694319046585 0 -0.31056694319046585 0.31589023184178444 0 0 0 0 -3.7706546350202643 1.1489725415412977 0 1.1489725415412977 -28.561936589787365 0 0 0 0 -14.041042845485208 1.9190220947057242 0 1.9190220947057242 20.479058857697964 0 0 0 0 -0.32089575519719205 0.19443150533587072 0 0.19443150533587072 0.098592910110745891 0 0 0 0 13.26104939013112 19.978205732058996 0 19.978205732058996 -40.752867543429602 0 0 0 0 -10.093942237856027 29.704172508019838 0 29.704172508019838 -1.7583529696203186 0 0 0 0 3.0090410058282941 22.380618762490485 0 22.380618762490485 -47.649587508210971 0 0 0 0 -24.424438283054769 -3.9712748115653085 0 -3.9712748115653085 -55.843376939898008 0 0 0 0 -3.6200995983972462 43.580407127534272 0 43.580407127534272 -60.044270106096519 0 0 0 0 -55.910056272594375 -17.069955939976353 0 -17.069955939976353 80.677798687589529 0 0 0 0 27.407133151385551 3.9113048175458971 0 3.9113048175458971 -43.788578197098104 0 0 0 0 -15.301531883438656 14.775607282666897 0 14.775607282666897 -8.9381006270596117 0 0 0 0 -2.2466686297043452 3.0692007402776653 0 3.0692007402776653 -11.546489452230162 0 0 0 0 -5.7389668932619315 -2.1170665544850635 0 -2.1170665544850635 0.52603760399506427 0 0 0 0 -5.8056782609971727 3.2265980339210927 0 3.2265980339210927 -2.3779781236746516 0 0 0 0 -6.6308395909327373 32.721354228931887 0 32.721354228931887 -104.21597692025534 0 0 0 0 13.625826074477573 6.4747779156314209 0 6.4747779156314209 -118.92957395114354 0 0 0 0 -0.44955186601668995 -0.39144993824054097 0 -0.39144993824054097 0.40984624422543448 0 0 0 0 21.758571896284479 -21.097552871466178 0 -21.097552871466178 0.84223214029771043 0 0 0 0 10.752422189304397 1.7718061814298665 0 1.7718061814298665 -13.660291496806849 0 0 0 0 -27.198297044602441 15.17616269444261 0 15.17616269444261 -7.0564552470314084 0 0 0 0 -25.890802612980224 1.39096397018875 0 1.39096397018875 -10.335542299450026 0 0 0 0 -11.886564358363103 -0.22586023507028585 0 -0.22586023507028585 -23.014172490045894 0 0 0 0 -3.3456969245190749 24.950855034109736 0 24.950855034109736 12.138298866892001 0 0 0 0 -39.579739468546904 5.1979606620661798 0 5.1979606620661798 1.4455689241294749 0 0 0 0 -26.422944438000741 32.617181270863512 0 32.617181270863512 23.581916885043029 0 0 0 0 13.332261502150686 13.82912895667323 0 13.82912895667323 -8.2969767977810989 0 0 0 0 -2.6459034158286361 7.6765638226804853 0 7.6765638226804853 -11.126070681664601 0 0 0 0 9.8878178821405527 40.591129895969061 0 40.591129895969061 2.0714879753068089 0 0 0 0 0.74172814445157864 5.159614602243364 0 5.159614602243364 -14.063066963456805 0 0 0 0 -66.036114891525813 20.184788407979795 0 20.184788407979795 20.264109962241491 0 0 0 0 116.34494133123644 66.808982292892324 0 66.808982292892324 -127.1992696649977 0 0 0 0 -2.3953567966222167 0.23667344763124731 0 0.23667344763124731 -0.061886577239484097 0 0 0 0 -39.973505304791615 -14.102938779949909 0 -14.102938779949909 -2.412717866103776 0 0 0 0 25.597269096921707 -49.041310509169762 0 -49.041310509169762 -242.05079843255953 0 0 0 0 73.537918185401395 141.46250592973956 0 141.46250592973956 -87.423400942738226 0 0 0 0 -168.05817015477123 -130.46287081499395 0 -130.46287081499395 104.60523445913714 0 0 0 0 -10.674055099953875 6.6794387800837285 0 6.6794387800837285 -20.775994350540714 0 0 0 0 0.85041929200081157 1.8039054430179107 0 1.8039054430179107 -4.6423656181249982 0 0 0 0 1.9138599901242448 7.1545494915276402 0 7.1545494915276402 -23.751654808678808 0 0 0 0 8.6255392121452132 18.781512000521616 0 18.781512000521616 -20.428705815691501 0 0 0 0 -19.864072903616886 17.229457846516198 0 17.229457846516198 -15.569141568732448 0 0 0 0 -24.267717970824776 -9.6591694283388279 0 -9.6591694283388279 -30.191897566401167 0 0 0 0 -0.46270837362453676 4.2069211621346767 0 4.2069211621346767 -22.456604855862679 0 0 0 0 -6.7724892167343569 10.265717452257377 0 10.265717452257377 -25.536393997681444 0 0 0 0 -4.8188292613831436 5.2916772347161896 0 5.2916772347161896 -32.313215175643563 0 0 0 0 -3.9831901527481932 2.8283689192812744 0 2.8283689192812744 -40.803400549557409 0 0 0 0 -3.4881508051967103 10.963488468092692 0 10.963488468092692 -34.97770196806232 0 0 0 0 -5.0485755096942739 5.4805599395258469 0 5.4805599395258469 -32.445991801570926 0 0 0 0 23.105411122784858 2.1466959277927344 0 2.1466959277927344 -33.835787919771974 0 0 0 0 -1.9706094161974761 13.052832614370345 0 13.052832614370345 -23.550745784901665 0 0 0 0 -9.3522982941540249 17.237891713928548 0 17.237891713928548 -20.053472911458812 0 0 0 0 -9.794345790247462 -1.4919675842829747 0 -1.4919675842829747 -28.449003562571306 0 0 0 0 -11.542802811913589 25.37514505119907 0 25.37514505119907 -47.671352412740816 0 0 0 0 1.321123927753951 -1.8145960624438882 0 -1.8145960624438882 -1.061452405037187 0 0 0 0 3.8228745663072914 22.587815255683381 0 22.587815255683381 -50.132072872380377 0 0 0 0 5.1722743885384048 2.4665361409690121 0 2.4665361409690121 -14.011687735604667 0 0 0 0 1.7503662847302621 -13.84062864905718 0 -13.84062864905718 -13.136343010031851 0 0 0 0 -11.88391691747529 12.73772332142471 0 12.73772332142471 -30.797604758728994 0 0 0 0 -0.10098209243844991 0.57559426862538032 0 0.57559426862538032 -2.5778052831695675 0 0 0 0 -2.8497532547226001 0.99386464251801954 0 0.99386464251801954 -47.135778870113427 0 0 0 0 -7.9648977295364602 1.3098210391908651 0 1.3098210391908651 -36.698472769920045 0 0 0 0 -12.894802656653837 8.8810204378305571 0 8.8810204378305571 -32.475744693452725 0 0 0 0 -7.2742751239602512 2.016144018554769 0 2.016144018554769 -2.1118039541652252 0 0 0 0 -16.130083600742182 11.818244133512053 0 11.818244133512053 -10.455683152358688 0 0 0 0 4.8917904741368261 7.3772102276611804 0 7.3772102276611804 -12.293352369175409 0 0 0 0 3.2360741298116409 11.389755882513782 0 11.389755882513782 -11.610030567120702 0 0 0 0 11.283600166187171 1.4226881755603245 0 1.4226881755603245 -15.798452563583851 0 0 0 0 -1.2067531275418233 5.7257387494818062 0 5.7257387494818062 -10.711566796298683 0 0 0 0 -15.093679318451905 5.8167846685028053 0 5.8167846685028053 -2.3884670617444499 0 0 0 0 -2.7345487048769428 112.49402288594138 0 112.49402288594138 10.598497570303152 0 0 0 0 -11.40378974679896 11.266513040272713 0 11.266513040272713 -11.160288080305435 0 0 0 0 -14.126421853993861 -2.1716275611311175 0 -2.1716275611311175 -15.835968067665817 0 0 0 0 -117.4655053092074 72.10458099238349 0 72.10458099238349 55.34531347592565 0 0 0 0 47.893382532916803 12.783690003921947 0 12.783690003921947 -119.5703490484193 0 0 0 0 3.9984854670092318 -13.36006991270915 0 -13.36006991270915 5.565433856099844 0 0 0 0 -23.926631946218549 -52.947974896003871 0 -52.947974896003871 -41.540233772881038 0 0 0 0 1.2178815569377974 2.0028541438831837 0 2.0028541438831837 -1.1113072805488429 0 0 0 0 20.045592150421726 3.1464060242287815 0 3.1464060242287815 -29.145737174985697 0 0 0 0 0.96064279188067303 55.584577225701651 0 55.584577225701651 326.70055833604783 0 0 0 0 -2.1894189969643776 14.801328503279365 0 14.801328503279365 -12.81127167174418 0 0 0 0 6.1239895999246272 7.6993585108722016 0 7.6993585108722016 -10.816953104545945 0 0 0 0 -1.6133274929805239 10.935549347110978 0 10.935549347110978 -1.2599278314379436 0 0 0 0 1.3375308616068651 3.7220786546968156 0 3.7220786546968156 -15.911286656555603 0 0 0 0 56.577100836307181 43.428409854041092 0 43.428409854041092 -32.042717169024399 0 0 0 0 10.882795295452524 10.978994717865135 0 10.978994717865135 -25.960690937135951 0 0 0 0 -7.356021059719513 12.330437392864852 0 12.330437392864852 -13.847498241287695 0 0 0 0 -15.295900499116215 15.842732559911383 0 15.842732559911383 -22.244965220466838 0 0 0 0 -0.15273596363227782 4.9361177663364231 0 4.9361177663364231 -11.824595941757053 0 0 0 0 -2.5214081349447479 5.2464866265919454 0 5.2464866265919454 -8.1949178580990321 0 0 0 0 -22.265401886526888 30.052816026378423 0 30.052816026378423 -16.04645198392609 0 0 0 0 -16.157235616268736 23.21788467814622 0 23.21788467814622 -39.84507654220215 0 0 0 0 -16.837648643416287 24.139167169156281 0 24.139167169156281 -40.888774848957837 0 0 0 0 0.91051806678091296 -0.25619062200017595 0 -0.25619062200017595 -0.5381474680643521 0 0 0 0 -14.644754434095375 25.406385183916427 0 25.406385183916427 12.483434397079691 0 0 0 0 -1.4201347848502337 19.079673996347992 0 19.079673996347992 -41.72942203139246 0 0 0 0 -11.023606758089954 20.633391305236728 0 20.633391305236728 -39.453264492500239 0 0 0 0 8.0527534469769986 3.5639640846845921 0 3.5639640846845921 -19.944816362718541 0 0 0 0 4.921502284167218 12.879897070692095 0 12.879897070692095 -13.109595536952838 0 0 0 0 -12.985025981539366 23.011341807374265 0 23.011341807374265 -42.704662531948998 0 0 0 0 -4.6130582394691757 15.669447203186515 0 15.669447203186515 -15.263924953414318 0 0 0 0 3.6814385734495936 10.712299641030555 0 10.712299641030555 -6.872552228580048 0 0 0 0 -7.3138920367055125 12.768943224022067 0 12.768943224022067 -0.75979365176485203 0 0 0 0 2.0348252776275331 13.120892665087013 0 13.120892665087013 -5.0344703573791776 0 0 0 0 -7.5802095377172556 25.437370667855589 0 25.437370667855589 -30.332357673035858 0 0 0 0 -1.8411715765149033 14.909932884714671 0 14.909932884714671 -20.952441606905921 0 0 0 0 -10.001870134763521 27.872645252020448 0 27.872645252020448 -45.83009919077449 0 0 0 0 -5.9142520215336845 25.010803945704538 0 25.010803945704538 -46.98490129019774 0 0 0 0 -3.9527206851489609 26.551218739085016 0 26.551218739085016 -45.786409760345123 0 0 0 0 -2.4668347972883566 18.817856338551792 0 18.817856338551792 -37.709737738825424 0 0 0 0 -9.9987193445749654 29.303603991676937 0 29.303603991676937 -32.941497588064522 0 0 0 0 -0.83604697052809307 5.0471507250003071 0 5.0471507250003071 -7.3241483644644632 0 0 0 0 19.703303118516487 17.363877557247179 0 17.363877557247179 3.8077660663984716 0 0 0 0 -0.56084592368301145 18.189978456935592 0 18.189978456935592 -28.205109542221109 0 0 0 0 5.4422813547716942 11.413473809676361 0 11.413473809676361 -4.2066004956141114 0 0 0 0 2.5049953522872599 4.6736994605178666 0 4.6736994605178666 -3.8641943356641946 0 0 0 0 -0.094670599413802847 11.317793744150549 0 11.317793744150549 -9.1952987577533349 0 0 0 0 -1.8618455396735087 12.127277330091378 0 12.127277330091378 -3.6318021457751115 0 0 0 0 -7.2185001768093571 6.0063394868629985 0 6.0063394868629985 -32.762928402604302 0 0 0 0 -39.621393618986986 27.863957823938108 0 27.863957823938108 48.544021246460034 0 0 0 0 -0.87717950948957102 -0.17377083174678098 0 -0.17377083174678098 3.1782622181464149 0 0 0 0 -89.222373050322858 55.338106458866605 0 55.338106458866605 116.98763624732965 0 0 0 0 -0.30334242474775053 4.42244045599959 0 4.42244045599959 -17.884844697070491 0 0 0 0 -23.657094121990667 -1.0473724166731699 0 -1.0473724166731699 -40.195132430400008 0 0 0 0 129.53120800105989 47.133256920731128 0 47.133256920731128 -229.44767053451505 0 0 0 0 0.42139007905551651 6.9290019110894647 0 6.9290019110894647 -25.573632747854816 0 0 0 0 0.76057813604129976 5.9316229668820384 0 5.9316229668820384 -8.7207572316767994 0 0 0 0 6.598934430105146 43.190692757343641 0 43.190692757343641 -4.0147584667283809 0 0 0 0 30.139496788348396 16.876150438858531 0 16.876150438858531 -37.691927788044268 0 0 0 0 59.649111434753962 22.123519411678899 0 22.123519411678899 -37.031410809344379 0 0 0 0 -9.0875154565818939 18.612720275397052 0 18.612720275397052 -27.564300034380466 0 0 0 0 28.377655617616256 87.199257872984163 0 87.199257872984163 -67.588374642946292 0 0 0 0 -230.67704906274957 165.55226688183393 0 165.55226688183393 -90.914813748619054 0 0 0 0 1.0033736099494801 -2.0620126745334879 0 -2.0620126745334879 -8.2879610111684201 0 0 0 0 -238.97984113929351 -357.15976515114016 0 -357.15976515114016 -663.25406521600962 0 0 0 0 -73.972718072596763 -63.171543869306333 0 -63.171543869306333 -364.82301482615003 0 0 0 0 -91.678164488645052 -262.18423466974946 0 -262.18423466974946 -925.75095430604415 0 0 0 0 276.61221408424535 -123.95177828561282 0 -123.95177828561282 -1851.494072209236 0 0 0 0 125.45768668722667 132.8349962161592 0 132.8349962161592 -611.67678195554618 0 0 0 0 43.763689824517314 16.521772486361442 0 16.521772486361442 -385.87991132354364 0 0 0 0 -152.29630846835062 43.499380169123469 0 43.499380169123469 -407.30478555547597 0 0 0 0 4.1347172954774578 185.87757903877355 0 185.87757903877355 -725.03866874843516 0 0 0 0 -203.94921216168586 456.43913798297581 0 456.43913798297581 -482.30302205971384 0 0 0 0 46.984013869951013 425.79323911709071 0 425.79323911709071 -1285.9465251294823 0 0 0 0 -376.97061008095079 119.17410438062871 0 119.17410438062871 311.1025471044486 0 0 0 0 -12.577581111563632 10.439897247168119 0 10.439897247168119 -7.105589011707707 0 0 0 0 2.1456858582156393 1.2812381016456129 0 1.2812381016456129 -1.2455404661713487 0 0 0 0 -66.180487820562121 -249.29115098278999 0 -249.29115098278999 279.62157703626144 0 0 0 0 79.649926344382038 64.705620883887605 0 64.705620883887605 114.79137889406411 0 0 0 0 39.740432086544388 -7.3061453060508939 0 -7.3061453060508939 182.63870408080402 0 0 0 0 89.886220594466067 -38.439018718232546 0 -38.439018718232546 -63.94307412901253 0 0 0 0 -72.659354932544375 160.49114658474718 0 160.49114658474718 -153.77920651379827 0 0 0 0 -2.6386825159970613 63.007886080740718 0 63.007886080740718 -404.92099944481743 0 0 0 0 313.32144735614747 -92.394395703242481 0 -92.394395703242481 -278.75830209384003 0 0 0 0 42.62519611209791 67.420602812947436 0 67.420602812947436 213.10990044470236 0 0 0 0 130.38344541780452 29.231732552897483 0 29.231732552897483 -435.14223073631729 0 0 0 0 281.55687599300239 711.13641994139391 0 711.13641994139391 195.97129041021253 0 0 0 0 267.3125682560061 469.64775778128819 0 469.64775778128819 -775.16109386165772 0 0 0 0 -144.94165556231928 -955.99710152941407 0 -955.99710152941407 -1640.6817788727567 0 0 0 0 -0.91944550472932463 5.6611462170526323 0 5.6611462170526323 -9.4102226287769355 0 0 0 0 -184.21840319058094 -374.78683669940096 0 -374.78683669940096 -966.07460574788274 0 0 0 0 168.2486964622949 -494.59882032881069 0 -494.59882032881069 -978.25618663030764 0 0 0 0 -54.209733823523493 75.009601008572645 0 75.009601008572645 -1020.1957575216688 0 0 0 0 145.6217065568286 -353.20471680631317 0 -353.20471680631317 -1086.8620812670997 0 0 0 0 136.83734979838505 -186.45030517660507 0 -186.45030517660507 -1066.7286369626672 0 0 0 0 -48.852709851492136 -360.58271412618342 0 -360.58271412618342 -442.26645797602396 0 0 0 0 -96.167294857125853 -513.45805643681888 0 -513.45805643681888 -730.81175214908944 0 0 0 0 -80.831122554790909 -1.6713474253447202 0 -1.6713474253447202 -577.7862682694431 0 0 0 0 217.78527359566397 385.49340114445658 0 385.49340114445658 91.687078420021862 0 0 0 0 -4.7043159554277025 14.90250920393855 0 14.90250920393855 -20.427565764789719 0 0 0 0 -14.704520103538016 208.80146827749559 0 208.80146827749559 -501.09602049565729 0 0 0 0 65.056238689597194 -108.63016944945866 0 -108.63016944945866 -88.491370210926107 0 0 0 0 180.59747254554395 273.37681013831752 0 273.37681013831752 -296.75954053779424 0 0 0 0 -7.6574601519505805 18.002160753967992 0 18.002160753967992 -23.213461195895476 0 0 0 0 179.05131170422123 109.45404770484674 0 109.45404770484674 -374.27227174734435 0 0 0 0 57.35081678768347 -219.06801228403856 0 -219.06801228403856 -331.63484068163962 0 0 0 0 228.98631362454944 -238.69701855944732 0 -238.69701855944732 -386.54585284191126 0 0 0 0 129.41804213361002 -61.478910640478716 0 -61.478910640478716 -322.77309167417116 0 0 0 0 24.76230171851239 -70.958280505972652 0 -70.958280505972652 -273.74511963135592 0 0 0 0 4.8278657727732934 -235.56746474074316 0 -235.56746474074316 57.17933261840426 0 0 0 0 1.8469398878879808 0.2765785065071924 0 0.2765785065071924 -0.78165002007701112 0 0 0 0 327.79526634004287 -17.602969351162756 0 -17.602969351162756 -908.07822753930668 0 0 0 0 3.1271091124234545 -1.9968591672578953 0 -1.9968591672578953 -0.85443522072111477 0 0 0 0 50.2204436880711 -151.99977416997717 0 -151.99977416997717 -459.24368318401685 0 0 0 0 -71.333848636440962 -161.99868421731662 0 -161.99868421731662 -325.37907033073316 0 0 0 0 112.94561871624501 -210.68799655319162 0 -210.68799655319162 -789.45584479637182 0 0 0 0 -33.010407552506194 -232.88631422858725 0 -232.88631422858725 -488.93138030566479 0 0 0 0 34.494352448366044 46.24939732578423 0 46.24939732578423 -334.03806332924614 0 0 0 0 35.34012875373628 -99.499534781956754 0 -99.499534781956754 -576.13311314610473 0 0 0 0 -126.77994303360447 -277.09494259356507 0 -277.09494259356507 -527.06147874119779 0 0 0 0 -95.344988941589691 -242.75773035888051 0 -242.75773035888051 -632.53131472349924 0 0 0 0 -160.72045689723382 -326.49361666513141 0 -326.49361666513141 -619.74585697190196 0 0 0 0 -63.363104159444447 -203.72817110540745 0 -203.72817110540745 -387.40580991251045 0 0 0 0 -8.0114665008641168 -243.37928145935439 0 -243.37928145935439 -592.87188146392145 0 0 0 0 -24.188118035704974 -277.47790169883592 0 -277.47790169883592 -675.72250232855731 0 0 0 0 -147.82837252512763 -312.63165111939452 0 -312.63165111939452 -546.81276674350738 0 0 0 0 -120.11248523934592 -264.45328321436682 0 -264.45328321436682 -753.11033505253727 0 0 0 0 -101.91646387233777 -322.03697541709698 0 -322.03697541709698 -640.37624178285478 0 0 0 0 -0.80698577679429917 -0.1207073510475567 0 -0.1207073510475567 -2.0338649769679478 0 0 0 0 -149.18764836742594 -417.72511468572702 0 -417.72511468572702 -749.76416068755498 0 0 0 0 -154.85882678762027 -378.25081116937872 0 -378.25081116937872 -680.63317894458305 0 0 0 0 -100.86385867629542 -317.36661380041551 0 -317.36661380041551 -659.99233702925267 0 0 0 0 -250.50753780527157 -384.15494519437198 0 -384.15494519437198 -654.6536292828273 0 0 0 0 -125.2310610131367 -459.5583480423702 0 -459.5583480423702 -631.52808785166417 0 0 0 0 -5.0879207333833847 16.583345477968706 0 16.583345477968706 -18.878887455564026 0 0 0 0 49.77333230246586 238.83431261336227 0 238.83431261336227 329.77094292350375 0 0 0 0 0.43888739301957003 0.4152813830021671 0 0.4152813830021671 -2.0733786443940403 0 0 0 0 -88.326482255093651 -378.96494183933828 0 -378.96494183933828 -769.83991710207101 0 0 0 0 -250.97787957780793 -161.38298988838869 0 -161.38298988838869 -557.06883080594707 0 0 0 0 -9.0700847287298032 23.2676633480012 0 23.2676633480012 -25.209773116805394 0 0 0 0 72.415916540143371 285.95471343692952 0 285.95471343692952 268.13803317535348 0 0 0 0 -141.35183126509764 -323.86979950987734 0 -323.86979950987734 -543.25619712151092 0 0 0 0 194.9054253757422 212.47360118677534 0 212.47360118677534 151.89572716804105 0 0 0 0 72.994246676975308 224.60805050631097 0 224.60805050631097 162.22693071086542 0 0 0 0 22.520764156539371 112.1946472726122 0 112.1946472726122 154.47371959069642 0 0 0 0 15.591282320903701 126.70553652276067 0 126.70553652276067 341.06778651529748 0 0 0 0 43.539462933360483 115.0288068770169 0 115.0288068770169 57.251463043256081 0 0 0 0 -46.398088718371582 127.77177749780822 0 127.77177749780822 175.98401378033304 0 0 0 0 22.372580891227699 178.93285977470077 0 178.93285977470077 252.12211938833934 0 0 0 0 31.975738203467245 91.872221448260461 0 91.872221448260461 192.04794338009378 0 0 0 0 153.38226120566014 99.661376233600095 0 99.661376233600095 238.42971526521433 0 0 0 0 44.242814105484285 176.40438594650186 0 176.40438594650186 184.63545777397303 0 0 0 0 -57.023011056646283 -195.46294182566271 0 -195.46294182566271 -584.3706275963923 0 0 0 0 -24.103428399371296 -150.24182459006624 0 -150.24182459006624 -524.35392518667504 0 0 0 0 -48.218398825589247 -201.50551894749515 0 -201.50551894749515 -617.26810366101563 0 0 0 0 -178.89980921171082 -237.51235063140484 0 -237.51235063140484 -519.46018079867281 0 0 0 0 -57.629809311694771 -176.87279853472137 0 -176.87279853472137 -609.23134485809715 0 0 0 0 -35.777920478401938 -304.58663114511 0 -304.58663114511 -719.34684707439374 0 0 0 0 -162.23436413915624 -363.79580367990275 0 -363.79580367990275 -689.0740386863763 0 0 0 0 -117.07697314615507 -233.20563920342829 0 -233.20563920342829 -613.46137579244169 0 0 0 0 -189.7751229886785 -293.52997521485304 0 -293.52997521485304 -629.58741685946006 0 0 0 0 11.296434029198508 -145.02068736009824 0 -145.02068736009824 -611.10304322173761 0 0 0 0 -32.510687873329061 -207.34234142940113 0 -207.34234142940113 -640.2693918535806 0 0 0 0 17.159770610669511 -164.73824346783658 0 -164.73824346783658 -618.15622817926487 0 0 0 0 41.071331640515382 -157.11854695236252 0 -157.11854695236252 -562.64566521004599 0 0 0 0 63.140880247642144 -130.99521569951503 0 -130.99521569951503 -617.00397027205327 0 0 0 0 52.52612623488676 -153.87600090674823 0 -153.87600090674823 -630.68643261012221 0 0 0 0 -3.1155864539232425 -211.93270267067419 0 -211.93270267067419 -558.16641684951901 0 0 0 0 26.594471847633031 -231.84811348201038 0 -231.84811348201038 -652.63167283940129 0 0 0 0 -69.321207330634024 -260.16684290084231 0 -260.16684290084231 -543.70014665585768 0 0 0 0 127.23503994869679 -196.71706413151333 0 -196.71706413151333 -561.18262181610226 0 0 0 0 29.548929926520032 -260.26856915358439 0 -260.26856915358439 -380.61571330516017 0 0 0 0 39.693837939483274 -232.29070452918677 0 -232.29070452918677 -571.50442363862021 0 0 0 0 84.291400418440844 -136.05159385137813 0 -136.05159385137813 -430.46814394865942 0 0 0 0 99.65178391824702 -164.46629130923975 0 -164.46629130923975 -563.66571360881153 0 0 0 0 -66.614469824281514 -137.72802169726492 0 -137.72802169726492 -337.42702599803306 0 0 0 0 -22.270572021037879 -184.32948575244518 0 -184.32948575244518 -421.73604781428003 0 0 0 0 69.562735707436104 -100.17861614851245 0 -100.17861614851245 -496.61311654630117 0 0 0 0 -171.02197096046893 -261.17352757826302 0 -261.17352757826302 -475.71042475520153 0 0 0 0 -50.795379583740214 -160.48964665170206 0 -160.48964665170206 -507.2700941297735 0 0 0 0 -89.642119777985499 -214.61292006670556 0 -214.61292006670556 -599.68150507889368 0 0 0 0 -113.99605317601799 -244.39666671084706 0 -244.39666671084706 -615.35578587221971 0 0 0 0 -0.041145870298805676 -168.92073542342041 0 -168.92073542342041 -653.25360104262654 0 0 0 0 -13.246704188359672 -156.75706271620948 0 -156.75706271620948 -640.23518625172437 0 0 0 0 -59.971872587258986 -193.20800594582397 0 -193.20800594582397 -666.26196821709163 0 0 0 0 19.154205796796305 -147.86592768545233 0 -147.86592768545233 -536.57090736382816 0 0 0 0 17.494254873965474 -160.5440296626075 0 -160.5440296626075 -607.08202166430419 0 0 0 0 16.47372272260327 -138.01530058264325 0 -138.01530058264325 -595.4598632923371 0 0 0 0 39.714909425985752 -144.85402879435424 0 -144.85402879435424 -625.13493242424738 0 0 0 0 18.813850050965812 -128.17721455405626 0 -128.17721455405626 -581.67286231860635 0 0 0 0 31.785516105219358 -119.07221503755864 0 -119.07221503755864 -618.5625869094074 0 0 0 0 43.216371520339408 -136.15920369122068 0 -136.15920369122068 -637.32099688002199 0 0 0 0 -9.0470125231913698 -139.33133973709482 0 -139.33133973709482 -628.13988564563624 0 0 0 0 -17.48576482924409 -111.46882364467274 0 -111.46882364467274 -599.2596885215462 0 0 0 0 -2.3416532491853559 -145.81313598206725 0 -145.81313598206725 -695.45594810278271 0 0 0 0 30.167721722347778 -126.74370988862938 0 -126.74370988862938 -642.07790987332555 0 0 0 0 44.640065542394041 -89.182071250877925 0 -89.182071250877925 -604.51694900031725 0 0 0 0 -50.583601120146795 -83.547485695340583 0 -83.547485695340583 -515.53071918462228 0 0 0 0 -8.6277470074419398 -96.28533001262258 0 -96.28533001262258 -498.93736285664272 0 0 0 0 -10.787881898632804 -133.2428675572919 0 -133.2428675572919 -581.64327039512864 0 0 0 0 -68.314227384714286 -168.71212725218356 0 -168.71212725218356 -599.58620525740116 0 0 0 0 -101.13159454028414 -109.92370560416748 0 -109.92370560416748 -660.95705519244075 0 0 0 0 10.33266611343106 -63.406613524966815 0 -63.406613524966815 -642.9639640028538 0 0 0 0 -86.117944131007789 -149.91535145774105 0 -149.91535145774105 -642.12021204931125 0 0 0 0 -78.364036127973577 -127.00520247540408 0 -127.00520247540408 -710.81425237171061 0 0 0 0 9.5044716178076669 -118.73374469393457 0 -118.73374469393457 -689.77815264662786 0 0 0 0 -64.897688006804856 -142.66979135273868 0 -142.66979135273868 -721.06115615018643 0 0 0 0 -62.247970312402686 -166.49472351107397 0 -166.49472351107397 -672.35870452387098 0 0 0 0 -104.71384582032988 -222.06797541977721 0 -222.06797541977721 -713.36196816766642 0 0 0 0 -65.325868940324099 -203.54778705648943 0 -203.54778705648943 -813.07859261544945 0 0 0 0 -159.8447181069032 -269.41107214841759 0 -269.41107214841759 -772.31837830172299 0 0 0 0 -175.41470104047312 -350.4857586169237 0 -350.4857586169237 -908.53919191191108 0 0 0 0 -98.982408423543291 -227.65766312020332 0 -227.65766312020332 -772.68408566524158 0 0 0 0 -84.045297570139837 -175.14285095894593 0 -175.14285095894593 -901.84110336461163 0 0 0 0 -220.14933726753213 -610.64484221645398 0 -610.64484221645398 -1101.7718590347504 0 0 0 0 -75.496458707613556 -263.13319982428948 0 -263.13319982428948 -1310.7356391472713 0 0 0 0 -0.15227816075783673 2.7047921833996611 0 2.7047921833996611 -5.3791257105400518 0 0 0 0 117.0104110690844 77.354924251885677 0 77.354924251885677 211.20658169987291 0 0 0 0 -141.78877579645314 -346.62506401261635 0 -346.62506401261635 -985.58388031585491 0 0 0 0 -255.2823455032003 -531.36869198134809 0 -531.36869198134809 -949.44358382982682 0 0 0 0 -411.65792666265224 -587.18660466675647 0 -587.18660466675647 -771.27906832558801 0 0 0 0 -125.31710931706584 -241.78610236622626 0 -241.78610236622626 -660.80281367801945 0 0 0 0 -54.558968445777282 -195.10904140919592 0 -195.10904140919592 -715.07797192077851 0 0 0 0 -148.24791033907877 -301.1891783830215 0 -301.1891783830215 -768.80266927422417 0 0 0 0 -151.49308456135486 -262.45477290558574 0 -262.45477290558574 -812.65726741301478 0 0 0 0 -190.14452130417294 -307.37377998240845 0 -307.37377998240845 -708.17327950429171 0 0 0 0 -105.3164776358667 -211.6371347862223 0 -211.6371347862223 -743.18998773916974 0 0 0 0 -203.42287895987829 -397.71333584527019 0 -397.71333584527019 -889.60771207867219 0 0 0 0 -354.95818930985479 -430.33677851151879 0 -430.33677851151879 -716.74069638276706 0 0 0 0 -428.31110956117755 -449.62231514287123 0 -449.62231514287123 -599.87476422703185 0 0 0 0 -256.3581467020631 -361.84451609211101 0 -361.84451609211101 -669.1682872617821 0 0 0 0 -213.85833328844456 -356.09185115151922 0 -356.09185115151922 -708.78548835005881 0 0 0 0 -100.18159530616435 -245.45056522742561 0 -245.45056522742561 -669.03303160416544 0 0 0 0 -118.34236468845575 -242.17789675667882 0 -242.17789675667882 -597.43082974400022 0 0 0 0 -196.01231183311756 -302.83255265640037 0 -302.83255265640037 -622.46065498431562 0 0 0 0 -276.59292899585216 -322.9674300824845 0 -322.9674300824845 -505.87585544366448 0 0 0 0 -4.1657195826574744 9.3921303640287874 0 9.3921303640287874 -12.651210160152885 0 0 0 0 -168.38772107924433 -263.85334295120629 0 -263.85334295120629 -506.78433244007658 0 0 0 0 -26.346498085055202 202.51858359043217 0 202.51858359043217 293.99329577453318 0 0 0 0 -61.589367398655668 225.35466870998061 0 225.35466870998061 507.13676314410986 0 0 0 0 194.87265986587818 163.78332234948539 0 163.78332234948539 142.79546707095869 0 0 0 0 -8.4231097469023553 -30.629878175757767 0 -30.629878175757767 62.312299375116709 0 0 0 0 2.2322984535038506 -0.66092364992762498 0 -0.66092364992762498 0.66519057493120215 0 0 0 0 309.09800305298825 256.69157094697584 0 256.69157094697584 145.10643103933398 0 0 0 0 57.019449865212891 -37.010941109499981 0 -37.010941109499981 48.296211681968998 0 0 0 0 -21.915560703352185 -18.126684436632786 0 -18.126684436632786 64.383465877632261 0 0 0 0 -67.649491257605177 -98.407473903092068 0 -98.407473903092068 28.309569686840405 0 0 0 0 -26.719951662410523 26.360879981114522 0 26.360879981114522 -6.143078443579725 0 0 0 0 -15.297496787757609 -52.775142189122562 0 -52.775142189122562 -156.17663430760877 0 0 0 0 58.525753120630839 -56.751235947529494 0 -56.751235947529494 -658.03238640351628 0 0 0 0 38.089146741308809 13.072382091138934 0 13.072382091138934 -133.1829401752766 0 0 0 0 -134.14713904292728 -180.92046354655758 0 -180.92046354655758 -109.30063741561025 0 0 0 0 -530.48350269985463 -247.46278809319483 0 -247.46278809319483 -343.40805177213042 0 0 0 0 -32.804559608583503 61.744334263801647 0 61.744334263801647 -218.33938832450076 0 0 0 0 -95.693287584915169 127.26055656612425 0 127.26055656612425 343.37153253005818 0 0 0 0 -35.686001697093388 -16.543276024633087 0 -16.543276024633087 69.364774076741014 0 0 0 0 -36.013145887244036 517.70468281718786 0 517.70468281718786 131.47743297729176 0 0 0 0 52.937426650747511 -147.37119119182171 0 -147.37119119182171 38.895436205741134 0 0 0 0 -7.6240013212456947 15.597983769921271 0 15.597983769921271 -19.515177177261734 0 0 0 0 -75.808423086054972 -201.22778219748579 0 -201.22778219748579 -334.17782145571664 0 0 0 0 -83.658902465458596 -147.2390483483905 0 -147.2390483483905 -176.91649394929118 0 0 0 0 -11.878323342348722 -257.65753106076954 0 -257.65753106076954 -106.11669620195062 0 0 0 0 -338.84169269612471 -907.66956129335085 0 -907.66956129335085 -1292.8873039753316 0 0 0 0 7.1645790622092136 280.58823126746938 0 280.58823126746938 -1193.0745055378648 0 0 0 0 -1.367741364816542 3.6818775747074 0 3.6818775747074 -8.2254099855957747 0 0 0 0 60.453974444570122 -327.04171471646623 0 -327.04171471646623 -775.51568185012729 0 0 0 0 138.17888802587566 -162.79061324652457 0 -162.79061324652457 -705.00438678095088 0 0 0 0 -5.374928175378094 11.663875674290878 0 11.663875674290878 -20.191188096124648 0 0 0 0 85.106908345211309 375.41596478880456 0 375.41596478880456 17.114519059585291 0 0 0 0 118.47448274535375 -57.283747999435036 0 -57.283747999435036 -43.441357603835058 0 0 0 0 39.381446336144791 -46.578718671480601 0 -46.578718671480601 -354.47949957970559 0 0 0 0 173.7624819134237 7.7299671441942337 0 7.7299671441942337 -642.65707323077459 0 0 0 0 94.63908397910987 388.44883187135019 0 388.44883187135019 -629.05363624737947 0 0 0 0 156.88886118985988 -119.69005315352842 0 -119.69005315352842 -1152.5935836079661 0 0 0 0 200.05738893492821 9.7779417320152788 0 9.7779417320152788 -905.11491151034716 0 0 0 0 22.244515395532744 -114.22432450444103 0 -114.22432450444103 -562.62740650628984 0 0 0 0 -225.31203760824246 -303.65185281065351 0 -303.65185281065351 -682.96592619844887 0 0 0 0 -384.54494241780372 326.26096941567994 0 326.26096941567994 -444.5846781921573 0 0 0 0 -617.86893627395898 -78.95405209481396 0 -78.95405209481396 -313.14488837550016 0 0 0 0 -125.67152091040934 245.79849452652343 0 245.79849452652343 -128.98479543863505 0 0 0 0 -140.48289733632805 121.35825112837483 0 121.35825112837483 -273.63778445128628 0 0 0 0 102.86925940381977 261.3925932719867 0 261.3925932719867 -239.18798256258015 0 0 0 0 324.15347757732854 123.98671371782257 0 123.98671371782257 -193.00890773380161 0 0 0 0 270.42241749120313 -50.272139352123304 0 -50.272139352123304 217.48116680527164 0 0 0 0 287.88864640772499 12.688262147507885 0 12.688262147507885 -309.74826363177272 0 0 0 0 -334.73786445321593 -598.84158897853195 0 -598.84158897853195 -621.33211323080104 0 0 0 0 1.6091602503331615 -1.7763037214353972 0 -1.7763037214353972 -939.06695005969959 0 0 0 0 -1.1569004164582566 -76.736995398434374 0 -76.736995398434374 -210.10186239435689 0 0 0 0 -102.1626525532206 -328.84249124143753 0 -328.84249124143753 -336.50092962101189 0 0 0 0 -78.154848258220909 -394.97459847998834 0 -394.97459847998834 -162.34953260603288 0 0 0 0 216.44037198060187 -45.086900036283623 0 -45.086900036283623 42.70557586515497 0 0 0 0 -252.65335893130157 -540.38433037074719 0 -540.38433037074719 -207.97984133064165 0 0 0 0 -2.0838339263692802 -450.32076100508675 0 -450.32076100508675 -787.08284454075329 0 0 0 0 21.043687487494935 -331.93366728787805 0 -331.93366728787805 -222.57686773301248 0 0 0 0 -196.05434802386549 -417.3768293723042 0 -417.3768293723042 -215.81877974407689 0 0 0 0 -183.31324322842261 -111.95535719350414 0 -111.95535719350414 -7.2431727991643129 0 0 0 0 134.71478372286083 -99.050449639493308 0 -99.050449639493308 -50.810811110342911 0 0 0 0 -0.48463892338352643 -0.94321757730505418 0 -0.94321757730505418 -11.500000261301182 0 0 0 0 -813.08013049173064 -478.47792492470762 0 -478.47792492470762 -214.13289993321814 0 0 0 0 91.567383533208158 176.88399711086458 0 176.88399711086458 -677.22494793552323 0 0 0 0 -6.6400783866495487 212.63633273732285 0 212.63633273732285 -167.6777329108736 0 0 0 0 19.201012918237666 -141.59485328139272 0 -141.59485328139272 -35.023785743716871 0 0 0 0 -49.526537737452827 -63.282752971033915 0 -63.282752971033915 5.2632937945309095 0 0 0 0 8.2670685232633332 -78.554543957223359 0 -78.554543957223359 0.98423078474115755 0 0 0 0 -49.350847878066816 -61.898586938947119 0 -61.898586938947119 47.232955223400495 0 0 0 0 39.454036761894486 -35.427814111415501 0 -35.427814111415501 6.002425242899335 0 0 0 0 41.806398141266072 -39.695556428312557 0 -39.695556428312557 7.7381069054245017 0 0 0 0 -2.0974025511795844 -5.1735156444265158 0 -5.1735156444265158 -18.669240374772926 0 0 0 0 -11.210757926655333 -24.623552267272316 0 -24.623552267272316 50.919174178974572 0 0 0 0 161.25358475764529 -19.357804107870834 0 -19.357804107870834 -39.531230967812007 0 0 0 0 46.068021272711576 -112.76332141023158 0 -112.76332141023158 -211.49206905966275 0 0 0 0 1.7524540894174052 0.62389980760774044 0 0.62389980760774044 -30.633658000952437 0 0 0 0 71.308900972172069 0.0052538344061758835 0 0.0052538344061758835 -29.720399377314607 0 0 0 0 3.9634350372959926 -2.5257247932373588 0 -2.5257247932373588 -9.6196765857136768 0 0 0 0 -72.886238672890386 72.15468636706737 0 72.15468636706737 -52.297172907550703 0 0 0 0 10.474447258700451 5.5338175083443275 0 5.5338175083443275 -20.983818124069387 0 0 0 0 5.2241927367231611 7.6000301420233312 0 7.6000301420233312 -15.866109292187076 0 0 0 0 7.9922877782891248 6.048060150582387 0 6.048060150582387 -15.519770536862779 0 0 0 0 1.1622717745785849 -1.7173994459299138 0 -1.7173994459299138 -29.292735979636745 0 0 0 0 -185.73781430133954 -359.83967022159777 0 -359.83967022159777 -218.78188165466418 0 0 0 0 8.8395656158816944 -1.8206947529578912 0 -1.8206947529578912 -3.2368011173177109 0 0 0 0 40.754065493582857 -20.709878470719559 0 -20.709878470719559 -33.034504977869801 0 0 0 0 -186.16879213023066 142.28599540202413 0 142.28599540202413 94.600000685437408 0 0 0 0 23.138213924278148 -319.90221723224386 0 -319.90221723224386 -828.49639006279176 0 0 0 0 180.8023602435494 190.74385514346068 0 190.74385514346068 -635.04952344682533 0 0 0 0 -17.217901372172832 -308.98391282466037 0 -308.98391282466037 -865.01481034180324 0 0 0 0 -176.67722268126701 -289.96596518318802 0 -289.96596518318802 -811.44853579223854 0 0 0 0 -293.92217057790469 -211.2430672048722 0 -211.2430672048722 -839.49506567897333 0 0 0 0 119.37382839197053 -196.45315194481009 0 -196.45315194481009 -773.17722036824853 0 0 0 0 -15.323739954175068 -321.66491544688961 0 -321.66491544688961 -788.88860070508963 0 0 0 0 2.8567579985535483 0.28697999609894609 0 0.28697999609894609 -3.3769783695129263 0 0 0 0 -164.94684375800739 -456.12706355751288 0 -456.12706355751288 -599.21992211083125 0 0 0 0 -162.3962266264499 -157.89611536889424 0 -157.89611536889424 -919.18882938419847 0 0 0 0 -136.04317007565663 -368.82662891544805 0 -368.82662891544805 -851.46637457399629 0 0 0 0 57.019716824996749 -354.4242306082815 0 -354.4242306082815 -1022.7476194102928 0 0 0 0 -20.422912393703697 -247.29291835736512 0 -247.29291835736512 -863.7731024089444 0 0 0 0 -68.545388144518029 -252.85831171822792 0 -252.85831171822792 -854.63346819135768 0 0 0 0 -32.89089534559912 -146.37776533044234 0 -146.37776533044234 -774.39909864324727 0 0 0 0 -33.884102519121406 -226.87931452457997 0 -226.87931452457997 -805.95526783587411 0 0 0 0 -53.758241066347487 -194.64768034042572 0 -194.64768034042572 -706.84989580255933 0 0 0 0 -251.02044833225523 -464.91975409349834 0 -464.91975409349834 -644.24348290948546 0 0 0 0 -3.8382881001009537 -295.28858251708152 0 -295.28858251708152 -1296.1112594942824 0 0 0 0 -4.6732595114867763 -270.89609358261805 0 -270.89609358261805 -899.05119840903717 0 0 0 0 -80.037923875327806 -362.13049803514878 0 -362.13049803514878 -901.56566047106207 0 0 0 0 -115.4204910607632 -366.08402495849441 0 -366.08402495849441 -721.09141265119251 0 0 0 0 -114.17165040822988 -475.05137878117966 0 -475.05137878117966 -1020.5817350928992 0 0 0 0 39.822720456324078 -177.4285280179829 0 -177.4285280179829 -834.30556584726583 0 0 0 0 22.404907589950881 -260.27240148086275 0 -260.27240148086275 -952.13753134220678 0 0 0 0 -69.269949500941834 -75.314523969555012 0 -75.314523969555012 -608.65664635986832 0 0 0 0 104.49294783616938 78.255717246111999 0 78.255717246111999 -96.342525733773073 0 0 0 0 18.874655957912132 -3.1928891147542515 0 -3.1928891147542515 -6.0797638764518496 0 0 0 0 -6.8868816787442055 15.766480326335923 0 15.766480326335923 -19.079240187882817 0 0 0 0 -111.42087773690605 185.27534736126836 0 185.27534736126836 282.98014939119457 0 0 0 0 81.126215024698169 125.76134016109427 0 125.76134016109427 -130.29143889444822 0 0 0 0 5.2026583309220262 6.4620962854020831 0 6.4620962854020831 -19.819850277435293 0 0 0 0 173.19683900247719 2.2314752870297525 0 2.2314752870297525 -116.53325379795569 0 0 0 0 155.5855064449197 219.25215773736272 0 219.25215773736272 -15.326338949307683 0 0 0 0 40.603726110410889 -64.022725956619979 0 -64.022725956619979 -30.456161483190954 0 0 0 0 -5.7927302467721802 4.0079640820986242 0 4.0079640820986242 -96.649885756611184 0 0 0 0 108.73328847047799 -127.7687565959186 0 -127.7687565959186 -499.03292190276261 0 0 0 0 -15.370917601542232 139.28003248554523 0 139.28003248554523 -667.31268810328766 0 0 0 0 -465.05649004470524 103.38525670136733 0 103.38525670136733 -106.94494368101005 0 0 0 0 -8.4102959505255512 -363.61839222597337 0 -363.61839222597337 -759.31891616210214 0 0 0 0 61.710218862714697 -174.26052746594178 0 -174.26052746594178 -304.95879979847814 0 0 0 0 74.778452293263442 -55.92708486162519 0 -55.92708486162519 -490.88231173480017 0 0 0 0 28.654062349401784 -117.61911243601935 0 -117.61911243601935 -254.74988513282005 0 0 0 0 -74.061957864018538 -220.08059815341585 0 -220.08059815341585 -118.43282026998349 0 0 0 0 -478.71286714401162 -279.93456867588861 0 -279.93456867588861 -111.32396308987518 0 0 0 0 23.3445131231164 -113.61555914100063 0 -113.61555914100063 -137.04733077873971 0 0 0 0 -109.52873120478625 -52.908686389760987 0 -52.908686389760987 180.50665093596035 0 0 0 0 8.0664890244919984 -0.95412189749572462 0 -0.95412189749572462 0.29606444055308145 0 0 0 0 -29.277123513560795 -101.5612236257075 0 -101.5612236257075 -32.360818335597287 0 0 0 0 -18.326319651733741 -164.93817362247501 0 -164.93817362247501 -187.66418131926912 0 0 0 0 1.8439479967824726 0.74620777765292701 0 0.74620777765292701 -1.1366336028384012 0 0 0 0 -218.58183024803705 87.135528657119721 0 87.135528657119721 -290.38696688885102 0 0 0 0 99.850777638103182 131.46318077234901 0 131.46318077234901 -1420.6621559692576 0 0 0 0 42.970991453743409 149.82154562692085 0 149.82154562692085 -36.779893253398768 0 0 0 0 -380.69422079890506 -904.96588172282281 0 -904.96588172282281 -1870.6335599680315 0 0 0 0 -3.5415897439791602 4.490221963022023 0 4.490221963022023 -8.6993598472552378 0 0 0 0 -7.4836512560522408 65.084335679726792 0 65.084335679726792 -1117.0925300410199 0 0 0 0 -0.041505706338631987 0.63446478871462375 0 0.63446478871462375 -1.5769547023434569 0 0 0 0 180.53066087495799 -93.604857536756754 0 -93.604857536756754 -1323.9190241275865 0 0 0 0 -3.112185531105041 -76.074823204831773 0 -76.074823204831773 -177.04736433492508 0 0 0 0 -0.074673817661083469 -64.386295602940663 0 -64.386295602940663 -168.30455911045465 0 0 0 0 -6.0666594208721563 -88.406955703168933 0 -88.406955703168933 -204.7789539048681 0 0 0 0 0.055772312385985789 -67.010653917528543 0 -67.010653917528543 -205.68284988186224 0 0 0 0 20.101995238228518 -84.962371345511201 0 -84.962371345511201 -286.90882055632392 0 0 0 0 22.906974347065926 -122.54370660004497 0 -122.54370660004497 -181.42135187161148 0 0 0 0 71.729143330806181 -21.621505610914028 0 -21.621505610914028 -252.92033018625443 0 0 0 0 0.07570907462608302 -26.927461367205979 0 -26.927461367205979 -227.19616999487334 0 0 0 0 4.6138427551793484 55.150513688509818 0 55.150513688509818 -133.12769424250655 0 0 0 0 1.5611535395283198 33.809813382450557 0 33.809813382450557 -178.48339863231377 0 0 0 0 33.592095998172454 153.76271791814361 0 153.76271791814361 -275.50443473413907 0 0 0 0 17.714869718588041 93.450318801278627 0 93.450318801278627 -114.2477520176908 0 0 0 0 -0.34376049701564509 -2.0931908461304491 0 -2.0931908461304491 -8.6492055660486642 0 0 0 0 72.083713486992679 251.20339303689252 0 251.20339303689252 -682.96278537794979 0 0 0 0 49.361831517585088 -25.322885952627985 0 -25.322885952627985 -59.589945591087599 0 0 0 0 274.18979432710933 126.61857899710958 0 126.61857899710958 37.071640497510089 0 0 0 0 589.44548060647912 -204.99250153194225 0 -204.99250153194225 -307.80709296956047 0 0 0 0 0.34247705019558095 -3.3734439172813389 0 -3.3734439172813389 -22.538082742160412 0 0 0 0 50.623343181380278 76.173423970125441 0 76.173423970125441 7.897743272857042 0 0 0 0 0.068044683203458689 -0.10481187447113882 0 -0.10481187447113882 -0.42325093507821521 0 0 0 0 -39.058450827113717 -63.307790872080659 0 -63.307790872080659 49.703262960934808 0 0 0 0 -24.450032114581447 -125.17894692359914 0 -125.17894692359914 -142.44537949706137 0 0 0 0 -39.234859512846327 -86.361843308754032 0 -86.361843308754032 389.90556206991459 0 0 0 0 167.01575889471735 -389.45104111160981 0 -389.45104111160981 -230.1783713712357 0 0 0 0 645.25595212778364 9.8217724085770897 0 9.8217724085770897 -223.59716340331943 0 0 0 0 0.60896069903952854 -3.8897221858308182 0 -3.8897221858308182 -25.993515452641361 0 0 0 0 863.62166925573058 442.95295399884708 0 442.95295399884708 -2623.0282292453921 0 0 0 0 271.8528862901893 -82.283247716630285 0 -82.283247716630285 59.214133072633558 0 0 0 0 49.268339327849191 -141.9440040315385 0 -141.9440040315385 -139.32460711785825 0 0 0 0 172.61136749805382 -263.30887789648261 0 -263.30887789648261 -546.59925767753157 0 0 0 0 172.1885855791827 -170.40857678369503 0 -170.40857678369503 -787.78892825829098 0 0 0 0 138.37526204474409 70.918891299486859 0 70.918891299486859 -904.94010389063624 0 0 0 0 85.377531078871726 24.808157602878055 0 24.808157602878055 -460.90168573346455 0 0 0 0 37.312770955972368 -96.865210934745846 0 -96.865210934745846 -197.88977812763187 0 0 0 0 52.364988685750063 -109.59010593451967 0 -109.59010593451967 -308.61413846797223 0 0 0 0 65.410475770472132 -15.513239338790299 0 -15.513239338790299 -347.28791485713737 0 0 0 0 33.457810321566811 -36.514321845119412 0 -36.514321845119412 -256.84259216491773 0 0 0 0 0.064107641362675868 -26.849607659860339 0 -26.849607659860339 -199.29023186899576 0 0 0 0 1.8978855784022923 -21.241318146516278 0 -21.241318146516278 -204.53956193858176 0 0 0 0 -0.066282118704904622 -24.469288999163837 0 -24.469288999163837 -58.336834599707799 0 0 0 0 0.039487960674470649 -0.10125596895692013 0 -0.10125596895692013 -0.3834511467587447 0 0 0 0 -6.8215321771181152 -31.963922100672789 0 -31.963922100672789 -153.17475112764805 0 0 0 0 -224.43751483881647 -312.35427867545786 0 -312.35427867545786 -154.77624033272878 0 0 0 0 320.14650368557818 -164.81724285825658 0 -164.81724285825658 -278.28261634513547 0 0 0 0 -2.154640193798175 -15.058818969821335 0 -15.058818969821335 -97.887486985604568 0 0 0 0 2.0994812970320709 -70.409410216736433 0 -70.409410216736433 -132.63121764948301 0 0 0 0 46.421526360882126 -104.29305440474127 0 -104.29305440474127 -155.36942149942115 0 0 0 0 35.986505791517629 -81.576292986290355 0 -81.576292986290355 -166.84029189340094 0 0 0 0 -9.6932544908945601 -39.629369509921162 0 -39.629369509921162 -165.48749272698478 0 0 0 0 -3.760696941481001 -97.610902085973066 0 -97.610902085973066 -43.908568200102309 0 0 0 0 116.21484565623632 20.678374425557195 0 20.678374425557195 -6.287891448208029 0 0 0 0 111.65756588573277 -58.68252916597703 0 -58.68252916597703 -69.246710939091827 0 0 0 0 83.695909241688923 -166.244697949493 0 -166.244697949493 -138.89853075345309 0 0 0 0 10.431307268866259 -3.3959857408065517 0 -3.3959857408065517 -12.692076325248792 0 0 0 0 116.6080193466114 -44.289076209719497 0 -44.289076209719497 -109.45041094098269 0 0 0 0 -420.35986870339843 -342.43396762389057 0 -342.43396762389057 -146.03171135104276 0 0 0 0 257.3144985606113 -23.94652195712932 0 -23.94652195712932 -151.02654340588924 0 0 0 0 258.24463770384773 120.27032569535186 0 120.27032569535186 32.129495053664868 0 0 0 0 8.4698298148309448 -3.1043958710844528 0 -3.1043958710844528 -12.939871733481198 0 0 0 0 4.4369448354813024 -0.31571606664988749 0 -0.31571606664988749 -10.864748966325209 0 0 0 0 -10.179329021344529 -184.44433644145101 0 -184.44433644145101 -247.69889525221697 0 0 0 0 9.581776844938986 -248.71946348965139 0 -248.71946348965139 -52.529362410237809 0 0 0 0 33.500553334056121 -184.50439344025654 0 -184.50439344025654 -277.68008575596286 0 0 0 0 33.357443788441685 -201.69059267285502 0 -201.69059267285502 -114.92180365231616 0 0 0 0 541.12783442643513 -174.34533568874394 0 -174.34533568874394 -243.21305739391209 0 0 0 0 -0.65135824085020677 -12.259675907909536 0 -12.259675907909536 -96.882313476828031 0 0 0 0 -6.0824440539008719 -60.131085375224757 0 -60.131085375224757 -75.580499635642241 0 0 0 0 -14.735410606643768 -29.400443455685149 0 -29.400443455685149 -98.965192152691088 0 0 0 0 72.37065533869918 -25.653021508815982 0 -25.653021508815982 -198.61396836873882 0 0 0 0 200.35859422838763 -60.312478323009259 0 -60.312478323009259 -228.57694225773048 0 0 0 0 -0.4459412594060268 -2.8208442826971805 0 -2.8208442826971805 -92.853132637775161 0 0 0 0 -216.57661005206955 41.24786888460585 0 41.24786888460585 -101.21635493353642 0 0 0 0 -325.91177602257994 -96.712900663357686 0 -96.712900663357686 -163.87835516278608 0 0 0 0 -23.91255578141363 -67.467668696188412 0 -67.467668696188412 -167.51719108684574 0 0 0 0 63.721052180502454 42.389660181972431 0 42.389660181972431 -244.7499712316112 0 0 0 0 -171.65655954120393 200.17377452641085 0 200.17377452641085 -347.18801402147074 0 0 0 0 -245.88662894549805 -161.55004658606731 0 -161.55004658606731 -50.324891940607813 0 0 0 0 -0.90451448527014922 -1.6761403026137769 0 -1.6761403026137769 -4.43835783922475 0 0 0 0 53.568507760385273 -163.29297979238481 0 -163.29297979238481 -451.58497430775003 0 0 0 0 205.31002573937985 -27.042334756584978 0 -27.042334756584978 -306.1742609103112 0 0 0 0 55.805033824420889 -99.536888331774662 0 -99.536888331774662 -512.55891274248734 0 0 0 0 -130.28920819552286 258.92486971760945 0 258.92486971760945 -392.30982255825893 0 0 0 0 20.108142902799273 42.716789567523847 0 42.716789567523847 -130.6821892453936 0 0 0 0 33.410959291908966 70.081794101359264 0 70.081794101359264 -222.0614510031528 0 0 0 0 -1.6216072490283402 -3.8123655096825022 0 -3.8123655096825022 -12.964204359714913 0 0 0 0 -14.845593378862759 60.935249143975852 0 60.935249143975852 -116.45397493803148 0 0 0 0 1.1595521574658894 -9.3049057871131744 0 -9.3049057871131744 -17.938874356034752 0 0 0 0 3.609715788496942 7.5580937617614836 0 7.5580937617614836 -41.119649399006448 0 0 0 0 16.295218611586279 -13.379601765254847 0 -13.379601765254847 -40.506814056777387 0 0 0 0 17.20506627735017 16.240592424607712 0 16.240592424607712 -121.33684489800908 0 0 0 0 14.394547773139038 -3.0691816558264691 0 -3.0691816558264691 -72.792611927096004 0 0 0 0 1.2245427543002734 14.006206443380506 0 14.006206443380506 -52.472460445962497 0 0 0 0 0.15603037580603996 -39.064438416542544 0 -39.064438416542544 -82.736852693042579 0 0 0 0 -34.905548289808394 -31.765141691815188 0 -31.765141691815188 -18.668646190861182 0 0 0 0 -20.615048514025261 -16.590497711834132 0 -16.590497711834132 5.5202436629551812 0 0 0 0 9.1561197187802463 -15.351976728335103 0 -15.351976728335103 -15.913396593642346 0 0 0 0 -42.14428353719768 -21.356311130991344 0 -21.356311130991344 -4.342407956115494 0 0 0 0 -5.6747926462767282 -61.260537366084009 0 -61.260537366084009 17.602145976186421 0 0 0 0 0.24015195653318777 -35.737322739062961 0 -35.737322739062961 -22.670131232192215 0 0 0 0 -15.934594696036129 -49.949787828012632 0 -49.949787828012632 -63.105063704753775 0 0 0 0 -5.101357691526573 11.969877523913055 0 11.969877523913055 -126.51539376665187 0 0 0 0 -9.1949053013413504 -18.259005424195493 0 -18.259005424195493 -121.6238088450591 0 0 0 0 3.8467579524792672 -35.246107559106001 0 -35.246107559106001 -29.034787338853 0 0 0 0 3.046826956736254 -23.147225835704376 0 -23.147225835704376 -128.8700095750537 0 0 0 0 4.6289805633032302 -29.844221611311696 0 -29.844221611311696 9.0720674063747992 0 0 0 0 8.3901089940700331 -8.4089582406132877 0 -8.4089582406132877 -59.595053145029055 0 0 0 0 5.4067507812537201 6.356237933805696 0 6.356237933805696 -22.52472015322186 0 0 0 0 -0.94826138283247019 -20.941147698361419 0 -20.941147698361419 -63.324909556385137 0 0 0 0 11.45822324463224 7.3312791063249518 0 7.3312791063249518 -26.016972974021215 0 0 0 0 -6.734426493683042 -16.062541007267722 0 -16.062541007267722 -31.990349557464768 0 0 0 0 -5.1561246818181488 -1.8779200312703885 0 -1.8779200312703885 -3.7160092929417488 0 0 0 0 28.503598669856501 3.0233523120532482 0 3.0233523120532482 -211.41261197559106 0 0 0 0 7.4242713694413247 0.69736729075966153 0 0.69736729075966153 -4.3121400692873699 0 0 0 0 0.6143161954714742 -30.281211133784382 0 -30.281211133784382 -50.479164232656331 0 0 0 0 10.21049131228725 -4.2698051396184855 0 -4.2698051396184855 -36.257942238580355 0 0 0 0 5.6646341952319972 -12.97805105747193 0 -12.97805105747193 -45.892145611516753 0 0 0 0 42.081811838313115 -5.8699584201422113 0 -5.8699584201422113 -55.26608307071001 0 0 0 0 29.40317901349772 -15.678762911985359 0 -15.678762911985359 -43.472920470798272 0 0 0 0 11.938998485334128 -10.496176344251754 0 -10.496176344251754 -31.851425489600814 0 0 0 0 20.349784577223996 0.36782071263573712 0 0.36782071263573712 -29.663022651301532 0 0 0 0 -23.459439864835076 -38.067344586761465 0 -38.067344586761465 -31.919324769572995 0 0 0 0 11.024345244137294 -16.659477622637496 0 -16.659477622637496 -57.554615759159788 0 0 0 0 4.4622886627772136 2.2738941038528306 0 2.2738941038528306 -2.2916927205995137 0 0 0 0 9.7111225134067354 -15.357206129882798 0 -15.357206129882798 -10.725400207575149 0 0 0 0 11.336659257090105 -21.322346816711388 0 -21.322346816711388 -5.2168526780478714 0 0 0 0 20.643970918411469 -13.245778167600292 0 -13.245778167600292 -45.085168229314149 0 0 0 0 5.3878947524568606 -21.502090724119398 0 -21.502090724119398 -17.404416491370661 0 0 0 0 20.313136718059468 -21.130247648356089 0 -21.130247648356089 -11.237267268221331 0 0 0 0 14.793044062024308 -7.1297326739508531 0 -7.1297326739508531 -39.899030927461467 0 0 0 0 5.3339292581076734 -18.709239743249782 0 -18.709239743249782 -62.88919832212332 0 0 0 0 19.981791250792092 15.187613831974126 0 15.187613831974126 -58.090035829944171 0 0 0 0 27.003626196678781 -27.437370797292942 0 -27.437370797292942 -35.523358480983006 0 0 0 0 -6.7751906422144828 -28.668944344433839 0 -28.668944344433839 -35.557956727965802 0 0 0 0 -0.87264178036190732 -2.9591853991203649 0 -2.9591853991203649 -9.0348063918982131 0 0 0 0 6.8693317670917136 -28.111318022896171 0 -28.111318022896171 -36.2399158582814 0 0 0 0 15.209104997025332 -21.466702467736145 0 -21.466702467736145 -20.509749833717819 0 0 0 0 7.2753194335182343 -14.521143208722606 0 -14.521143208722606 -35.623441759540583 0 0 0 0 5.3681205343952696 -7.9225809389366812 0 -7.9225809389366812 -42.251257825187992 0 0 0 0 8.3612682376206067 -13.623214454277331 0 -13.623214454277331 -42.155884221556335 0 0 0 0 8.5778155140594379 -15.199224462298874 0 -15.199224462298874 -45.502583618506812 0 0 0 0 15.074107260915316 -3.6062233929737344 0 -3.6062233929737344 -41.665965843605996 0 0 0 0 9.8443530912338701 -1.9788808866433101 0 -1.9788808866433101 -29.640858741244301 0 0 0 0 5.5425250696976605 3.9769511946360581 0 3.9769511946360581 -43.685399213740311 0 0 0 0 21.733060473504842 -5.2086324470292595 0 -5.2086324470292595 -31.001938183198686 0 0 0 0 13.310737976482415 -0.11548490180859972 0 -0.11548490180859972 -62.697756924348653 0 0 0 0 12.557318368063456 -7.1098077038648766 0 -7.1098077038648766 -38.338257873878703 0 0 0 0 21.892421866866243 -6.1459205830673227 0 -6.1459205830673227 -52.031641755895066 0 0 0 0 19.586669788730433 -8.0916998999128964 0 -8.0916998999128964 -42.045705688152964 0 0 0 0 9.4806462359656507 -2.9772256828970285 0 -2.9772256828970285 -47.191416392081692 0 0 0 0 19.386701847392033 0.21585867067335585 0 0.21585867067335585 -51.485525705463147 0 0 0 0 12.044229923452349 0.88825797867039569 0 0.88825797867039569 -51.045838488055779 0 0 0 0 5.4992600541256973 -3.4101332070415888 0 -3.4101332070415888 -28.814873162223599 0 0 0 0 17.27900164041057 -8.0076169525508476 0 -8.0076169525508476 -52.049245135710635 0 0 0 0 4.1326500437100737 -4.6312376396164652 0 -4.6312376396164652 -21.244962093389915 0 0 0 0 18.235249960133842 -6.4369716484243327 0 -6.4369716484243327 -30.870281121548032 0 0 0 0 17.377934749727455 -3.5793941431642153 0 -3.5793941431642153 -44.518168736992678 0 0 0 0 23.73973828446924 -14.617105434593668 0 -14.617105434593668 -42.231363617076568 0 0 0 0 3.2612295006653262 -16.544776920440611 0 -16.544776920440611 -26.162565208992376 0 0 0 0 3.900546999792148 -10.235787046102672 0 -10.235787046102672 -19.687377036742838 0 0 0 0 19.2691556377913 -15.730213042010291 0 -15.730213042010291 -50.543739541193645 0 0 0 0 0.56496492927793529 -17.574251481358655 0 -17.574251481358655 -22.323904401013408 0 0 0 0 13.656946775194228 -22.484799415662565 0 -22.484799415662565 -58.310202148630196 0 0 0 0 10.311682153249421 -7.4244888506318603 0 -7.4244888506318603 -32.178701574252045 0 0 0 0 4.2664670345392963 -8.6247026206144497 0 -8.6247026206144497 -19.14714827018733 0 0 0 0 13.530200087077901 -28.287128090229089 0 -28.287128090229089 -11.474334373677266 0 0 0 0 16.25788876549268 -22.380828141576785 0 -22.380828141576785 -21.598156770400237 0 0 0 0 -11.616168284643209 -1.9668320866767317 0 -1.9668320866767317 -49.933664824966399 0 0 0 0 0.75444611672448758 -19.316313662917111 0 -19.316313662917111 -21.65223430727049 0 0 0 0 -7.1836469513079919 -7.1601992865712418 0 -7.1601992865712418 -45.291441742505413 0 0 0 0 -8.8048813187724591 0.83338969976466615 0 0.83338969976466615 -66.234682963797241 0 0 0 0 4.8731122496287611 -9.0020495577670303 0 -9.0020495577670303 -35.850284136875587 0 0 0 0 -9.8875271478391369 -11.550786444393452 0 -11.550786444393452 -55.935629682397121 0 0 0 0 6.2959526176528016 -28.700136484279938 0 -28.700136484279938 -36.546304368719575 0 0 0 0 10.840389280229996 4.763058953954058 0 4.763058953954058 -15.834086834140322 0 0 0 0 30.252415091805233 -42.138649989916303 0 -42.138649989916303 -41.832886194213643 0 0 0 0 2.1062921183270191 -22.774809681309307 0 -22.774809681309307 -43.679694636288332 0 0 0 0 8.8476482305159152 -23.631294839520706 0 -23.631294839520706 -56.129750642969157 0 0 0 0 32.589400657194346 -8.7718530948532134 0 -8.7718530948532134 -52.539664671530772 0 0 0 0 4.9468047906425294 -4.9276224295525282 0 -4.9276224295525282 -50.108813769246552 0 0 0 0 -12.588788727393421 -7.2387373353003568 0 -7.2387373353003568 -61.312999526096974 0 0 0 0 -15.91317748516164 -37.513366308165132 0 -37.513366308165132 -88.827391773214913 0 0 0 0 12.488166763964198 -7.4742696254176266 0 -7.4742696254176266 -28.527015720593781 0 0 0 0 31.79681696296484 -0.25388887851113395 0 -0.25388887851113395 -43.663211759716432 0 0 0 0 7.6086901141272643 -0.29978510569230821 0 -0.29978510569230821 -56.849837018534259 0 0 0 0 -1.0049053736074711 -15.55860581327579 0 -15.55860581327579 -85.23404297864181 0 0 0 0 -1.8831306687152392 -9.9943971927059465 0 -9.9943971927059465 -62.099485120212194 0 0 0 0 -6.6991146342297725 -8.8191137893882114 0 -8.8191137893882114 -61.586092549638124 0 0 0 0 -1.6627097975206198 -8.3791403281870771 0 -8.3791403281870771 -56.296321225177962 0 0 0 0 0.8918048821415141 -18.738408100477045 0 -18.738408100477045 -57.613616845192155 0 0 0 0 12.068806320135991 -20.070904907999648 0 -20.070904907999648 -69.030319740362756 0 0 0 0 -6.4886142127179482 -7.5137369683288853 0 -7.5137369683288853 -75.450234150601318 0 0 0 0 0.55783291005764113 -15.828925837170573 0 -15.828925837170573 -73.114670799768646 0 0 0 0 -0.71970032196622924 -18.054751153395046 0 -18.054751153395046 -70.34372002496093 0 0 0 0 -1.0049053736129281 -15.558605813261238 0 -15.558605813261238 -85.234042978612706 0 0 0 0 1.3406457425971894 -33.011849694805278 0 -33.011849694805278 -160.16343373051495 0 0 0 0 10.734951648536271 -10.098740469875047 0 -10.098740469875047 -22.328564749464761 0 0 0 0 -0.73575951557359076 -25.279475652780093 0 -25.279475652780093 -78.996591266259202 0 0 0 0 -4.791815914414336 -9.6247122273162304 0 -9.6247122273162304 -17.753435495168191 0 0 0 0 50.674238625310863 -90.471502303305897 0 -90.471502303305897 -161.77882223467168 0 0 0 0 2.6031642052839743 -21.689534863980953 0 -21.689534863980953 -75.825002680096077 0 0 0 0 -2.9540835733621407 -22.66389567958322 0 -22.66389567958322 -68.577254634481505 0 0 0 0 -2.4567454463358445 -26.167539699657937 0 -26.167539699657937 -72.459335168634425 0 0 0 0 0.72856186300396075 -17.902383661148633 0 -17.902383661148633 -67.746066197272739 0 0 0 0 4.7742863166480944 -7.535045534781986 0 -7.535045534781986 -98.320605876048447 0 0 0 0 55.199588623830209 -98.924275037346888 0 -98.924275037346888 -161.83884444560681 0 0 0 0 66.602181171218263 8.3191700197016871 0 8.3191700197016871 -138.3641493271798 0 0 0 0 -1.004905373622023 -15.558605813304894 0 -15.558605813304894 -85.234042978594516 0 0 0 0 48.216492896076943 -79.26178807863198 0 -79.26178807863198 -51.153834479133366 0 0 0 0 41.760119187683813 -19.047321980484412 0 -19.047321980484412 -150.59472339897184 0 0 0 0 64.809260789937071 -59.407023955351178 0 -59.407023955351178 -83.533655194332823 0 0 0 0 59.109007554206983 -74.896751528031018 0 -74.896751528031018 -72.004689727618825 0 0 0 0 37.305890790652484 -36.534976645241841 0 -36.534976645241841 -55.986271606845548 0 0 0 0 14.903193351841765 -10.017796801133954 0 -10.017796801133954 -85.944580791891894 0 0 0 0 41.809333122173484 -27.346218221540767 0 -27.346218221540767 -37.358961997359074 0 0 0 0 46.569311599539105 -17.404496016233679 0 -17.404496016233679 -60.779854569700547 0 0 0 0 12.582198205604072 -7.1953871508085285 0 -7.1953871508085285 -43.359969871200519 0 0 0 0 10.484419179055294 -13.95455741913247 0 -13.95455741913247 -60.36191532954399 0 0 0 0 1.8547920558289661 -30.908054273023481 0 -30.908054273023481 -52.343210850020114 0 0 0 0 29.063486816793556 -15.24939719321992 0 -15.24939719321992 -59.180452954926295 0 0 0 0 60.481290434262519 -22.30398798016904 0 -22.30398798016904 -68.600818774189975 0 0 0 0 52.789172082768232 -65.76324969553184 0 -65.76324969553184 -124.08017410551111 0 0 0 0 50.621687247094997 -1.1268533068769102 0 -1.1268533068769102 -5.6339873034849006 0 0 0 0 145.85964224229065 1.7997268836334115 0 1.7997268836334115 -85.448451936634228 0 0 0 0 0.04120201795219991 -0.19677953537427939 0 -0.19677953537427939 -1.222646791839253 0 0 0 0 -106.65492024627019 -122.50270839619589 0 -122.50270839619589 -101.58874772990021 0 0 0 0 -124.57776640482462 -68.939200795990473 0 -68.939200795990473 11.568995302004623 0 0 0 0 -87.764328376033518 -118.14515604636836 0 -118.14515604636836 -123.45814612890717 0 0 0 0 -94.397801993242865 -136.54186377099177 0 -136.54186377099177 -173.43219832801697 0 0 0 0 0.071211603851555338 -0.51433828367719059 0 -0.51433828367719059 -1.6772307635607433 0 0 0 0 -268.40495976997045 -27.940699561670044 0 -27.940699561670044 -20.259095201514128 0 0 0 0 11.790831175855601 -14.523628807846762 0 -14.523628807846762 -116.19961118868378 0 0 0 0 -227.16730513569291 -78.054410730850577 0 -78.054410730850577 -0.44522241480444791 0 0 0 0 -131.58940603632163 -140.80152557578913 0 -140.80152557578913 -118.53743040865083 0 0 0 0 -117.7256742678328 -43.525630972970248 0 -43.525630972970248 -160.88893827541415 0 0 0 0 -139.15698340497329 -76.476000094920892 0 -76.476000094920892 -0.44563680453484267 0 0 0 0 -139.83042428015506 -85.552033177640624 0 -85.552033177640624 39.038262432615738 0 0 0 0 -160.33277830222505 -89.543109458327308 0 -89.543109458327308 30.354067794840375 0 0 0 0 -173.22124328861719 -74.25186732003931 0 -74.25186732003931 38.322327292888076 0 0 0 0 -129.45822613328255 -90.625076096235716 0 -90.625076096235716 26.421349985314009 0 0 0 0 -76.444757605298946 -47.650093185096921 0 -47.650093185096921 29.983085548732561 0 0 0 0 -63.4479210952004 -75.018535108269134 0 -75.018535108269134 35.257585667328385 0 0 0 0 58.604286921565745 -52.686499920711867 0 -52.686499920711867 0.67677534563699737 0 0 0 0 0.10429822496527485 -0.58153350348009525 0 -0.58153350348009525 -2.3188627632024463 0 0 0 0 69.198531825183636 -55.280420780520217 0 -55.280420780520217 -13.207315493687929 0 0 0 0 115.06054165889964 -46.378726287908648 0 -46.378726287908648 -33.840200350587111 0 0 0 0 -46.682198181996682 -1.7361292752975714 0 -1.7361292752975714 9.1254789572049049 0 0 0 0 83.558828550256294 -70.447345526605204 0 -70.447345526605204 -12.035575244561187 0 0 0 0 -22.488692622787312 3.4773448164269212 0 3.4773448164269212 -11.449484913857304 0 0 0 0 -24.61280674536647 -7.8978715862249373 0 -7.8978715862249373 -24.920003793835349 0 0 0 0 -8.8192032672857295 -3.1338434438184777 0 -3.1338434438184777 -47.803084203915205 0 0 0 0 -5.1512436528537364 6.1109526912314323 0 6.1109526912314323 -45.644625995642855 0 0 0 0 -8.0532544679153943 5.1244093859495479 0 5.1244093859495479 -41.736263964456157 0 0 0 0 -33.993995551172702 9.509410717710125 0 9.509410717710125 -128.23016167143942 0 0 0 0 -3.0895693896168224 -0.3892515251187838 0 -0.3892515251187838 -15.171925058745614 0 0 0 0 -19.074667753236099 39.599562335577502 0 39.599562335577502 -69.977010599461209 0 0 0 0 -8.3975511038769923 -1.4487498954998728 0 -1.4487498954998728 -79.990959680049855 0 0 0 0 -3.8811259828481397 2.027012990748716 0 2.027012990748716 1.1201031131703303 0 0 0 0 -28.623909501289745 -17.876186000528833 0 -17.876186000528833 -47.883088696624327 0 0 0 0 -50.890834295890954 -14.273814014852178 0 -14.273814014852178 44.836962525077979 0 0 0 0 -16.025378057873468 23.521533384372901 0 23.521533384372901 -13.560632194494247 0 0 0 0 -5.0869500785618209 4.5885955423131044 0 4.5885955423131044 0.23287409651956636 0 0 0 0 -12.13753344648736 11.034240184697602 0 11.034240184697602 -13.819298758070047 0 0 0 0 -26.182023276202017 9.4356830039796478 0 9.4356830039796478 -9.4824721574550495 0 0 0 0 -26.582588377335924 12.959925115173974 0 12.959925115173974 4.039359164358757 0 0 0 0 -43.969260103611305 -3.022310610198474 0 -3.022310610198474 -17.159594194026795 0 0 0 0 -38.277998796707834 -14.756199854560691 0 -14.756199854560691 -18.420151195401559 0 0 0 0 -3.157097115612828 1.0556193621996499 0 1.0556193621996499 -21.173195821531408 0 0 0 0 -12.228278034324633 7.7130749488425749 0 7.7130749488425749 -4.3773653379018072 0 0 0 0 -18.993410995159138 19.406995870540413 0 19.406995870540413 -13.466793223506102 0 0 0 0 -19.853667944232996 -10.260987106508196 0 -10.260987106508196 -1.2363420819601743 0 0 0 0 -15.401411328041377 -3.9090176368865741 0 -3.9090176368865741 -43.479793833852455 0 0 0 0 -44.047535989800963 5.1013198067303165 0 5.1013198067303165 1.9916188319641037 0 0 0 0 -55.343771779605959 -55.760587968328764 0 -55.760587968328764 -28.81763106980361 0 0 0 0 -69.536225978345101 -37.110918913236674 0 -37.110918913236674 -32.709073503790933 0 0 0 0 -128.05503957962173 -92.531604272408003 0 -92.531604272408003 -34.479319128232419 0 0 0 0 -91.360414581683472 -45.313473527381575 0 -45.313473527381575 6.8280593584204325 0 0 0 0 -162.42838369136916 -48.644475864861306 0 -48.644475864861306 22.73427868665749 0 0 0 0 -116.17903504043352 -52.783852508040582 0 -52.783852508040582 4.5813901679066475 0 0 0 0 -111.48478973390957 -23.162599369836244 0 -23.162599369836244 12.994461758993566 0 0 0 0 -91.537259426138917 -16.137370596505207 0 -16.137370596505207 11.954686779095937 0 0 0 0 -57.554282882581902 -8.689864162937738 0 -8.689864162937738 6.9138943348461908 0 0 0 0 -92.507657623656996 -38.130256183845631 0 -38.130256183845631 -14.28451009633136 0 0 0 0 -59.209023358973354 -5.3110682774786255 0 -5.3110682774786255 0.20472696698561776 0 0 0 0 -7.2837696499846061 6.075742235283542 0 6.075742235283542 -7.0807743598525121 0 0 0 0 -30.130833217417603 20.868721508417366 0 20.868721508417366 8.3906467285123654 0 0 0 0 -82.666305343443128 17.411454530592891 0 17.411454530592891 15.921490995664499 0 0 0 0 -57.616011543748755 0.065728716530429665 0 0.065728716530429665 14.412446860686032 0 0 0 0 -69.906342488387963 -0.4038734602763725 0 -0.4038734602763725 -5.0005862926627742 0 0 0 0 -68.899777397546131 18.847541119113885 0 18.847541119113885 16.227898541175819 0 0 0 0 -28.418841076478202 28.456178049080336 0 28.456178049080336 0.97006610035896301 0 0 0 0 -23.050115058053052 11.820350178000808 0 11.820350178000808 52.485378622135613 0 0 0 0 37.008465935890854 -14.619248226095806 0 -14.619248226095806 -11.566313949973846 0 0 0 0 64.431001955414104 -21.457314751365629 0 -21.457314751365629 -77.781356897423393 0 0 0 0 -4.4895596351612426 3.6245807002707338 0 3.6245807002707338 -1.7713426895622888 0 0 0 0 -58.576515723315424 22.049254126004598 0 22.049254126004598 51.427704559435369 0 0 0 0 -20.059042112143288 7.2529110179311829 0 7.2529110179311829 -12.29097441401791 0 0 0 0 -9.6984726839095394 10.080599950996934 0 10.080599950996934 -10.820345627872413 0 0 0 0 10.886191390883141 41.973138017067868 0 41.973138017067868 4.1502451871929225 0 0 0 0 0.069455723397069846 0.21779698495397781 0 0.21779698495397781 0.096679613705523693 0 0 0 0 -18.008741141031351 26.099741145211738 0 26.099741145211738 -12.896654539450537 0 0 0 0 -47.581454319968088 66.810021088589565 0 66.810021088589565 -56.542110196511203 0 0 0 0 -0.050189635486850293 0.56414421291504624 0 0.56414421291504624 -1.1579974324598084 0 0 0 0 -146.68651569839722 -23.719208640769466 0 -23.719208640769466 23.156015646527521 0 0 0 0 66.882639520319572 34.078015257518928 0 34.078015257518928 -61.633539606744307 0 0 0 0 13.707382720163878 58.854827280421887 0 58.854827280421887 -69.519453241457086 0 0 0 0 10.55201147313403 21.408191711489962 0 21.408191711489962 -50.433142080946709 0 0 0 0 2.4682261318912424 30.694018199816128 0 30.694018199816128 -48.583553282129287 0 0 0 0 -96.333289515959223 106.08965725811504 0 106.08965725811504 -147.76866734145005 0 0 0 0 -61.940652610966936 71.454683685245982 0 71.454683685245982 -80.230346615891904 0 0 0 0 3.0148569066659547 27.426179374160711 0 27.426179374160711 -87.627942117622297 0 0 0 0 -228.21211657699314 59.146939105234196 0 59.146939105234196 -33.25361235710443 0 0 0 0 -167.12998801949652 -12.731904020973161 0 -12.731904020973161 20.228299316178891 0 0 0 0 -113.55904100473072 9.9895447965209314 0 9.9895447965209314 -14.657401653937995 0 0 0 0 -114.0030447210338 21.869810999800393 0 21.869810999800393 -7.4527412179013481 0 0 0 0 -230.79117489339569 -14.851383751631147 0 -14.851383751631147 11.638500440552889 0 0 0 0 -155.52760462230003 -45.658675915839467 0 -45.658675915839467 23.877812290258589 0 0 0 0 -193.91907245345283 -17.131468445069913 0 -17.131468445069913 -20.067516122460802 0 0 0 0 -284.37859386751984 23.763328130117316 0 23.763328130117316 -38.539092535756936 0 0 0 0 -307.05746652427115 -39.108603673637845 0 -39.108603673637845 -95.539063912372512 0 0 0 0 -482.3862140201345 80.958618397391547 0 80.958618397391547 -171.41876542650061 0 0 0 0 -179.87221235252218 89.01463573170804 0 89.01463573170804 -623.19899296798394 0 0 0 0 -90.539041813864969 -129.82524102305979 0 -129.82524102305979 -260.39102577970698 0 0 0 0 -229.52550298093229 125.19611923370303 0 125.19611923370303 -89.399067394369922 0 0 0 0 31.186596362468663 39.080186596436761 0 39.080186596436761 -83.023059596242092 0 0 0 0 -119.3264652655389 -14.643292226239282 0 -14.643292226239282 87.782317720200808 0 0 0 0 -0.23060825700282095 0.22872626621138181 0 0.22872626621138181 -0.011398674534337516 0 0 0 0 -0.1575611743053571 -0.96233649472081595 0 -0.96233649472081595 -2.0644680070475658 0 0 0 0 129.99502449913052 362.27769774260469 0 362.27769774260469 -968.77571728434123 0 0 0 0 -84.012096514838049 -79.228109953681269 0 -79.228109953681269 21.151154373490499 0 0 0 0 -96.196344221478057 -352.53097859596733 0 -352.53097859596733 -413.42539042130375 0 0 0 0 177.01071773514923 284.37177871619861 0 284.37177871619861 -938.27337477384935 0 0 0 0 -0.24770726219102812 -2.010009298358213 0 -2.010009298358213 -2.6215077359182857 0 0 0 0 30.850472873626131 13.145478932798142 0 13.145478932798142 -15.362454904730839 0 0 0 0 17.865461422567023 11.52917404352047 0 11.52917404352047 11.843759917508578 0 0 0 0 35.305688986734822 21.076023377856473 0 21.076023377856473 -6.5292562625108985 0 0 0 0 -2.4658878883528814 -8.0122816182174574 0 -8.0122816182174574 -6.7485489486716688 0 0 0 0 -37.495366987868692 -151.25967035161011 0 -151.25967035161011 -98.657919487995969 0 0 0 0 0.089719572942374093 -0.14360624026937074 0 -0.14360624026937074 -1.1450945825794747 0 0 0 0 -91.540480326450052 -116.6568298909915 0 -116.6568298909915 -25.660102638546959 0 0 0 0 176.63417508085695 -48.020512838863851 0 -48.020512838863851 -54.018887657693995 0 0 0 0 -187.34860029526317 -80.773981891023141 0 -80.773981891023141 30.371348972996202 0 0 0 0 -186.18943607098026 -86.46290710453286 0 -86.46290710453286 5.9914172870994662 0 0 0 0 -208.32480696287166 -46.242813594730251 0 -46.242813594730251 -16.141828265579534 0 0 0 0 -212.64353745288281 -161.96617436640736 0 -161.96617436640736 -46.747783601425908 0 0 0 0 -30.809880975580199 -99.303361229105576 0 -99.303361229105576 -33.59501084240037 0 0 0 0 -101.02928576823342 -268.50577633762623 0 -268.50577633762623 -125.27211556120892 0 0 0 0 -257.54511008551162 -103.85047564865818 0 -103.85047564865818 -73.918058235576609 0 0 0 0 -315.24852134262233 -118.15322499813783 0 -118.15322499813783 -64.400774598812859 0 0 0 0 -227.26244553352535 -66.632944083828988 0 -66.632944083828988 -154.81312241128035 0 0 0 0 -393.03449421803998 -171.80850575916884 0 -171.80850575916884 -221.53442624478703 0 0 0 0 126.26673206103442 -71.980478307654266 0 -71.980478307654266 -276.46658132539596 0 0 0 0 116.20173902043189 -130.75029232016823 0 -130.75029232016823 -136.62096594034847 0 0 0 0 104.10374155638874 -119.17804701878413 0 -119.17804701878413 -86.429641085236653 0 0 0 0 585.40938744349751 216.31314201790519 0 216.31314201790519 -21.076569424644276 0 0 0 0 0.3806136093188055 0.79550621191206972 0 0.79550621191206972 -4.2651362277717055 0 0 0 0 -503.78877866612902 -643.69789013997524 0 -643.69789013997524 -1418.2219419642788 0 0 0 0 259.88182926118043 108.62556603119083 0 108.62556603119083 -1338.9862877518026 0 0 0 0 387.50787251993188 239.4891106713003 0 239.4891106713003 -1216.4713026254722 0 0 0 0 514.2125233889692 688.10274741619651 0 688.10274741619651 196.42657032770967 0 0 0 0 207.107858704916 -199.30874409050557 0 -199.30874409050557 -265.99718375841621 0 0 0 0 -167.99415503677119 3.4941522438530228 0 3.4941522438530228 -84.744494838127139 0 0 0 0 -208.72837483840067 -189.32234484161199 0 -189.32234484161199 -981.40932816928398 0 0 0 0 -663.23816935313789 86.502331946108825 0 86.502331946108825 -382.90330214519781 0 0 0 0 -140.60760382437002 61.976596189731936 0 61.976596189731936 -961.81546441048795 0 0 0 0 -523.58301794288673 -590.82272700716567 0 -590.82272700716567 -2068.8318825713868 0 0 0 0 271.49879464589321 97.753552888681952 0 97.753552888681952 -1590.9140421214688 0 0 0 0 117.47212858866351 94.807680044732479 0 94.807680044732479 -992.0436232354441 0 0 0 0 150.11032695867107 361.23563255471527 0 361.23563255471527 -1495.8475240527405 0 0 0 0 -646.38414863978505 917.20557541286689 0 917.20557541286689 -1070.6298019504684 0 0 0 0 81.690663224106174 580.39722310658544 0 580.39722310658544 -2318.6372482406005 0 0 0 0 79.955375946296044 327.79448435613813 0 327.79448435613813 -1247.7699706230487 0 0 0 0 -154.45041945118282 536.52348191641795 0 536.52348191641795 -1196.3807007201831 0 0 0 0 108.28970306774499 -72.803253848887834 0 -72.803253848887834 -7.8287777845616802 0 0 0 0 -486.20300910010701 354.14655182283059 0 354.14655182283059 -109.29740889107052 0 0 0 0 57.697297042745049 -162.47286980144145 0 -162.47286980144145 -152.02750653804833 0 0 0 0 -24.301078828328173 -66.610645682492759 0 -66.610645682492759 -316.49377174326219 0 0 0 0 -166.53081383940025 265.39426723075212 0 265.39426723075212 -455.54645430422897 0 0 0 0 -143.88372205860833 264.68352940868499 0 264.68352940868499 -457.6389981755965 0 0 0 0 -6.8114665262678642 4.7030630849871784 0 4.7030630849871784 -6.0111565841509389 0 0 0 0 -84.739788180128016 167.24162272441026 0 167.24162272441026 392.6528314893967 0 0 0 0 -3.7601820011374691 1.5996631980851461 0 1.5996631980851461 -1.0008108609503807 0 0 0 0 -301.31389645653053 341.10045629550223 0 341.10045629550223 -1275.7135774419803 0 0 0 0 108.37457213211792 36.852681422370551 0 36.852681422370551 -1326.228110718017 0 0 0 0 11.326745385820686 250.73405569033639 0 250.73405569033639 -1792.2749761640916 0 0 0 0 -27.234132240821054 -87.287998695373972 0 -87.287998695373972 -324.38167681667983 0 0 0 0 -3.875082411483163 -60.256060823321604 0 -60.256060823321604 -654.07575061339958 0 0 0 0 43.083916777479317 146.00109731185148 0 146.00109731185148 -305.57458648674583 0 0 0 0 41.068789355090303 108.97179505191002 0 108.97179505191002 -919.58396322165208 0 0 0 0 -19.93275873604216 -43.210550924803101 0 -43.210550924803101 -624.11846723941562 0 0 0 0 -90.704843245409847 180.54483469496608 0 180.54483469496608 -1090.4205104395733 0 0 0 0 -456.19809734106821 117.42917554925589 0 117.42917554925589 -619.55128341208842 0 0 0 0 -323.81567039996298 25.7613241652125 0 25.7613241652125 -1058.6670573181582 0 0 0 0 -1475.6013953801521 348.60709237202173 0 348.60709237202173 -1146.800622613071 0 0 0 0 -789.58477466822296 -984.73729742223077 0 -984.73729742223077 -792.97187705703254 0 0 0 0 -113.73909531811296 -470.30910800004858 0 -470.30910800004858 -2580.2835089843866 0 0 0 0 -0.59432923830718476 0.15316007534144305 0 0.15316007534144305 -14.664361862052345 0 0 0 0 -450.04775825748038 -844.07625560060114 0 -844.07625560060114 -879.49108684257953 0 0 0 0 3.0094129794115201 -1.3890826709280013 0 -1.3890826709280013 -36.234493472899942 0 0 0 0 -641.10969427620148 -471.45070825794755 0 -471.45070825794755 71.746574090822833 0 0 0 0 535.15125061572508 -164.10692928041681 0 -164.10692928041681 -323.0883567269193 0 0 0 0 248.74386900676109 162.64403111775755 0 162.64403111775755 -259.56151703753494 0 0 0 0 -178.84433887910927 -371.10948010806533 0 -371.10948010806533 -806.78163456710899 0 0 0 0 -331.41145412850528 -559.56177766668543 0 -559.56177766668543 -792.49454962379241 0 0 0 0 -329.99288413419526 -535.02698099661575 0 -535.02698099661575 -480.98132644715224 0 0 0 0 -81.350712533165279 -475.75807297991196 0 -475.75807297991196 -779.04023448629232 0 0 0 0 -163.36572633307969 -308.60241473801943 0 -308.60241473801943 -1111.8963541705089 0 0 0 0 -139.38650714874166 -181.73945897155681 0 -181.73945897155681 -137.48027389410345 0 0 0 0 0.34583558195427599 -1.0021726215366726 0 -1.0021726215366726 -1.0396559088538417 0 0 0 0 -114.77992612642811 -290.67472567110963 0 -290.67472567110963 -868.70423011900129 0 0 0 0 -136.96486510172326 -505.99867437467765 0 -505.99867437467765 -1364.6550706666094 0 0 0 0 1.7153455749006454 -2.771102842698312 0 -2.771102842698312 -0.9610200173302399 0 0 0 0 -124.8351682591674 -251.40899899949363 0 -251.40899899949363 -671.35003843990853 0 0 0 0 -99.524991060585307 -238.55786182799056 0 -238.55786182799056 -715.75236911794218 0 0 0 0 22.243271755613932 -201.38957474939343 0 -201.38957474939343 -587.52497812155343 0 0 0 0 23.723516742782522 -213.64187975574168 0 -213.64187975574168 -611.71547183981238 0 0 0 0 -331.25988822187355 -260.63891653032624 0 -260.63891653032624 -697.67274637101582 0 0 0 0 46.277267250079603 124.63222965937166 0 124.63222965937166 272.15282554547593 0 0 0 0 -186.44301034584464 -357.43361029749803 0 -357.43361029749803 -686.49704070259759 0 0 0 0 -183.31742873875919 -333.47777947529539 0 -333.47777947529539 -709.54328774401802 0 0 0 0 -128.6154585809054 -342.97965102635499 0 -342.97965102635499 -747.30671683616902 0 0 0 0 -148.15320838419211 -354.47787278510259 0 -354.47787278510259 -697.47975650444278 0 0 0 0 -112.4261261780116 -310.58425247966352 0 -310.58425247966352 -743.51299469321384 0 0 0 0 -171.14601352427781 -363.16314654372036 0 -363.16314654372036 -684.85496542904002 0 0 0 0 -176.61686645757436 -357.76541171524877 0 -357.76541171524877 -683.0853119275198 0 0 0 0 -188.02977623450897 -387.95617536671125 0 -387.95617536671125 -715.73221395368455 0 0 0 0 -276.82764019813112 -432.61587491860701 0 -432.61587491860701 -735.12762121169362 0 0 0 0 -334.8459335751686 -380.30597862946888 0 -380.30597862946888 -682.21102989194333 0 0 0 0 -324.86268230213318 -371.11252491166306 0 -371.11252491166306 -773.87146942873369 0 0 0 0 -341.31361659905815 -438.57695406698622 0 -438.57695406698622 -657.43648102735096 0 0 0 0 -320.45598832845644 -390.32365153542196 0 -390.32365153542196 -618.84000293240388 0 0 0 0 -239.36357375440639 -347.17963707378294 0 -347.17963707378294 -624.63581480600988 0 0 0 0 -62.270954521627573 168.90403791764402 0 168.90403791764402 293.5400911070974 0 0 0 0 6.8849598258675542 147.05247947986209 0 147.05247947986209 262.58767239216104 0 0 0 0 -0.44801300744585149 -0.16271089208548517 0 -0.16271089208548517 -1.7485769552881862 0 0 0 0 -1.6421865825143556 9.767139857028468 0 9.767139857028468 -12.273279243272981 0 0 0 0 -300.83038355621829 -621.66186726518208 0 -621.66186726518208 -889.9381088000373 0 0 0 0 -197.77692005145627 -580.27209897279681 0 -580.27209897279681 -926.30462772386818 0 0 0 0 33.126521979320387 146.36162012520799 0 146.36162012520799 242.66983902224456 0 0 0 0 27.927410018593946 156.72100461433729 0 156.72100461433729 223.26005330230691 0 0 0 0 38.137939404819917 175.11416799211293 0 175.11416799211293 256.18571036420872 0 0 0 0 52.349280559210456 189.37883295537904 0 189.37883295537904 189.11136439724942 0 0 0 0 100.01970219230134 245.99544470018736 0 245.99544470018736 251.05545148732199 0 0 0 0 -17.609218496621907 230.27941162468778 0 230.27941162468778 281.00803510315018 0 0 0 0 28.668001689773519 186.24583505473856 0 186.24583505473856 257.56723287324712 0 0 0 0 361.87852059950455 360.13911124770675 0 360.13911124770675 180.4592158292653 0 0 0 0 150.25585829837291 219.89845482835517 0 219.89845482835517 95.722578831599094 0 0 0 0 331.40324854693608 145.33447375024843 0 145.33447375024843 -29.722719300421886 0 0 0 0 333.74811362837863 128.5151240190462 0 128.5151240190462 8.9313759774813661 0 0 0 0 701.94736835123695 422.1154316353859 0 422.1154316353859 157.05360140348785 0 0 0 0 380.61665813446962 731.49983541610709 0 731.49983541610709 693.80622854347894 0 0 0 0 14.091231012447679 392.69125839152548 0 392.69125839152548 368.96201624698006 0 0 0 0 47.226319428249553 261.95120489178225 0 261.95120489178225 295.81844516650017 0 0 0 0 -127.81034076737706 257.49126089228957 0 257.49126089228957 365.08247955564002 0 0 0 0 -70.789482339154347 343.32091238829889 0 343.32091238829889 373.81082103180597 0 0 0 0 0.48954663897094264 3.6545515553624597 0 3.6545515553624597 -4.5268848948638833 0 0 0 0 960.12221795261576 606.7845570585414 0 606.7845570585414 715.52909893372998 0 0 0 0 -369.91248030183351 -422.18222826042893 0 -422.18222826042893 -844.22496253901045 0 0 0 0 -244.8993326365071 -454.22629615878395 0 -454.22629615878395 -840.18521278857952 0 0 0 0 -318.14919305737931 -431.07074151449342 0 -431.07074151449342 -686.02472030717763 0 0 0 0 -300.60694207572669 -384.0172246084403 0 -384.0172246084403 -819.58893866722428 0 0 0 0 -316.97500605637106 -412.49719342568278 0 -412.49719342568278 -770.50079466466559 0 0 0 0 4.1185328256894778 -1.1633109406143092 0 -1.1633109406143092 -7.6889921991888244 0 0 0 0 109.79222885379932 -99.816108927701862 0 -99.816108927701862 -127.1228283144992 0 0 0 0 207.61638891734037 682.04590430151438 0 682.04590430151438 1067.9240397103422 0 0 0 0 -73.670898831997874 34.248944107861462 0 34.248944107861462 63.532130818988662 0 0 0 0 518.2418807507338 91.037632262445186 0 91.037632262445186 -51.855370538964053 0 0 0 0 154.38134500602246 -38.51347479744436 0 -38.51347479744436 10.662599649727781 0 0 0 0 51.365026625631799 82.523041463606205 0 82.523041463606205 -56.822790824189724 0 0 0 0 77.124285195631728 -77.87557661884739 0 -77.87557661884739 -35.342693619364582 0 0 0 0 143.7355481139798 16.553934213286993 0 16.553934213286993 8.2708113724947907 0 0 0 0 137.70063996008639 -41.008701686507038 0 -41.008701686507038 -103.90174167756777 0 0 0 0 1.4362917730690103 -1.679815103046864 0 -1.679815103046864 -15.091036188602914 0 0 0 0 34.903472927440816 -62.39231522467162 0 -62.39231522467162 8.0639150311690173 0 0 0 0 26.234273637784554 -133.5982602019194 0 -133.5982602019194 -50.542903287365334 0 0 0 0 77.830978037236491 -34.638059342833003 0 -34.638059342833003 -5.0738009479391621 0 0 0 0 70.42032367072261 -26.753533132010489 0 -26.753533132010489 36.004097910044948 0 0 0 0 84.18056318540448 -33.474115688610254 0 -33.474115688610254 7.429753458534833 0 0 0 0 79.913627769973687 -15.516455802189057 0 -15.516455802189057 16.483999751144438 0 0 0 0 81.271669526151527 -40.653250480674615 0 -40.653250480674615 1.5130068639336969 0 0 0 0 52.038420943186793 -38.925532590146759 0 -38.925532590146759 -1.9759339325828478 0 0 0 0 74.908680672528135 -13.46108654357522 0 -13.46108654357522 15.834553718479583 0 0 0 0 73.743699986482795 28.407081362475537 0 28.407081362475537 69.067237636161735 0 0 0 0 112.18706075551336 87.917172679010037 0 87.917172679010037 113.23942645610077 0 0 0 0 105.53983704971324 39.512063878530171 0 39.512063878530171 23.9452335204478 0 0 0 0 118.24972765666098 22.130853842252691 0 22.130853842252691 40.822038077494653 0 0 0 0 114.80202455145991 -28.120329243756714 0 -28.120329243756714 -19.678091437774128 0 0 0 0 172.45885989285671 18.564881483529462 0 18.564881483529462 -28.855334707117436 0 0 0 0 120.47839179846051 144.54041507057991 0 144.54041507057991 108.90145258889061 0 0 0 0 210.76425209683202 111.96597101047882 0 111.96597101047882 62.982630180384149 0 0 0 0 69.134658186078013 115.80919417850964 0 115.80919417850964 183.77766893915759 0 0 0 0 75.629173087552772 96.132206803988083 0 96.132206803988083 117.03416079307499 0 0 0 0 112.72338708965253 142.11449415796233 0 142.11449415796233 142.57489911312587 0 0 0 0 70.569391295342939 155.29492130515428 0 155.29492130515428 192.6065581474686 0 0 0 0 56.741849319103494 138.87763935050316 0 138.87763935050316 175.44866960984655 0 0 0 0 46.024817649420584 130.14498699927935 0 130.14498699927935 208.79856442917662 0 0 0 0 44.754976443400665 135.20563323852548 0 135.20563323852548 231.26763344292704 0 0 0 0 60.540120278084942 100.5761316952121 0 100.5761316952121 256.75121330734692 0 0 0 0 42.701420833367592 91.726908695978636 0 91.726908695978636 207.12838284359987 0 0 0 0 62.907711149786337 93.784641315771296 0 93.784641315771296 144.76183950272389 0 0 0 0 52.773130750167184 77.416153362726618 0 77.416153362726618 154.1063361290071 0 0 0 0 61.36744729019847 33.269941198159358 0 33.269941198159358 67.486511332317605 0 0 0 0 37.137893113984319 -12.605153996148147 0 -12.605153996148147 32.083548201902886 0 0 0 0 48.962920216366911 -1.5658062591173803 0 -1.5658062591173803 15.427467219669779 0 0 0 0 -24.734299226345684 -29.015483505856537 0 -29.015483505856537 22.765395410799101 0 0 0 0 32.048279747998322 43.007142141634176 0 43.007142141634176 75.475566711305873 0 0 0 0 33.969784527445881 28.717008766547224 0 28.717008766547224 92.57577223869157 0 0 0 0 23.903453272401748 91.978252826701009 0 91.978252826701009 163.25602769863326 0 0 0 0 6.3151233732132823 32.150080014005653 0 32.150080014005653 79.243409155795234 0 0 0 0 -46.654058249852824 54.246207090265671 0 54.246207090265671 71.452982735390833 0 0 0 0 -0.71858837481340743 66.350013149531151 0 66.350013149531151 71.776419965128298 0 0 0 0 -18.577932454621077 109.06626273029724 0 109.06626273029724 176.396497518057 0 0 0 0 14.054723787397961 99.184881971712457 0 99.184881971712457 177.67530347926368 0 0 0 0 40.880345918245439 162.75953089210088 0 162.75953089210088 239.34282724723744 0 0 0 0 67.427361193269462 78.006240265000088 0 78.006240265000088 162.39702805774868 0 0 0 0 53.704215812200346 117.64176994810805 0 117.64176994810805 218.71626944895252 0 0 0 0 105.72663608365656 88.060480024094431 0 88.060480024094431 241.93874126076116 0 0 0 0 73.45285646575212 122.34897041402292 0 122.34897041402292 208.22603874382912 0 0 0 0 165.01676838536514 172.15688165442407 0 172.15688165442407 199.4168120592949 0 0 0 0 98.060438119579885 70.105420060883262 0 70.105420060883262 -48.252279824795551 0 0 0 0 93.961291571062247 96.373042748993612 0 96.373042748993612 -142.65045705239208 0 0 0 0 -115.17242888992905 123.38535944265186 0 123.38535944265186 -129.11536482837619 0 0 0 0 -177.29530194378503 390.10300079333683 0 390.10300079333683 -82.003563194801245 0 0 0 0 21.525826311627497 13.474978057865883 0 13.474978057865883 -74.646686756335839 0 0 0 0 131.46087235858249 150.9375281591856 0 150.9375281591856 -114.3481137600902 0 0 0 0 83.674504685681313 125.83373779559406 0 125.83373779559406 122.88204150331148 0 0 0 0 119.92061344652575 160.45703186314859 0 160.45703186314859 3.9343239659647224 0 0 0 0 19.900635486506872 8.0302428556133236 0 8.0302428556133236 -24.469988702607225 0 0 0 0 82.644351273767825 64.948286843680762 0 64.948286843680762 -11.519013481065485 0 0 0 0 -1.3902336922428464 8.7113038360069641 0 8.7113038360069641 -22.865338510309073 0 0 0 0 2.5275974168102806 -5.862148470656436 0 -5.862148470656436 -24.002383219796066 0 0 0 0 -12.910663518036017 -18.321143233217299 0 -18.321143233217299 -24.983258635387756 0 0 0 0 -1.7774027661378149 0.91587229527877767 0 0.91587229527877767 0.72909082919832713 0 0 0 0 158.17457359009313 43.100254204295197 0 43.100254204295197 -69.699319732451841 0 0 0 0 0.26109578424565671 5.314130762893253 0 5.314130762893253 -29.491120860251215 0 0 0 0 1.7171166135493596 0.96028598969956036 0 0.96028598969956036 -32.728978297043525 0 0 0 0 135.15278923672122 62.451213948172153 0 62.451213948172153 -24.787000032722062 0 0 0 0 20.280161053868142 8.6421222094577388 0 8.6421222094577388 -24.089617069708765 0 0 0 0 134.79114072325683 58.873678328809547 0 58.873678328809547 -42.266722519464565 0 0 0 0 123.9046767917298 85.426453044968184 0 85.426453044968184 -93.88133909417229 0 0 0 0 121.99779033782761 24.037598521674227 0 24.037598521674227 -87.013585677838364 0 0 0 0 149.65894499921887 44.225886547332266 0 44.225886547332266 -97.285050835627771 0 0 0 0 158.93433657591777 20.161958406415579 0 20.161958406415579 -53.33105633177729 0 0 0 0 -0.37165450430060076 8.0745759104180941 0 8.0745759104180941 -52.653207791794372 0 0 0 0 168.14605792602742 25.253905146568286 0 25.253905146568286 -61.385423051196994 0 0 0 0 190.90178803102208 18.165125984820406 0 18.165125984820406 -89.874502538792512 0 0 0 0 93.73889349895444 42.901589767687256 0 42.901589767687256 -58.435588703157919 0 0 0 0 151.69485716823328 1.7175638476328459 0 1.7175638476328459 -93.440030369053602 0 0 0 0 14.527160759091203 -11.25307552306549 0 -11.25307552306549 -85.362663353651897 0 0 0 0 38.05951985359934 16.539024085610436 0 16.539024085610436 -97.215174120369738 0 0 0 0 101.90812349380258 54.380193101397708 0 54.380193101397708 -106.58932446668041 0 0 0 0 34.730030334802223 36.066057722094229 0 36.066057722094229 -207.0004468415209 0 0 0 0 -30.89230010052961 -23.39043598383978 0 -23.39043598383978 -130.86564485292365 0 0 0 0 -1.199291712335949 -1.3898752642483103 0 -1.3898752642483103 0.84993058415061284 0 0 0 0 15.123249355810003 -18.706727088827392 0 -18.706727088827392 -137.36951368401787 0 0 0 0 -44.137302806266689 1.3229512281413918 0 1.3229512281413918 -68.499622742942847 0 0 0 0 -1.4028712965006918 -1.3326529808710035 0 -1.3326529808710035 0.85955514797863231 0 0 0 0 -25.925938301750556 46.038329542938072 0 46.038329542938072 -354.8412097548935 0 0 0 0 -114.95472540810579 106.65211703859131 0 106.65211703859131 -258.69863832126794 0 0 0 0 -80.04328680156658 62.454443091998655 0 62.454443091998655 -338.0800446939993 0 0 0 0 -79.786781006317824 66.834225013000832 0 66.834225013000832 -179.66560306579049 0 0 0 0 -70.891022956367863 26.183565356011059 0 26.183565356011059 -318.5317076780666 0 0 0 0 -86.832808636148911 139.40422423155997 0 139.40422423155997 -335.08820351694158 0 0 0 0 -115.45954936524925 186.29530177148081 0 186.29530177148081 -408.51273876990399 0 0 0 0 -73.918264830212593 283.40635259242299 0 283.40635259242299 -186.15869583395761 0 0 0 0 -232.30051113883292 -26.579010527042556 0 -26.579010527042556 8.0839387073210673 0 0 0 0 -113.9275777206899 147.96598759271728 0 147.96598759271728 -337.22459140120918 0 0 0 0 -225.62358778243379 108.21816988458886 0 108.21816988458886 -538.35126923484768 0 0 0 0 -105.17060629852784 101.31414407797911 0 101.31414407797911 -539.43280046035215 0 0 0 0 -76.459148898194826 136.36704023808215 0 136.36704023808215 -298.29811038218031 0 0 0 0 -117.21244312095041 178.73571411308512 0 178.73571411308512 -294.36425861613861 0 0 0 0 -7.3439851782623009 287.77933284703249 0 287.77933284703249 -540.38883294572406 0 0 0 0 -90.270308786368105 140.59678188102043 0 140.59678188102043 -442.75962460671508 0 0 0 0 -157.09186594163657 354.46205047893454 0 354.46205047893454 -217.87350928828255 0 0 0 0 -76.525378311822351 265.4389473246938 0 265.4389473246938 -616.07145353471424 0 0 0 0 -148.80762168620583 480.4405896614835 0 480.4405896614835 -623.33602879339014 0 0 0 0 -92.69958994312401 138.58578638332983 0 138.58578638332983 -1094.4557713408758 0 0 0 0 66.768319101319321 163.29165072185606 0 163.29165072185606 -529.53035773357442 0 0 0 0 54.250027978769594 228.9169350681168 0 228.9169350681168 -843.56981639272999 0 0 0 0 -48.817902778919461 370.58072474989785 0 370.58072474989785 -662.99797041846614 0 0 0 0 355.46248641879583 364.886349749695 0 364.886349749695 -598.51977493213053 0 0 0 0 116.00975260957966 323.94944691315504 0 323.94944691315504 -666.29457697817998 0 0 0 0 153.94365088348175 132.910980068968 0 132.910980068968 -864.09837173526466 0 0 0 0 269.99533749410966 -140.45392210730461 0 -140.45392210730461 -1946.1829011921836 0 0 0 0 -183.15592533171366 -1358.6618065805742 0 -1358.6618065805742 -1665.1396691823174 0 0 0 0 -4.0031856301097282 -4.7352949933859847 0 -4.7352949933859847 -22.901483258398002 0 0 0 0 354.71581535776835 339.71326678164974 0 339.71326678164974 146.34763111745269 0 0 0 0 -117.19711881603735 -317.14782106143684 0 -317.14782106143684 474.82935400100541 0 0 0 0 567.54293236267586 96.924859586828461 0 96.924859586828461 -280.01553424197118 0 0 0 0 73.345968376426299 246.00485055964236 0 246.00485055964236 -246.73307320833192 0 0 0 0 331.28727216223376 32.077416101355084 0 32.077416101355084 -487.30355299986695 0 0 0 0 13.011020977850876 -179.53968555154097 0 -179.53968555154097 -155.70357507274821 0 0 0 0 346.56287894810316 117.18667168388401 0 117.18667168388401 -78.197926112850837 0 0 0 0 -0.72501561518551516 -11.054265142953648 0 -11.054265142953648 -90.385970847126103 0 0 0 0 694.20028534440348 -170.3871319099635 0 -170.3871319099635 -229.84136416424371 0 0 0 0 311.44057622458126 48.399519304188289 0 48.399519304188289 -153.42434105360735 0 0 0 0 -19.729276674910579 -74.182796027134827 0 -74.182796027134827 -414.38723859756465 0 0 0 0 -391.85711401941307 -213.83709610685037 0 -213.83709610685037 -151.56073424593342 0 0 0 0 -470.59183985934555 -406.05112094167998 0 -406.05112094167998 -425.51453965638575 0 0 0 0 -312.02838665655395 -195.63537188758164 0 -195.63537188758164 -389.71988401500857 0 0 0 0 -243.2955160399431 -263.88700487109236 0 -263.88700487109236 -532.23413510338287 0 0 0 0 -7.8395161377013665 -20.594353993470747 0 -20.594353993470747 -37.879243756093274 0 0 0 0 -6.7589550332663748 -2.5448939980060459 0 -2.5448939980060459 -18.873135607511358 0 0 0 0 5.6935991593204562 52.427658844208054 0 52.427658844208054 -5.1123457900948779 0 0 0 0 -71.498502036780792 2.9659664212822463 0 2.9659664212822463 -46.499445563074914 0 0 0 0 -39.754565124399505 -77.088674014584285 0 -77.088674014584285 -69.347213600740361 0 0 0 0 22.616234785748247 -37.034882363456745 0 -37.034882363456745 -56.203711626794757 0 0 0 0 104.85702321640611 -91.902312468215314 0 -91.902312468215314 -80.476526251896075 0 0 0 0 0.012722455018774781 -32.398204162553156 0 -32.398204162553156 -56.861195494497224 0 0 0 0 28.723127203780187 5.8641032567172946 0 5.8641032567172946 -38.432304115297029 0 0 0 0 33.875397911083837 -34.644500979890836 0 -34.644500979890836 -68.126803879548788 0 0 0 0 2.2315421080802889 -5.0475743336512071 0 -5.0475743336512071 -79.415817579818707 0 0 0 0 -31.366450627627387 -312.30615701647406 0 -312.30615701647406 -1649.1815268519615 0 0 0 0 -565.79437752790875 -549.10369133828135 0 -549.10369133828135 -3151.4734173639736 0 0 0 0 7.2493553677465439 -31.449494476776355 0 -31.449494476776355 -94.452885448597556 0 0 0 0 1.6284883321015728 -10.438230854708678 0 -10.438230854708678 -10.261257217305559 0 0 0 0 -33.658910184178623 -46.637782254399269 0 -46.637782254399269 -18.298467519838258 0 0 0 0 -67.528096497373554 -224.4747550940065 0 -224.4747550940065 -1581.1720723300125 0 0 0 0 -20.345078020755334 -47.370243484653265 0 -47.370243484653265 -7.0285390384989173 0 0 0 0 -16.534875626327448 -125.7952821425838 0 -125.7952821425838 -1063.2958084176744 0 0 0 0 -90.796025580479181 -180.29706273452371 0 -180.29706273452371 -801.25844088188603 0 0 0 0 -68.094525203110351 -231.31905219296851 0 -231.31905219296851 -834.48196229132282 0 0 0 0 26.156304800475919 19.489445117854459 0 19.489445117854459 -22.804515850625727 0 0 0 0 -59.668616836357614 -247.8904598014251 0 -247.8904598014251 -658.03727448596544 0 0 0 0 -33.931123666023268 -77.399111421538677 0 -77.399111421538677 -714.33540338564717 0 0 0 0 -2.2698908801135076 -126.83794181268695 0 -126.83794181268695 -224.66849703856133 0 0 0 0 -31.294215184020231 -122.49486512710973 0 -122.49486512710973 -102.87877545083279 0 0 0 0 138.11160409705491 -153.24681396659628 0 -153.24681396659628 -220.7961639021014 0 0 0 0 -48.693239055264257 -30.94271965502594 0 -30.94271965502594 -19.856045791973884 0 0 0 0 439.58378267549915 -267.50269830722027 0 -267.50269830722027 -710.33561927623668 0 0 0 0 -8.2088718692701903 -8.0045545742286528 0 -8.0045545742286528 -9.1349420210911632 0 0 0 0 -122.14275118823343 -43.243837432231885 0 -43.243837432231885 39.093447340399052 0 0 0 0 -16.100162664446088 -104.59888838714687 0 -104.59888838714687 -102.11166931745174 0 0 0 0 -182.07588940628239 -247.38699227102552 0 -247.38699227102552 -216.40596439531146 0 0 0 0 -159.38587540566795 -29.940272649814347 0 -29.940272649814347 -5.4266788410386653 0 0 0 0 -381.22076048576241 -244.41292174624868 0 -244.41292174624868 -204.37928228064266 0 0 0 0 1.0068488470850991 2.3661007734760831 0 2.3661007734760831 -5.8001450365073453 0 0 0 0 83.598933312999407 306.0655270006755 0 306.0655270006755 -603.96417168656626 0 0 0 0 -226.96430927696838 -104.07747896411274 0 -104.07747896411274 -525.61490013859702 0 0 0 0 -65.795728490357305 -110.19941663994268 0 -110.19941663994268 -721.58461960106797 0 0 0 0 -59.213365676219837 -25.872344545527085 0 -25.872344545527085 -292.87770064796086 0 0 0 0 -457.46250085068937 165.26572603703607 0 165.26572603703607 -284.83553758058406 0 0 0 0 -158.63969309917275 118.09165745980681 0 118.09165745980681 -278.33822857887662 0 0 0 0 -0.41597765722053737 -32.28900588702345 0 -32.28900588702345 -17.621735046903268 0 0 0 0 -6.3610758372153668 -87.614427739244547 0 -87.614427739244547 -274.05394883807458 0 0 0 0 -60.548499503138373 169.78955216969553 0 169.78955216969553 -164.31931633488693 0 0 0 0 22.992819190868659 6.2984209196401935 0 6.2984209196401935 -150.49825423981747 0 0 0 0 -86.571271050667747 126.12723518548228 0 126.12723518548228 -171.72771625020141 0 0 0 0 3.3069499352477578 89.847502412254471 0 89.847502412254471 -155.23329380746327 0 0 0 0 -114.97429905501917 32.67596430262779 0 32.67596430262779 -170.36533518555007 0 0 0 0 -123.45182769072346 66.287188654623606 0 66.287188654623606 -175.48808876496696 0 0 0 0 -311.17738837269945 72.320925719014667 0 72.320925719014667 -175.39873425629048 0 0 0 0 -172.53134588915486 90.003462653167844 0 90.003462653167844 -166.65878680774404 0 0 0 0 -193.73881177200201 143.83905551792122 0 143.83905551792122 -149.05214317950458 0 0 0 0 -224.29574561718937 131.4902487297486 0 131.4902487297486 -133.39615617789241 0 0 0 0 -152.79308998938586 102.94180426917956 0 102.94180426917956 -133.54186709540312 0 0 0 0 -48.740831349782127 10.071468074635959 0 10.071468074635959 -167.58391319878683 0 0 0 0 -154.39663305882618 110.63955914412054 0 110.63955914412054 -112.65387683303197 0 0 0 0 0.25154853675526168 -1.6294008001456106 0 -1.6294008001456106 -0.66230579437946879 0 0 0 0 -222.29492072919015 177.99862513522203 0 177.99862513522203 -211.27589670439374 0 0 0 0 -90.967907304987875 -121.89575690092715 0 -121.89575690092715 -226.36488929541156 0 0 0 0 -81.166349098543151 84.247134013176719 0 84.247134013176719 -404.26543062716883 0 0 0 0 -94.040211264093614 -117.00229689246953 0 -117.00229689246953 -150.2163262017998 0 0 0 0 -108.6611654168305 43.712390960916991 0 43.712390960916991 -128.38237219725124 0 0 0 0 15.321220783433091 80.301355526662519 0 80.301355526662519 -239.0241412114683 0 0 0 0 -61.640111478379822 82.951824194824439 0 82.951824194824439 -221.09183245473105 0 0 0 0 -82.962405783832764 18.833620592023181 0 18.833620592023181 -386.5063929562275 0 0 0 0 -286.84121068073773 68.037865320259698 0 68.037865320259698 -176.85629906151644 0 0 0 0 -118.32821030104151 228.13586241760459 0 228.13586241760459 -349.60074915085897 0 0 0 0 -1.3574297146712819 2.4427038861312393 0 2.4427038861312393 -2.0300762842638065 0 0 0 0 -25.863603864648212 155.56342728435175 0 155.56342728435175 -258.67880584017257 0 0 0 0 10.472940633111648 87.63162159521562 0 87.63162159521562 -276.87880260434167 0 0 0 0 -65.460258331572277 123.2806638739894 0 123.2806638739894 -158.0075581080273 0 0 0 0 -124.72741543854681 143.08118883972838 0 143.08118883972838 -144.32037686275362 0 0 0 0 -7.0465226121623346 36.490689147229205 0 36.490689147229205 -91.013928962242971 0 0 0 0 -56.131715792411853 63.610388370232897 0 63.610388370232897 -62.764002191453983 0 0 0 0 10.895149291947291 10.812631692686409 0 10.812631692686409 -40.168826993100993 0 0 0 0 -51.236813919704218 -0.44141643131752062 0 -0.44141643131752062 -8.4776879651171839 0 0 0 0 -280.09071447036195 166.50654292807303 0 166.50654292807303 -91.867388203503651 0 0 0 0 -101.62845871853784 3.5297334320123355 0 3.5297334320123355 18.66688600021007 0 0 0 0 -125.23924002466242 -91.914381910462907 0 -91.914381910462907 -49.831768016771093 0 0 0 0 -9.1070107126297444 14.447825919374736 0 14.447825919374736 -27.452139790677393 0 0 0 0 -104.1411881760601 -108.49751691097845 0 -108.49751691097845 -113.97987120014659 0 0 0 0 -2.198194195109509 0.57729608369373331 0 0.57729608369373331 0.53205996459143279 0 0 0 0 -73.726210819763367 -105.49925331857139 0 -105.49925331857139 -116.29654980071791 0 0 0 0 -17.292285596790634 5.9731865154280968 0 5.9731865154280968 -6.879227053897921 0 0 0 0 -4.2041339810916725 5.4695355532585381 0 5.4695355532585381 -15.447402196594339 0 0 0 0 -2.8277638413663917 3.4202891144516041 0 3.4202891144516041 -6.8453218641449354 0 0 0 0 -4.542952852348126 -1.2198251573901864 0 -1.2198251573901864 -3.4624251348575061 0 0 0 0 -12.405399154150018 -2.8038507241408297 0 -2.8038507241408297 3.1293852953749592 0 0 0 0 19.698934072699842 29.596045947055018 0 29.596045947055018 3.1135525404952205 0 0 0 0 -4.4640843676348823 -2.3815537464797671 0 -2.3815537464797671 -5.866210164169388 0 0 0 0 -2.0571065244742948 0.62073768916688365 0 0.62073768916688365 -3.181018130012923 0 0 0 0 -7.2072204108216624 -3.1389704703699408 0 -3.1389704703699408 -4.6669543507523485 0 0 0 0 32.766469075829207 9.1999487235389097 0 9.1999487235389097 -21.772302812434646 0 0 0 0 -0.97721912961756352 0.78564832025252418 0 0.78564832025252418 -2.9718835663313072 0 0 0 0 -6.2279038405819165 -1.4900348053561174 0 -1.4900348053561174 -6.155904474466297 0 0 0 0 -6.1579504616373697 -3.639762822335797 0 -3.639762822335797 -4.5969207038597233 0 0 0 0 -3.0738051509910065 0.083734731811091478 0 0.083734731811091478 -5.0834159772979319 0 0 0 0 -0.2857826951947337 1.0395347675626549 0 1.0395347675626549 -2.2506009151540098 0 0 0 0 10.252735372564189 10.765641309319108 0 10.765641309319108 10.996869011385115 0 0 0 0 -36.725852443266945 61.67277170455236 0 61.67277170455236 17.198909975581046 0 0 0 0 16.660636028182239 23.204748637602279 0 23.204748637602279 -117.81674531259523 0 0 0 0 -5.6624020096439835 -26.873140722268545 0 -26.873140722268545 -31.094076160990426 0 0 0 0 -8.249478237666775 -5.7058584197202737 0 -5.7058584197202737 -4.0423270752298315 0 0 0 0 -25.292749073169261 10.394840712227506 0 10.394840712227506 72.62736241724815 0 0 0 0 22.807928413870172 -50.606062349881086 0 -50.606062349881086 -73.795568605046356 0 0 0 0 19.486154800921668 -49.147718233335581 0 -49.147718233335581 -66.351869606903392 0 0 0 0 4.9944202062112026 -24.84730437363396 0 -24.84730437363396 -50.540046415795587 0 0 0 0 -4.360405508355143 -36.441798329170524 0 -36.441798329170524 -68.320492546355808 0 0 0 0 12.488694023699281 -28.311577493250297 0 -28.311577493250297 -109.33769762472184 0 0 0 0 11.727386770727662 -53.168410118335032 0 -53.168410118335032 -55.345390604274144 0 0 0 0 12.649562910141981 -56.298217876528724 0 -56.298217876528724 -65.120739599793524 0 0 0 0 -14.993958048088416 -33.988995087024705 0 -33.988995087024705 -1.4846625989603126 0 0 0 0 -96.700077101729448 -60.461037946816759 0 -60.461037946816759 3.473996639080724 0 0 0 0 5.8967718800789726 -41.714544178740198 0 -41.714544178740198 -25.463977110019187 0 0 0 0 33.730620433510012 -68.319165061308013 0 -68.319165061308013 -60.566451150114517 0 0 0 0 -37.331252708263719 -151.21789778509356 0 -151.21789778509356 -155.53600059925702 0 0 0 0 -16.692540782275955 -104.30415016089319 0 -104.30415016089319 -290.84707737423378 0 0 0 0 -1.5721845170762538 -1.6630093739125122 0 -1.6630093739125122 -1.3688126561909968 0 0 0 0 -43.652300760850721 -5.3683369404889163 0 -5.3683369404889163 16.581535227104723 0 0 0 0 -114.22009943556947 -116.68150060876701 0 -116.68150060876701 88.540042580871159 0 0 0 0 -18.579098455307758 -242.02105724512057 0 -242.02105724512057 -101.05842212249445 0 0 0 0 137.14262519492013 54.573694656810403 0 54.573694656810403 -215.81068364427347 0 0 0 0 50.846408488300881 62.540923693341938 0 62.540923693341938 60.200858116057134 0 0 0 0 2.7769562183177392 -1.9662218954807003 0 -1.9662218954807003 0.84225639373919847 0 0 0 0 38.209164645881174 -3.5512655124744015 0 -3.5512655124744015 -96.952618253533728 0 0 0 0 17.675339666300488 1.5518270727861818 0 1.5518270727861818 1.9880957597506494 0 0 0 0 9.6791951857955478 -3.376093605835603 0 -3.376093605835603 0.87936759130056075 0 0 0 0 3.6190126722899549 -42.811878887973307 0 -42.811878887973307 -56.061350206200586 0 0 0 0 -9.5062423552799373 -49.475375855623497 0 -49.475375855623497 53.668543989138016 0 0 0 0 2.1132487470711112 -37.398019188754915 0 -37.398019188754915 -38.540776034764349 0 0 0 0 4.8693271917259153 -61.376278551237192 0 -61.376278551237192 -36.042129777062655 0 0 0 0 1.3862650128826317 -55.659920686174701 0 -55.659920686174701 -44.85837257168896 0 0 0 0 14.354844075960159 104.12457788253596 0 104.12457788253596 -28.121002350309027 0 0 0 0 117.08252682292505 -89.466158347355304 0 -89.466158347355304 -87.345469645099001 0 0 0 0 51.280865249153777 2.0769557868597985 0 2.0769557868597985 -181.57173001373303 0 0 0 0 0.35613949961137248 -2.2769465997094329 0 -2.2769465997094329 -0.84468584046016915 0 0 0 0 -43.753994214776867 108.07633098610495 0 108.07633098610495 -167.51076140498662 0 0 0 0 -63.221317791279944 -36.619964085824904 0 -36.619964085824904 -83.121316224426891 0 0 0 0 5.061961903134943 -11.510005565025494 0 -11.510005565025494 -189.06894387461762 0 0 0 0 11.146634382627781 -35.615940634101207 0 -35.615940634101207 -174.41768768977272 0 0 0 0 0.49401120436031221 -2.1686903655596481 0 -2.1686903655596481 -0.71543442349841158 0 0 0 0 7.1248599973422984 -33.615242413453416 0 -33.615242413453416 -163.99212171325053 0 0 0 0 10.914080335058316 -35.622166981309419 0 -35.622166981309419 -163.0036800300204 0 0 0 0 -0.14174937464213144 -35.11478324800828 0 -35.11478324800828 -156.54841062701598 0 0 0 0 8.7594067635259307 -23.829737652106019 0 -23.829737652106019 -148.38971143977324 0 0 0 0 -22.16360233186515 -48.267638005583649 0 -48.267638005583649 -101.65303534098257 0 0 0 0 28.776811820043804 -35.970186054584701 0 -35.970186054584701 -99.588159854433798 0 0 0 0 -0.99732448863100842 -1.5016656352191831 0 -1.5016656352191831 1.0266999701217401 0 0 0 0 37.598590438332394 -93.970280618557808 0 -93.970280618557808 -183.39281961363668 0 0 0 0 149.98373210783211 40.589072645965643 0 40.589072645965643 -62.008029813490793 0 0 0 0 204.749872768567 -14.388328685947272 0 -14.388328685947272 -91.46522299685239 0 0 0 0 149.7240682249776 -0.49112212840555003 0 -0.49112212840555003 -51.333128822362596 0 0 0 0 1.0173959797386019 3.1546910634544396 0 3.1546910634544396 -70.06296353952763 0 0 0 0 190.10372291842441 102.77834571424728 0 102.77834571424728 -135.57689695425506 0 0 0 0 129.91251343084696 11.041466236429187 0 11.041466236429187 -70.406607643941243 0 0 0 0 135.62280267250935 -29.578493737524695 0 -29.578493737524695 -142.0122188717487 0 0 0 0 44.91419607865646 -61.718457695085817 0 -61.718457695085817 -83.078042503548204 0 0 0 0 126.60923804521826 -20.308339293078006 0 -20.308339293078006 -91.276130253078009 0 0 0 0 154.08857177281425 -45.051522011273846 0 -45.051522011273846 -88.88978950549199 0 0 0 0 0.35910026308347565 4.1566985712252027 0 4.1566985712252027 -82.152160660567361 0 0 0 0 52.536696645176562 -28.336946716243801 0 -28.336946716243801 -60.184404326514596 0 0 0 0 59.837885429737071 -32.041287896514859 0 -32.041287896514859 -80.983673530166925 0 0 0 0 -0.19764459447651461 -37.977610129809364 0 -37.977610129809364 -61.04036942762832 0 0 0 0 3.4058677758621343 -55.860200952769901 0 -55.860200952769901 -53.83631666585643 0 0 0 0 10.575086070269208 -58.580198195311823 0 -58.580198195311823 -72.969888137731687 0 0 0 0 -63.649018205502216 -123.90635962574015 0 -123.90635962574015 -307.00932357524289 0 0 0 0 14.070569963794696 83.644428928011621 0 83.644428928011621 -497.05199082339095 0 0 0 0 -269.71569602359341 -22.503967725895563 0 -22.503967725895563 -38.430595054545847 0 0 0 0 -116.32449300409644 37.776123454372282 0 37.776123454372282 88.181786711065797 0 0 0 0 -18.01842110961843 15.332670808813418 0 15.332670808813418 -60.06797786194511 0 0 0 0 -20.338294902227062 -9.4675926282325236 0 -9.4675926282325236 -62.946311151010377 0 0 0 0 23.866408679550659 -9.2323545480030589 0 -9.2323545480030589 -63.88551281162654 0 0 0 0 37.545023044767731 -9.096630493128032 0 -9.096630493128032 -60.611568941501901 0 0 0 0 21.655508402684518 -39.563435603139624 0 -39.563435603139624 -18.920816605357686 0 0 0 0 -0.59825164538415265 -58.202781441803381 0 -58.202781441803381 -113.07824108170462 0 0 0 0 43.013508279304006 2.8081703388088499 0 2.8081703388088499 -275.97463835526287 0 0 0 0 76.37083168603931 -34.482285509970097 0 -34.482285509970097 -229.44342259979021 0 0 0 0 47.602791200151842 23.911912484143613 0 23.911912484143613 -221.49810799081752 0 0 0 0 112.03199380677688 8.6618222191245877 0 8.6618222191245877 -270.24490444691764 0 0 0 0 93.027888283051652 -57.574995704439061 0 -57.574995704439061 -292.01540822691459 0 0 0 0 197.7831687773014 20.673368329127698 0 20.673368329127698 -233.63307488105056 0 0 0 0 82.765438651664226 6.8074347274341562 0 6.8074347274341562 -125.78219248492678 0 0 0 0 66.495596045744605 -15.034302722007851 0 -15.034302722007851 -28.319296151741582 0 0 0 0 44.548314835777546 -46.380398154574323 0 -46.380398154574323 -64.287586446545902 0 0 0 0 107.36427912584259 8.9481241009416408 0 8.9481241009416408 -76.759168194592348 0 0 0 0 70.684145872804947 -31.409298357993976 0 -31.409298357993976 1.8822243752947543 0 0 0 0 132.44575241069833 -10.415037840386503 0 -10.415037840386503 -180.01734661478258 0 0 0 0 84.676517893720302 -9.297175056577089 0 -9.297175056577089 -89.110438622214133 0 0 0 0 206.52126486371344 51.933406055202795 0 51.933406055202795 -154.74580054204853 0 0 0 0 162.76415697020639 55.229735473021719 0 55.229735473021719 -48.875404009282647 0 0 0 0 -0.38145060746994552 1.253695951300756 0 1.253695951300756 -3.8514464231261627 0 0 0 0 100.24298997912683 31.16024193704834 0 31.16024193704834 34.971773341778317 0 0 0 0 -94.724173068273558 -327.38349311680031 0 -327.38349311680031 -28.416190773605194 0 0 0 0 405.60721164164886 62.832730966513964 0 62.832730966513964 -232.52132863028964 0 0 0 0 40.789781358002074 300.90023188591294 0 300.90023188591294 -245.77675749601622 0 0 0 0 -86.75731227628512 -87.632002568117969 0 -87.632002568117969 -183.32582180471218 0 0 0 0 63.867142165632686 100.77113106985053 0 100.77113106985053 -43.708474587465389 0 0 0 0 39.69075207928654 24.57538885042959 0 24.57538885042959 -20.079575507887057 0 0 0 0 26.820396652737145 58.902469735206978 0 58.902469735206978 -111.07779663788097 0 0 0 0 -14.641114744383231 44.688929148311217 0 44.688929148311217 -67.379614054538251 0 0 0 0 -26.448100450228594 71.518685039351112 0 71.518685039351112 -107.45913650069269 0 0 0 0 -2.3205501896518399 2.4171867903896782 0 2.4171867903896782 -200.49477226829185 0 0 0 0 -1.5435813985386631 26.245007306322805 0 26.245007306322805 -77.493476628347707 0 0 0 0 37.029609597642775 22.035248965614301 0 22.035248965614301 -240.66454387354315 0 0 0 0 49.206209114630838 66.59275663071503 0 66.59275663071503 -325.09390398755932 0 0 0 0 -106.57078441531212 126.39890540494162 0 126.39890540494162 -159.24831349391025 0 0 0 0 -92.751715616199363 142.19620324101561 0 142.19620324101561 -212.83965654294298 0 0 0 0 -84.240860257597888 83.373630734744438 0 83.373630734744438 -47.82820813667422 0 0 0 0 -27.028504192879154 59.504759304484196 0 59.504759304484196 -134.96536922887026 0 0 0 0 -1.5823591150710854 5.074146154209302 0 5.074146154209302 -0.71978169089561561 0 0 0 0 -0.28282007180943225 -0.27563837356140652 0 -0.27563837356140652 -2.3133902921205909 0 0 0 0 3.6470022256544326 11.267127338662249 0 11.267127338662249 -29.313678968559543 0 0 0 0 9.9613121657622585 -0.39604571541028122 0 -0.39604571541028122 -14.155364296024601 0 0 0 0 0.1322712250525484 5.5712592686991371 0 5.5712592686991371 -7.1700174405122254 0 0 0 0 0.45961932547169582 -0.34046685275692568 0 -0.34046685275692568 -4.7233009017551524 0 0 0 0 -191.29992044405299 237.96443779537367 0 237.96443779537367 -305.82826388319518 0 0 0 0 -135.6332613236259 -74.771850270045434 0 -74.771850270045434 -49.955840453178098 0 0 0 0 -211.4159573421457 83.474871495698608 0 83.474871495698608 7.4021444727550261 0 0 0 0 6.9562629975378059 -123.52999674605871 0 -123.52999674605871 98.40640396924573 0 0 0 0 42.513714499531488 -66.878209723963664 0 -66.878209723963664 64.725501291410183 0 0 0 0 197.25073993688329 -155.03385338703265 0 -155.03385338703265 0.39350681622454431 0 0 0 0 9.1679491185087478 8.3402937747594166 0 8.3402937747594166 -69.026707899091448 0 0 0 0 -0.55251040956449771 21.052213531271157 0 21.052213531271157 7.7252536906858396 0 0 0 0 26.705487831786741 60.397713744134307 0 60.397713744134307 -87.123859136765532 0 0 0 0 16.222535958435401 57.888217454386904 0 57.888217454386904 -82.476219393924112 0 0 0 0 -52.07627609651172 47.265503611182794 0 47.265503611182794 -26.117553355728887 0 0 0 0 20.012543206044938 44.910509140445356 0 44.910509140445356 -78.306502167057261 0 0 0 0 13.110484734992497 24.774396153046837 0 24.774396153046837 -136.88517970667908 0 0 0 0 -64.202386354475493 123.51136791811678 0 123.51136791811678 -231.59781509661843 0 0 0 0 25.982332511579443 78.131274528848735 0 78.131274528848735 -115.90703594885599 0 0 0 0 -18.213843601708504 75.378004903664987 0 75.378004903664987 -65.744818707390777 0 0 0 0 11.830596828473972 51.922733395877003 0 51.922733395877003 -78.701005042610632 0 0 0 0 75.471782894514035 73.145308344970545 0 73.145308344970545 -94.408270023848672 0 0 0 0 14.724351212113454 26.187473053220394 0 26.187473053220394 5.2371791065197044 0 0 0 0 71.943468794925138 71.082682322550681 0 71.082682322550681 -75.952726824565616 0 0 0 0 -49.932258514311798 29.501673380256761 0 29.501673380256761 -64.702288939701248 0 0 0 0 -121.05965524481871 17.944710144336568 0 17.944710144336568 -90.558160646374745 0 0 0 0 132.57150494207752 182.10899176359283 0 182.10899176359283 -109.21036812772218 0 0 0 0 129.76578494762597 86.748473325942143 0 86.748473325942143 -311.42103788905661 0 0 0 0 91.650257674380555 146.69422383080382 0 146.69422383080382 -227.67569329350226 0 0 0 0 77.08347891435551 77.693297846879432 0 77.693297846879432 -107.71670788878691 0 0 0 0 56.158511716945213 123.96193033810414 0 123.96193033810414 -165.80793882367288 0 0 0 0 129.43409551173681 88.036157342143269 0 88.036157342143269 -185.53643581191682 0 0 0 0 74.475589224387591 455.26528024561253 0 455.26528024561253 175.9649145862677 0 0 0 0 0.8301902603520297 -2.9925573578519753 0 -2.9925573578519753 3.0932970900222223 0 0 0 0 114.03577902888537 508.01298387783663 0 508.01298387783663 504.45249739136125 0 0 0 0 24.731347138391357 -68.658998201784925 0 -68.658998201784925 -192.7292091979607 0 0 0 0 376.13876396714659 376.25995343507839 0 376.25995343507839 67.417946396984917 0 0 0 0 -33.672143601046628 19.420301524769457 0 19.420301524769457 -45.349333933162598 0 0 0 0 125.3935321043864 149.30526596866548 0 149.30526596866548 327.05857071246464 0 0 0 0 117.14994328964258 35.03764822632138 0 35.03764822632138 -116.53375136015347 0 0 0 0 10.929229403058748 -3.4972062869894955 0 -3.4972062869894955 -6.3982274930478411 0 0 0 0 -76.390201935122604 -65.223171067846124 0 -65.223171067846124 125.88357970377547 0 0 0 0 207.96216275840015 165.80596153200895 0 165.80596153200895 64.941277136204008 0 0 0 0 -43.193159765116434 -117.83225521000531 0 -117.83225521000531 -269.56167828417892 0 0 0 0 40.863664616354981 173.70905679037787 0 173.70905679037787 -12.675984960471396 0 0 0 0 -4.9873672917019505 1.7357153411651485 0 1.7357153411651485 3.3289644015990021 0 0 0 0 135.38716193726032 -10.211241473662085 0 -10.211241473662085 -166.89952022125726 0 0 0 0 -4.6704159957453157 -12.768066983325298 0 -12.768066983325298 -49.650568051776645 0 0 0 0 6.3214991106183112 4.0509468362848935 0 4.0509468362848935 -77.151412049670327 0 0 0 0 63.827754012248988 -50.9336529202983 0 -50.9336529202983 -79.395288846129006 0 0 0 0 309.54176877079169 51.643393082992816 0 51.643393082992816 -141.36962004416273 0 0 0 0 303.46022763523285 159.18145958820332 0 159.18145958820332 -162.99224306225369 0 0 0 0 9.0176614332352649 13.995428239009712 0 13.995428239009712 -85.559979831212203 0 0 0 0 3.5394115007932285 1.7170977790630673 0 1.7170977790630673 -5.5038402592489675 0 0 0 0 152.63182310465709 65.402220130650676 0 65.402220130650676 -32.555751584601239 0 0 0 0 -558.41898353672696 169.7892405739949 0 169.7892405739949 84.9129953394513 0 0 0 0 -212.18529776910873 2.4905032480455702 0 2.4905032480455702 -6.4029380135398242 0 0 0 0 -0.38541032854461577 0.65063513872448286 0 0.65063513872448286 -5.0762134057281116 0 0 0 0 -4.9321984351754509 383.30025181652309 0 383.30025181652309 -112.32345779407478 0 0 0 0 -66.096295058599935 108.7859802825551 0 108.7859802825551 -39.535862045187969 0 0 0 0 -58.9352484884771 73.130658812020556 0 73.130658812020556 -43.808486252106377 0 0 0 0 448.74168261289287 -273.97754107170749 0 -273.97754107170749 -481.85305146910105 0 0 0 0 80.138123438210641 -86.277489499591866 0 -86.277489499591866 -275.43100772648177 0 0 0 0 -252.19457953336132 374.97773162151861 0 374.97773162151861 -50.048381858410721 0 0 0 0 6.1144902208129679 -2.4091464634930162 0 -2.4091464634930162 -0.28244641446690366 0 0 0 0 16.452823796224038 -24.411582690599971 0 -24.411582690599971 -52.011858080828461 0 0 0 0 16.479469439335812 -5.0940278539351596 0 -5.0940278539351596 2.2893931108181782 0 0 0 0 21.830593668377333 -40.470944835445607 0 -40.470944835445607 -103.67469549307316 0 0 0 0 1.6888213772072049 -27.470542977853256 0 -27.470542977853256 -74.466843928812523 0 0 0 0 76.511991157178272 -13.975689689862975 0 -13.975689689862975 -118.40558607712046 0 0 0 0 107.59705788528481 -25.744465755601595 0 -25.744465755601595 -106.12575503862899 0 0 0 0 104.55726968472663 90.747261467786302 0 90.747261467786302 -92.674834008328617 0 0 0 0 51.675056374566338 -12.690289087200654 0 -12.690289087200654 -53.265785847193911 0 0 0 0 5.546712244163734 5.3973917916131349 0 5.3973917916131349 -88.815024091585443 0 0 0 0 49.532786569165182 -42.490886180019515 0 -42.490886180019515 -110.39505749381715 0 0 0 0 -11.22669863860574 27.302978650041041 0 27.302978650041041 5.0278324053942924 0 0 0 0 -1.7192391222446233 4.3534302936562135 0 4.3534302936562135 -9.8834291514462116 0 0 0 0 -61.384851861876086 19.635936258993752 0 19.635936258993752 -113.63898151297326 0 0 0 0 13.765935610611226 42.031178153279733 0 42.031178153279733 -39.870054559536307 0 0 0 0 2.1548858667682147 2.7465941466524626 0 2.7465941466524626 -8.6443448085630337 0 0 0 0 -74.912418898224132 -15.568234081903938 0 -15.568234081903938 -191.21986045134145 0 0 0 0 24.378429860727682 -5.39354439824195 0 -5.39354439824195 -7.3201155432800142 0 0 0 0 16.72564939527183 8.0285898885540519 0 8.0285898885540519 -14.917296397150949 0 0 0 0 15.330314971819007 10.820859965981526 0 10.820859965981526 -20.474749927196171 0 0 0 0 -14.828245398614058 -25.799840195520346 0 -25.799840195520346 -48.0221883312297 0 0 0 0 -243.42573939210661 143.59463539175431 0 143.59463539175431 13.340666753476398 0 0 0 0 4.0131211526505046 4.1664568284685153 0 4.1664568284685153 -22.615363277189985 0 0 0 0 57.108474464672327 21.686823503217056 0 21.686823503217056 -28.526253818517944 0 0 0 0 -191.47647120916145 213.45977502989808 0 213.45977502989808 -16.439339956943513 0 0 0 0 77.757485073713269 -174.73981764508699 0 -174.73981764508699 -242.50859309590305 0 0 0 0 -16.865041751232638 -26.206648255297296 0 -26.206648255297296 -46.829239715501899 0 0 0 0 1.297435072720873 34.168735760222262 0 34.168735760222262 8.4013859241713362 0 0 0 0 -51.734880035247443 -48.707060375860237 0 -48.707060375860237 -0.48069643911389903 0 0 0 0 -22.653752698593962 -85.706591259840025 0 -85.706591259840025 -152.46713072612329 0 0 0 0 -2.3972846597830539 -15.786866567351353 0 -15.786866567351353 -56.447708016910838 0 0 0 0 -6.7218242367719085 -51.674145358654414 0 -51.674145358654414 -126.13246726946636 0 0 0 0 3.3324787349305325 -28.642004879846581 0 -28.642004879846581 -43.439362069531853 0 0 0 0 -0.53030504628532071 -43.06530185527572 0 -43.06530185527572 -73.966566304716252 0 0 0 0 5.240726376918019 -11.525318863598841 0 -11.525318863598841 -106.21647808826856 0 0 0 0 14.045713044760532 -25.900839841248853 0 -25.900839841248853 -197.37329356056762 0 0 0 0 18.948271849933462 41.047291773252255 0 41.047291773252255 -215.59271874972637 0 0 0 0 -15.629062595916821 -24.700614941090862 0 -24.700614941090862 -130.11275903869989 0 0 0 0 38.569363869148674 -59.823566283761465 0 -59.823566283761465 -372.72794350657023 0 0 0 0 -8.0142718006173936 -3.2610278609326997 0 -3.2610278609326997 -202.38135284463351 0 0 0 0 -0.96175918989712494 1.9894354880384171 0 1.9894354880384171 -6.4177431915862968 0 0 0 0 -410.40987374369797 266.7702652507478 0 266.7702652507478 -81.878263346738095 0 0 0 0 -712.35708322724577 -4.8498799474573389 0 -4.8498799474573389 150.58980846336726 0 0 0 0 -32.045487634705296 -97.567931460581349 0 -97.567931460581349 -151.54190194466355 0 0 0 0 -324.04761010472112 11.154423670614051 0 11.154423670614051 -152.66231608225826 0 0 0 0 -208.31549002405632 -198.14347476692569 0 -198.14347476692569 -256.66905092359411 0 0 0 0 -119.65487811517869 142.11713679716104 0 142.11713679716104 -311.50299577853684 0 0 0 0 -91.512671493246671 12.330719897651761 0 12.330719897651761 -160.59678854065805 0 0 0 0 -158.20736558503813 -83.350951269751931 0 -83.350951269751931 -148.05576438208664 0 0 0 0 -66.877939428114587 -40.975807848851673 0 -40.975807848851673 -107.16139578042475 0 0 0 0 -43.953384918039774 -0.82191779795175535 0 -0.82191779795175535 -147.88578617225085 0 0 0 0 -35.006657348971203 29.708603845484504 0 29.708603845484504 -160.7790872544856 0 0 0 0 -88.649991078579717 61.168803720210462 0 61.168803720210462 -176.94725653445312 0 0 0 0 -97.24398798121274 3.4830805004166905 0 3.4830805004166905 -138.3457553684384 0 0 0 0 -30.664112915847454 25.298250734700105 0 25.298250734700105 -162.15023554779691 0 0 0 0 27.904943289826861 30.886335113254972 0 30.886335113254972 -206.32296383270295 0 0 0 0 26.160161038865226 29.106539248504077 0 29.106539248504077 -184.807387441022 0 0 0 0 -5.8033421670643293 41.336365032420872 0 41.336365032420872 -232.57527484945058 0 0 0 0 -6.6968392136481611 35.906849839315669 0 35.906849839315669 -205.92974267357022 0 0 0 0 200.01395690995966 -42.291046176236712 0 -42.291046176236712 23.153765368082531 0 0 0 0 61.248004075888275 185.65631387855683 0 185.65631387855683 -290.74242655318631 0 0 0 0 -0.56846806616518109 0.96189914273167432 0 0.96189914273167432 -2.0770264028801151 0 0 0 0 -7.6919639597726928 71.973028054121642 0 71.973028054121642 120.06293354203808 0 0 0 0 3.5767358168846322 35.076384076839709 0 35.076384076839709 -48.954447871490821 0 0 0 0 -19.725918925760197 81.902774258524005 0 81.902774258524005 -25.62382011597947 0 0 0 0 0.84254638435431772 15.847642007375805 0 15.847642007375805 -10.960508756660488 0 0 0 0 -40.464122259945725 93.66810945738689 0 93.66810945738689 -26.267670627359621 0 0 0 0 -1.5245884140418973 9.0481225365795659 0 9.0481225365795659 4.3324360180158976 0 0 0 0 2.1752017155159784 9.1128514803643412 0 9.1128514803643412 2.8569606328562713 0 0 0 0 265.80521289492572 77.744026064629452 0 77.744026064629452 -12.304422314457042 0 0 0 0 -5.9893638132125488 41.767117421622061 0 41.767117421622061 73.232412270395798 0 0 0 0 -5.9893638132161868 41.767117421626608 0 41.767117421626608 73.232412270386703 0 0 0 0 -5.9893638132130036 41.767117421624789 0 41.767117421624789 73.232412270401255 0 0 0 0 -61.089347187396925 -52.163496099876284 0 -52.163496099876284 29.667920403893731 0 0 0 0 6.067371962460129 39.488653595362848 0 39.488653595362848 -153.4836341506998 0 0 0 0 382.11845524104683 -127.44109865381324 0 -127.44109865381324 -211.02488298294975 0 0 0 0 117.81180609140756 22.536315970658507 0 22.536315970658507 -64.823249601276984 0 0 0 0 0.32415422054106013 0.16593757970584377 0 0.16593757970584377 1.8613604376715784 0 0 0 0 265.87296074135338 119.28145162386681 0 119.28145162386681 -146.35801868944327 0 0 0 0 173.63671038912798 183.26543000764286 0 183.26543000764286 -10.276330879441957 0 0 0 0 224.90066174291132 141.11116906003554 0 141.11116906003554 14.988818813253602 0 0 0 0 -70.168387295407229 263.23871162087744 0 263.23871162087744 -359.36864096981571 0 0 0 0 130.58199042735578 48.735030425007608 0 48.735030425007608 -139.25952760141809 0 0 0 0 168.52648283991584 282.09782291186457 0 282.09782291186457 -32.776537289762928 0 0 0 0 108.5956530250678 -40.268192289864601 0 -40.268192289864601 -490.29474961662208 0 0 0 0 51.200889525358434 -102.50599961509397 0 -102.50599961509397 -229.93230943396702 0 0 0 0 4.144007179827895 -53.106908800746169 0 -53.106908800746169 -148.45701719271165 0 0 0 0 3.2250794850028797 -58.640331597038312 0 -58.640331597038312 -177.18957316820342 0 0 0 0 246.93718172870558 -28.008298524818201 0 -28.008298524818201 -326.08022139719105 0 0 0 0 -16.021366861694332 98.725989225403282 0 98.725989225403282 -210.97889503636134 0 0 0 0 137.83524423105337 -106.19380730393641 0 -106.19380730393641 -195.69590332710504 0 0 0 0 66.394848133085588 -59.01503369999341 0 -59.01503369999341 -164.30149838243233 0 0 0 0 -396.22194159867286 -97.832460462825111 0 -97.832460462825111 -191.51412916604386 0 0 0 0 166.62372749035785 142.14385397053957 0 142.14385397053957 -473.3504454021222 0 0 0 0 -66.796177774791431 238.43543950151434 0 238.43543950151434 -299.15710281634347 0 0 0 0 -313.83881241289691 200.67267167637237 0 200.67267167637237 160.18483405049119 0 0 0 0 -1.7299017328119728 -2.8186493797035546 0 -2.8186493797035546 -6.065233215639168 0 0 0 0 113.07888589901631 -164.43628800163287 0 -164.43628800163287 252.17385147372988 0 0 0 0 28.602799466152646 -367.90760805093851 0 -367.90760805093851 -225.88746992276629 0 0 0 0 191.74836584564446 -193.35227774000941 0 -193.35227774000941 126.5039134960316 0 0 0 0 100.54396466926119 112.18328504029523 0 112.18328504029523 -667.2478332551691 0 0 0 0 -44.374907861623797 358.57561980452192 0 358.57561980452192 -290.82646975571402 0 0 0 0 -228.8152394130675 407.4441265978503 0 407.4441265978503 -163.91616750426692 0 0 0 0 -75.8092607564231 530.68136443960611 0 530.68136443960611 140.1979388572363 0 0 0 0 52.989579099680213 -86.600066067854641 0 -86.600066067854641 -174.70711715356447 0 0 0 0 47.948030426570767 -76.21891673812388 0 -76.21891673812388 -89.284220654636556 0 0 0 0 3.5856187245282989 1.3690036775806576 0 1.3690036775806576 -8.2522249540522843 0 0 0 0 185.94022796609079 -84.45380097951238 0 -84.45380097951238 -97.479037780864019 0 0 0 0 70.36695505616126 26.177816705762325 0 26.177816705762325 -36.308359844746519 0 0 0 0 42.807261407286205 -238.66848582535749 0 -238.66848582535749 23.1509349733401 0 0 0 0 34.099675151594056 -43.126050882772688 0 -43.126050882772688 -10.347283094314662 0 0 0 0 35.636872045535256 -59.320841174298039 0 -59.320841174298039 -112.23767425856204 0 0 0 0 -91.577540337058053 -79.229795539695715 0 -79.229795539695715 -20.048181060043134 0 0 0 0 2.915420248647024 -22.074562736033386 0 -22.074562736033386 -3.2195618987461785 0 0 0 0 21.854900704750435 -14.103198304979742 0 -14.103198304979742 -57.063434071636038 0 0 0 0 -4.4219540920625526 -8.7202844702188855 0 -8.7202844702188855 -19.39379026725647 0 0 0 0 56.725606194633656 -34.298031041086688 0 -34.298031041086688 -75.464418129397018 0 0 0 0 28.733346674339373 -14.057597174977673 0 -14.057597174977673 -144.51008903082129 0 0 0 0 -21.796988733667604 -39.139002889252879 0 -39.139002889252879 -57.131891594729495 0 0 0 0 1.7201308259163852 -30.746475289471164 0 -30.746475289471164 -54.837239208046412 0 0 0 0 -22.163244017206125 -39.243118901104936 0 -39.243118901104936 -10.270990130087739 0 0 0 0 2.7142351256075017 -32.058028035723964 0 -32.058028035723964 -22.645148208770479 0 0 0 0 -4.2359614785987603 -17.088136450242974 0 -17.088136450242974 5.3898407333589944 0 0 0 0 -5.5020838182545049 -63.114321949479745 0 -63.114321949479745 -40.718783124031688 0 0 0 0 -49.137842776739035 -45.62444220540965 0 -45.62444220540965 -17.544553308387549 0 0 0 0 -150.86981044242702 -257.50984598783725 0 -257.50984598783725 -122.99953634496342 0 0 0 0 -0.43750517265761246 -3.0609715974900986 0 -3.0609715974900986 4.1884585971008903 0 0 0 0 63.001980949752578 -31.065689335891875 0 -31.065689335891875 -54.239518034977664 0 0 0 0 -27.420779821455199 23.101787681330279 0 23.101787681330279 4.9694791461515706 0 0 0 0 18.209217616022624 1.1206394596984275 0 1.1206394596984275 -9.5861747653792193 0 0 0 0 272.11384942671384 249.25135813647648 0 249.25135813647648 -537.19294701874969 0 0 0 0 -46.828689339676203 -77.116779898398818 0 -77.116779898398818 -69.806653458623259 0 0 0 0 -53.92537276404255 5.3045875074058131 0 5.3045875074058131 1.1212049541218221 0 0 0 0 29.452353143151413 -12.402147223985594 0 -12.402147223985594 -34.897069693726735 0 0 0 0 17.165790115361233 -53.87691000614268 0 -53.87691000614268 -20.110493318441286 0 0 0 0 -3.5170495343260768 -17.165703109831352 0 -17.165703109831352 -31.81964598869147 0 0 0 0 42.168018216311793 -30.883406396497776 0 -30.883406396497776 -56.448708635140065 0 0 0 0 28.666342364807178 -3.5727062174886441 0 -3.5727062174886441 -56.61050489144327 0 0 0 0 26.74897252671326 2.4707228024199139 0 2.4707228024199139 -63.070108356503624 0 0 0 0 19.900991651741052 3.9634778355019122 0 3.9634778355019122 -3.7904822773340356 0 0 0 0 2.6036802344233365 27.816939892987648 0 27.816939892987648 -23.528710725300698 0 0 0 0 11.745397533850337 10.601119894465228 0 10.601119894465228 -23.767043257215846 0 0 0 0 4.7559203071987213 27.27287973267903 0 27.27287973267903 -61.663388281005609 0 0 0 0 -19.090526690559727 7.5583337823072725 0 7.5583337823072725 17.139243302422983 0 0 0 0 26.183565170586007 1.7308044103519933 0 1.7308044103519933 -59.46066832669203 0 0 0 0 25.693910458719984 48.942127845248251 0 48.942127845248251 -181.06620430315888 0 0 0 0 -4.3745699084467873 -13.988280335148232 0 -13.988280335148232 -22.824608804323361 0 0 0 0 -11.482666051936121 80.488957755414503 0 80.488957755414503 140.58860700462355 0 0 0 0 2.9368319824383775 1.631858482804585 0 1.631858482804585 -0.64962055635662885 0 0 0 0 -5.543704865554254 17.045194646709717 0 17.045194646709717 -90.768661331409021 0 0 0 0 -8.8143619739041696 2.8357399184219503 0 2.8357399184219503 -98.488200660956863 0 0 0 0 -4.7338164497577964 61.8439548072447 0 61.8439548072447 -87.087506460569784 0 0 0 0 26.960755932763732 6.3582879865107316 0 6.3582879865107316 -157.07629556227766 0 0 0 0 -62.672457174402552 12.846440541363791 0 12.846440541363791 -138.96890694006834 0 0 0 0 -41.351313424434011 -55.457860536592307 0 -55.457860536592307 -118.9617703564993 0 0 0 0 -0.89398177561815739 0.94425192374631939 0 0.94425192374631939 0.48601894078466756 0 0 0 0 -16.590389685650962 -23.487081047865786 0 -23.487081047865786 -101.66877656484212 0 0 0 0 -20.641426761128059 -24.544519655706154 0 -24.544519655706154 -20.689438616462667 0 0 0 0 -42.19090499408685 -52.221685123715361 0 -52.221685123715361 -42.472393743482826 0 0 0 0 -49.500761467964708 -20.291286748452421 0 -20.291286748452421 -15.215548791755282 0 0 0 0 4.3883578055738326 -11.005145856465788 0 -11.005145856465788 -21.819148355195466 0 0 0 0 -1.3291055335935757 -2.3571274074380701 0 -2.3571274074380701 -2.2384946469151821 0 0 0 0 -13.003626902963333 -16.344438406426889 0 -16.344438406426889 -22.900037971704478 0 0 0 0 6.4916482159590583 -2.1435958353259803 0 -2.1435958353259803 -5.2995359336405166 0 0 0 0 58.883974370693068 8.4733782875819088 0 8.4733782875819088 -14.38766739165294 0 0 0 0 -11.579612996586949 -15.805860503773305 0 -15.805860503773305 6.8930983883670258 0 0 0 0 -29.72833751167127 -24.795409681447836 0 -24.795409681447836 -0.14187799852152239 0 0 0 0 19.604397333291672 -29.831048568187725 0 -29.831048568187725 -57.14375076673241 0 0 0 0 9.5886350457070275 -6.8539194236227683 0 -6.8539194236227683 -35.913746786248609 0 0 0 0 75.438259913047432 22.932690801377476 0 22.932690801377476 -48.534434414624229 0 0 0 0 26.979848863258781 -28.381245204162724 0 -28.381245204162724 -99.625935434725761 0 0 0 0 14.542665473717989 -28.325449301325534 0 -28.325449301325534 -71.10183431461428 0 0 0 0 54.96672649084303 25.557082002501375 0 25.557082002501375 -48.74021135304838 0 0 0 0 66.807131396062232 68.457752885494074 0 68.457752885494074 -79.370952819377635 0 0 0 0 31.115009802821078 72.137886405055724 0 72.137886405055724 48.159705822871274 0 0 0 0 -4.6686574563382237 -68.652682453619491 0 -68.652682453619491 -131.73492932824865 0 0 0 0 -18.365335847273855 -26.790109752972967 0 -26.790109752972967 -74.312690481387108 0 0 0 0 -182.04547222019619 -202.5141245392083 0 -202.5141245392083 -178.3036492685851 0 0 0 0 -0.47101597746978729 0.82438813970894076 0 0.82438813970894076 -2.0388390145102804 0 0 0 0 36.890120689293781 112.81303450253608 0 112.81303450253608 -48.929752842079779 0 0 0 0 67.418476312040241 44.005780343806236 0 44.005780343806236 -262.81714798914982 0 0 0 0 -136.23248205845084 -114.7218411497779 0 -114.7218411497779 -20.844238633854275 0 0 0 0 84.941043568761643 73.068053765017339 0 73.068053765017339 -225.86004835187924 0 0 0 0 15.831330279053418 86.084696472633823 0 86.084696472633823 159.80557802869953 0 0 0 0 -0.1578303237721137 1.1264893816488293 0 1.1264893816488293 -0.81061263446669152 0 0 0 0 -3.7559004723602811 2.8172407325446329 0 2.8172407325446329 -194.87001502968178 0 0 0 0 14.45471182603751 -17.66967591852881 0 -17.66967591852881 -187.52638714711793 0 0 0 0 10.261861700781083 -4.3872358277531021 0 -4.3872358277531021 -204.09475528104122 0 0 0 0 -64.198613214668413 107.03488802790935 0 107.03488802790935 -94.466402395468322 0 0 0 0 -62.919820770658134 86.793855406863713 0 86.793855406863713 177.71208898134591 0 0 0 0 -0.61838277743816761 0.13052761511218414 0 0.13052761511218414 -0.07576473158974828 0 0 0 0 -10.713620462153088 -61.758101188251885 0 -61.758101188251885 -42.158266329204707 0 0 0 0 13.94395236000021 5.5381941655409719 0 5.5381941655409719 -122.54985683013729 0 0 0 0 27.193461375809534 13.603366097231856 0 13.603366097231856 -139.09970882791094 0 0 0 0 20.896995725106898 -7.2253045742036193 0 -7.2253045742036193 -179.22100821126423 0 0 0 0 18.681649521450254 -5.6080975449549442 0 -5.6080975449549442 -120.95625411694164 0 0 0 0 31.569917073203214 1.8144831181930385 0 1.8144831181930385 -108.47919776876552 0 0 0 0 75.94601188696879 6.1024531818471814 0 6.1024531818471814 -133.25703098041595 0 0 0 0 30.142691547245249 5.6229457875583648 0 5.6229457875583648 -110.41552309791223 0 0 0 0 3.173438687925568 -25.277577743424899 0 -25.277577743424899 -113.95814470989581 0 0 0 0 29.496368243301102 -17.244307857134217 0 -17.244307857134217 -139.12186419471436 0 0 0 0 -10.169506348419418 -39.715221464546175 0 -39.715221464546175 -141.67561971513169 0 0 0 0 -4.3597670014387404 -43.925423444034095 0 -43.925423444034095 -146.64590193180175 0 0 0 0 3.3553613618249534 -90.402871254700472 0 -90.402871254700472 -256.71475031272166 0 0 0 0 -12.2592510658253 25.649194218993131 0 25.649194218993131 -219.42304106125448 0 0 0 0 -25.65253445148322 21.49939277541398 0 21.49939277541398 -214.7175091180834 0 0 0 0 -60.058044582568527 4.9279939932976049 0 4.9279939932976049 -212.51722306744705 0 0 0 0 -37.139317663025395 -146.88014625633969 0 -146.88014625633969 -447.70927713213314 0 0 0 0 35.642371042453306 155.76242361347795 0 155.76242361347795 -450.57822204575746 0 0 0 0 -11.54148944451731 3.3406466186715988 0 3.3406466186715988 -215.68041442296771 0 0 0 0 4.980704318503399 23.59027258401602 0 23.59027258401602 -148.48576551471069 0 0 0 0 6.7016274087102659 16.714253107535114 0 16.714253107535114 -228.37014163810272 0 0 0 0 -302.2514157552996 760.69373021624779 0 760.69373021624779 -202.98294687096495 0 0 0 0 -408.77184320947754 473.36256848066841 0 473.36256848066841 135.75003462760651 0 0 0 0 533.80270045544103 -261.30606919679667 0 -261.30606919679667 -923.2995191827722 0 0 0 0 69.946482692557765 112.17941571156575 0 112.17941571156575 -159.27710304120774 0 0 0 0 6.7344654941589397 117.54077447720829 0 117.54077447720829 -5.0341947689726112 0 0 0 0 -16.480599156830067 183.83099662422501 0 183.83099662422501 -40.931067269895721 0 0 0 0 -57.327800854018733 52.623596899735276 0 52.623596899735276 128.54572252059052 0 0 0 0 -69.551013463381082 247.25100150314438 0 247.25100150314438 87.37026192439771 0 0 0 0 -12.345704061594233 232.2031143818549 0 232.2031143818549 -223.57648158202028 0 0 0 0 70.523089177568011 122.76673770496052 0 122.76673770496052 -402.40859722518871 0 0 0 0 432.92223960808724 -320.83914553328214 0 -320.83914553328214 -565.31238480586762 0 0 0 0 -108.73965003095373 20.403925360974426 0 20.403925360974426 341.72984045755663 0 0 0 0 -166.34591729753083 138.27292426666827 0 138.27292426666827 -403.42365097438051 0 0 0 0 -0.97515066543780637 0.78327252972830763 0 0.78327252972830763 -0.43103984388120153 0 0 0 0 -104.80264966955247 163.75040372060903 0 163.75040372060903 337.33639872232015 0 0 0 0 -27.450654792024238 -5.6341032917621305 0 -5.6341032917621305 -450.14553219970639 0 0 0 0 2.4647676842376613 0.81088848422310456 0 0.81088848422310456 2.5721751380008087 0 0 0 0 -52.05068481136459 -65.114636936265015 0 -65.114636936265015 -14.253042557113076 0 0 0 0 -99.643052210372502 112.70187863583544 0 112.70187863583544 -442.20524722287337 0 0 0 0 -278.49738465951123 110.82213330045124 0 110.82213330045124 52.41887787412179 0 0 0 0 -412.05273214721808 306.08556195143501 0 306.08556195143501 -58.944416999918758 0 0 0 0 -75.890797620626699 172.9713308058208 0 172.9713308058208 -457.48338578131734 0 0 0 0 -24.431059879317445 43.321378474947778 0 43.321378474947778 -197.40993247624306 0 0 0 0 -10.31325477833434 70.786411232598766 0 70.786411232598766 -189.32291505331887 0 0 0 0 -4.6487638170826102 58.998581933145147 0 58.998581933145147 -177.39389303865028 0 0 0 0 -5.4316518479915885 70.303322920584833 0 70.303322920584833 -202.34069414010696 0 0 0 0 112.69976665540734 255.35930482567778 0 255.35930482567778 -173.57012440422477 0 0 0 0 242.32059371949617 -213.04963169499388 0 -213.04963169499388 -250.2973671947766 0 0 0 0 236.46662287845788 121.34596571065413 0 121.34596571065413 -414.05348952436543 0 0 0 0 188.13373798491642 66.891896854998322 0 66.891896854998322 -258.56955262958218 0 0 0 0 87.948811248223592 -11.965165320021697 0 -11.965165320021697 -125.8434808281354 0 0 0 0 45.01571882969165 52.991315257642782 0 52.991315257642782 -200.12597376459235 0 0 0 0 74.29858917234975 113.89503789424157 0 113.89503789424157 -182.86091144118291 0 0 0 0 60.061117151141502 153.77372380986981 0 153.77372380986981 -256.3870945835115 0 0 0 0 59.621634445240375 174.96176027409558 0 174.96176027409558 -11.417415524316311 0 0 0 0 197.96678665479067 273.34465094615871 0 273.34465094615871 -778.1968234256201 0 0 0 0 -15.770972630475171 353.71079333437865 0 353.71079333437865 -773.67715211902032 0 0 0 0 36.487536231373454 -15.435894764847035 0 -15.435894764847035 -39.500274201809589 0 0 0 0 -7.7439595928328231 -72.52214372195067 0 -72.52214372195067 -48.317126645128155 0 0 0 0 22.351885583072729 11.286648743239311 0 11.286648743239311 68.848372101079804 0 0 0 0 23.321186011300256 52.401942745988435 0 52.401942745988435 -113.84653843152591 0 0 0 0 15.546383269780904 32.874183223675573 0 32.874183223675573 -153.12195048783042 0 0 0 0 -10.692214715622129 -50.478674548344316 0 -50.478674548344316 -143.07898181451719 0 0 0 0 -129.65684640606185 -126.05235848010943 0 -126.05235848010943 -171.00538919250812 0 0 0 0 -89.550631777027434 86.650890644760239 0 86.650890644760239 -70.773361649695289 0 0 0 0 -0.038254554652150663 1.5569591940244418 0 1.5569591940244418 -5.2384070207043578 0 0 0 0 -38.312823345894685 -65.358514394723898 0 -65.358514394723898 -359.36582032451224 0 0 0 0 -49.912934317624376 -48.081992817480568 0 -48.081992817480568 -126.21264151846844 0 0 0 0 30.872545672359024 21.596914846504205 0 21.596914846504205 -265.45401565994689 0 0 0 0 90.753901868763933 -57.935659518348984 0 -57.935659518348984 30.683045230663993 0 0 0 0 1.4642448431871751 0.26762688107175236 0 0.26762688107175236 -3.7701666817274688 0 0 0 0 121.06987532195342 107.01752092875859 0 107.01752092875859 90.62716066667781 0 0 0 0 105.08132252078849 53.363871709869272 0 53.363871709869272 10.773247377184816 0 0 0 0 -104.83974888469207 -62.943567413132087 0 -62.943567413132087 -49.149181732831494 0 0 0 0 -18.658083735216657 -61.81271862912763 0 -61.81271862912763 -54.996911277901063 0 0 0 0 -0.77901783406803071 0.020982452186737888 0 0.020982452186737888 -1.5349727252148471 0 0 0 0 40.312878191787149 -57.513169371824915 0 -57.513169371824915 75.228698586573046 0 0 0 0 -27.810327620334618 84.119902663615903 0 84.119902663615903 -80.619625585663925 0 0 0 0 -27.959880037111432 105.67895535873659 0 105.67895535873659 -164.51429775756333 0 0 0 0 9.8453549783109793 119.4868048994058 0 119.4868048994058 -183.91898164381928 0 0 0 0 8.7426776608743637 108.09547183307654 0 108.09547183307654 -300.71012677235558 0 0 0 0 -54.368422103381135 201.36546644533973 0 201.36546644533973 -162.30195326702415 0 0 0 0 -29.602328592691265 213.88168428751305 0 213.88168428751305 -305.15646434630253 0 0 0 0 -33.316064454030311 166.29260405493824 0 166.29260405493824 -92.107001153644887 0 0 0 0 -23.464525250713905 129.26353351826219 0 129.26353351826219 -106.19089323413755 0 0 0 0 -61.50935766609939 191.32668449666744 0 191.32668449666744 31.088052166911439 0 0 0 0 11.004500189014834 15.256271604259382 0 15.256271604259382 91.008847099350533 0 0 0 0 65.753673951834571 9.4570081553029013 0 9.4570081553029013 -3.4389938606573196 0 0 0 0 149.13684357696445 39.397685192256176 0 39.397685192256176 -16.523360360202787 0 0 0 0 -43.571733667234831 105.06275180581633 0 105.06275180581633 -29.455580958961946 0 0 0 0 -43.779880222459823 101.16828166481355 0 101.16828166481355 -120.0476366705243 0 0 0 0 -46.666790301435469 90.987798998870858 0 90.987798998870858 -57.419112923733792 0 0 0 0 3.2962257011718634 -37.938287793343989 0 -37.938287793343989 -156.33866764690356 0 0 0 0 -72.644076547546319 18.769362633712262 0 18.769362633712262 -121.55235974027198 0 0 0 0 -35.18010056562656 54.320346977073314 0 54.320346977073314 -103.55353102822664 0 0 0 0 3.4342334253582294 6.0847983095045493 0 6.0847983095045493 -43.416690190627605 0 0 0 0 29.147819926355965 47.798379664369349 0 47.798379664369349 -39.352818870578631 0 0 0 0 68.9147416993153 -0.99567193126586062 0 -0.99567193126586062 -84.024308868845765 0 0 0 0 7.9827921257828365 2.5604202906715159 0 2.5604202906715159 -68.764988864237239 0 0 0 0 49.95570334228205 -52.003912218196092 0 -52.003912218196092 -153.50259879617079 0 0 0 0 -60.466707380338732 -26.21479172216641 0 -26.21479172216641 -147.73017589082701 0 0 0 0 -164.8881069519058 15.447075695316471 0 15.447075695316471 139.90468150072411 0 0 0 0 -39.491421689486458 -124.20276485799286 0 -124.20276485799286 260.73163160875811 0 0 0 0 113.47926630637892 66.401318266845465 0 66.401318266845465 -22.425979925981665 0 0 0 0 107.22799649714932 -92.600407220045781 0 -92.600407220045781 75.757574767299957 0 0 0 0 -1.2270162831495079 4.1606230966397844 0 4.1606230966397844 -11.372315803561293 0 0 0 0 73.415769831442958 60.370112357607468 0 60.370112357607468 12.280385364074391 0 0 0 0 111.49013841969918 60.657819952307364 0 60.657819952307364 -35.249736000325356 0 0 0 0 53.611351142039666 15.552670442390991 0 15.552670442390991 -35.416670213515125 0 0 0 0 55.447857817378917 -11.895181620820495 0 -11.895181620820495 -60.470187145430828 0 0 0 0 14.593574260122068 -83.759342493607619 0 -83.759342493607619 -116.76015519346038 0 0 0 0 63.612052053361595 -27.98973592897346 0 -27.98973592897346 -32.699839523275386 0 0 0 0 -1.3147871444178978 3.8167314466407145 0 3.8167314466407145 -9.7184331772642132 0 0 0 0 63.651876008126692 253.95945997059789 0 253.95945997059789 -983.21515663677565 0 0 0 0 100.53327627054421 13.540011839418639 0 13.540011839418639 -65.223170987121193 0 0 0 0 -266.11814019959002 282.16599344201313 0 282.16599344201313 136.42385739960514 0 0 0 0 53.757033312521799 -5.249290693279363 0 -5.249290693279363 -754.98504270015246 0 0 0 0 -76.432843852762289 297.14208388425777 0 297.14208388425777 -590.99443760601935 0 0 0 0 -94.007861766674864 272.62241864874613 0 272.62241864874613 -252.87988623390993 0 0 0 0 -127.17296594036225 175.53454783635539 0 175.53454783635539 221.93915037485567 0 0 0 0 115.07730635822242 -99.134940634250313 0 -99.134940634250313 420.94161182821517 0 0 0 0 -1.0510003622609392 2.0033217705371626 0 2.0033217705371626 -3.48289191386014 0 0 0 0 -90.494789324772 -165.43617565035902 0 -165.43617565035902 -221.11392405981678 0 0 0 0 -2.8840968506990503 2.4895458943543982 0 2.4895458943543982 -2.6982308214574644 0 0 0 0 -71.798307477612752 -114.22299590928696 0 -114.22299590928696 -82.413286954881187 0 0 0 0 36.248675964467225 -78.397450052303611 0 -78.397450052303611 -147.81546166411317 0 0 0 0 36.987763271290476 -93.328188767652136 0 -93.328188767652136 -155.30321654228464 0 0 0 0 38.929464022131697 -100.31222391302617 0 -100.31222391302617 -260.28785731432799 0 0 0 0 21.798305602866321 -5.9882175736702266 0 -5.9882175736702266 -13.741089971874317 0 0 0 0 4.4403261811982588 -6.4242388560003292 0 -6.4242388560003292 -194.54102788693854 0 0 0 0 2.8226629320868142 -35.074125685634499 0 -35.074125685634499 -96.557254394005213 0 0 0 0 8.4823969311167389 -10.744571082100947 0 -10.744571082100947 -425.05322747060927 0 0 0 0 -242.92469928247283 114.93076407264743 0 114.93076407264743 -99.46001599486317 0 0 0 0 -84.26222557647759 -149.96430842637801 0 -149.96430842637801 -151.87076928078659 0 0 0 0 -15.62489733193928 22.482530113281655 0 22.482530113281655 -23.535021461228098 0 0 0 0 -0.33771642148811498 0.50765906880916134 0 0.50765906880916134 -0.82481964813560893 0 0 0 0 21.524269053405078 -83.031088124104826 0 -83.031088124104826 -126.14316440745552 0 0 0 0 28.595853122179051 -75.579840243500257 0 -75.579840243500257 -237.94943571152271 0 0 0 0 7.9467990616828175 -44.191287289513753 0 -44.191287289513753 -37.441244440953596 0 0 0 0 16.991573101012818 -71.052892697191055 0 -71.052892697191055 -176.18841622645414 0 0 0 0 48.173070131594045 1.3876105892186388 0 1.3876105892186388 -83.246966780388902 0 0 0 0 -0.32246010172666795 1.162796579622575 0 1.162796579622575 -2.8372810449404398 0 0 0 0 -9.7798734115728507 -5.6868520035218353 0 -5.6868520035218353 -8.1905182372183845 0 0 0 0 75.976238505582501 9.7250280666203253 0 9.7250280666203253 -35.35191093030744 0 0 0 0 -43.898443213108067 -122.04690722078476 0 -122.04690722078476 -224.78837978116371 0 0 0 0 -0.54681361991846833 0.81987058815491132 0 0.81987058815491132 -1.0888333280705993 0 0 0 0 9.465123151405237 118.22847361765571 0 118.22847361765571 -75.138292791737058 0 0 0 0 12.310316348384958 -28.650968502342948 0 -28.650968502342948 -33.537864634929065 0 0 0 0 -11.775754775179621 0.21302567199563782 0 0.21302567199563782 -65.719701211052211 0 0 0 0 10.06764155621704 6.4390232380669659 0 6.4390232380669659 -158.8452368655835 0 0 0 0 19.393885190661209 29.563908841137547 0 29.563908841137547 -153.57409173561609 0 0 0 0 -23.230137135787572 -28.689147148714483 0 -28.689147148714483 -235.10558586485695 0 0 0 0 35.80154403432924 32.36138792158755 0 32.36138792158755 -295.61809414555864 0 0 0 0 32.927939751074518 53.448002953764899 0 53.448002953764899 -209.80872604398792 0 0 0 0 21.495326353075029 11.009180744106288 0 11.009180744106288 -243.44850462867726 0 0 0 0 -58.758619446967259 39.886982798969711 0 39.886982798969711 -350.83175506674797 0 0 0 0 -79.622693723741122 57.169576047283499 0 57.169576047283499 -215.11905508127711 0 0 0 0 -40.624685076019944 -54.178088645923481 0 -54.178088645923481 -283.87861309927212 0 0 0 0 0.39582151724675185 6.4188506955251796 0 6.4188506955251796 -4.3545366744219791 0 0 0 0 2.1609620166313608 9.2412668449178454 0 9.2412668449178454 -6.9739595670398558 0 0 0 0 8.0428676021194292 -0.38830903469352052 0 -0.38830903469352052 5.5964483266079696 0 0 0 0 6.0574417039749591 2.2525499232069706 0 2.2525499232069706 -10.142557529929036 0 0 0 0 2.739574252934915 6.7594081330971676 0 6.7594081330971676 -14.549906357465943 0 0 0 0 0.0060191272247252185 4.9473425983705965 0 4.9473425983705965 -15.213596647547092 0 0 0 0 14.604589878666303 -4.7633217594120651 0 -4.7633217594120651 -8.9195843529159902 0 0 0 0 -46.4487331040811 24.115343034340185 0 24.115343034340185 -0.12085173729064991 0 0 0 0 15.010464496906657 9.8013698190334253 0 9.8013698190334253 -38.353672106444719 0 0 0 0 0.49958383859127409 21.203393725932983 0 21.203393725932983 -13.592858365620486 0 0 0 0 -0.40601414191432461 0.070231710800328528 0 0.070231710800328528 -0.026923522085525065 0 0 0 0 0.3782123334407288 19.797428208888959 0 19.797428208888959 7.6210763406561455 0 0 0 0 38.377100099092345 -56.633905307797249 0 -56.633905307797249 -60.244407886788395 0 0 0 0 -37.538477571950352 -22.603826643593493 0 -22.603826643593493 -53.363921374351776 0 0 0 0 12.960334650198163 16.551249382546303 0 16.551249382546303 -23.222694272684748 0 0 0 0 -1.4772081281273206 5.4354717435175601 0 5.4354717435175601 -12.143393747967906 0 0 0 0 -53.049802104976152 -27.871191476311651 0 -27.871191476311651 -39.47113186387287 0 0 0 0 -46.79228961764079 -40.998585321307473 0 -40.998585321307473 -68.690139863727381 0 0 0 0 -34.757118525188616 -41.603431399023975 0 -41.603431399023975 -80.07848118810216 0 0 0 0 -38.915948782210762 -31.459705663000932 0 -31.459705663000932 -57.546169000008376 0 0 0 0 -34.268572174953988 -25.704587154992623 0 -25.704587154992623 -57.943887049736077 0 0 0 0 -18.659557083982236 -27.147189600138518 0 -27.147189600138518 -90.033580129384063 0 0 0 0 -23.833600857871716 -30.129938570113154 0 -30.129938570113154 -74.554086955962703 0 0 0 0 -23.803301241345252 -29.876975540901185 0 -29.876975540901185 -75.845295785751659 0 0 0 0 -27.43763533284482 -38.892184872209327 0 -38.892184872209327 -89.346663924749009 0 0 0 0 -30.31048520895456 -35.649208763439674 0 -35.649208763439674 -74.109687245276291 0 0 0 0 -35.241859718710657 -35.951703132828698 0 -35.951703132828698 -73.584839694012771 0 0 0 0 -31.730921358957858 -28.889022539297002 0 -28.889022539297002 -61.937482485605869 0 0 0 0 -31.938529267374179 -25.0429538677854 0 -25.0429538677854 -55.558447387884371 0 0 0 0 -34.47324166049296 -29.195213344987678 0 -29.195213344987678 -59.623461557086557 0 0 0 0 -32.658271546187279 -26.273921574163978 0 -26.273921574163978 -52.692590468272101 0 0 0 0 -30.562789326486836 -32.769519644665706 0 -32.769519644665706 -70.486166044836864 0 0 0 0 -28.197601496010975 -26.612040851541678 0 -26.612040851541678 -60.712912591581699 0 0 0 0 -26.918434125243948 -26.963591649458976 0 -26.963591649458976 -60.621572976742755 0 0 0 0 -23.58949713270249 -25.739685779670253 0 -25.739685779670253 -72.725210158649134 0 0 0 0 -24.27840884406146 -26.16974492970985 0 -26.16974492970985 -64.987762499338714 0 0 0 0 -3.0640060113848335 11.586836834721908 0 11.586836834721908 -10.436608630261617 0 0 0 0 -27.391964584388916 -8.1482521525467746 0 -8.1482521525467746 -35.023037988976284 0 0 0 0 -26.869243459760934 -21.472420169112638 0 -21.472420169112638 -53.396832837839611 0 0 0 0 -26.886429647212154 -23.920722430432704 0 -23.920722430432704 -54.832317474647425 0 0 0 0 -31.532640564167195 -22.378597571252612 0 -22.378597571252612 -44.027928502182476 0 0 0 0 -31.10244403825709 -22.745703104650602 0 -22.745703104650602 -43.836084585520439 0 0 0 0 -35.494689578893485 -26.813781444274355 0 -26.813781444274355 -42.135852723731659 0 0 0 0 -30.646348989339458 -21.996246899303515 0 -21.996246899303515 -44.60775861950242 0 0 0 0 -31.816242157015949 -28.365055575821316 0 -28.365055575821316 -51.694666173076257 0 0 0 0 -31.262947914552569 -21.564972228141414 0 -21.564972228141414 -44.80769297547522 0 0 0 0 -31.30198872982146 -27.018889588565798 0 -27.018889588565798 -54.348443962167948 0 0 0 0 -37.136114287634882 -23.803198320551019 0 -23.803198320551019 -30.170413140207529 0 0 0 0 -35.210688134741304 -14.138997569825733 0 -14.138997569825733 -28.801308492838871 0 0 0 0 -2.2237431846381401 1.309315134769264 0 1.309315134769264 2.525977134860085 0 0 0 0 -27.902079323783141 -16.910208449502534 0 -16.910208449502534 -43.74123684281949 0 0 0 0 -27.095290494248729 -13.681322428208659 0 -13.681322428208659 -39.477081511286087 0 0 0 0 9.6927537800140655 13.095755736721912 0 13.095755736721912 -4.3873259528918425 0 0 0 0 -35.500399681328418 -27.207687509056996 0 -27.207687509056996 -51.610556972154882 0 0 0 0 0.80867659744670184 -0.023630997394036513 0 -0.023630997394036513 -3.8692298524212561 0 0 0 0 -0.42915740466303731 8.033207593660336 0 8.033207593660336 -4.0740806829417124 0 0 0 0 -2.2680801121945535 7.7723634159337962 0 7.7723634159337962 -11.272840951984108 0 0 0 0 13.084364545888008 10.595774805464316 0 10.595774805464316 -11.631748994725058 0 0 0 0 2.6971756855149494 12.177858842478599 0 12.177858842478599 -10.400118415564066 0 0 0 0 5.236882787946211 10.653058812800737 0 10.653058812800737 -27.205674430653744 0 0 0 0 -0.018858504943068621 0.029267857086566096 0 0.029267857086566096 -0.031929591341480545 0 0 0 0 3.9386613495639295 7.4196486100408947 0 7.4196486100408947 -19.229743063624483 0 0 0 0 0.28769136077366397 4.7944116816797759 0 4.7944116816797759 -18.60734688757293 0 0 0 0 -10.627306186028008 14.142349771380395 0 14.142349771380395 -14.042532843945082 0 0 0 0 -4.9379435139116516 9.6472065699307308 0 9.6472065699307308 -13.385449146854768 0 0 0 0 -1.5786725561650448 13.619881906839282 0 13.619881906839282 -14.32419249387749 0 0 0 0 -6.4268080559241128 8.5881707674852805 0 8.5881707674852805 -16.992093393731921 0 0 0 0 -1.2371839707921453 9.5647672745217278 0 9.5647672745217278 -29.955465920211282 0 0 0 0 -3.3059316437338566 13.106409610634728 0 13.106409610634728 -23.6337158371025 0 0 0 0 -7.8041169305371341 6.6929300159245031 0 6.6929300159245031 -31.083535753925389 0 0 0 0 -3.3450166258066218 12.158333106875943 0 12.158333106875943 -30.844224804044643 0 0 0 0 -3.1786419315638739 11.084014402069442 0 11.084014402069442 -29.734952667902689 0 0 0 0 -10.938498222804004 4.1514124820096185 0 4.1514124820096185 -21.352424406948558 0 0 0 0 2.0282623043590933 5.9193379509451916 0 5.9193379509451916 -35.391197285731323 0 0 0 0 -0.83226355632901949 0.3508540897637431 0 0.3508540897637431 -14.859923513177364 0 0 0 0 -4.2414736638114761 8.7509639065574447 0 8.7509639065574447 -14.056030544983514 0 0 0 0 0.0010597958713011273 6.0678340646845754 0 6.0678340646845754 -24.691818665676692 0 0 0 0 -0.0090076967918189289 0.0069623110650951503 0 0.0069623110650951503 -0.059404486593336969 0 0 0 0 -4.709615734555471 -4.2776426531563629 0 -4.2776426531563629 -36.382220035380669 0 0 0 0 8.5572800522793422 -1.7192486983840354 0 -1.7192486983840354 -53.142549184234667 0 0 0 0 0.011062015518230217 3.098170288870032 0 3.098170288870032 -49.434318975661881 0 0 0 0 5.4575348269029185 -10.918113308710417 0 -10.918113308710417 -78.079980605456512 0 0 0 0 19.268108688988114 5.0033149522141684 0 5.0033149522141684 -79.894946595835791 0 0 0 0 11.86573739877911 14.5860319289568 0 14.5860319289568 -56.297853487259999 0 0 0 0 0.01338966531028787 7.1196004779376381 0 7.1196004779376381 -60.996091877619619 0 0 0 0 0.025873150488014862 -157.18919503892175 0 -157.18919503892175 -1087.7496484467265 0 0 0 0 -78.964219434603763 -332.48128891945089 0 -332.48128891945089 -533.03426453252905 0 0 0 0 -0.49932155025651515 -0.56190686281449587 0 -0.56190686281449587 -0.16047755314931322 0 0 0 0 0.8594311693475003 -2.7559623771021933 0 -2.7559623771021933 -4.3923728307387364 0 0 0 0 73.609380990811729 -507.77982360219903 0 -507.77982360219903 -1333.5629586961295 0 0 0 0 -443.68532961174253 -214.68500970485911 0 -214.68500970485911 -111.93044879470835 0 0 0 0 -405.23825340207981 -38.847701815922846 0 -38.847701815922846 -1320.057805401826 0 0 0 0 131.95513069763766 -74.289973102379008 0 -74.289973102379008 -1670.4380356615511 0 0 0 0 0.37482093075940282 -66.539311475225986 0 -66.539311475225986 -1305.974162196173 0 0 0 0 163.73317201451917 -221.93986552505339 0 -221.93986552505339 -1168.4716279900167 0 0 0 0 -536.57091309879365 -381.22537218200523 0 -381.22537218200523 -1192.7907759857408 0 0 0 0 210.34686985123835 9.172310599591583 0 9.172310599591583 -2077.2933366484713 0 0 0 0 86.495939677470233 -451.05146548043558 0 -451.05146548043558 -1659.4427997738312 0 0 0 0 94.984742813421462 -503.54883127652283 0 -503.54883127652283 -1854.3033033259271 0 0 0 0 -35.357610389963924 40.88553162291646 0 40.88553162291646 0.63851119557148195 0 0 0 0 -95.610768330519448 252.77725902936618 0 252.77725902936618 -723.84605707164883 0 0 0 0 -3.5014668443621675 -10.186652291846343 0 -10.186652291846343 -15.494442474998124 0 0 0 0 -38.363956464730791 -93.045714891224634 0 -93.045714891224634 -1926.6392392005728 0 0 0 0 -1.9791372585606888 -3.0317788173595517 0 -3.0317788173595517 -5.282200288695833 0 0 0 0 -0.67256278462828689 1.6454138567503378 0 1.6454138567503378 -6.1953766966841641 0 0 0 0 29.482349968019435 -9.587140860643558 0 -9.587140860643558 -31.056853117734136 0 0 0 0 20.336985541252091 70.498680228876765 0 70.498680228876765 -102.80468934723103 0 0 0 0 -18.389724437605814 -83.657443495569169 0 -83.657443495569169 -55.623643677026848 0 0 0 0 -17.952604405227127 4.5540521222792449 0 4.5540521222792449 -26.168472901263158 0 0 0 0 -22.571720209157 -15.514664874521259 0 -15.514664874521259 -45.190211180002734 0 0 0 0 -0.49429329920341536 -1.0358068746424891 0 -1.0358068746424891 0.11365371533622692 0 0 0 0 -13.782945282655774 7.6894545637260308 0 7.6894545637260308 -25.047399471543031 0 0 0 0 -48.142378618119892 -12.078999071742146 0 -12.078999071742146 -47.233517993241549 0 0 0 0 -6.1783885294267691 12.882544105006673 0 12.882544105006673 -28.177910802056431 0 0 0 0 -11.125434906337887 47.60237172133202 0 47.60237172133202 -75.53672937050942 0 0 0 0 -67.731958148722697 24.248586016849003 0 24.248586016849003 30.729688473231818 0 0 0 0 -55.987077336609332 -47.605014786386164 0 -47.605014786386164 36.619224144915279 0 0 0 0 -3.9185870019474676 -2.5667638863214108 0 -2.5667638863214108 -15.812919011920144 0 0 0 0 -123.33578583810288 -25.2893524058818 0 -25.2893524058818 -141.7168315353556 0 0 0 0 -30.848668776436909 37.647911690017281 0 37.647911690017281 -108.68317437755468 0 0 0 0 -2.3631708600547903 -8.8905064497952964 0 -8.8905064497952964 -13.606003196636891 0 0 0 0 11.180893083061392 -87.636063098561863 0 -87.636063098561863 -31.338869492778031 0 0 0 0 -0.83363657821049841 2.0205700358195884 0 2.0205700358195884 -1.5792071844001896 0 0 0 0 -86.588227350343004 29.9523693617557 0 29.9523693617557 5.9559534666186664 0 0 0 0 17.865092983129273 26.145076623676687 0 26.145076623676687 -73.136168545264809 0 0 0 0 -104.16165643514069 227.99781682225512 0 227.99781682225512 -476.73168205225375 0 0 0 0 -72.725093190434563 -104.69209278857306 0 -104.69209278857306 -742.92385849125276 0 0 0 0 -129.94127026289698 72.450000031138188 0 72.450000031138188 -1087.7216141010176 0 0 0 0 -86.020846070164453 32.779558047954197 0 32.779558047954197 -1478.1345324804715 0 0 0 0 33.321313675757892 -90.040312006014574 0 -90.040312006014574 -703.53958182882729 0 0 0 0 -17.472032472847957 -175.76240610258355 0 -175.76240610258355 -742.08229742172989 0 0 0 0 21.657671723152362 -51.015602222501911 0 -51.015602222501911 -857.86748718592946 0 0 0 0 -13.5698629223034 18.730221103622171 0 18.730221103622171 -581.20645564117149 0 0 0 0 -3.1407366358262436 74.942010719889367 0 74.942010719889367 -366.19393802490231 0 0 0 0 -0.981311890186646 50.046573404993069 0 50.046573404993069 -402.14452443705522 0 0 0 0 -50.41089569621721 -81.103672544541041 0 -81.103672544541041 -435.3150740476558 0 0 0 0 28.340665073237119 162.37532071901387 0 162.37532071901387 -9.4545662024465855 0 0 0 0 -105.72207911467035 42.831375894484154 0 42.831375894484154 -24.195869139301067 0 0 0 0 -136.88310344076967 81.472789717296109 0 81.472789717296109 -105.00310347951017 0 0 0 0 -44.852366473466191 -23.554696773302567 0 -23.554696773302567 -84.265629168276973 0 0 0 0 -124.33506841898937 21.725948076868008 0 21.725948076868008 48.705103480424441 0 0 0 0 -28.288462069747425 58.415877188919694 0 58.415877188919694 55.373832543607932 0 0 0 0 3.1722737816226072 52.906412501402883 0 52.906412501402883 -30.98121344962783 0 0 0 0 -21.134631423565224 28.894013654506125 0 28.894013654506125 -54.659055179014103 0 0 0 0 5.8560593939710088 45.133015077401069 0 45.133015077401069 -68.120463077793829 0 0 0 0 -12.816407506703399 32.173676551690733 0 32.173676551690733 -76.859607859350945 0 0 0 0 23.588458983887904 38.854161165771075 0 38.854161165771075 -89.378060740229557 0 0 0 0 14.710918218118422 28.245608583214562 0 28.245608583214562 -93.529158133809688 0 0 0 0 -59.79905626527443 166.63291539857937 0 166.63291539857937 -73.896242728013021 0 0 0 0 24.629900464637103 17.503471568477835 0 17.503471568477835 -86.159204845724162 0 0 0 0 -3.5140375181636045 38.731116542789096 0 38.731116542789096 -80.478977694278001 0 0 0 0 -21.273141009084156 44.0855188870446 0 44.0855188870446 -72.354421845229808 0 0 0 0 12.6861087796633 24.911785601689189 0 24.911785601689189 -77.244093880377477 0 0 0 0 -3.7859486050620035 19.744294985466695 0 19.744294985466695 -61.0178140650969 0 0 0 0 -15.372800002311124 30.270499950398516 0 30.270499950398516 -70.474499319498136 0 0 0 0 1.1574192933840095 21.259610665409127 0 21.259610665409127 -61.344325367332203 0 0 0 0 -17.46238158460983 7.9003162833978422 0 7.9003162833978422 -66.708880342164775 0 0 0 0 -1.9903125519290477 -0.71247689725042562 0 -0.71247689725042562 -0.032353202070311227 0 0 0 0 -11.089887179977723 -18.192891589340434 0 -18.192891589340434 -70.433177752769552 0 0 0 0 -6.7931764406266666 -7.3997385844704695 0 -7.3997385844704695 -60.095416383344855 0 0 0 0 7.2833093118120509 -15.858247844396786 0 -15.858247844396786 -36.296696927381248 0 0 0 0 -7.1141262825680975 2.6772968587772681 0 2.6772968587772681 -14.541501104680762 0 0 0 0 -32.713783048624009 29.857575806454861 0 29.857575806454861 -189.93347963320412 0 0 0 0 -15.38574255756248 44.853827005179483 0 44.853827005179483 -89.182158338226145 0 0 0 0 -7.3085567838206771 72.916996952990303 0 72.916996952990303 38.610588924813783 0 0 0 0 -20.576847827482602 35.427137090432993 0 35.427137090432993 -36.284558133506962 0 0 0 0 -19.536800481927457 29.678495962947636 0 29.678495962947636 -68.723459158522019 0 0 0 0 -36.764441120420088 23.334293325016915 0 23.334293325016915 -68.625620196471573 0 0 0 0 -12.902444422303233 33.269422984842095 0 33.269422984842095 -90.184615765763738 0 0 0 0 -37.275092301938457 37.202020553610055 0 37.202020553610055 -62.49855934799416 0 0 0 0 -33.129868546896546 47.01795289941947 0 47.01795289941947 29.243343268346507 0 0 0 0 20.719664918348371 0.74392997488030232 0 0.74392997488030232 6.9598771909077186 0 0 0 0 -0.87369514596684894 14.436989331501536 0 14.436989331501536 -58.994661897799233 0 0 0 0 -11.837947610989747 30.077731788036019 0 30.077731788036019 -47.191434210529508 0 0 0 0 -5.711523391522876 -1.6061963582682068 0 -1.6061963582682068 4.7492236502382639 0 0 0 0 -11.184482132962037 13.333785902600056 0 13.333785902600056 -37.01012794005868 0 0 0 0 -8.3072539073804652 3.7652881257685493 0 3.7652881257685493 -31.454901334557988 0 0 0 0 -22.427511996673275 27.971442959853448 0 27.971442959853448 -56.820746755693108 0 0 0 0 -14.454117467881588 -4.2763823346540448 0 -4.2763823346540448 -47.602788160264026 0 0 0 0 1.1874571409241481 -4.5500741657870094 0 -4.5500741657870094 -35.023024906137778 0 0 0 0 -4.3040379947247516 8.4880641211930197 0 8.4880641211930197 -24.641616677807178 0 0 0 0 -4.6684766935069888 15.898352771735517 0 15.898352771735517 -34.849482544523198 0 0 0 0 -4.0295763133249052 0.81968835110480143 0 0.81968835110480143 -7.1700378735850165 0 0 0 0 -4.4021633556007771 9.740806342662836 0 9.740806342662836 -35.215079545811022 0 0 0 0 -8.3704716871864644 11.368062420020067 0 11.368062420020067 -16.494468703362259 0 0 0 0 -6.6301480448091468 15.236918352159591 0 15.236918352159591 -30.368941372609697 0 0 0 0 -2.9342750094438692 13.215177361073074 0 13.215177361073074 -33.678307296067942 0 0 0 0 -17.674383534674234 -5.9468236419852474 0 -5.9468236419852474 -40.8698401478905 0 0 0 0 -21.114013553347831 -14.228838796458149 0 -14.228838796458149 -43.222210207408352 0 0 0 0 -19.617367385564194 -10.903667592618149 0 -10.903667592618149 -43.374447388923727 0 0 0 0 -16.439137083700871 -7.4311942714630277 0 -7.4311942714630277 -47.036759505906957 0 0 0 0 -8.8564406439145387 -4.5272599632226047 0 -4.5272599632226047 -49.28747722125263 0 0 0 0 -15.151006973377662 -14.932080335915089 0 -14.932080335915089 -54.524885610117053 0 0 0 0 -11.270523957301521 -7.759770144992217 0 -7.759770144992217 -48.905448447767412 0 0 0 0 -8.2615922560808031 -14.021631014380546 0 -14.021631014380546 -56.942756647644273 0 0 0 0 -13.613570832582582 -20.301169678368751 0 -20.301169678368751 -64.237862695081276 0 0 0 0 -21.562193569690862 -19.650185288403009 0 -19.650185288403009 -52.422600312522263 0 0 0 0 -15.890040144301565 -12.59705060336637 0 -12.59705060336637 -48.354751709819539 0 0 0 0 -17.263239470207054 -16.46715944978132 0 -16.46715944978132 -57.137347573574516 0 0 0 0 -22.819833376854149 -15.808532389259199 0 -15.808532389259199 -48.215312040105346 0 0 0 0 -22.017468144581471 -23.721809851529542 0 -23.721809851529542 -60.101928467527614 0 0 0 0 -20.186280565118977 -24.657142544499948 0 -24.657142544499948 -70.336558324292128 0 0 0 0 -21.810440471687798 -20.610281938803382 0 -20.610281938803382 -61.915224958152976 0 0 0 0 -16.529599680321553 -19.628941393457353 0 -19.628941393457353 -67.203511089508538 0 0 0 0 -16.66694016015208 -24.546520982064976 0 -24.546520982064976 -74.930307055532467 0 0 0 0 -18.450682416884433 -18.018047651943562 0 -18.018047651943562 -77.995002418960212 0 0 0 0 -16.666687760944114 -22.237893907324178 0 -22.237893907324178 -84.420326234205277 0 0 0 0 -17.136372601748008 -19.332021374299075 0 -19.332021374299075 -88.281744232022902 0 0 0 0 -19.466117400314033 -21.732736991994898 0 -21.732736991994898 -75.14645072305575 0 0 0 0 -18.623347075539641 -26.068158566049533 0 -26.068158566049533 -78.689295116084395 0 0 0 0 -5.9204629747155195 -23.149611171469587 0 -23.149611171469587 -75.439034054521471 0 0 0 0 -2.0306695531639889 -15.967304331188643 0 -15.967304331188643 -67.855279805953614 0 0 0 0 -16.456889534458611 -22.697101472314898 0 -22.697101472314898 -64.739660791427013 0 0 0 0 -9.5168251321520074 -19.182894401565136 0 -19.182894401565136 -70.946432558834204 0 0 0 0 8.4847638008377544 -20.523000378278084 0 -20.523000378278084 -76.8001151212884 0 0 0 0 7.1603607116903731 -11.505437104424345 0 -11.505437104424345 -81.623864803506876 0 0 0 0 7.3112159983138554 -20.422427955942112 0 -20.422427955942112 -64.951009889089619 0 0 0 0 -0.64514056905591133 -14.480015465094766 0 -14.480015465094766 -66.666594681577408 0 0 0 0 -0.80844788713420712 -8.5149495344521711 0 -8.5149495344521711 -76.681011122564087 0 0 0 0 -4.0472006777381466 -13.945144449011423 0 -13.945144449011423 -54.046835650180583 0 0 0 0 4.0548493453345777 15.068689414832299 0 15.068689414832299 -53.86813897586191 0 0 0 0 23.691878497184462 -5.9448046486704698 0 -5.9448046486704698 -76.060663128453598 0 0 0 0 7.6793201440614212 41.554796992400952 0 41.554796992400952 -40.482207158813253 0 0 0 0 -3.9241033620769485 2.5302100442659139 0 2.5302100442659139 -76.854343961473205 0 0 0 0 42.824056433324586 -74.215591337160731 0 -74.215591337160731 -237.94518182630054 0 0 0 0 6.7856604379664223 -17.111291519508029 0 -17.111291519508029 -45.386145249233351 0 0 0 0 1.8430652176812146 -8.400235271830752 0 -8.400235271830752 -59.992057462228331 0 0 0 0 -6.4798626716681156 -15.717101613719933 0 -15.717101613719933 -66.21634476185136 0 0 0 0 -72.125385223998819 71.671676073085109 0 71.671676073085109 -128.04295546642243 0 0 0 0 -210.70735643623357 -136.21628016519935 0 -136.21628016519935 -162.40969759089057 0 0 0 0 191.45520659343674 -16.63908326649107 0 -16.63908326649107 -186.58363256771099 0 0 0 0 155.4588802755934 121.76315983543464 0 121.76315983543464 -204.74649327320094 0 0 0 0 161.59232595762478 53.610931519040605 0 53.610931519040605 -108.31726054367027 0 0 0 0 268.18377540614892 28.51364707738685 0 28.51364707738685 -149.73199108464178 0 0 0 0 277.33774836221346 62.374947716620227 0 62.374947716620227 -25.451108843379188 0 0 0 0 5.9478460732765761 -6.3427800951236151 0 -6.3427800951236151 -10.245032447166579 0 0 0 0 -14.009614412054361 221.57249241141108 0 221.57249241141108 -179.16256546172008 0 0 0 0 64.401728178690973 -211.94087152375141 0 -211.94087152375141 -93.536645909804065 0 0 0 0 192.97870008824589 -37.992286445180071 0 -37.992286445180071 -37.082117039943114 0 0 0 0 209.15618921620262 3.3078985289030243 0 3.3078985289030243 38.267614751359361 0 0 0 0 7.7617347805569352 41.726753663079762 0 41.726753663079762 -45.491016373009188 0 0 0 0 1.1312924316894239 5.0169480338578012 0 5.0169480338578012 -5.8064014301140787 0 0 0 0 247.89675697445637 -193.99218092582305 0 -193.99218092582305 -23.948863187964889 0 0 0 0 338.21529155732696 -11.124375690057605 0 -11.124375690057605 -261.19526256205427 0 0 0 0 -179.02358537651162 -226.31323958104622 0 -226.31323958104622 86.609568222876987 0 0 0 0 -184.62094906095081 -189.03533275940572 0 -189.03533275940572 -60.523264800336619 0 0 0 0 -1.301720828662507 -1.9029961532955966 0 -1.9029961532955966 -2.3321142983554353 0 0 0 0 22.552691928854983 90.618247388803866 0 90.618247388803866 -93.253905348676199 0 0 0 0 -171.69612495056026 78.86259414889355 0 78.86259414889355 -10.932335294535733 0 0 0 0 -35.527222249389524 7.0245784301187086 0 7.0245784301187086 -6.249408016257803 0 0 0 0 -52.823538892411307 -22.247626345615572 0 -22.247626345615572 -27.043086411780678 0 0 0 0 -0.60563490088264871 -2.5979512625079622 0 -2.5979512625079622 -7.4150138891992299 0 0 0 0 133.22203861281014 -33.809726205399784 0 -33.809726205399784 -98.97343910123891 0 0 0 0 -71.976015655877745 150.16595387657799 0 150.16595387657799 -304.83902632315585 0 0 0 0 -127.5608299077885 -190.12770559444471 0 -190.12770559444471 -233.80830788068852 0 0 0 0 -109.03705932187404 -229.43926473182 0 -229.43926473182 -159.24973588577996 0 0 0 0 -0.4293287630608944 -1.0527579418571875 0 -1.0527579418571875 -3.1223340447437522 0 0 0 0 31.772145086415549 96.541449507622019 0 96.541449507622019 -387.17496961662619 0 0 0 0 -205.55992405867437 129.62077941121515 0 129.62077941121515 -123.01451175788679 0 0 0 0 -70.380719057146962 -119.68099040857123 0 -119.68099040857123 -226.72383021296992 0 0 0 0 87.503912847247193 -10.107308712609665 0 -10.107308712609665 -474.23482496521683 0 0 0 0 -113.3381486904068 15.432018130854885 0 15.432018130854885 234.88515847134113 0 0 0 0 12.415597752109534 124.58698554043804 0 124.58698554043804 -37.241585307725472 0 0 0 0 71.297926092518537 69.676814074016875 0 69.676814074016875 -110.6074541068665 0 0 0 0 65.775840519068879 102.35828584988849 0 102.35828584988849 -156.50806155047394 0 0 0 0 -30.824689884652798 120.51178048990187 0 120.51178048990187 -16.848830240422103 0 0 0 0 26.295988907192168 89.322191671412838 0 89.322191671412838 -132.19689832534641 0 0 0 0 106.24051426088772 80.225903850892792 0 80.225903850892792 -161.38733377891185 0 0 0 0 -61.297083309689697 -26.572248338423378 0 -26.572248338423378 -68.253136223444017 0 0 0 0 101.73660504764848 28.934843500639545 0 28.934843500639545 -172.10416696256834 0 0 0 0 298.00342317163268 7.5419682533756713 0 7.5419682533756713 -170.11848025448853 0 0 0 0 95.20778302270628 41.142475480111898 0 41.142475480111898 -147.1878410577774 0 0 0 0 84.380840771973453 35.995203759659489 0 35.995203759659489 -117.90952534483222 0 0 0 0 91.625731437583454 23.935585104882193 0 23.935585104882193 -140.71332608669763 0 0 0 0 71.925209009128594 -18.881415458592528 0 -18.881415458592528 -83.121088899988536 0 0 0 0 58.358409951202702 73.908702045315295 0 73.908702045315295 -122.54281966787448 0 0 0 0 40.121775779385644 69.056642444667887 0 69.056642444667887 -52.624006364254456 0 0 0 0 -21.432905873116333 35.8591973879401 0 35.8591973879401 -35.233536724573327 0 0 0 0 20.004710531670753 70.176284741331983 0 70.176284741331983 -0.77626190857881738 0 0 0 0 4.1876655415508139 55.790799147613143 0 55.790799147613143 -43.596691073884358 0 0 0 0 0.47782441881605564 0.88659069220244646 0 0.88659069220244646 -0.19249728062052895 0 0 0 0 3.8085416757249959 64.805515322162989 0 64.805515322162989 -1.2578285854287969 0 0 0 0 -19.63231613025421 35.236064261552599 0 35.236064261552599 -35.409556704855305 0 0 0 0 5.063879451777666 -74.91399420534799 0 -74.91399420534799 -265.61806988819444 0 0 0 0 -23.815078062012617 -108.80458806255047 0 -108.80458806255047 -312.24912949139616 0 0 0 0 6.4236389043638891 103.78273988380501 0 103.78273988380501 -133.91214395456336 0 0 0 0 -66.570387989113215 -20.216749573512061 0 -20.216749573512061 -356.96187801945052 0 0 0 0 -65.049863547646964 -133.86596129168174 0 -133.86596129168174 -498.74182437715353 0 0 0 0 33.995462990602846 -56.600053589238087 0 -56.600053589238087 -558.56170081911841 0 0 0 0 -32.635300627557626 -156.65678818434753 0 -156.65678818434753 -481.2823617230606 0 0 0 0 36.074645383519055 -87.149470708318404 0 -87.149470708318404 -516.73585963127698 0 0 0 0 -60.878881908156927 -72.384849083096924 0 -72.384849083096924 -329.67058195061691 0 0 0 0 21.670946986967465 12.573772250892944 0 12.573772250892944 -319.98206380334295 0 0 0 0 -16.856566251653369 32.909391146144472 0 32.909391146144472 -33.738622496694347 0 0 0 0 50.58340492843854 144.53132230758638 0 144.53132230758638 49.653370109765092 0 0 0 0 11.834430976908152 39.180165348812807 0 39.180165348812807 -19.773970231874046 0 0 0 0 58.101606937965698 34.106661762609292 0 34.106661762609292 -130.6904699276638 0 0 0 0 54.54972351768447 24.210044449406269 0 24.210044449406269 -117.65813213533602 0 0 0 0 2.0531761768788996 -0.044570364989496625 0 -0.044570364989496625 0.32172405407249727 0 0 0 0 19.295474644863134 -26.140602070929162 0 -26.140602070929162 -181.41482659988105 0 0 0 0 -110.6530826530834 -4.4185266476742981 0 -4.4185266476742981 268.21873231936297 0 0 0 0 -0.46262366336448224 -0.90057472626142498 0 -0.90057472626142498 -0.51133376647432272 0 0 0 0 6.7771532924866591 -1.7235425968154772 0 -1.7235425968154772 -1.0344101451142187 0 0 0 0 -26.916200793724784 -57.359025239882612 0 -57.359025239882612 -59.621442932344507 0 0 0 0 62.463955844888915 8.9464959704309877 0 8.9464959704309877 -301.26962728377475 0 0 0 0 -4.2076762941997004 -52.291659058988444 0 -52.291659058988444 -209.82693094348724 0 0 0 0 27.472664084169992 47.185558210574527 0 47.185558210574527 -31.992612854424806 0 0 0 0 41.945790311077872 84.540265773022838 0 84.540265773022838 -155.89364082475458 0 0 0 0 18.254130196013648 108.15675347742217 0 108.15675347742217 105.29244712233776 0 0 0 0 80.650521991795358 82.757400503975987 0 82.757400503975987 -46.826406406595197 0 0 0 0 99.782224410449999 53.322214528692712 0 53.322214528692712 -107.22462263130001 0 0 0 0 35.918118933164806 57.393108283187757 0 57.393108283187757 -103.1226606027667 0 0 0 0 131.38650202369354 107.12401162568949 0 107.12401162568949 44.517556073551532 0 0 0 0 48.199175377139909 137.68373844073358 0 137.68373844073358 277.67008689286604 0 0 0 0 96.867242358315707 146.16686452971771 0 146.16686452971771 13.891694317204383 0 0 0 0 -68.62312364112131 -142.68835908008259 0 -142.68835908008259 -467.37904202057325 0 0 0 0 94.798019962081526 212.8665777375063 0 212.8665777375063 126.60682838689536 0 0 0 0 -31.29704107597172 -154.19200842866849 0 -154.19200842866849 -523.32851616487824 0 0 0 0 -13.174547821108156 28.893356885844682 0 28.893356885844682 -30.405165926805168 0 0 0 0 -6.1689606304662448 171.94427282322795 0 171.94427282322795 -14.801273977864184 0 0 0 0 10.013234770971394 75.730277685161127 0 75.730277685161127 -77.44134997630681 0 0 0 0 -72.137723870604077 164.61584056289212 0 164.61584056289212 36.678624931824743 0 0 0 0 35.100621611461975 115.92084893678475 0 115.92084893678475 52.071981818698987 0 0 0 0 64.091185986968412 197.229866239697 0 197.229866239697 57.469765021887724 0 0 0 0 66.653391087420459 64.998275142745115 0 64.998275142745115 -33.581177393603866 0 0 0 0 90.156100881293241 110.51925428384857 0 110.51925428384857 -218.17151395812834 0 0 0 0 66.585438325571886 8.0803172535197518 0 8.0803172535197518 -174.42085064367711 0 0 0 0 -170.00087546226814 234.07293772232424 0 234.07293772232424 -214.92854966506275 0 0 0 0 76.883100631515845 34.000899036276678 0 34.000899036276678 -464.93855435689693 0 0 0 0 2.0643674684688449 -133.77245400138781 0 -133.77245400138781 -326.96435823002867 0 0 0 0 8.3811407268931362 -32.425332196969975 0 -32.425332196969975 -242.91471547690162 0 0 0 0 83.6725094685371 -16.3008956606418 0 -16.3008956606418 -252.28713060634618 0 0 0 0 16.192709869577811 -66.269772005405684 0 -66.269772005405684 -135.83829465563031 0 0 0 0 8.5448317551252657 -6.5694911846534438 0 -6.5694911846534438 -3.9373687631050203 0 0 0 0 2.7881488685124793 3.9652433824160198 0 3.9652433824160198 -3.063305486311279 0 0 0 0 4.7912135838014365 -119.84242438934598 0 -119.84242438934598 168.70912718297768 0 0 0 0 3.6069552947992634 6.6088158224374638 0 6.6088158224374638 -38.994516659631699 0 0 0 0 3.7677126331166946 3.3132635201894232 0 3.3132635201894232 -2.2102375927857949 0 0 0 0 1.4450685155061365 3.9587015966535546 0 3.9587015966535546 -19.724584974392201 0 0 0 0 43.404480564532605 -83.792356888930954 0 -83.792356888930954 0.17488802145817317 0 0 0 0 20.329550267306331 -14.735455442547391 0 -14.735455442547391 5.5033598463633098 0 0 0 0 -49.786738331809374 78.36656185593074 0 78.36656185593074 -119.02577835681586 0 0 0 0 61.417638839795472 85.790073759519146 0 85.790073759519146 -260.10388169500584 0 0 0 0 49.964731752943408 72.715426358754485 0 72.715426358754485 -143.80286087463537 0 0 0 0 84.024362430354813 67.256594261885766 0 67.256594261885766 -491.16994881269784 0 0 0 0 22.009755013385075 -96.717949335732555 0 -96.717949335732555 -203.92226018714427 0 0 0 0 -28.285087361314254 4.1852114900711967 0 4.1852114900711967 -19.36708167737379 0 0 0 0 61.57715244313431 -29.424177197303834 0 -29.424177197303834 -16.597144160899916 0 0 0 0 4.3036152446802589 -108.27730934532883 0 -108.27730934532883 11.027538838330656 0 0 0 0 87.150161048026348 2.7000546978561033 0 2.7000546978561033 -134.69294845749391 0 0 0 0 86.651477003748369 7.583301669183129 0 7.583301669183129 -510.58158681733767 0 0 0 0 -48.432752510967475 167.62773717512391 0 167.62773717512391 -275.10034719871328 0 0 0 0 -195.66410718047337 71.418635459514917 0 71.418635459514917 -54.60173658477288 0 0 0 0 -131.5108361407074 -164.89000147860497 0 -164.89000147860497 -271.17605702233413 0 0 0 0 -63.587277405317764 199.67012069592784 0 199.67012069592784 -275.65006984953652 0 0 0 0 -0.85269461965321369 1.5959209279019912 0 1.5959209279019912 -3.6452747353261543 0 0 0 0 -159.75906270822543 98.862763079598153 0 98.862763079598153 -23.171483183279634 0 0 0 0 -10.414870209084256 -152.44774897147727 0 -152.44774897147727 -334.1301898367492 0 0 0 0 31.449873019810184 40.503358243280672 0 40.503358243280672 -21.967270748915325 0 0 0 0 -59.371595878137214 41.419955336092698 0 41.419955336092698 -2.7572216065818793 0 0 0 0 -1.8170218296557596 4.2738488285427589 0 4.2738488285427589 -9.530311526272925 0 0 0 0 18.470909588017093 -21.941792462959711 0 -21.941792462959711 -50.45714252691414 0 0 0 0 -25.458138047470129 81.967942504415987 0 81.967942504415987 -39.788853722999193 0 0 0 0 -5.1567848617505661 52.114389105470764 0 52.114389105470764 -71.530087899867794 0 0 0 0 -2.9243101553693123 10.99001122428308 0 10.99001122428308 -5.1600334567174286 0 0 0 0 15.690235150265835 59.946748031754396 0 59.946748031754396 -221.17331609420216 0 0 0 0 103.03506184805883 33.520164917524653 0 33.520164917524653 -250.40899283436738 0 0 0 0 109.5424223404134 55.37677866199374 0 55.37677866199374 -454.89474331749807 0 0 0 0 -35.385850650098291 229.1522984985877 0 229.1522984985877 -361.7829409052938 0 0 0 0 77.202861436828243 74.662446210313647 0 74.662446210313647 -283.70964366228145 0 0 0 0 -0.87777578345693286 15.823024011695878 0 15.823024011695878 -19.471346197337269 0 0 0 0 -19.72972180087163 25.376282165063458 0 25.376282165063458 4.5255528835223231 0 0 0 0 6.8320262554971123 4.5038384554463846 0 4.5038384554463846 -58.558952771443728 0 0 0 0 5.8671384971119096 6.4747064183288785 0 6.4747064183288785 -51.547002752125991 0 0 0 0 204.13691132152442 374.46987389265837 0 374.46987389265837 -515.2456268849055 0 0 0 0 16.465252465460253 16.776176082557868 0 16.776176082557868 -44.645066326231245 0 0 0 0 0.86513623123853733 13.646072226063067 0 13.646072226063067 -58.103965025098027 0 0 0 0 5.2803611906454186 13.651971682205442 0 13.651971682205442 -27.097689569245837 0 0 0 0 49.5895878041988 68.464794692826672 0 68.464794692826672 -27.705512914450082 0 0 0 0 -6.6143921779539596 49.869227811552264 0 49.869227811552264 -15.112433141744987 0 0 0 0 -5.4102508805154059 24.397144963388826 0 24.397144963388826 -4.3804201847742661 0 0 0 0 -0.5816904035467525 4.8855873250408592 0 4.8855873250408592 -1.3128787905622232 0 0 0 0 26.603865589087945 6.5477261524902133 0 6.5477261524902133 12.38300314245862 0 0 0 0 66.837764053208957 25.353293025833409 0 25.353293025833409 -27.416784020490013 0 0 0 0 23.543678755273959 -8.0626065335682142 0 -8.0626065335682142 -21.409656136544072 0 0 0 0 14.997380556524149 25.002819107758114 0 25.002819107758114 -4.9667796981102583 0 0 0 0 -2.9901066797451996 5.524474585638643 0 5.524474585638643 -14.529415749345247 0 0 0 0 -13.151750515677122 -10.098883131004186 0 -10.098883131004186 -2.5981915031297831 0 0 0 0 17.743079365323865 -16.997740612427151 0 -16.997740612427151 3.0953469312371453 0 0 0 0 10.98359469412344 12.373106167321566 0 12.373106167321566 -24.474036281033477 0 0 0 0 73.224662020821597 15.554247942478469 0 15.554247942478469 -23.369942522862402 0 0 0 0 38.669584488969122 -0.33973460708148195 0 -0.33973460708148195 -15.850058366166195 0 0 0 0 79.212321021601383 4.1356633208488347 0 4.1356633208488347 -23.720749409952987 0 0 0 0 1.5193631334575031 -0.3590700891778269 0 -0.3590700891778269 -7.1901345461580775 0 0 0 0 75.150339997091578 30.475795388512779 0 30.475795388512779 -0.39571411984798033 0 0 0 0 61.404239637642604 -18.398319248614825 0 -18.398319248614825 -60.276224183762679 0 0 0 0 31.11638139351453 -19.413438658302766 0 -19.413438658302766 -29.61391410012402 0 0 0 0 -28.207716607894326 9.271108999131684 0 9.271108999131684 -14.214917585362855 0 0 0 0 47.676382550913331 24.939501326412028 0 24.939501326412028 -31.454606190454797 0 0 0 0 19.588454061538869 -13.191590590306078 0 -13.191590590306078 -82.903711538405332 0 0 0 0 -20.664192326259581 23.457429532270908 0 23.457429532270908 -33.174196447678696 0 0 0 0 25.528113386408222 33.299248067494773 0 33.299248067494773 -89.891493451779297 0 0 0 0 32.72046227615283 8.8414464823667913 0 8.8414464823667913 -70.221353322442155 0 0 0 0 27.208627619535037 8.4022354335320415 0 8.4022354335320415 -61.294261718683288 0 0 0 0 15.516033328036428 3.4490306849766057 0 3.4490306849766057 -47.934893856133385 0 0 0 0 15.651549602885098 4.1506924233863174 0 4.1506924233863174 -51.096790494670131 0 0 0 0 5.0965826936900687 -0.80829004000374383 0 -0.80829004000374383 -48.116793614734405 0 0 0 0 0.50968374890635459 8.3397149330867251 0 8.3397149330867251 -51.44719984006224 0 0 0 0 2.0559096825547858 0.7107238017218549 0 0.7107238017218549 -44.152068426896278 0 0 0 0 7.9550312343562837 2.4419298009779595 0 2.4419298009779595 -47.812977125553516 0 0 0 0 10.907314032617478 11.75901438649862 0 11.75901438649862 -49.488603618861816 0 0 0 0 415.39744238142976 -160.57123699417343 0 -160.57123699417343 -179.57917957640893 0 0 0 0 2.236931504956043 3.9234713996678678 0 3.9234713996678678 -47.405432560287267 0 0 0 0 20.745538398323333 8.2054674098744727 0 8.2054674098744727 -50.943018880345335 0 0 0 0 2.1918110156842481 2.547981426227889 0 2.547981426227889 -11.978458948807216 0 0 0 0 -77.985081614072442 55.590035927602003 0 55.590035927602003 -5.6249188223337114 0 0 0 0 32.905882888351698 8.8649322085657332 0 8.8649322085657332 -37.789346980876871 0 0 0 0 -5.8161952903647034 -17.454805523746472 0 -17.454805523746472 -36.601851134750177 0 0 0 0 164.13485287351614 37.957142386438136 0 37.957142386438136 -94.522841563040856 0 0 0 0 4.2337587634501768 -3.8067478973730822 0 -3.8067478973730822 -55.124509664004378 0 0 0 0 15.717984731216074 7.6122041083907135 0 7.6122041083907135 -23.782758779641377 0 0 0 0 18.513479304350312 -7.6079625063102867 0 -7.6079625063102867 -51.033075649036618 0 0 0 0 0.21859083380122701 -1.1924822599399576 0 -1.1924822599399576 -4.3091141288597328 0 0 0 0 -170.63216940201346 -86.945775244699689 0 -86.945775244699689 225.04581768504249 0 0 0 0 -127.08994406884358 -169.99901116857654 0 -169.99901116857654 -232.80262932217738 0 0 0 0 84.737962688539028 134.85907604845306 0 134.85907604845306 -62.314315998257371 0 0 0 0 -30.895720701060782 -29.476510431253701 0 -29.476510431253701 -31.281299563140237 0 0 0 0 42.538463091053927 173.5570949664725 0 173.5570949664725 -556.89258080685977 0 0 0 0 21.591082900049514 49.177732255901901 0 49.177732255901901 -100.57845113646908 0 0 0 0 -78.392239430631889 130.35911707941705 0 130.35911707941705 -63.460322577217084 0 0 0 0 -127.30481164931098 187.54249582321245 0 187.54249582321245 199.78001803826919 0 0 0 0 11.265541565021977 -7.9929377542712245 0 -7.9929377542712245 -40.790021002358117 0 0 0 0 -0.63726093784946514 -9.8100267246853932 0 -9.8100267246853932 -40.831146122884476 0 0 0 0 309.29059825660988 -116.18880971079489 0 -116.18880971079489 -643.97378992395534 0 0 0 0 10.612926476607361 -12.558631691557338 0 -12.558631691557338 -28.251522587680526 0 0 0 0 6.3364847650259435 -17.114833723335323 0 -17.114833723335323 -54.993562850006128 0 0 0 0 37.001308338280751 -15.137846996747612 0 -15.137846996747612 -87.043927235143201 0 0 0 0 105.68216254129766 -15.446149054709167 0 -15.446149054709167 -68.982400594730279 0 0 0 0 6.0449681801893149 -2.5117222094342289 0 -2.5117222094342289 -64.971839565991218 0 0 0 0 90.360403822255648 -100.05078939874329 0 -100.05078939874329 30.426957400661195 0 0 0 0 30.308158766494671 -40.510214112178801 0 -40.510214112178801 -21.313501908929538 0 0 0 0 -22.057094660431176 5.9569147317997704 0 5.9569147317997704 31.269490308870445 0 0 0 0 -81.713238694411302 -78.038342148484844 0 -78.038342148484844 185.35674751434999 0 0 0 0 -142.51398791871225 46.34196465965033 0 46.34196465965033 202.80523154747789 0 0 0 0 151.54912489470007 -329.16959148518799 0 -329.16959148518799 630.88746940158308 0 0 0 0 4.3617415117199698 -0.93213537992113515 0 -0.93213537992113515 -11.21237118008807 0 0 0 0 -19.302951577701151 30.295404134074488 0 30.295404134074488 -87.501286145750782 0 0 0 0 -8.0957188769716595 -33.795793806653819 0 -33.795793806653819 -69.324363689953316 0 0 0 0 -39.341578012286391 27.365150628604169 0 27.365150628604169 -48.269767871301156 0 0 0 0 -10.333057602537338 25.578569064513431 0 25.578569064513431 -54.619338728109142 0 0 0 0 -22.682396241960305 5.1605300562805496 0 5.1605300562805496 -34.687819143036904 0 0 0 0 7.8890460121365322 -0.40605864827011828 0 -0.40605864827011828 -47.881716832282109 0 0 0 0 11.22012380009372 -13.821566531048973 0 -13.821566531048973 -20.050478846494535 0 0 0 0 7.1980713309258135 -1.1482428047893336 0 -1.1482428047893336 -47.549042870919948 0 0 0 0 7.4903968128983252 -2.988252580005792 0 -2.988252580005792 -45.146915074303251 0 0 0 0 12.958984352509106 -0.35106072317103099 0 -0.35106072317103099 -60.460656043007475 0 0 0 0 12.522298931389749 3.0669307782896951 0 3.0669307782896951 -13.068504823528437 0 0 0 0 9.2434582283603959 2.1813703617663123 0 2.1813703617663123 -56.574329028728243 0 0 0 0 9.8711797977748077 4.7001367480014551 0 4.7001367480014551 -7.4236524344503048 0 0 0 0 2.1880031450782553 9.394553793099476 0 9.394553793099476 -46.116591777283247 0 0 0 0 10.438134762544435 -0.38023644346962726 0 -0.38023644346962726 -35.704258150721699 0 0 0 0 6.8614962566548456 10.02462378465043 0 10.02462378465043 -46.966461180920305 0 0 0 0 7.1102104505673296 2.3615749023108918 0 2.3615749023108918 -29.141071781499065 0 0 0 0 9.1487285802801566 -5.0753201093882154 0 -5.0753201093882154 -10.7028373316873 0 0 0 0 10.317389622405244 -0.26803737389127491 0 -0.26803737389127491 -55.246614993051935 0 0 0 0 19.437975234576243 -17.605876761366744 0 -17.605876761366744 -103.76354772597551 0 0 0 0 6.1262108844662961 23.308096316220393 0 23.308096316220393 -47.400538903206041 0 0 0 0 49.799375699468328 16.438520137937303 0 16.438520137937303 -98.822186646822956 0 0 0 0 15.847093364096509 31.992405430395593 0 31.992405430395593 -58.032039962607087 0 0 0 0 -0.39013877606224767 12.344006372141692 0 12.344006372141692 -64.426662358571718 0 0 0 0 -1.5182210534021578 22.86057989425899 0 22.86057989425899 -52.563316410312837 0 0 0 0 5.2398501064886212 3.2482642742345575 0 3.2482642742345575 -14.595186851557145 0 0 0 0 -8.6746867405217927 23.012248017963429 0 23.012248017963429 -51.680672719150607 0 0 0 0 -5.990402918881955 25.181399141878501 0 25.181399141878501 -58.856184951604519 0 0 0 0 -3.4185432682643295 22.939649664021999 0 22.939649664021999 -56.950599782256177 0 0 0 0 -27.413638653803901 26.645055596982274 0 26.645055596982274 -58.669539266794345 0 0 0 0 -5.2857608047735312 33.292392332095233 0 33.292392332095233 -57.034654061266338 0 0 0 0 17.896585170245089 23.531253886190825 0 23.531253886190825 -66.787969659477312 0 0 0 0 35.130662952115017 42.198651400112794 0 42.198651400112794 -83.811108555928513 0 0 0 0 -6.6265786149160704 46.998936642228728 0 46.998936642228728 -89.089883870838094 0 0 0 0 51.049675461768857 12.658632065478741 0 12.658632065478741 -100.36120338727778 0 0 0 0 58.988549705747573 2.2821113832469564 0 2.2821113832469564 -87.015301063915103 0 0 0 0 18.784807598476618 21.984281827251834 0 21.984281827251834 -77.964077543231724 0 0 0 0 116.239636281 31.706039655011409 0 31.706039655011409 -97.596572093054419 0 0 0 0 50.256170596780976 18.015848557573918 0 18.015848557573918 -69.729402508270141 0 0 0 0 -3.7953990730570109 19.747341947909646 0 19.747341947909646 -75.69561147139936 0 0 0 0 40.905854846485795 -29.191659039324804 0 -29.191659039324804 -116.9496394986345 0 0 0 0 -1.3558449905667658 -3.874870512758207 0 -3.874870512758207 -83.549469085504825 0 0 0 0 37.993832626181756 -10.748555475227477 0 -10.748555475227477 -86.191641063462157 0 0 0 0 35.161199665408276 15.334921060188208 0 15.334921060188208 -93.055009620096826 0 0 0 0 6.1475003590642459 -4.9844558603510905 0 -4.9844558603510905 1.3948810101573592 0 0 0 0 13.8930638740012 -4.511237841899856 0 -4.511237841899856 -55.468190348321514 0 0 0 0 25.663598325430939 -22.248453806751058 0 -22.248453806751058 -109.96363915281108 0 0 0 0 14.487583365644696 -1.8799060656433539 0 -1.8799060656433539 -21.725265765679069 0 0 0 0 18.599759650856981 19.566340747778668 0 19.566340747778668 -7.4423499238764634 0 0 0 0 0.43908879287300806 9.9435056441361667 0 9.9435056441361667 6.1293023046746384 0 0 0 0 0.34527311117199133 14.223068541672546 0 14.223068541672546 -26.542751077184221 0 0 0 0 3.4854279223063713 1.5933121505258896 0 1.5933121505258896 -22.611666735152539 0 0 0 0 6.3513341057396246 -6.3201289940843708 0 -6.3201289940843708 -40.804189763803151 0 0 0 0 3.8808468884499234 -2.8096430805253476 0 -2.8096430805253476 -39.790278764892719 0 0 0 0 8.1932071384017036 -0.64140318112185923 0 -0.64140318112185923 -42.664972192491405 0 0 0 0 6.7311846367483668 7.9139319438836537 0 7.9139319438836537 -22.535363291812246 0 0 0 0 3.923051941215407 1.3067560918654877 0 1.3067560918654877 -32.876999990062046 0 0 0 0 11.112764934481675 3.4008004984934814 0 3.4008004984934814 -36.618501116140123 0 0 0 0 4.6690827230793399 4.2160058886832914 0 4.2160058886832914 -32.956086799473098 0 0 0 0 22.262014353117593 -36.784629556319487 0 -36.784629556319487 -57.156421592066181 0 0 0 0 -3.9603833775217936 64.095640500341688 0 64.095640500341688 -68.610260625078809 0 0 0 0 -0.70452520382086803 4.379971454200664 0 4.379971454200664 -3.1170699265510677 0 0 0 0 -2.8915582402725342 6.7636335937210195 0 6.7636335937210195 -31.862826025785097 0 0 0 0 -2.4234704275880219 -1.6993549717066756 0 -1.6993549717066756 -17.680944218401663 0 0 0 0 -5.8233475220295077 27.294285313651926 0 27.294285313651926 -29.824910105991876 0 0 0 0 26.317007814112003 8.690783715366706 0 8.690783715366706 -37.894428112911555 0 0 0 0 11.793921357940235 20.55556489502851 0 20.55556489502851 -29.910792021699308 0 0 0 0 -2.2342240797141848 -4.6925715205100218 0 -4.6925715205100218 -7.8721159000128296 0 0 0 0 53.20130790634812 -21.128644836200692 0 -21.128644836200692 -23.791980990652519 0 0 0 0 -88.788692244980666 54.69896417153177 0 54.69896417153177 3.5936274045379832 0 0 0 0 -2.0775542487282905 1.557863095656181 0 1.557863095656181 -11.804508318764988 0 0 0 0 64.68975554501958 5.7847059333616926 0 5.7847059333616926 -51.574767434263777 0 0 0 0 -10.661652251274063 -12.621548692870419 0 -12.621548692870419 -23.81380744173839 0 0 0 0 -3.0568459430896837 72.691248192984858 0 72.691248192984858 -20.39035831111687 0 0 0 0 -9.6625633205076156 27.02101547489292 0 27.02101547489292 -4.5418426351898233 0 0 0 0 -16.140428008397976 -12.92713056714274 0 -12.92713056714274 -0.40427774348063394 0 0 0 0 -3.2380129522716743 -37.35379818081492 0 -37.35379818081492 -6.039850587505498 0 0 0 0 -22.889928728474843 -207.01572592229059 0 -207.01572592229059 -6.3670824438668205 0 0 0 0 -243.94136766311203 -106.08650325271083 0 -106.08650325271083 59.25672011799179 0 0 0 0 -85.46604834387108 -128.14059153460403 0 -128.14059153460403 7.1680821369736805 0 0 0 0 99.274648849263485 34.008070977524767 0 34.008070977524767 -131.61257153628685 0 0 0 0 7.430827984343523 35.2872176098208 0 35.2872176098208 -45.76033778558849 0 0 0 0 1.7897983202602035 0.31904095019916667 0 0.31904095019916667 -3.4604093024533142 0 0 0 0 -27.10001870056476 -96.439595550051308 0 -96.439595550051308 -186.01493679420673 0 0 0 0 33.189932736859191 27.291392205897864 0 27.291392205897864 -140.81132143862851 0 0 0 0 6.650012018911184 28.432032970402361 0 28.432032970402361 0.45077740037231706 0 0 0 0 94.587686361220221 323.4091213536085 0 323.4091213536085 -114.83516361949296 0 0 0 0 26.661407624656022 -16.430519091212773 0 -16.430519091212773 -98.657280053004797 0 0 0 0 28.411535757985803 -1.847402508414234 0 -1.847402508414234 -72.902294466461171 0 0 0 0 1.5931192635796492 -2.1871618737702905 0 -2.1871618737702905 -44.791062234870537 0 0 0 0 1.3864560639236956 -3.8059515074534858 0 -3.8059515074534858 -6.4533073637613541 0 0 0 0 7.8470156344301358 -10.077570939563884 0 -10.077570939563884 -67.806461960626621 0 0 0 0 2.9813231194522132 -6.3635233610866635 0 -6.3635233610866635 -68.02087334186217 0 0 0 0 35.641924794179431 21.803802200145583 0 21.803802200145583 -83.161307590362412 0 0 0 0 7.4614796323421615 34.734269720916927 0 34.734269720916927 -37.509384059632794 0 0 0 0 217.23213284091025 -118.55786095264739 0 -118.55786095264739 -68.119247399503365 0 0 0 0 3.725112106117086 10.890333253277383 0 10.890333253277383 -49.1083601979268 0 0 0 0 8.3829989982423285 76.319623957191652 0 76.319623957191652 -74.283457870493294 0 0 0 0 0.61006610763350078 5.8695071348544001 0 5.8695071348544001 -0.23100249354769176 0 0 0 0 -156.26401942020129 -38.769163722914527 0 -38.769163722914527 227.36870328451914 0 0 0 0 26.874645949932528 -10.336974085032125 0 -10.336974085032125 -82.648700770467258 0 0 0 0 20.472335168537029 -31.785591189633124 0 -31.785591189633124 -77.468423560239899 0 0 0 0 -45.429392524116338 8.0809359054255765 0 8.0809359054255765 -93.938963924068958 0 0 0 0 -13.36954255769524 -27.50679493570351 0 -27.50679493570351 -75.43616324562754 0 0 0 0 -11.419149230123367 -17.141812122863485 0 -17.141812122863485 -81.017177738263854 0 0 0 0 -11.997645243522129 25.014241108350689 0 25.014241108350689 -164.03664909604413 0 0 0 0 -56.194284202361814 14.027288897093968 0 14.027288897093968 -63.223703184060469 0 0 0 0 -11.579607863500314 -30.841322847336414 0 -30.841322847336414 -61.429251919442322 0 0 0 0 -60.74741130546272 111.68573446080154 0 111.68573446080154 -206.35094212090189 0 0 0 0 -8.2106468283577669 -16.624885942119363 0 -16.624885942119363 -111.16147937794449 0 0 0 0 -12.254922711931613 -25.596351795989904 0 -25.596351795989904 -100.14460257330211 0 0 0 0 -8.0075755163361464 -15.57329282698629 0 -15.57329282698629 -109.27887252237997 0 0 0 0 -20.080491568673096 -19.044383273430867 0 -19.044383273430867 -80.68584078985441 0 0 0 0 -19.611599595342341 -8.5134209891693899 0 -8.5134209891693899 -95.154910372722952 0 0 0 0 -8.4889302854016933 -7.0739953216470894 0 -7.0739953216470894 -116.68053739061725 0 0 0 0 -9.1014815468652159 -4.9854643911967287 0 -4.9854643911967287 -114.19425457078614 0 0 0 0 -0.53555235079920749 -8.3436070760944858 0 -8.3436070760944858 -138.14313154740375 0 0 0 0 5.6705954866042703 -20.724641273569432 0 -20.724641273569432 -115.22745415655663 0 0 0 0 8.6851780648596559 -25.980476822360288 0 -25.980476822360288 -131.46237453530193 0 0 0 0 15.256811975744313 -18.67561356756778 0 -18.67561356756778 -143.09545094317218 0 0 0 0 8.7007988625407506 -19.701007409952581 0 -19.701007409952581 -182.65344175626524 0 0 0 0 -43.301628758968036 -73.379013438316179 0 -73.379013438316179 -130.4921861944822 0 0 0 0 27.068937041422032 -19.169233882799745 0 -19.169233882799745 -128.96779822758981 0 0 0 0 -20.725409796140411 -31.492367966955499 0 -31.492367966955499 -56.363466244292795 0 0 0 0 -16.561017250921395 -95.373817056635744 0 -95.373817056635744 -256.67572567027673 0 0 0 0 199.38882792371692 142.50859032511289 0 142.50859032511289 65.39959457529767 0 0 0 0 -0.34448390867667555 1.4626244299515037 0 1.4626244299515037 -2.0751495554685562 0 0 0 0 18.04620638482811 -1.5608297097496688 0 -1.5608297097496688 -291.432385105094 0 0 0 0 -14.276921947366645 -19.446198234785697 0 -19.446198234785697 -163.98782348108176 0 0 0 0 46.982010471661852 7.1228968675422948 0 7.1228968675422948 9.3797227868635673 0 0 0 0 24.068657044432257 23.238882408917561 0 23.238882408917561 70.078520997572923 0 0 0 0 24.992600952819657 33.017341898639643 0 33.017341898639643 -15.57696475017292 0 0 0 0 -2.208212505433206 3.9127266319237037 0 3.9127266319237037 -4.6052463583977215 0 0 0 0 6.5808961684592759 49.744182942875341 0 49.744182942875341 134.62893241668644 0 0 0 0 24.057947192874963 13.7613555170974 0 13.7613555170974 -59.232013155822642 0 0 0 0 50.940061664271525 36.21815733009862 0 36.21815733009862 20.456176382038393 0 0 0 0 43.770018149706175 3.6212123143413919 0 3.6212123143413919 -45.815008079225663 0 0 0 0 32.430382371861015 -7.978197715128772 0 -7.978197715128772 8.9616705132084462 0 0 0 0 42.730916080243446 33.905089291808508 0 33.905089291808508 -126.39592421535053 0 0 0 0 22.383459733656309 19.517269001960813 0 19.517269001960813 4.6329400156464544 0 0 0 0 18.685968081389262 -3.9435923683026886 0 -3.9435923683026886 -8.7672658940718975 0 0 0 0 3.4842287151379878 -14.84651099664552 0 -14.84651099664552 -37.496307800454815 0 0 0 0 -0.071587683773923966 -3.4118956577354314 0 -3.4118956577354314 -31.466291087758606 0 0 0 0 -0.057001190072540453 1.2172693437470627 0 1.2172693437470627 -10.683560923534458 0 0 0 0 10.543138233940681 8.6133530273655197 0 8.6133530273655197 -27.790465838625096 0 0 0 0 -11.4013563594076 -8.236258214499685 0 -8.236258214499685 -25.668143699833308 0 0 0 0 0.9335028756904773 1.9550968368052679 0 1.9550968368052679 -5.2022263474446504 0 0 0 0 -16.142497549416476 -38.017311741208687 0 -38.017311741208687 -78.82845708988134 0 0 0 0 1.1860957258977578 -6.9430345882610709 0 -6.9430345882610709 -16.467866290242455 0 0 0 0 -21.026501520869715 -30.91548381317989 0 -30.91548381317989 -47.686584685609887 0 0 0 0 2.8257058063279139 -4.5704755429490689 0 -4.5704755429490689 -2.4794133826544282 0 0 0 0 12.590206864256743 5.5429633703588479 0 5.5429633703588479 -35.716899988925434 0 0 0 0 4.732944871091604 -8.340471324918326 0 -8.340471324918326 -37.877534068877139 0 0 0 0 -3.9835822966033447 -4.6593060802260879 0 -4.6593060802260879 -39.015250338619808 0 0 0 0 -3.2685853654220409 -1.6403274705080548 0 -1.6403274705080548 -1.2402264079173619 0 0 0 0 0.68909553913107457 1.1732692861694423 0 1.1732692861694423 -14.10286060184518 0 0 0 0 2.9274823517065318 3.3019342535716163 0 3.3019342535716163 -16.77339784037602 0 0 0 0 1.9215582134339684 0.53452769945783984 0 0.53452769945783984 -3.0693981103831902 0 0 0 0 0.35017216452025224 0.75527830166161891 0 0.75527830166161891 -9.6335272014226874 0 0 0 0 -6.6816511826009446 -34.902532550448086 0 -34.902532550448086 -91.989362158536096 0 0 0 0 -25.914723594745738 -25.804003700744943 0 -25.804003700744943 -91.860487394440611 0 0 0 0 -0.34471041319810014 -1.6137009705832703 0 -1.6137009705832703 -0.17671953795607465 0 0 0 0 -1.5708249091399011 -4.7583491260820665 0 -4.7583491260820665 -85.594523588195443 0 0 0 0 -24.239423710740724 -46.327241377132736 0 -46.327241377132736 -66.897846891224617 0 0 0 0 -25.276337403820889 -24.791240984197429 0 -24.791240984197429 -91.72730308426253 0 0 0 0 2.959903711737752 -30.876350596256088 0 -30.876350596256088 -92.778778542889995 0 0 0 0 9.860595614459271 -28.328327622413781 0 -28.328327622413781 -92.00800473682466 0 0 0 0 -2.9097619902113365 -20.831639326032018 0 -20.831639326032018 -65.261919081996894 0 0 0 0 -30.430265993920329 -31.120275556473644 0 -31.120275556473644 -102.49894061626401 0 0 0 0 1.9571892368212502 -35.537796064608301 0 -35.537796064608301 -106.356387103413 0 0 0 0 -23.980754291375661 -18.005763120097981 0 -18.005763120097981 -144.04766789273708 0 0 0 0 -31.618776563389474 -42.554308170590957 0 -42.554308170590957 -98.87511557189282 0 0 0 0 13.740201355542013 -41.929430193878943 0 -41.929430193878943 -173.77140964081627 0 0 0 0 -88.968627991833273 -10.34305981027137 0 -10.34305981027137 -182.3815942483634 0 0 0 0 -2.5077583358038282 -74.185675755987177 0 -74.185675755987177 -395.55569724093948 0 0 0 0 18.356684580111505 6.9556703152775299 0 6.9556703152775299 -155.48694969821372 0 0 0 0 28.684007435112562 -34.620847429330752 0 -34.620847429330752 -188.60569371414022 0 0 0 0 -12.330809114172204 -39.541658349997306 0 -39.541658349997306 -68.725467868483975 0 0 0 0 -158.90206164269466 -169.12129607376846 0 -169.12129607376846 -108.99392048913433 0 0 0 0 -29.565705545462379 -82.490441143461794 0 -82.490441143461794 -128.69388026483648 0 0 0 0 130.87030293460157 -62.799636891068076 0 -62.799636891068076 -231.96167816329853 0 0 0 0 9.4223157642145452 -58.613419895409606 0 -58.613419895409606 -232.10447670431267 0 0 0 0 -29.852132891681919 -25.521536216231652 0 -25.521536216231652 -78.952667644553003 0 0 0 0 -10.398980352637409 -17.680064788721211 0 -17.680064788721211 -87.014722431573318 0 0 0 0 7.3050671851243578 10.365576847139891 0 10.365576847139891 -27.656812548651942 0 0 0 0 5.4980953243354689 -49.030310970105347 0 -49.030310970105347 -64.794394969885616 0 0 0 0 -15.602345478699135 -23.098652095819489 0 -23.098652095819489 -53.786130992360995 0 0 0 0 17.660566070682307 18.951686047665135 0 18.951686047665135 -54.006611870512955 0 0 0 0 -25.918067550248907 -28.063427710669202 0 -28.063427710669202 -82.17526082265249 0 0 0 0 1.0076516026050166 0.093024869580105474 0 0.093024869580105474 -0.85773006028327359 0 0 0 0 5.6571521123194515 8.8485513336337789 0 8.8485513336337789 -4.8204522337381039 0 0 0 0 -12.211786194091246 9.3450524205727561 0 9.3450524205727561 0.76841424416488735 0 0 0 0 31.125634172572518 6.4234909707120096 0 6.4234909707120096 -57.85750778709189 0 0 0 0 10.38648242224847 9.0481155586126363 0 9.0481155586126363 -4.3175363069998092 0 0 0 0 8.6644446821019301 17.285061179238255 0 17.285061179238255 -48.000073951992817 0 0 0 0 4.038459532064735 22.508792597818683 0 22.508792597818683 -27.522126390475023 0 0 0 0 12.670352724860834 12.569734733955556 0 12.569734733955556 -15.350539196348109 0 0 0 0 5.4140113959751943 5.4176493310806109 0 5.4176493310806109 17.073484598673531 0 0 0 0 -43.083768874175348 53.831973675965855 0 53.831973675965855 -41.76001238796016 0 0 0 0 10.927304803429072 -1.3910882587192361 0 -1.3910882587192361 -4.051388757561643 0 0 0 0 2.8107759182687131 0.75542566321550009 0 0.75542566321550009 -1.6507403605579043 0 0 0 0 20.651291824751752 -1.92966204793629 0 -1.92966204793629 -34.215203224535799 0 0 0 0 -2.1688721352178026 4.5844795472941939 0 4.5844795472941939 -4.9616895828873169 0 0 0 0 19.6241071846257 21.216644520383852 0 21.216644520383852 -14.495394064652828 0 0 0 0 7.0325239588943473 -1.1200457762930967 0 -1.1200457762930967 -0.67381749241782352 0 0 0 0 21.616339289173993 -27.527940486383159 0 -27.527940486383159 13.762577577450429 0 0 0 0 -8.0945184865944171 -0.68981562487897463 0 -0.68981562487897463 4.8132997095526662 0 0 0 0 10.619686475248031 -15.777604045990302 0 -15.777604045990302 -26.024267665445223 0 0 0 0 -9.3124198479635254 16.3784848220821 0 16.3784848220821 -36.078638995766596 0 0 0 0 38.616159990622464 10.905103269673418 0 10.905103269673418 -43.779322980823054 0 0 0 0 14.802673712062898 -6.7473121606235509 0 -6.7473121606235509 -6.7889213033886335 0 0 0 0 3.8222581709436225 0.57598596993291773 0 0.57598596993291773 -21.573718870828031 0 0 0 0 42.485689991008613 -13.226436715540331 0 -13.226436715540331 -29.290360760278418 0 0 0 0 -0.24328415734840991 -0.66010381013252095 0 -0.66010381013252095 -14.629973945572686 0 0 0 0 32.56213192988551 32.253040210605832 0 32.253040210605832 -57.044827715308202 0 0 0 0 2.6127521815833177 -16.215654736290162 0 -16.215654736290162 -8.2996541340398835 0 0 0 0 0.97131350750954937 12.461636901694874 0 12.461636901694874 -63.709305509561091 0 0 0 0 -53.555035050420088 74.354854876282843 0 74.354854876282843 -77.635143485225854 0 0 0 0 -11.998142876244193 0.28796427938141278 0 0.28796427938141278 -69.874637001412339 0 0 0 0 -219.24278419282845 188.00754568357297 0 188.00754568357297 -84.160816291625451 0 0 0 0 0.010267236856322311 41.340280435902969 0 41.340280435902969 -174.84251954546926 0 0 0 0 -1.9414297293303946 71.113338129121985 0 71.113338129121985 -167.59759152465907 0 0 0 0 13.116504152993016 84.396658142650267 0 84.396658142650267 -167.5503724046026 0 0 0 0 -9.6604299012954726 52.649867177286069 0 52.649867177286069 -117.31861218626727 0 0 0 0 -22.220634932652445 41.415269608292874 0 41.415269608292874 -77.069567962709698 0 0 0 0 -2.9984278777415199 41.67692003682896 0 41.67692003682896 -116.48598818514347 0 0 0 0 -10.183920736603952 44.9865527032307 0 44.9865527032307 -105.56088596343761 0 0 0 0 -8.5572924241542179 61.109075553819821 0 61.109075553819821 -131.52732164232293 0 0 0 0 -5.614251106595006 36.779905751551269 0 36.779905751551269 -130.19109376971301 0 0 0 0 0.40315852569859878 0.36665887440840095 0 0.36665887440840095 -0.57729547142540127 0 0 0 0 -0.28251128595348973 13.909592765834532 0 13.909592765834532 -110.37819111739191 0 0 0 0 -0.033378031035390672 24.085834870751569 0 24.085834870751569 -136.21138199229608 0 0 0 0 -10.506082307181662 8.0671548982427339 0 8.0671548982427339 -4.8029748148328508 0 0 0 0 6.8013281127329037 -14.970088513480732 0 -14.970088513480732 -49.444971303022612 0 0 0 0 32.698111974335745 167.60840234577154 0 167.60840234577154 119.3641601994168 0 0 0 0 83.411859850245833 64.237393227034772 0 64.237393227034772 48.008822509626043 0 0 0 0 -84.708743404933273 49.752680049401533 0 49.752680049401533 266.25396170769818 0 0 0 0 -0.1965739303216385 99.453357580503507 0 99.453357580503507 33.308330122723419 0 0 0 0 0.72115228315960589 0.63448275981278357 0 0.63448275981278357 -0.47092453822909341 0 0 0 0 -30.400908657483683 -34.464944312705484 0 -34.464944312705484 -201.99994022211467 0 0 0 0 -5.3501628675097308 119.6811399814269 0 119.6811399814269 -136.808746534487 0 0 0 0 -221.34503923309742 3.8161095203104196 0 3.8161095203104196 -195.73944337483954 0 0 0 0 -238.40023366392035 -337.7538405646992 0 -337.7538405646992 -337.10572621828032 0 0 0 0 0.054401654325438753 0.6079437615181007 0 0.6079437615181007 -3.3116673081542558 0 0 0 0 0.090280747357904492 -117.32002484142504 0 -117.32002484142504 -460.93316580998362 0 0 0 0 -37.733332021206763 49.454478029249003 0 49.454478029249003 -438.29653143923497 0 0 0 0 -30.754401654155345 -181.22623803200258 0 -181.22623803200258 -536.6293795388483 0 0 0 0 6.1973119210542791 -83.991733218615991 0 -83.991733218615991 -276.0717634728644 0 0 0 0 -94.881659969371128 -102.58495697360922 0 -102.58495697360922 -222.67955023952527 0 0 0 0 25.984675152409523 10.122352368605789 0 10.122352368605789 -292.31202122224931 0 0 0 0 -9.1464043903808943 -0.71875391753928852 0 -0.71875391753928852 -84.504885245070909 0 0 0 0 -74.981535152688309 -33.813595844563679 0 -33.813595844563679 -170.94879796863825 0 0 0 0 -51.568612033134627 57.700541750607954 0 57.700541750607954 51.942777693111566 0 0 0 0 51.507916600089743 99.570714887089707 0 99.570714887089707 -102.71487967731082 0 0 0 0 26.191811500777476 28.172888133762171 0 28.172888133762171 104.6128850542791 0 0 0 0 123.61802944416638 43.744089320705825 0 43.744089320705825 -66.740117020381149 0 0 0 0 -3.2360876497354782 5.0247605550801069 0 5.0247605550801069 -5.5692633720509548 0 0 0 0 -3.5702413670605893 6.4672140425900579 0 6.4672140425900579 34.593984192386415 0 0 0 0 78.71171121328598 113.08979072530201 0 113.08979072530201 19.999790528119775 0 0 0 0 39.406558401109578 163.4186627343588 0 163.4186627343588 -115.69576092649368 0 0 0 0 45.910260010536149 -165.49108176492155 0 -165.49108176492155 43.223257575526077 0 0 0 0 46.95117633732616 -20.986169660412997 0 -20.986169660412997 -79.175400103325956 0 0 0 0 23.411862795315756 11.150311894511105 0 11.150311894511105 24.905992446346318 0 0 0 0 59.504406419781844 -18.027872273043613 0 -18.027872273043613 -134.82055992746609 0 0 0 0 29.514522685628435 -3.8730887949786847 0 -3.8730887949786847 -89.688480150376563 0 0 0 0 76.909770276127801 6.4365100024879212 0 6.4365100024879212 -192.48495017043024 0 0 0 0 39.532533441120677 25.960080973236472 0 25.960080973236472 -43.589905529028329 0 0 0 0 77.876634060703282 18.780757946136873 0 18.780757946136873 -128.10830157990858 0 0 0 0 25.523207929762521 -40.122216327610658 0 -40.122216327610658 -112.54857453614386 0 0 0 0 -22.337653930341958 -72.018292613298399 0 -72.018292613298399 -159.06714433828529 0 0 0 0 50.446219536884655 -44.264563340027962 0 -44.264563340027962 -193.80153230245924 0 0 0 0 -41.951892624582683 -107.31274727868367 0 -107.31274727868367 -162.83339676677133 0 0 0 0 14.741457449750442 -64.43247765617707 0 -64.43247765617707 -141.97327837157354 0 0 0 0 39.52683767054998 -25.819475198550208 0 -25.819475198550208 -137.15530740332906 0 0 0 0 26.462454532249922 -30.799692030741426 0 -30.799692030741426 -111.63037826059008 0 0 0 0 31.813500805179501 -49.273136431846069 0 -49.273136431846069 -148.24002671759808 0 0 0 0 21.724269199117316 -43.842909947161388 0 -43.842909947161388 -135.59064366163511 0 0 0 0 7.2028132710688624 -52.726075688929996 0 -52.726075688929996 -138.19597911722667 0 0 0 0 16.156145755931448 -34.41922226018869 0 -34.41922226018869 -135.75678589427844 0 0 0 0 19.993494089476371 -30.585921792560839 0 -30.585921792560839 -132.0092867345702 0 0 0 0 5.2763089554246108 -35.377399437180429 0 -35.377399437180429 -113.86298509998596 0 0 0 0 2.5513232029379651 -28.166319614058011 0 -28.166319614058011 -132.32346688566759 0 0 0 0 -2.6058477400529227 -47.938946151785785 0 -47.938946151785785 -132.90080082444183 0 0 0 0 -3.3925465687120777 -51.175605046162673 0 -51.175605046162673 -116.1187318743323 0 0 0 0 -22.741448537496808 -54.590683684276883 0 -54.590683684276883 -115.07162462876295 0 0 0 0 -14.623636114828514 -39.586784324019391 0 -39.586784324019391 -89.624806804640684 0 0 0 0 -12.893400407972422 -36.475480937071552 0 -36.475480937071552 -112.54371493693907 0 0 0 0 -11.364753786721849 -28.613429980352521 0 -28.613429980352521 -89.928034757606838 0 0 0 0 -57.058864752043291 -68.775729805649462 0 -68.775729805649462 -107.77399449222139 0 0 0 0 -24.854964670159916 -77.907266933092615 0 -77.907266933092615 -138.47769904137203 0 0 0 0 -38.12956649026205 -54.086897414825216 0 -54.086897414825216 -80.211951640405459 0 0 0 0 -44.954116651369532 -70.846868823879049 0 -70.846868823879049 -107.66416855356874 0 0 0 0 -89.771855887098695 -60.657839399238583 0 -60.657839399238583 -56.553507547592744 0 0 0 0 34.498130237730777 25.231207223041565 0 25.231207223041565 -9.9526968470127031 0 0 0 0 -103.92786481809523 -105.16575529237525 0 -105.16575529237525 -102.67965260686469 0 0 0 0 -0.17273252316137055 2.6445452694329532 0 2.6445452694329532 -8.8309030088396412 0 0 0 0 0.0029565884495437586 -3.4939174237188126 0 -3.4939174237188126 -5.79927438143568 0 0 0 0 9.382950239230432 -15.354406217615178 0 -15.354406217615178 8.8204002749553183 0 0 0 0 54.337990236311327 42.856262976869402 0 42.856262976869402 -22.48508964569919 0 0 0 0 -71.829034461141589 -79.613334102361478 0 -79.613334102361478 -137.1319060689566 0 0 0 0 -65.122807546264482 -95.244680509402315 0 -95.244680509402315 -134.11404032875726 0 0 0 0 -234.83915899173027 -172.46782110248023 0 -172.46782110248023 -170.74811192398192 0 0 0 0 0.073391601415398161 21.620540779706062 0 21.620540779706062 -73.806975491443154 0 0 0 0 10.255775864499601 32.46872619586793 0 32.46872619586793 -64.720737128314795 0 0 0 0 3.6809419721289203 8.5318296711520816 0 8.5318296711520816 -59.819646469670261 0 0 0 0 6.5187415381040523 13.564221896795061 0 13.564221896795061 -83.756471008227436 0 0 0 0 -6.4471262912206875 20.796775382221313 0 20.796775382221313 -71.586182084902248 0 0 0 0 11.82884063523133 22.428541887329629 0 22.428541887329629 -108.72995535646623 0 0 0 0 -13.102895554187086 37.024925262208853 0 37.024925262208853 -103.49664990809833 0 0 0 0 -19.958224390200421 31.87931438110536 0 31.87931438110536 -85.704758860319089 0 0 0 0 -6.4135311897172684 45.729280408362683 0 45.729280408362683 -119.31813943933957 0 0 0 0 10.564260589901096 30.887247165872395 0 30.887247165872395 13.886242899185163 0 0 0 0 3.948686768806986 2.779361935071222 0 2.779361935071222 1.4031479877202031 0 0 0 0 -6.2706347937230476 14.796925202677812 0 14.796925202677812 42.400913411944202 0 0 0 0 -6.6052939820641541 13.721140231744357 0 13.721140231744357 107.61989554033062 0 0 0 0 -23.535711979160766 30.342323438468156 0 30.342323438468156 160.01405782040092 0 0 0 0 148.60963070814498 209.48819735800498 0 209.48819735800498 69.776193955040071 0 0 0 0 1.3011215076764491 1.1182960940485458 0 1.1182960940485458 0.60745294503044533 0 0 0 0 0.14453728556311773 15.65361994565319 0 15.65361994565319 -86.512136314937379 0 0 0 0 23.877736733262012 59.129033091929159 0 59.129033091929159 -119.91087939084537 0 0 0 0 29.642271312259169 85.704792699711106 0 85.704792699711106 -3.4582477198709967 0 0 0 0 38.006014498205772 55.800397249004163 0 55.800397249004163 -71.969671660566746 0 0 0 0 -0.092225370090328967 53.993631184788683 0 53.993631184788683 37.871262653745362 0 0 0 0 -147.03182440201016 -106.8963618011403 0 -106.8963618011403 -44.193279820727184 0 0 0 0 -9.190487393751356 65.568220942794142 0 65.568220942794142 122.9195893501892 0 0 0 0 -15.339264158335968 -6.7474652587807213 0 -6.7474652587807213 -22.77783900241775 0 0 0 0 -0.0091742484400992065 -0.87819978094557882 0 -0.87819978094557882 -50.93326181548764 0 0 0 0 58.587372463748693 25.205162924787146 0 25.205162924787146 -14.297866795259324 0 0 0 0 -51.64302161221174 9.9868956976824848 0 9.9868956976824848 91.603235912814853 0 0 0 0 -1.1305508074518289 0.78814119298070295 0 0.78814119298070295 -0.2819045261483808 0 0 0 0 -45.27696769020644 -116.78194991248893 0 -116.78194991248893 -31.72924907689594 0 0 0 0 20.17966610809005 -25.979298151937492 0 -25.979298151937492 -190.39149717626424 0 0 0 0 20.268331064442357 -48.038277710653347 0 -48.038277710653347 -116.37411407579202 0 0 0 0 0.06238311801894314 11.137065312170307 0 11.137065312170307 -177.570093942315 0 0 0 0 37.359948717626068 -19.495625152470893 0 -19.495625152470893 -188.10880874505528 0 0 0 0 23.019035950805709 61.459851614785293 0 61.459851614785293 -235.84146551406593 0 0 0 0 36.417359346000985 -0.30282333765353542 0 -0.30282333765353542 -242.80610878697917 0 0 0 0 -248.38211825713338 -140.9252103256913 0 -140.9252103256913 -82.594240376274684 0 0 0 0 -0.22166450910017449 -0.52387875415444451 0 -0.52387875415444451 -5.4249557253282319 0 0 0 0 -232.55146471870196 -284.58945105035923 0 -284.58945105035923 -270.60528002795763 0 0 0 0 -16.929657334399778 184.24230250482469 0 184.24230250482469 -392.71352251437202 0 0 0 0 56.653662507473925 -59.413517186592799 0 -59.413517186592799 -483.10415011187433 0 0 0 0 -53.11886346559627 76.904087873183869 0 76.904087873183869 98.692596731722006 0 0 0 0 -2.7338182370883355 1.7139642898397511 0 1.7139642898397511 -0.5568613364006012 0 0 0 0 0.28269549968649699 46.701766266931372 0 46.701766266931372 88.72529977301383 0 0 0 0 -1.9921757867018641 26.075950292666676 0 26.075950292666676 81.926204348372266 0 0 0 0 -14.753209026054584 66.396540587954746 0 66.396540587954746 103.67698198869039 0 0 0 0 -1.3047107657388892 1.3613672360945657 0 1.3613672360945657 -0.56364702794876109 0 0 0 0 -40.545522107211127 191.38012137918122 0 191.38012137918122 -80.887658381940128 0 0 0 0 49.735932690032314 134.30998272835859 0 134.30998272835859 -447.88450595481117 0 0 0 0 -31.188325462175499 237.19635377990198 0 237.19635377990198 -227.59324971876049 0 0 0 0 47.829467979941455 85.107714778278023 0 85.107714778278023 -116.78724782830977 0 0 0 0 73.859608824157476 132.32632918667514 0 132.32632918667514 -153.29204731537902 0 0 0 0 53.759045056739978 68.71467012118228 0 68.71467012118228 -183.43673297767236 0 0 0 0 81.974286553612089 -66.651027308129642 0 -66.651027308129642 -196.83858171557949 0 0 0 0 154.35815373344576 -108.10248358255194 0 -108.10248358255194 -190.96498742891708 0 0 0 0 82.547148534615545 -81.159269110820219 0 -81.159269110820219 -357.13691334039322 0 0 0 0 7.383504271619131 -194.67692381922097 0 -194.67692381922097 -499.00337390363165 0 0 0 0 19.363062993498716 220.52383199119504 0 220.52383199119504 -376.25087583068489 0 0 0 0 23.641512228091415 183.69024060679658 0 183.69024060679658 -62.042662494102842 0 0 0 0 5.6432999895096145 121.38662707422918 0 121.38662707422918 -2.4288926471053855 0 0 0 0 76.419766642582317 89.637273305716008 0 89.637273305716008 -272.08565929011093 0 0 0 0 441.49634647560845 -120.94205023429822 0 -120.94205023429822 -196.8284925667831 0 0 0 0 -406.06816912080421 243.89476506782194 0 243.89476506782194 296.4076886982366 0 0 0 0 0.12045046377610547 0.048583900073431607 0 0.048583900073431607 -2.4762225474214574 0 0 0 0 40.01644743450197 34.525716741241922 0 34.525716741241922 -223.0348177155829 0 0 0 0 250.20545211103308 32.07703636126098 0 32.07703636126098 -226.51051918603844 0 0 0 0 -22.808661221373313 79.891652358281135 0 79.891652358281135 33.983246064053674 0 0 0 0 189.68963465089564 -101.85278427202138 0 -101.85278427202138 20.475459203919854 0 0 0 0 5.9858714505899115 94.467203965061344 0 94.467203965061344 -23.494343463622499 0 0 0 0 71.486629397992715 -83.576781442909123 0 -83.576781442909123 -83.59697984943341 0 0 0 0 1.6787145595284212 5.8184604359016276 0 5.8184604359016276 -2.5017272552678946 0 0 0 0 93.368289268322314 -7.6241980322847667 0 -7.6241980322847667 -320.14385548219434 0 0 0 0 5.9005791508880066 103.50834440244944 0 103.50834440244944 -9.670781939275912 0 0 0 0 -63.213720473591366 17.091381114089018 0 17.091381114089018 31.847356352896895 0 0 0 0 -80.600829767196046 55.317411623967928 0 55.317411623967928 -14.139657896579592 0 0 0 0 313.17043663020468 73.948657813431055 0 73.948657813431055 -144.88101424573688 0 0 0 0 0.57654513918874173 0.24843404003811997 0 0.24843404003811997 -7.4083963273051836 0 0 0 0 -16.145018450921356 84.58569508719529 0 84.58569508719529 31.668708031400456 0 0 0 0 25.82938090255675 60.797632917987357 0 60.797632917987357 37.928214369463603 0 0 0 0 70.021464293026838 47.59354016839643 0 47.59354016839643 -33.495789027976571 0 0 0 0 -12.16197601113754 42.68271770854335 0 42.68271770854335 -3.844526989320002 0 0 0 0 1.4788758343753896 4.5420300047811253 0 4.5420300047811253 -13.841835054779892 0 0 0 0 1.464667858955174 4.1025750696617926 0 4.1025750696617926 -31.889987190908244 0 0 0 0 39.626854113917716 16.416702129465193 0 16.416702129465193 -64.898801242321497 0 0 0 0 3.8004306932830065 0.038912105570297228 0 0.038912105570297228 -21.408274079292994 0 0 0 0 3.106742154356922 0.80110658747877039 0 0.80110658747877039 -30.704150201629346 0 0 0 0 16.794699692448603 -10.935588038904825 0 -10.935588038904825 -56.797057554591447 0 0 0 0 10.941411577487202 0.18744791943572636 0 0.18744791943572636 -18.608143276549526 0 0 0 0 12.470976746321412 0.20832746759333531 0 0.20832746759333531 -24.117560065067664 0 0 0 0 17.279146538083751 6.6927083932532696 0 6.6927083932532696 -30.868582633120241 0 0 0 0 13.057621857083632 11.901714467887359 0 11.901714467887359 -20.360265631432412 0 0 0 0 28.562258842029678 7.4316591918541235 0 7.4316591918541235 -37.48086898503243 0 0 0 0 23.194499782338028 29.923916076147179 0 29.923916076147179 11.685961737122852 0 0 0 0 70.415381738064411 43.739535916914974 0 43.739535916914974 -10.751957082931767 0 0 0 0 2.0547109091451148 34.235155865793786 0 34.235155865793786 10.806872070010286 0 0 0 0 12.173156134531837 29.177680454318761 0 29.177680454318761 18.358127179722942 0 0 0 0 21.084611832055202 33.426126108421158 0 33.426126108421158 35.160147636401234 0 0 0 0 -8.3762153894390394 11.034069728666509 0 11.034069728666509 22.81453588030854 0 0 0 0 10.712670370085334 10.387187896594696 0 10.387187896594696 34.760356917744502 0 0 0 0 10.439131706703165 3.5799297664343612 0 3.5799297664343612 -21.744413903739769 0 0 0 0 14.930471593558195 21.736048821512668 0 21.736048821512668 -30.934049375548057 0 0 0 0 17.777492441364302 15.05115048899097 0 15.05115048899097 -14.917889175805612 0 0 0 0 4.4572495271650041 12.40648106073786 0 12.40648106073786 -14.065572973504459 0 0 0 0 1.2339928397968833 8.4225931705950643 0 8.4225931705950643 -18.229630555026233 0 0 0 0 2.8881017951471222 3.1756181082309922 0 3.1756181082309922 -27.270972518323106 0 0 0 0 -13.866181705618146 55.102342519327067 0 55.102342519327067 -123.34095789224375 0 0 0 0 -11.486299838757077 76.191972032669582 0 76.191972032669582 -97.764014900603797 0 0 0 0 -0.38096051360995586 1.6706665165622638 0 1.6706665165622638 0.84767874305736512 0 0 0 0 -0.6256692066517644 73.254677170451032 0 73.254677170451032 -142.87969832334784 0 0 0 0 -13.233790914697693 67.737184700192302 0 67.737184700192302 -137.68981363624334 0 0 0 0 -45.979134930230714 50.193262807548308 0 50.193262807548308 -10.141000366798835 0 0 0 0 -0.35911275401713283 78.90113508340437 0 78.90113508340437 -139.98635688259674 0 0 0 0 -9.0060045547227219 82.251041182578774 0 82.251041182578774 -137.03940302861156 0 0 0 0 6.3561431130272146 3.753357491064321 0 3.753357491064321 1.365458330498555 0 0 0 0 -3.0732599651441319 54.961708972456108 0 54.961708972456108 -125.30355655141466 0 0 0 0 -1.8304212751606883 55.835009553979035 0 55.835009553979035 -126.20358250726713 0 0 0 0 1.517977479117917 30.578175183192798 0 30.578175183192798 -107.91033636205248 0 0 0 0 10.232194283548154 -8.924712032872776 0 -8.924712032872776 -86.207347518105962 0 0 0 0 21.332270128601181 31.214636098826304 0 31.214636098826304 -133.66773639518942 0 0 0 0 26.488404423107482 -3.5125415961992985 0 -3.5125415961992985 -320.78265867556911 0 0 0 0 3.7292802359376083 131.9223399664188 0 131.9223399664188 -257.97092135701678 0 0 0 0 25.325999611360317 8.592196660094487 0 8.592196660094487 -147.87928528250632 0 0 0 0 16.298353656997335 46.181914436037914 0 46.181914436037914 -177.47192998739774 0 0 0 0 16.430179153191034 2.4912388763041236 0 2.4912388763041236 -151.67426606506342 0 0 0 0 -37.715993388509105 -89.215042019524844 0 -89.215042019524844 -156.14134422045026 0 0 0 0 33.612806710771792 -42.69787321005424 0 -42.69787321005424 -231.44058717646112 0 0 0 0 44.210877006757528 -22.634470612254518 0 -22.634470612254518 -193.4902913785736 0 0 0 0 49.183357553868063 -1.8117380009352928 0 -1.8117380009352928 -186.02855933677347 0 0 0 0 9.3250783664102528 -42.716079454869032 0 -42.716079454869032 -202.91237390028255 0 0 0 0 10.425784370412657 -18.310547124652658 0 -18.310547124652658 -191.92779359313136 0 0 0 0 16.487033297013113 -11.327709980017971 0 -11.327709980017971 -188.78074177145027 0 0 0 0 -2.9990562564471475 -17.643393429360003 0 -17.643393429360003 -181.08424433303298 0 0 0 0 -13.099496161119646 -48.222800780942634 0 -48.222800780942634 -115.06660112437385 0 0 0 0 4.5061918327909378 -3.8059707732464148 0 -3.8059707732464148 -14.930070977649734 0 0 0 0 61.122274339239993 -18.281072318495717 0 -18.281072318495717 -255.93177147471579 0 0 0 0 -0.30220395862397709 -11.24652787890227 0 -11.24652787890227 -179.26885014632717 0 0 0 0 -48.010876891457883 -69.508713930554222 0 -69.508713930554222 -249.95912104123272 0 0 0 0 -2.0276509211100158 -9.2244519835476595 0 -9.2244519835476595 3.5447397427433884 0 0 0 0 13.76189598415931 2.4130101853806991 0 2.4130101853806991 -35.551961234406917 0 0 0 0 17.516876852967016 4.233800336427521 0 4.233800336427521 -10.443170685015502 0 0 0 0 8.330139670881703 3.549081540323769 0 3.549081540323769 -1.8452729669789463 0 0 0 0 1.4044132213789482 -1.2037026857907733 0 -1.2037026857907733 -1.5470274915352036 0 0 0 0 -95.005492823303598 5.4654416334451525 0 5.4654416334451525 -5.3691027739550918 0 0 0 0 -71.031328794004594 141.85620866881072 0 141.85620866881072 -132.55216553053469 0 0 0 0 -41.078536106264323 -98.958870924194343 0 -98.958870924194343 -193.38412937843168 0 0 0 0 1.6469189004720359 0.42249918516230878 0 0.42249918516230878 -1.8997781456189387 0 0 0 0 32.415340795667362 -20.646737597970059 0 -20.646737597970059 -216.87621527963347 0 0 0 0 5.8639267918620854 -21.784747684121243 0 -21.784747684121243 -3.2070999735676509 0 0 0 0 3.0392314340610938 3.3434398925455753 0 3.3434398925455753 -62.101292226908299 0 0 0 0 -3.3954896224586264 -12.57122463775886 0 -12.57122463775886 -185.9902999564365 0 0 0 0 -0.32939425905975206 14.515556725716095 0 14.515556725716095 -7.9279653586583549 0 0 0 0 3.7156785096756266 11.058843738333962 0 11.058843738333962 -106.20181257145305 0 0 0 0 15.485730943806715 9.6040200253005423 0 9.6040200253005423 -173.01970955592697 0 0 0 0 40.506367060701677 16.672713639010908 0 16.672713639010908 -177.81118566367877 0 0 0 0 2.2458032675842361 -5.7099748416095508 0 -5.7099748416095508 -274.03905158009729 0 0 0 0 -1.059175219266308 -56.648112878407119 0 -56.648112878407119 -167.97000862385175 0 0 0 0 2.8026248199003021 -68.88542332452198 0 -68.88542332452198 -317.38826265104217 0 0 0 0 19.213151870752739 6.5544106932833017 0 6.5544106932833017 -36.722168567136976 0 0 0 0 31.595741624959373 11.871726878393019 0 11.871726878393019 -330.7629577379721 0 0 0 0 22.634138348687088 -16.225718385094723 0 -16.225718385094723 -123.12489238241329 0 0 0 0 -4.4497533226954147 -74.346623669969631 0 -74.346623669969631 -215.44848516779166 0 0 0 0 -34.425072747203558 -112.51464911129915 0 -112.51464911129915 -337.36055281274821 0 0 0 0 -94.152677988580763 -79.443634273531643 0 -79.443634273531643 -407.96782934992825 0 0 0 0 4.8550698068220548 28.042173041524315 0 28.042173041524315 -50.427854139657555 0 0 0 0 11.143677908125539 5.1390159392046826 0 5.1390159392046826 -79.176670162371011 0 0 0 0 0.37808911396950862 -99.701820636233606 0 -99.701820636233606 -421.35218957703182 0 0 0 0 -0.34522104888394267 3.1443911410995895 0 3.1443911410995895 -46.78509597380318 0 0 0 0 -1.9863629273218333 -21.864146377307364 0 -21.864146377307364 -29.771031139881906 0 0 0 0 6.3369937140805632 -1.3497020338545553 0 -1.3497020338545553 -87.145117173690778 0 0 0 0 11.100039134913086 -8.453795925466423 0 -8.453795925466423 -49.317496758996242 0 0 0 0 11.94966081151415 -0.47067324924864806 0 -0.47067324924864806 -64.514454854150245 0 0 0 0 -2.3157135926858246 5.511011825670721 0 5.511011825670721 -59.045649178573512 0 0 0 0 -10.223478347262244 15.382164920625655 0 15.382164920625655 -62.917671796596551 0 0 0 0 -1.229640288401697 9.0470704273129741 0 9.0470704273129741 -48.322221348535095 0 0 0 0 0.24482333957166702 7.9927113611956884 0 7.9927113611956884 -57.873993061111833 0 0 0 0 12.124334372740577 -6.8570944766615867 0 -6.8570944766615867 -66.223042287427234 0 0 0 0 8.6575988706889078 -6.8696678420634711 0 -6.8696678420634711 -48.185973959443459 0 0 0 0 -7.6608537579945732 12.550990154006286 0 12.550990154006286 -50.440567451281822 0 0 0 0 -4.2076198343643227 -1.9399457675826852 0 -1.9399457675826852 -49.4765445787516 0 0 0 0 -4.795589510553782 -0.89630363152537029 0 -0.89630363152537029 -49.772633931970631 0 0 0 0 12.830126057419875 -4.4665169760482968 0 -4.4665169760482968 -55.985696046147496 0 0 0 0 -4.5781346882613434 -3.3437367767073738 0 -3.3437367767073738 -50.34374565771941 0 0 0 0 3.3628134152081657 -11.828260868507641 0 -11.828260868507641 -48.293620813157759 0 0 0 0 -15.619176147421967 5.9398744420104777 0 5.9398744420104777 -35.431297441515198 0 0 0 0 6.4110483107324825 -1.1446329119854539 0 -1.1446329119854539 -16.391744292603377 0 0 0 0 1.1238927750263255 5.6568425014006252 0 5.6568425014006252 -29.260142542194671 0 0 0 0 5.0053027800909593 4.5235150776379243 0 4.5235150776379243 -30.171153853840622 0 0 0 0 2.8382842392593375 4.2060220466382816 0 4.2060220466382816 -57.586009836006269 0 0 0 0 5.6193992237431303 25.724222880617162 0 25.724222880617162 -25.9332073892474 0 0 0 0 0.68759405315131517 8.5466426189568665 0 8.5466426189568665 -58.368563524687488 0 0 0 0 -1.3853744628199181 11.407914070578684 0 11.407914070578684 -25.766252728839419 0 0 0 0 -5.0903302974866165 11.109382289439964 0 11.109382289439964 -58.293220060157182 0 0 0 0 -1.2921486688201185 6.0356469127400487 0 6.0356469127400487 -56.451847396456287 0 0 0 0 2.223672530769818 84.186495771198679 0 84.186495771198679 -33.098314115908579 0 0 0 0 2.9459885883215975 4.0210576789941115 0 4.0210576789941115 -55.508139940007823 0 0 0 0 1.4674460296011773 6.6640972783689811 0 6.6640972783689811 -60.588817191987943 0 0 0 0 29.238184057698163 86.794367101058015 0 86.794367101058015 -49.946900748560438 0 0 0 0 4.3168284271187076 97.071637539240328 0 97.071637539240328 -33.981383369391551 0 0 0 0 5.6645709775850293 119.20417713880096 0 119.20417713880096 -27.84091177987284 0 0 0 0 81.930744453828083 50.495665331312921 0 50.495665331312921 -31.998445414559683 0 0 0 0 8.987111134293631 -3.7568849989765312 0 -3.7568849989765312 -44.357166851509135 0 0 0 0 20.871512504516431 14.45288276390238 0 14.45288276390238 -90.707443146857258 0 0 0 0 -1.8214552059242219 25.712420870309664 0 25.712420870309664 -87.924497912862506 0 0 0 0 25.209051123943027 25.612600303511499 0 25.612600303511499 -102.03771805090946 0 0 0 0 125.79546172671053 102.25197429711261 0 102.25197429711261 -119.18387166865432 0 0 0 0 172.70395746631038 79.430779581394745 0 79.430779581394745 -122.48063921107678 0 0 0 0 75.961906101258819 75.506716812051309 0 75.506716812051309 -83.553394663133076 0 0 0 0 55.974344076270427 109.75509357082774 0 109.75509357082774 -99.437321770281415 0 0 0 0 81.930744453859006 50.495665331327473 0 50.495665331327473 -31.998445414545131 0 0 0 0 81.930744453866282 50.495665331342025 0 50.495665331342025 -31.998445414554226 0 0 0 0 -14.057304393195409 58.753939769172575 0 58.753939769172575 -157.66465360936854 0 0 0 0 10.606387365797673 20.217060059843789 0 20.217060059843789 -97.655300680980872 0 0 0 0 15.784156778803663 31.412315560024581 0 31.412315560024581 -100.68442314433923 0 0 0 0 21.575985841983311 9.2365754004592873 0 9.2365754004592873 -115.3141692715144 0 0 0 0 1.1271543819439103 -7.7382279938756255 0 -7.7382279938756255 -65.084589247759141 0 0 0 0 -12.697015021104562 -33.767042872534148 0 -33.767042872534148 -130.86532902628824 0 0 0 0 0.41756020920286119 -3.8310617234674282 0 -3.8310617234674282 -82.701598022104008 0 0 0 0 -2.7347139794709037 0.48711350570584955 0 0.48711350570584955 -8.8349024570113954 0 0 0 0 30.554830410746945 22.429264648821118 0 22.429264648821118 -41.785750389153691 0 0 0 0 4.5179239161479927 -22.364735727100197 0 -22.364735727100197 -85.438681913410164 0 0 0 0 8.387810099095665 -11.209183806301183 0 -11.209183806301183 -39.139776819088922 0 0 0 0 5.1578722429167101 -26.589204607898864 0 -26.589204607898864 -63.010169951141506 0 0 0 0 3.1504891064241747 -4.1950006260703958 0 -4.1950006260703958 -42.034005587905995 0 0 0 0 -0.13758962860265456 5.1373496456290013 0 5.1373496456290013 -52.978194802156395 0 0 0 0 20.10825410518737 6.684020809490903 0 6.684020809490903 -43.485435585349478 0 0 0 0 9.0372998853998254 -4.5173425547726822 0 -4.5173425547726822 -26.957459562835822 0 0 0 0 26.603420702003859 9.4578645562669408 0 9.4578645562669408 -67.584202350339183 0 0 0 0 -23.338496667531928 62.021627523831967 0 62.021627523831967 -64.483667338608939 0 0 0 0 14.453035953781182 -4.8140516345920332 0 -4.8140516345920332 -17.882347858940193 0 0 0 0 -25.377181688882956 25.984724748523149 0 25.984724748523149 -41.153431236118195 0 0 0 0 -74.603272389861559 65.9577031888075 0 65.9577031888075 18.814963346607328 0 0 0 0 -9.8750969833554336 -40.883030552922719 0 -40.883030552922719 -277.57717712878366 0 0 0 0 -3.3880180511963864 0.38052640184700692 0 0.38052640184700692 2.0166612564895559 0 0 0 0 -70.425798490249775 131.05200176814026 0 131.05200176814026 -115.71453717743861 0 0 0 0 7.2974567432902404 9.3818365973311302 0 9.3818365973311302 -218.7712684059552 0 0 0 0 -36.077582606562828 0.0011573250376386568 0 0.0011573250376386568 -77.864138013023876 0 0 0 0 -110.13284334406234 -42.974489587970311 0 -42.974489587970311 -88.528996357017604 0 0 0 0 -99.153717185809398 93.955960838623923 0 93.955960838623923 -186.2027699833925 0 0 0 0 -41.377196494754571 14.088474082702305 0 14.088474082702305 -91.150716933643707 0 0 0 0 57.137645342787096 -7.6023224572372783 0 -7.6023224572372783 -87.687410841310339 0 0 0 0 33.621623601148713 8.1925959671480086 0 8.1925959671480086 -54.972747263807832 0 0 0 0 20.957183908428139 0.64272934931569381 0 0.64272934931569381 -19.815293619082453 0 0 0 0 42.646253971294072 -28.474696026842139 0 -28.474696026842139 -59.730379383736363 0 0 0 0 18.115547324115596 44.278565642747708 0 44.278565642747708 -110.08818001061445 0 0 0 0 2.0615218775803328 -0.64967124768681117 0 -0.64967124768681117 -19.264665417581334 0 0 0 0 81.04698565084891 5.9522552021880983 0 5.9522552021880983 -79.542705864099844 0 0 0 0 15.7845769233395 -66.964567737266407 0 -66.964567737266407 -64.500547875388293 0 0 0 0 60.961757927608232 -20.955501829116656 0 -20.955501829116656 -81.652040235101595 0 0 0 0 2.020293320470278 -9.7051899868540445 0 -9.7051899868540445 -55.766504285266038 0 0 0 0 -1.8668832549056069 -5.7612421156969909 0 -5.7612421156969909 -33.264057274975016 0 0 0 0 16.818093276407865 -33.93869518348265 0 -33.93869518348265 -32.968367847966874 0 0 0 0 4.4202438612169317 12.742488614867398 0 12.742488614867398 -45.952370049002639 0 0 0 0 -42.941728732155298 79.348705509659339 0 79.348705509659339 -52.996007483001449 0 0 0 0 -56.332527820869927 48.360910783983854 0 48.360910783983854 -54.702521921152766 0 0 0 0 -79.421627216281649 127.76416006354339 0 127.76416006354339 -126.32331745135889 0 0 0 0 -63.11937480963195 135.27510884785261 0 135.27510884785261 -346.8152118501057 0 0 0 0 -143.8604774589472 31.880118777528878 0 31.880118777528878 -6.8624959127264447 0 0 0 0 -0.87352393936174733 -1.5206921841745942 0 -1.5206921841745942 -5.8748118574934125 0 0 0 0 -2.4180434189433266 -1.0192112457961642 0 -1.0192112457961642 -3.5210513937872463 0 0 0 0 55.442008196852953 169.86699492327716 0 169.86699492327716 -339.27786353586271 0 0 0 0 -647.92802803090194 -561.10291339889227 0 -561.10291339889227 194.473455450443 0 0 0 0 -16.936398753072119 21.687774895989467 0 21.687774895989467 -12.426247797263258 0 0 0 0 -225.37250303466953 332.45075553406241 0 332.45075553406241 297.88017548836979 0 0 0 0 -8.2062233825836302 -25.783468145709776 0 -25.783468145709776 -42.477094993893843 0 0 0 0 -270.43702842043797 218.06089318742124 0 218.06089318742124 459.51157566900292 0 0 0 0 -41.897632713172698 -22.162654224108337 0 -22.162654224108337 133.1956554652279 0 0 0 0 99.21901402446565 194.74967387688957 0 194.74967387688957 -127.67141050817372 0 0 0 0 -8.9776798203040098 17.949335230388165 0 17.949335230388165 -20.527809335412755 0 0 0 0 16.486491200957971 69.741771522276395 0 69.741771522276395 32.256532207153214 0 0 0 0 145.67443816749005 -60.424537509769834 0 -60.424537509769834 -48.858418222589535 0 0 0 0 56.090140524421258 -31.821845509643026 0 -31.821845509643026 -225.78995471774761 0 0 0 0 -184.48422592549991 -19.440681770198353 0 -19.440681770198353 -51.591500343653024 0 0 0 0 7.8643591251770886 -7.397324867873067 0 -7.397324867873067 -32.382621776603628 0 0 0 0 33.423381189804786 -27.585929896680682 0 -27.585929896680682 -49.885157058618461 0 0 0 0 6.4614253891395297 -8.9285218027384374 0 -8.9285218027384374 -24.438408560017848 0 0 0 0 -7.7873165664686894 11.656223052872519 0 11.656223052872519 -80.182191535110178 0 0 0 0 19.892283396751736 -50.802060558165977 0 -50.802060558165977 -21.786633422420437 0 0 0 0 4.7495984910361422 -6.8508789024666754 0 -6.8508789024666754 -34.4521976798667 0 0 0 0 67.179755548524554 2.5666725421560841 0 2.5666725421560841 -231.96010355890758 0 0 0 0 27.834106131766021 85.985238756602485 0 85.985238756602485 -287.84046853029577 0 0 0 0 64.17395876261071 -18.260356062579376 0 -18.260356062579376 -282.00119608204841 0 0 0 0 7.1507638714149735 4.5948072588016515 0 4.5948072588016515 -15.245547076144575 0 0 0 0 7.6699541470525219 -20.948384004647096 0 -20.948384004647096 -307.9030908354689 0 0 0 0 68.507051253058307 -0.32658111376440502 0 -0.32658111376440502 -323.25563135392258 0 0 0 0 69.891426190471066 1.2110852805044487 0 1.2110852805044487 -346.71915641860687 0 0 0 0 96.000091911228083 33.334032589275012 0 33.334032589275012 -318.6654236714021 0 0 0 0 32.756754221107258 -29.479595881060959 0 -29.479595881060959 -336.5864375502515 0 0 0 0 -4.2287447988018236 32.780384667201361 0 32.780384667201361 -23.610934291975457 0 0 0 0 12.535040416907577 -12.59577895637085 0 -12.59577895637085 -319.9413567666179 0 0 0 0 35.354768828399756 -23.632873196200308 0 -23.632873196200308 -318.95948398700057 0 0 0 0 56.139087453464526 -0.16052151211260934 0 -0.16052151211260934 -322.32326330304568 0 0 0 0 -0.42838564798921652 5.736388352414906 0 5.736388352414906 -209.18790361138235 0 0 0 0 102.05529012702027 -22.16388661291785 0 -22.16388661291785 -330.30661170450185 0 0 0 0 52.023931125182571 -22.6414925895333 0 -22.6414925895333 -271.54689514053462 0 0 0 0 33.043377944733948 -60.256070590583477 0 -60.256070590583477 -280.54664618113384 0 0 0 0 54.364388411431264 -26.033022738447471 0 -26.033022738447471 -328.18878335147383 0 0 0 0 22.631123581775682 -107.43371097399722 0 -107.43371097399722 -327.45160996037157 0 0 0 0 89.442313025187786 -68.292319714578753 0 -68.292319714578753 -436.45277100024396 0 0 0 0 85.822400557093715 -117.89752019093066 0 -117.89752019093066 -340.52292114401644 0 0 0 0 -202.39385871397008 -210.11453233301563 0 -210.11453233301563 -178.27457876564949 0 0 0 0 -356.78658950317367 -454.42309514664885 0 -454.42309514664885 -559.33327972001644 0 0 0 0 45.357096712238672 -231.62672136317451 0 -231.62672136317451 -654.77737947503192 0 0 0 0 117.29214498008196 24.865790830554033 0 24.865790830554033 -487.66520359823335 0 0 0 0 82.397043334453201 -119.62099262491893 0 -119.62099262491893 -1060.850812980847 0 0 0 0 -247.5981317432479 397.14333622960658 0 397.14333622960658 -530.98178008987088 0 0 0 0 217.23701399518723 160.03777283643376 0 160.03777283643376 -378.17262408487295 0 0 0 0 160.68066379367701 39.175865321116362 0 39.175865321116362 -404.63940667672796 0 0 0 0 97.703000666057051 45.898817397566745 0 45.898817397566745 -262.08474538876908 0 0 0 0 104.11785899097413 -6.1543400853661296 0 -6.1543400853661296 -395.59149213892579 0 0 0 0 19.293758301402249 -7.5436762104964146 0 -7.5436762104964146 -15.723664913897665 0 0 0 0 13.700208297822318 -11.56469118208696 0 -11.56469118208696 -3.0011592537566685 0 0 0 0 13.746251344767643 -18.163109286771942 0 -18.163109286771942 -44.252420350349439 0 0 0 0 13.490685839095022 -25.372043834730903 0 -25.372043834730903 -65.28742893449089 0 0 0 0 -8.483950868339889 -17.143541195024227 0 -17.143541195024227 -17.95853571965381 0 0 0 0 9.0869162436683837 -10.201628608854662 0 -10.201628608854662 -15.510210222886826 0 0 0 0 6.9807315343059599 -3.722572345242952 0 -3.722572345242952 -22.504602397513736 0 0 0 0 4.3423227838929677 -10.094715409661156 0 -10.094715409661156 -6.6290271290029441 0 0 0 0 12.995712453555566 -6.5341146656017344 0 -6.5341146656017344 -46.795764804594015 0 0 0 0 2.6618943434459652 -7.3930054106922398 0 -7.3930054106922398 -12.865032780051479 0 0 0 0 5.19971606903718 -5.518221875993703 0 -5.518221875993703 -23.916618777948997 0 0 0 0 8.0641829105006764 -7.9553818368876819 0 -7.9553818368876819 -12.961133919177882 0 0 0 0 5.0941129670641399 -15.299194185120122 0 -15.299194185120122 -14.737580366822243 0 0 0 0 0.49800011752014228 1.7811769296073763 0 1.7811769296073763 -3.6618604953624327 0 0 0 0 -11.198097358545056 -20.536413097321201 0 -20.536413097321201 -74.203732193920587 0 0 0 0 0.54513067621518196 2.5834277611037919 0 2.5834277611037919 -23.324764966289898 0 0 0 0 71.489208124085508 -12.667216102004204 0 -12.667216102004204 -49.754556017607683 0 0 0 0 -30.798808817229116 -12.249540209275779 0 -12.249540209275779 -76.104572476444446 0 0 0 0 41.279950741418588 11.324097770115714 0 11.324097770115714 -52.267752427429514 0 0 0 0 -27.958398425838951 -151.1930411081637 0 -151.1930411081637 -262.20349934638216 0 0 0 0 40.114014209755624 3.9462605953831371 0 3.9462605953831371 -96.683615758862288 0 0 0 0 3.4625224069506721 -4.0649670910627833 0 -4.0649670910627833 -6.0956597272447794 0 0 0 0 -26.259969931646992 -108.52704060602809 0 -108.52704060602809 -206.82287278224703 0 0 0 0 36.949091537819186 -35.285983410080007 0 -35.285983410080007 -258.80285337060741 0 0 0 0 51.205186470540866 -42.633356421996723 0 -42.633356421996723 -272.04120124720669 0 0 0 0 80.269531576338068 -83.306773584904022 0 -83.306773584904022 -179.14100586898348 0 0 0 0 10.555069333732263 -56.918004487839426 0 -56.918004487839426 -161.19829347940686 0 0 0 0 25.022588865213066 -17.581882092341374 0 -17.581882092341374 -100.85318885557902 0 0 0 0 -6.5391496938063938 7.8211154982636799 0 7.8211154982636799 -116.94974132682501 0 0 0 0 0.73212853526195687 7.1886840891146733 0 7.1886840891146733 -27.02179809384327 0 0 0 0 10.804668047458108 24.559638078808348 0 24.559638078808348 -134.24446497617464 0 0 0 0 3.3741840041575415 -33.375879716931195 0 -33.375879716931195 -21.173251623291435 0 0 0 0 23.000595496868957 -15.894117103638621 0 -15.894117103638621 -35.647030222967238 0 0 0 0 19.360705525371259 -3.2081327608357242 0 -3.2081327608357242 -52.396103974441303 0 0 0 0 21.101629697788894 -16.507932756496302 0 -16.507932756496302 -55.545173527185398 0 0 0 0 16.768128255744198 -6.5881448091815642 0 -6.5881448091815642 -42.044412443635323 0 0 0 0 -2.6257032818474935 -1.3666755735791867 0 -1.3666755735791867 -34.356674646362094 0 0 0 0 10.165461512615593 -6.167783935310581 0 -6.167783935310581 -56.893003907767707 0 0 0 0 7.0197258218868228 30.649634478111693 0 30.649634478111693 -73.722979867794493 0 0 0 0 -7.4055692318447655 17.343550244748258 0 17.343550244748258 -44.376528794782644 0 0 0 0 0.60344275464285602 13.681128546082618 0 13.681128546082618 -76.885056203915155 0 0 0 0 12.022181205492796 -4.4032588534892554 0 -4.4032588534892554 -48.433541823656753 0 0 0 0 -9.7546291166601513 12.333891561018326 0 12.333891561018326 -34.640871397777772 0 0 0 0 -1.550734814825546 2.1280714855056431 0 2.1280714855056431 -30.950700753761339 0 0 0 0 -118.82333587805923 14.807221067054343 0 14.807221067054343 99.835679319425253 0 0 0 0 51.263533295452589 -106.91134123661323 0 -106.91134123661323 -135.4308151708974 0 0 0 0 -6.9855261094611691 -4.6347828224450893 0 -4.6347828224450893 -18.375729192004279 0 0 0 0 3.3775123088053078 23.279155377029383 0 23.279155377029383 -55.821924015943296 0 0 0 0 13.063318170925049 4.6558915520621582 0 4.6558915520621582 -12.25482245070457 0 0 0 0 46.272041169679881 -31.697205615466373 0 -31.697205615466373 -93.656190196121315 0 0 0 0 -0.32228187113758766 -15.610278984780606 0 -15.610278984780606 -39.599638616902695 0 0 0 0 12.783022994851308 -11.557709353527571 0 -11.557709353527571 -45.794394029293471 0 0 0 0 10.211277816759321 -14.373422640068384 0 -14.373422640068384 -47.838815870301914 0 0 0 0 7.1371678512985657 -7.6849532022712141 0 -7.6849532022712141 -29.665744543650149 0 0 0 0 11.329179495196513 -13.347354972318499 0 -13.347354972318499 -47.850314488220647 0 0 0 0 -36.511290403140947 -63.874873840218243 0 -63.874873840218243 -78.581199060783547 0 0 0 0 31.372084966120383 -31.167353925120551 0 -31.167353925120551 -113.01183870558089 0 0 0 0 3.5844369277156249 -3.285640577052833 0 -3.285640577052833 -2.0895408379210494 0 0 0 0 22.22915117610512 12.850991246025728 0 12.850991246025728 -10.522226579676499 0 0 0 0 -38.24966810906588 30.272910833655715 0 30.272910833655715 -15.505094581378216 0 0 0 0 25.47538032192233 -39.545428395380441 0 -39.545428395380441 -2.0755725513281504 0 0 0 0 -44.472353724320826 -33.925308104671785 0 -33.925308104671785 -0.69962842916720547 0 0 0 0 -180.34802539221209 285.79920393166685 0 285.79920393166685 -89.479042075648977 0 0 0 0 32.055608399547964 -70.378681420325847 0 -70.378681420325847 -166.43755833119212 0 0 0 0 5.4808047237483883 -2.8964070433335962 0 -2.8964070433335962 -28.350331585530455 0 0 0 0 -25.110672733856291 -22.625467239955469 0 -22.625467239955469 -21.181101520018274 0 0 0 0 -1.2880615600939791 -12.187051382970822 0 -12.187051382970822 -41.966104957555217 0 0 0 0 12.219943320590668 -4.2549449829676824 0 -4.2549449829676824 -22.161944612669799 0 0 0 0 6.2868628109075511 -3.0868856374802505 0 -3.0868856374802505 -29.876203523523614 0 0 0 0 -354.41106863058212 -67.556930060345621 0 -67.556930060345621 -55.943970619540778 0 0 0 0 -9.6357259442124938 2.384560680228347 0 2.384560680228347 -8.3133158588139509 0 0 0 0 0.85181312948691357 8.7007871748865 0 8.7007871748865 -38.420236963469506 0 0 0 0 30.066333135711602 -25.737676633641968 0 -25.737676633641968 -74.782704776363971 0 0 0 0 6.1277874451653416 -5.7045174870283475 0 -5.7045174870283475 -6.8979742030167586 0 0 0 0 -403.89759438487044 171.49323591622306 0 171.49323591622306 -62.578561792681285 0 0 0 0 -346.12926746710571 1303.7947251880032 0 1303.7947251880032 -2065.8322889040646 0 0 0 0 -1413.6377350011605 1166.6575545063024 0 1166.6575545063024 -283.91514970422941 0 0 0 0 -658.49984642492461 753.31578160989739 0 753.31578160989739 -2496.8221232196338 0 0 0 0 -408.95774658931566 955.38447524697767 0 955.38447524697767 -2497.6971699964051 0 0 0 0 -528.84405583940668 963.5659737611968 0 963.5659737611968 -2155.89584189169 0 0 0 0 -421.65546809882716 1251.439358740703 0 1251.439358740703 -2498.4168810529336 0 0 0 0 101.47703000621824 -37.450516180899285 0 -37.450516180899285 -962.52504033740115 0 0 0 0 2.6103169533001971 0.01342218066193368 0 0.01342218066193368 -6.7011932292191148 0 0 0 0 94.536882551499417 144.66301669111635 0 144.66301669111635 -2031.0705344540329 0 0 0 0 -91.677154122006357 645.04236813377065 0 645.04236813377065 -1078.6207340118608 0 0 0 0 -86.959727967703799 674.27544576510263 0 674.27544576510263 -921.10025755967217 0 0 0 0 -535.2968177978089 792.14842502461761 0 792.14842502461761 -770.45395421794092 0 0 0 0 -177.41430313280051 719.0995482957494 0 719.0995482957494 -1294.6886133089574 0 0 0 0 -178.5409898428004 611.71052846757084 0 611.71052846757084 -908.38618149495596 0 0 0 0 -289.82800208229321 389.34152116672885 0 389.34152116672885 -558.58540651943258 0 0 0 0 -99.015545697221611 315.34319892913754 0 315.34319892913754 -393.70492857979843 0 0 0 0 -209.27530159640969 348.59015282067048 0 348.59015282067048 -333.012664701022 0 0 0 0 -143.14501610438302 535.61448029711028 0 535.61448029711028 -958.12178217725886 0 0 0 0 -139.58585825025676 42.737898623410729 0 42.737898623410729 -52.340741639913176 0 0 0 0 -77.433936475996148 313.04970641591262 0 313.04970641591262 -648.70105627590237 0 0 0 0 1.9941124282921692 -67.427788796454479 0 -67.427788796454479 -372.02592214592005 0 0 0 0 -7.070115858300805 -0.35789111157973252 0 -0.35789111157973252 0.53993718526942303 0 0 0 0 48.247323840352237 -11.736351908362849 0 -11.736351908362849 -875.1668883845532 0 0 0 0 -39.599424817758006 424.00140393728907 0 424.00140393728907 -1022.7227786329349 0 0 0 0 27.928974567980049 321.96734839633427 0 321.96734839633427 -1131.8576309936398 0 0 0 0 2.196676134963742 -0.33977483716581958 0 -0.33977483716581958 -4.010295476970299 0 0 0 0 -144.99262865890671 790.08792163992257 0 790.08792163992257 -1856.6437674556801 0 0 0 0 -386.67929582745955 554.16178067183682 0 554.16178067183682 -889.93156979248533 0 0 0 0 -244.39804267490496 336.40545496540653 0 336.40545496540653 -983.48647246917972 0 0 0 0 152.99311337323087 393.98126261203652 0 393.98126261203652 -1566.4230056691886 0 0 0 0 4.5154352385594771 -0.99229694402900748 0 -0.99229694402900748 -8.3508218615288428 0 0 0 0 438.17852588050937 -371.55462885237284 0 -371.55462885237284 -541.48191170826613 0 0 0 0 114.61591275829483 323.66455849424528 0 323.66455849424528 -870.01555089948124 0 0 0 0 682.7755176001408 -84.13829677355028 0 -84.13829677355028 -1879.4354112386281 0 0 0 0 -28.188985859539372 664.74057491275016 0 664.74057491275016 -1632.5746205321484 0 0 0 0 694.64603663402545 335.71544447065389 0 335.71544447065389 -2499.3453910649228 0 0 0 0 692.99537019408774 -653.41269769149585 0 -653.41269769149585 -2272.4604476256791 0 0 0 0 681.70097067759639 -138.22966746154935 0 -138.22966746154935 -1257.607146518887 0 0 0 0 808.4754672181233 -828.34494446184181 0 -828.34494446184181 -2499.8345175020718 0 0 0 0 341.57659985398061 -323.13421862117684 0 -323.13421862117684 -1211.0501062368476 0 0 0 0 491.49219381276021 -724.46377925738852 0 -724.46377925738852 -283.90185080192168 0 0 0 0 445.04730591170096 -59.794163140311866 0 -59.794163140311866 -664.15249514578682 0 0 0 0 385.09270623358265 -105.93982629602669 0 -105.93982629602669 -820.48884402139083 0 0 0 0 -256.86506082744643 309.44108440257332 0 309.44108440257332 -869.8313945468085 0 0 0 0 -184.45446051704749 -274.62856607342655 0 -274.62856607342655 -579.81484996835206 0 0 0 0 284.62358064931954 -224.94052211289863 0 -224.94052211289863 -994.89198800978193 0 0 0 0 -239.58723650375509 581.39956755989988 0 581.39956755989988 -555.18815302125586 0 0 0 0 106.31410051148259 139.52564371144035 0 139.52564371144035 -23.063028104836121 0 0 0 0 -274.06661825964972 231.09616798798743 0 231.09616798798743 49.461772977505461 0 0 0 0 56.657374551151406 368.35433746974741 0 368.35433746974741 -56.614260038841167 0 0 0 0 -194.41221902432443 144.39921655516446 0 144.39921655516446 49.052836250815972 0 0 0 0 -656.49116783296051 163.5394433058882 0 163.5394433058882 48.276973651336448 0 0 0 0 -9.9647697480242847 1.3623399179932534 0 1.3623399179932534 -0.63972086753214796 0 0 0 0 -295.36490557388174 -78.815107097161672 0 -78.815107097161672 47.209048770093432 0 0 0 0 54.67087057227593 12.496438242122167 0 12.496438242122167 -87.960357946554723 0 0 0 0 -24.375679243673403 71.423016256965639 0 71.423016256965639 19.927903582305589 0 0 0 0 -240.87370687968632 186.7759334207858 0 186.7759334207858 -171.5239487085928 0 0 0 0 -24.841127369987198 5.5234866107044951 0 5.5234866107044951 -3.1431798673338776 0 0 0 0 10.513395278173903 33.215175338654262 0 33.215175338654262 -127.70234036965121 0 0 0 0 1.1270931165054208 56.008823178730381 0 56.008823178730381 -82.697914639771625 0 0 0 0 2.2708788609470503 15.930195915781951 0 15.930195915781951 -110.8934736876472 0 0 0 0 -185.29705164095375 89.911094355000387 0 89.911094355000387 -139.90122567015351 0 0 0 0 -64.908751337690774 -5.9180532187383506 0 -5.9180532187383506 -83.401280861414307 0 0 0 0 -44.065803266843972 40.552557241469003 0 40.552557241469003 -151.69968915943173 0 0 0 0 -50.713421616416326 23.261911058129044 0 23.261911058129044 -189.49027516401111 0 0 0 0 -10.956043849630078 -14.392980210912356 0 -14.392980210912356 -196.28871706013888 0 0 0 0 -12.352754935687699 32.142840980868641 0 32.142840980868641 -127.58824630943127 0 0 0 0 -30.322558464282338 -7.4708664522477193 0 -7.4708664522477193 -144.34796985533831 0 0 0 0 -5.1861662974863521 -2.9776922303681204 0 -2.9776922303681204 -247.36622934323532 0 0 0 0 -5.6499854737097053 114.90020414614628 0 114.90020414614628 -355.16128707259702 0 0 0 0 -23.024437525287681 -102.36818623498039 0 -102.36818623498039 -358.67423316679196 0 0 0 0 285.04827733849561 -1048.8609217417688 0 -1048.8609217417688 -1239.9106957215406 0 0 0 0 6.0652999292401546 -143.413585280181 0 -143.413585280181 -304.45991468784632 0 0 0 0 194.0826136066562 486.41241609384451 0 486.41241609384451 -1230.9188390690033 0 0 0 0 -95.935398382431458 447.81724052306527 0 447.81724052306527 -138.9392352372306 0 0 0 0 71.397964416354156 214.04879472073117 0 214.04879472073117 -287.86903799048014 0 0 0 0 -75.410531252137389 465.38383821035677 0 465.38383821035677 -136.24956887726148 0 0 0 0 64.350460736598961 326.58371463408548 0 326.58371463408548 -885.00189784175018 0 0 0 0 -38.683850437675119 367.72710282678599 0 367.72710282678599 -110.52692676306469 0 0 0 0 110.77344555523177 -532.21147370866674 0 -532.21147370866674 -1409.2271338035498 0 0 0 0 -73.934791411881179 -407.02015453562854 0 -407.02015453562854 -905.46414540905971 0 0 0 0 208.2104297856049 -320.30918124460004 0 -320.30918124460004 -1324.4003167862793 0 0 0 0 -46.156297685382242 498.92561425050735 0 498.92561425050735 -237.62186438468052 0 0 0 0 -0.42921035775970218 3.848376972883317 0 3.848376972883317 -11.047355562933092 0 0 0 0 235.61394977518762 -208.82252737939234 0 -208.82252737939234 -895.90715268356143 0 0 0 0 -10.441738408855144 556.81805302532302 0 556.81805302532302 -782.28299605718348 0 0 0 0 548.57011558434488 -455.88636970280641 0 -455.88636970280641 -1784.3215120670502 0 0 0 0 -138.89686621562214 356.80178570837597 0 356.80178570837597 300.57284211594379 0 0 0 0 -7.2474790258585218 18.264719480484814 0 18.264719480484814 -13.87837564181234 0 0 0 0 -104.52842230364195 39.162864006073505 0 39.162864006073505 -613.59417961695726 0 0 0 0 -265.28128877122617 590.08859894883062 0 590.08859894883062 -1695.0573532616108 0 0 0 0 -68.109474859303191 93.599878686978627 0 93.599878686978627 -57.273695389667409 0 0 0 0 -48.581931371332615 -63.8667069935982 0 -63.8667069935982 -42.362815400716499 0 0 0 0 -25.605176718378857 20.991731443478784 0 20.991731443478784 21.928784046438523 0 0 0 0 5.1146011404541696 -3.7747050114412559 0 -3.7747050114412559 -82.034753832744173 0 0 0 0 -35.602463776323418 -268.43293269915102 0 -268.43293269915102 -1017.5080426189234 0 0 0 0 -7.1234438288923849 15.736294215421893 0 15.736294215421893 -12.023222520893356 0 0 0 0 -282.32805564018145 -397.44854173695785 0 -397.44854173695785 -1060.6399570815483 0 0 0 0 -20.138275787291548 10.703805004897589 0 10.703805004897589 -6.4672723833371748 0 0 0 0 -96.616241782340239 -372.79020524741645 0 -372.79020524741645 -1177.4023015838175 0 0 0 0 -103.60493662709177 -360.68064471853177 0 -360.68064471853177 -1074.8931043192133 0 0 0 0 -2.2634411711496796 40.239675759430611 0 40.239675759430611 -30.936267866276467 0 0 0 0 -4.2024264458859761 75.695547104347497 0 75.695547104347497 37.251115558523452 0 0 0 0 367.57844863641685 81.395931748613293 0 81.395931748613293 12.755575426184805 0 0 0 0 -32.357342080126728 207.55329491184966 0 207.55329491184966 296.35540021651832 0 0 0 0 298.75944163703116 10.622013510394027 0 10.622013510394027 -33.891460283823108 0 0 0 0 -5.9664843064863824 3.0773574392031122 0 3.0773574392031122 -2.8083949700438779 0 0 0 0 938.93122509862224 235.46504737383657 0 235.46504737383657 -266.92758182549733 0 0 0 0 750.54867806931702 453.0125951351838 0 453.0125951351838 81.157163887000934 0 0 0 0 -0.089534834817455167 6.7828179228297181 0 6.7828179228297181 -19.545268341566867 0 0 0 0 -160.75775225874531 -43.590270416374551 0 -43.590270416374551 1612.719784170622 0 0 0 0 265.43028101838809 -70.718989755427174 0 -70.718989755427174 278.30248324707645 0 0 0 0 412.40218706821679 478.7790198803541 0 478.7790198803541 -199.32765275287966 0 0 0 0 496.95747772579648 -396.94946996316867 0 -396.94946996316867 -683.04912075867469 0 0 0 0 -0.3477964641883653 3.5838075291913931 0 3.5838075291913931 -8.2608463190233863 0 0 0 0 274.68963050682584 -239.89320741224356 0 -239.89320741224356 -90.275168888168992 0 0 0 0 111.41886868262725 327.5558467212054 0 327.5558467212054 -72.39257344546786 0 0 0 0 237.08601212636131 160.55228574704597 0 160.55228574704597 -562.32666715923938 0 0 0 0 193.98459362762424 -328.31859473699296 0 -328.31859473699296 -575.27265522298694 0 0 0 0 498.88903923225831 -360.25562815039166 0 -360.25562815039166 -717.30460785145988 0 0 0 0 134.71410677261929 202.04934790271 0 202.04934790271 -110.7422607634544 0 0 0 0 -19.186963825676457 -502.41063145903172 0 -502.41063145903172 1083.4793360293988 0 0 0 0 102.72031174158829 -813.94128120029927 0 -813.94128120029927 -1931.7179056769746 0 0 0 0 5.1406953447709931 -3.6643996652658615 0 -3.6643996652658615 0.40401978410923434 0 0 0 0 -163.04345402194303 -308.05397738346073 0 -308.05397738346073 441.43811988949165 0 0 0 0 -22.019289769568786 -137.0964973100381 0 -137.0964973100381 -332.36545378541996 0 0 0 0 -106.95501226195415 -506.34136121687698 0 -506.34136121687698 65.395296044036513 0 0 0 0 22.776069907494914 -4.5613515924876396 0 -4.5613515924876396 -13.892450696462884 0 0 0 0 -971.05945254489461 -255.74431549927249 0 -255.74431549927249 110.92900769218249 0 0 0 0 -4.3185567856475924 -3.2642580233806839 0 -3.2642580233806839 -7.6026721216182409 0 0 0 0 250.1282448598717 -979.10446740453335 0 -979.10446740453335 -2496.1793089088615 0 0 0 0 -267.32749374537553 -1115.3061422349856 0 -1115.3061422349856 -2143.4891604791337 0 0 0 0 -170.1031283010054 751.71482406347604 0 751.71482406347604 -2044.5278636353105 0 0 0 0 -6.3137814473386085 439.69550849269581 0 439.69550849269581 -2129.1251190786279 0 0 0 0 -290.88124831760518 1259.4691604928948 0 1259.4691604928948 -2498.3064675492806 0 0 0 0 -2.8906922578620486 -10.753804309316486 0 -10.753804309316486 -22.587766061582983 0 0 0 0 -0.88131609501374442 18.474144579558924 0 18.474144579558924 -111.6915538031426 0 0 0 0 -5.2292441319372163 12.637433338107257 0 12.637433338107257 -11.248695777196936 0 0 0 0 -53.123255220090911 248.13432084948727 0 248.13432084948727 -1792.8190900951558 0 0 0 0 -21.146243525585078 20.96732190007242 0 20.96732190007242 -69.768579622541438 0 0 0 0 54.417191831297259 31.155501157045364 0 31.155501157045364 -73.18487136530166 0 0 0 0 216.94317145312198 -49.797440897647903 0 -49.797440897647903 7.0532999428542098 0 0 0 0 27.364953229277582 -9.2553956065158474 0 -9.2553956065158474 -56.009651487383366 0 0 0 0 274.29058782576612 -129.25923044336741 0 -129.25923044336741 -164.22772802186955 0 0 0 0 221.01327053843761 88.087893201725819 0 88.087893201725819 -195.85743557290834 0 0 0 0 28.80245275178946 -2.7915702011956967 0 -2.7915702011956967 -49.589192664975286 0 0 0 0 91.882180052828517 130.65488284748062 0 130.65488284748062 -71.519533481361577 0 0 0 0 27.840529831970343 32.092776010525995 0 32.092776010525995 -51.621863615175243 0 0 0 0 30.528079445664275 -34.068740074639209 0 -34.068740074639209 -159.26921723469059 0 0 0 0 7.8157416528547827 124.35473180211739 0 124.35473180211739 -165.4640331757837 0 0 0 0 74.567655520036396 -6.4472922482382273 0 -6.4472922482382273 -237.38443411728076 0 0 0 0 -0.10610394145244939 -0.1082962745569489 0 -0.1082962745569489 -0.25696895607700121 0 0 0 0 -9.8880706741470021 79.221346926242404 0 79.221346926242404 -9.1683454272133531 0 0 0 0 -80.506470336902396 -91.729146662612038 0 -91.729146662612038 -163.47619459703856 0 0 0 0 -41.706610391874648 39.290256189735373 0 39.290256189735373 42.478711452822608 0 0 0 0 -33.573944703206337 71.312366592661419 0 71.312366592661419 -9.8607030710554682 0 0 0 0 -5.657952171945908 40.164106103817176 0 40.164106103817176 6.494808400853799 0 0 0 0 32.456639520599992 84.690743030128942 0 84.690743030128942 -36.114654832868837 0 0 0 0 -3.5210904066615285 37.03186129360256 0 37.03186129360256 -59.520454567085835 0 0 0 0 -2.7939090147796013 6.7186827843931241 0 6.7186827843931241 0.025763870644052389 0 0 0 0 27.376573073036411 51.537067497403768 0 51.537067497403768 -91.730156397330575 0 0 0 0 -70.568034739726656 360.77457912203863 0 360.77457912203863 -2108.7495515986593 0 0 0 0 -0.90030410377595094 2.3365895472034737 0 2.3365895472034737 -1.2877144364752589 0 0 0 0 -33.2119550567717 301.28916388125435 0 301.28916388125435 -2219.4684658972183 0 0 0 0 -12.93640244241108 335.84499534001952 0 335.84499534001952 -2343.5979750392216 0 0 0 0 -8.4394005019788949 488.98771762270189 0 488.98771762270189 -2247.2659579416541 0 0 0 0 48.400487173416998 349.11369612692579 0 349.11369612692579 -2435.9044853816158 0 0 0 0 0.28379304964361896 35.290810596374286 0 35.290810596374286 -1408.2533274850502 0 0 0 0 46.964549874886693 416.31411134263544 0 416.31411134263544 -2498.0636629939181 0 0 0 0 -46.816026522989091 55.606246148796345 0 55.606246148796345 25.876278946023376 0 0 0 0 -229.04638415274624 399.6069876146139 0 399.6069876146139 -599.11796445432992 0 0 0 0 45.466813417844463 -14.283448106734795 0 -14.283448106734795 -338.76929129176278 0 0 0 0 -0.087093041014381645 0.17927747407478023 0 0.17927747407478023 -0.88004192362209466 0 0 0 0 0.017530336856984241 -1.1834969618043374 0 -1.1834969618043374 0.46903385114600837 0 0 0 0 -1.1242712645336392 -68.190812698623631 0 -68.190812698623631 -263.49864813851309 0 0 0 0 -1.852616264807875 29.969788053902448 0 29.969788053902448 -765.68640611431329 0 0 0 0 -0.039224004122154765 2.140552496756797 0 2.140552496756797 -3.5549162303861976 0 0 0 0 -0.009021054636667903 18.52706290633796 0 18.52706290633796 -1.4046272813429823 0 0 0 0 134.09092094794039 -216.2393597568207 0 -216.2393597568207 -1322.1428462835756 0 0 0 0 -149.72298352597429 -666.3850845560155 0 -666.3850845560155 -1441.6049753428306 0 0 0 0 221.66343007928987 -397.56699109985493 0 -397.56699109985493 -1390.5714301902262 0 0 0 0 -330.40097919198251 -772.4369887503417 0 -772.4369887503417 -735.12431950820246 0 0 0 0 14.672898517598242 12.659692075962084 0 12.659692075962084 -102.53125143294528 0 0 0 0 -224.63081229721371 -61.725083711547995 0 -61.725083711547995 -511.62845651963289 0 0 0 0 6.4797600424488042 -1.7061106409130957 0 -1.7061106409130957 -6.6384378746165709 0 0 0 0 -4.0808918480528451 3.2709951493191198 0 3.2709951493191198 -6.3688137112575305 0 0 0 0 -32.795763658869731 22.740550973046325 0 22.740550973046325 -15.510749785357163 0 0 0 0 -27.812485557050422 74.196788584584283 0 74.196788584584283 -33.431020392927167 0 0 0 0 -88.997389677554111 -110.21546834072797 0 -110.21546834072797 -961.49060936274327 0 0 0 0 28.275992155575878 4.8541189200946917 0 4.8541189200946917 -43.924098006974219 0 0 0 0 61.555065913353474 -10.918147271018825 0 -10.918147271018825 -1530.3642837871739 0 0 0 0 -137.95307795323492 -470.74747746594221 0 -470.74747746594221 -1308.6057281891335 0 0 0 0 -254.87586763975946 -347.35089219468136 0 -347.35089219468136 -1361.9923554174457 0 0 0 0 -1.6554357598491429 7.11908925971656 0 7.11908925971656 -6.8394339004194649 0 0 0 0 0.53133328700390647 4.252932452478035 0 4.252932452478035 -50.259028512657096 0 0 0 0 -2.7914202710037159 15.219317380393477 0 15.219317380393477 -18.846321401098976 0 0 0 0 -0.64987795480877253 15.301354743554839 0 15.301354743554839 -25.008330352320627 0 0 0 0 -4.6294970604113814 11.827870145754744 0 11.827870145754744 -9.7390794969419261 0 0 0 0 -75.747662691153437 -360.33826968739595 0 -360.33826968739595 -1116.9134981647949 0 0 0 0 -9.2058883402326899 -1.2492990117607405 0 -1.2492990117607405 -35.835190653480822 0 0 0 0 2.3321427346472703 -5.2601524263172905 0 -5.2601524263172905 -55.945909230322286 0 0 0 0 1.8421145340259106 0.21118959058367182 0 0.21118959058367182 -30.106665168998006 0 0 0 0 -0.0050596949808168687 19.694999418104999 0 19.694999418104999 -49.038140777687659 0 0 0 0 -111.9403030671773 192.38530300652337 0 192.38530300652337 -526.2502564648039 0 0 0 0 -93.903527745838517 -255.36742454239561 0 -255.36742454239561 -147.51857366452396 0 0 0 0 -0.52712408112449793 -29.642939856797966 0 -29.642939856797966 -120.0999340269932 0 0 0 0 -1.6941932355089271 0.67381165941659837 0 0.67381165941659837 -0.30196217450757956 0 0 0 0 -108.35537126773247 -126.83760036810963 0 -126.83760036810963 70.440826903692141 0 0 0 0 -3.0474242642436331 1.8767262578381914 0 1.8767262578381914 -0.73925692737915583 0 0 0 0 21.757727192779612 -22.391932712768721 0 -22.391932712768721 -105.86276174034356 0 0 0 0 -8.4018731661647053 17.255444526001156 0 17.255444526001156 -15.209051060725415 0 0 0 0 31.599006122028186 7.7943345136934568 0 7.7943345136934568 -68.975722091714943 0 0 0 0 -1.5311837954097047 2.1359069612744488 0 2.1359069612744488 -1.0057302433785225 0 0 0 0 -32.435296052631031 197.27783011240723 0 197.27783011240723 -137.9241067366288 0 0 0 0 -150.30255245711015 -44.210983283703627 0 -44.210983283703627 110.83255431529892 0 0 0 0 -190.58467352064451 -129.01675659667262 0 -129.01675659667262 -192.50912473865446 0 0 0 0 22.042328410537721 -65.309508756714649 0 -65.309508756714649 -403.58307032077346 0 0 0 0 -107.77730570337121 -225.55712640554611 0 -225.55712640554611 -67.325266084471878 0 0 0 0 -106.986094891942 -232.54054577492616 0 -232.54054577492616 -37.898943812175276 0 0 0 0 -106.79189621930277 -271.28137417516427 0 -271.28137417516427 -331.09984455157519 0 0 0 0 0.76924299177170852 0.44976517835021568 0 0.44976517835021568 -5.4468957449060049 0 0 0 0 272.11687767510932 342.87322704514804 0 342.87322704514804 -184.08441703126027 0 0 0 0 -444.50478465768037 -600.10293047330913 0 -600.10293047330913 -652.65479713673449 0 0 0 0 115.81083958356247 -31.161323776657127 0 -31.161323776657127 -788.42631015256302 0 0 0 0 138.37989264443533 50.171042298592965 0 50.171042298592965 -732.79766064570185 0 0 0 0 -366.82205649420445 -247.39092523933959 0 -247.39092523933959 -266.12475763334987 0 0 0 0 -418.26535956393002 -31.450403683891864 0 -31.450403683891864 -632.31288980844784 0 0 0 0 -574.17472707505544 -148.17057958592761 0 -148.17057958592761 -346.7162813973423 0 0 0 0 -981.08435172733016 -772.84378938645432 0 -772.84378938645432 -714.35151186141729 0 0 0 0 -421.46307882991323 -319.83567278303485 0 -319.83567278303485 -968.49270426399244 0 0 0 0 0.63808722533959661 0.83367523293469414 0 0.83367523293469414 -6.3102792021627803 0 0 0 0 43.861751486115196 -238.11923701939625 0 -238.11923701939625 -217.27460845343921 0 0 0 0 -12.564656869366218 128.54190650255714 0 128.54190650255714 -355.06295476672858 0 0 0 0 -288.79921710097528 40.745007565548804 0 40.745007565548804 -507.24691398754817 0 0 0 0 -289.27675246406716 27.013234779414461 0 27.013234779414461 -327.43164681890676 0 0 0 0 -344.78876095073213 -229.43969396498056 0 -229.43969396498056 -544.80880829524631 0 0 0 0 -360.36003165246939 -212.46391624460216 0 -212.46391624460216 -116.20483966428168 0 0 0 0 37.732485834320869 144.69657689015861 0 144.69657689015861 125.25717272457064 0 0 0 0 340.73707609194207 -692.47920943235658 0 -692.47920943235658 -106.8781121600914 0 0 0 0 -782.04477632970008 -816.03861161732448 0 -816.03861161732448 -385.14482699435564 0 0 0 0 -458.68495676305781 -240.02531220947583 0 -240.02531220947583 -280.9611655283536 0 0 0 0 93.232239529571416 -626.87916989907217 0 -626.87916989907217 -531.6083929365418 0 0 0 0 184.52722806829937 232.60651506124225 0 232.60651506124225 -15.294678823293907 0 0 0 0 -129.08254970820423 -91.207062259028135 0 -91.207062259028135 20.03968910864586 0 0 0 0 -705.07259684803455 -289.45062722640569 0 -289.45062722640569 -247.93467914102155 0 0 0 0 176.62832982581668 75.844212473539301 0 75.844212473539301 -77.037664804342057 0 0 0 0 2.3530252819098991 3.7323208664175116 0 3.7323208664175116 -17.926754101053795 0 0 0 0 -3.6303435161873949 -56.311410561721914 0 -56.311410561721914 -19.303343237580066 0 0 0 0 -70.420604973856541 -83.821263139637722 0 -83.821263139637722 -28.746534604198018 0 0 0 0 -140.58362462322737 -21.895407314790646 0 -21.895407314790646 -27.308394860813678 0 0 0 0 -85.949501980614968 -110.93430465485255 0 -110.93430465485255 -31.346558181509863 0 0 0 0 -584.45542163383857 -626.4740962750277 0 -626.4740962750277 -451.79911347913776 0 0 0 0 52.795201345554176 77.967646323785573 0 77.967646323785573 -15.152193825469112 0 0 0 0 2.2304874983095289 8.8130269175957849 0 8.8130269175957849 -30.534623988998057 0 0 0 0 67.632753599223122 16.30548676807075 0 16.30548676807075 -64.218013195395542 0 0 0 0 -37.67765173360965 8.5860595873814418 0 8.5860595873814418 -45.012729246117033 0 0 0 0 40.024124777200313 -8.3131936468944332 0 -8.3131936468944332 -65.722634976237259 0 0 0 0 -0.60199612825714333 16.158263727435365 0 16.158263727435365 -43.902652447993574 0 0 0 0 1.5852002881837204 1.1214740907605965 0 1.1214740907605965 -13.874555045826341 0 0 0 0 45.700044250405085 1.7184321526182771 0 1.7184321526182771 -95.296496282288444 0 0 0 0 46.882927845405447 6.5164738526698329 0 6.5164738526698329 -101.15999356419888 0 0 0 0 -32.807137159624745 -13.924270130458581 0 -13.924270130458581 -66.359145684336454 0 0 0 0 25.726042069877963 9.8677479465955003 0 9.8677479465955003 -83.617573094964428 0 0 0 0 25.644564693959957 13.002240876145919 0 13.002240876145919 -184.94550505394 0 0 0 0 -3.1291266918444762 -138.7599095665073 0 -138.7599095665073 25.083480843611142 0 0 0 0 10.264139606572343 56.826654875700683 0 56.826654875700683 -194.52005681105857 0 0 0 0 -32.468491371900882 -40.825416824500508 0 -40.825416824500508 213.70434280347672 0 0 0 0 -57.247890455204015 84.35884451126185 0 84.35884451126185 197.32008091606076 0 0 0 0 -9.595218910790372 3.5024590492009686 0 3.5024590492009686 -0.3650427786797259 0 0 0 0 -40.129219673719717 8.8346802901953652 0 8.8346802901953652 94.341340907429185 0 0 0 0 -60.208423121604028 56.195802089208883 0 56.195802089208883 124.35744969772804 0 0 0 0 13.653180993259866 65.821033210520454 0 65.821033210520454 -41.624138689843676 0 0 0 0 95.492119651524831 2.5184515805540286 0 2.5184515805540286 -93.085734309345753 0 0 0 0 -51.951406266339617 47.840450509802281 0 47.840450509802281 -152.71617498411206 0 0 0 0 21.451806162693551 -85.412343804814668 0 -85.412343804814668 -280.90303999785601 0 0 0 0 -2.5069917469175005 1.3001870695756423 0 1.3001870695756423 -0.89326192349907618 0 0 0 0 71.646962350024381 -96.07807198910541 0 -96.07807198910541 153.94846525132471 0 0 0 0 37.803351665458486 4.8849291019236034 0 4.8849291019236034 -10.833406625657517 0 0 0 0 0.32019713314888648 2.4609931881064906 0 2.4609931881064906 -1.6442593938777774 0 0 0 0 -137.03040983538332 211.58608386760397 0 211.58608386760397 330.03488598520062 0 0 0 0 5.2280992394791213 2.1954983988226839 0 2.1954983988226839 -2.2991667922470098 0 0 0 0 6.8982562019232319 -13.404973197699292 0 -13.404973197699292 -102.10408615583583 0 0 0 0 -2.5629256141805854 -1.9714461112466779 0 -1.9714461112466779 -112.16706070811529 0 0 0 0 110.29511047398492 174.76255376046493 0 174.76255376046493 159.91503596086181 0 0 0 0 6.6883877732997234 -0.018631486227150162 0 -0.018631486227150162 67.231807967137229 0 0 0 0 20.733725521304422 18.554680224551021 0 18.554680224551021 1.8053472274459637 0 0 0 0 -12.073232295540947 26.147150058663613 0 26.147150058663613 23.485579246993893 0 0 0 0 75.788342746221815 29.478323981603808 0 29.478323981603808 22.629942367454532 0 0 0 0 -13.267722324336205 5.800084589336393 0 5.800084589336393 -41.642793816875383 0 0 0 0 36.47328048854115 2.4555779269367122 0 2.4555779269367122 -42.144965807786093 0 0 0 0 -92.179032415374579 3.2119801061431872 0 3.2119801061431872 -47.167418321093464 0 0 0 0 9.8421642888908991 -28.343673087210846 0 -28.343673087210846 -37.48191451978164 0 0 0 0 28.361546945003965 38.391049290158435 0 38.391049290158435 30.154111404489413 0 0 0 0 46.041280684263711 38.715710856590249 0 38.715710856590249 -21.130795994479399 0 0 0 0 21.326921636244833 51.489699670875154 0 51.489699670875154 34.270682670879069 0 0 0 0 43.275426908203144 26.171220075284054 0 26.171220075284054 46.284188334593637 0 0 0 0 59.343079910116785 55.44839831784418 0 55.44839831784418 30.700470882412446 0 0 0 0 -16.267238831285113 0.41961017293078839 0 0.41961017293078839 -8.7296227276365244 0 0 0 0 34.487654774747625 -24.960131628559793 0 -24.960131628559793 -69.661029186843734 0 0 0 0 11.764913244207021 0.87232645139327047 0 0.87232645139327047 -1.6113825451278627 0 0 0 0 38.853445464194749 87.991962309946643 0 87.991962309946643 125.61351758796309 0 0 0 0 -0.085373794262068259 13.117840151086511 0 13.117840151086511 -41.207304000772638 0 0 0 0 4.6476734383709299 -1.8774500254949089 0 -1.8774500254949089 -4.3669869818027109 0 0 0 0 86.227612756258623 24.230091096266051 0 24.230091096266051 -29.029938391970518 0 0 0 0 -103.89018478295156 -129.15726167108915 0 -129.15726167108915 -104.53120155527836 0 0 0 0 -1.2042131844344013 2.413441462687905 0 2.413441462687905 -6.0106184024548526 0 0 0 0 50.737452815209053 -8.744646979447225 0 -8.744646979447225 -43.639397481626474 0 0 0 0 1.5806000209790128 4.4842531683968057 0 4.4842531683968057 -10.246835789297879 0 0 0 0 -27.709534531780037 -56.132066629272231 0 -56.132066629272231 -71.72632596403264 0 0 0 0 -5.3094236029537569 -25.409474384234272 0 -25.409474384234272 -57.719442543093464 0 0 0 0 -62.649569388887357 -54.81044710044921 0 -54.81044710044921 -66.042007574300442 0 0 0 0 21.294236298807391 -34.342932192394983 0 -34.342932192394983 -101.62839678352793 0 0 0 0 43.363250731354128 12.544568651898999 0 12.544568651898999 -30.092593250396021 0 0 0 0 23.455203441748608 -36.522148203595407 0 -36.522148203595407 -65.600436034470476 0 0 0 0 8.9216704685106638 -3.9137919769503071 0 -3.9137919769503071 -37.372617223816434 0 0 0 0 52.046361761913545 8.836227746646955 0 8.836227746646955 -48.356321157732964 0 0 0 0 4.5937767681372552 -3.8379988388155404 0 -3.8379988388155404 -0.60296204379999452 0 0 0 0 -3.4248147647011322 -48.508175238549157 0 -48.508175238549157 -74.03944551976474 0 0 0 0 12.012745194258514 -34.507614158754677 0 -34.507614158754677 -50.996512287385485 0 0 0 0 -1.5067796702080614 -15.169212721136319 0 -15.169212721136319 -76.178590221146806 0 0 0 0 3.7179328865217709 -4.902239910313213 0 -4.902239910313213 -5.6113421481892303 0 0 0 0 15.460118488435455 -34.720728362092814 0 -34.720728362092814 -85.782248936898668 0 0 0 0 3.5993480896981964 -31.745265349407418 0 -31.745265349407418 -44.937125319367624 0 0 0 0 0.95780002306003098 6.1827418512039003 0 6.1827418512039003 -17.838103390266042 0 0 0 0 80.602509314731378 42.487205891335179 0 42.487205891335179 10.362783940517147 0 0 0 0 11.549623483618781 -0.30366214296004301 0 -0.30366214296004301 -19.250861311827379 0 0 0 0 15.880412024559405 -14.634447751544485 0 -14.634447751544485 -48.136968617247476 0 0 0 0 73.011758835424644 48.706887329344681 0 48.706887329344681 8.5764679664268897 0 0 0 0 40.725282544347465 65.476182583820901 0 65.476182583820901 12.94041478389272 0 0 0 0 66.02937433103034 40.795474776562742 0 40.795474776562742 36.633950276983796 0 0 0 0 44.268732762295258 61.371767344662885 0 61.371767344662885 57.279664642521766 0 0 0 0 17.988230650448894 -2.4831812970938953 0 -2.4831812970938953 -5.4249760638613198 0 0 0 0 -20.84089215209633 -49.728252191351203 0 -49.728252191351203 -38.877350365934944 0 0 0 0 40.679040794592765 -6.8873606019733415 0 -6.8873606019733415 -57.813559517751855 0 0 0 0 -16.821818578497641 -27.189147591398068 0 -27.189147591398068 -26.724682866743478 0 0 0 0 9.9095381444385566 -58.031046518648509 0 -58.031046518648509 -140.19115916086957 0 0 0 0 33.20164305882281 18.534958624692081 0 18.534958624692081 -112.3377133508402 0 0 0 0 -1.7009225782271642 -59.501775758320946 0 -59.501775758320946 -137.90401317916985 0 0 0 0 17.458064343788124 -76.514072234551236 0 -76.514072234551236 -141.84468360689425 0 0 0 0 -45.072601410016432 -51.058017721039505 0 -51.058017721039505 -91.207539868099047 0 0 0 0 -5.8352615179273926 -35.105700935726418 0 -35.105700935726418 -180.11661001454195 0 0 0 0 -0.67121945276391415 5.088294184843388 0 5.088294184843388 -9.6602484363756247 0 0 0 0 -97.505891407385207 -72.747756632750679 0 -72.747756632750679 -29.955892580455838 0 0 0 0 -1.6076487072598962 -0.36418446991046949 0 -0.36418446991046949 1.0998771393519533 0 0 0 0 6.0003872665792262 -7.329601949571817 0 -7.329601949571817 3.2383537331795651 0 0 0 0 6.0953314588323337 2.9493447420445591 0 2.9493447420445591 -14.664298583716118 0 0 0 0 5.7856528573065589 2.0505165395807126 0 2.0505165395807126 -19.09441604826543 0 0 0 0 1.3137214611615491 11.569687758645159 0 11.569687758645159 -20.568218876352603 0 0 0 0 5.4965435467825046 3.7557704463179107 0 3.7557704463179107 -8.5943320813021273 0 0 0 0 -120.89980170738818 -65.161898044761983 0 -65.161898044761983 -126.26472847135847 0 0 0 0 -0.4368716587592516 1.5768624241745215 0 1.5768624241745215 -3.0122023349759246 0 0 0 0 -17.955257179295586 -237.04791101236697 0 -237.04791101236697 -344.77901957331778 0 0 0 0 8.6713565533154906 17.02123889608265 0 17.02123889608265 -6.699515275136946 0 0 0 0 10.323394425080551 71.129353260161224 0 71.129353260161224 -77.62765954047336 0 0 0 0 67.89647834279549 32.211317022402 0 32.211317022402 -51.348559961968931 0 0 0 0 16.401894157906099 1.1083687903974351 0 1.1083687903974351 -16.003411572859477 0 0 0 0 19.683212741482805 -18.502492723707519 0 -18.502492723707519 -78.004570955083182 0 0 0 0 31.195054062630334 10.952077105913759 0 10.952077105913759 -29.7798227989515 0 0 0 0 8.2764411330348224 -6.8209855525767091 0 -6.8209855525767091 -41.602784563378655 0 0 0 0 -23.671113532996969 -22.527661378280754 0 -22.527661378280754 -47.264917897748091 0 0 0 0 4.3101692829703691 -13.11193201607983 0 -13.11193201607983 -30.817478140242812 0 0 0 0 7.8157060010997519 -11.232449298485104 0 -11.232449298485104 -40.319160353795354 0 0 0 0 14.376488483702399 1.5751893419093683 0 1.5751893419093683 -43.818089069791668 0 0 0 0 17.924940988465096 -3.9486107888296829 0 -3.9486107888296829 -27.154493531077605 0 0 0 0 30.412910019873834 10.553099138076504 0 10.553099138076504 -67.550572479847688 0 0 0 0 27.258794954843324 5.0425600362177647 0 5.0425600362177647 -64.922517456702508 0 0 0 0 -14.664463589656407 -0.77828812668212777 0 -0.77828812668212777 -65.420455923231202 0 0 0 0 27.246195584297723 6.0672495089483078 0 6.0672495089483078 -64.067404273628199 0 0 0 0 9.3685920420586779 -1.7158853196011208 0 -1.7158853196011208 -29.831081243405421 0 0 0 0 6.5677512651163426 -15.376107223478584 0 -15.376107223478584 -21.518868962557463 0 0 0 0 7.817927335378954 -32.155280918834251 0 -32.155280918834251 -24.987676418128103 0 0 0 0 6.0687944956014368 -4.9190324652529043 0 -4.9190324652529043 -17.36891932052292 0 0 0 0 37.583495588849246 -12.309405708432678 0 -12.309405708432678 -146.71162243636718 0 0 0 0 40.824251178412396 4.28664673685671 0 4.28664673685671 -70.261347063442372 0 0 0 0 -189.57278176653517 -99.543756212842709 0 -99.543756212842709 -44.889995596320659 0 0 0 0 -10.393770982422438 -41.25637562099655 0 -41.25637562099655 -48.551663848011231 0 0 0 0 -10.390382043139198 -35.26989764496102 0 -35.26989764496102 -31.240914177489685 0 0 0 0 1.4870080622285227 -5.2373236917894523 0 -5.2373236917894523 0.97425310338225302 0 0 0 0 -170.45264967118237 -103.12614008390665 0 -103.12614008390665 158.03775575476902 0 0 0 0 84.92193986209918 -68.629744821816075 0 -68.629744821816075 -153.01296904425908 0 0 0 0 -12.429243025938753 20.868024355800131 0 20.868024355800131 -12.895490790455739 0 0 0 0 365.62526950172878 -99.517780681522709 0 -99.517780681522709 -879.2098702151925 0 0 0 0 129.42916733626771 157.26726971110929 0 157.26726971110929 32.808425933955732 0 0 0 0 -75.901455838707079 84.139526982266034 0 84.139526982266034 240.84694807063897 0 0 0 0 15.951645909724903 -60.745609959184549 0 -60.745609959184549 -32.728361872625101 0 0 0 0 42.883339239218913 -14.465284646965301 0 -14.465284646965301 -276.74557265151088 0 0 0 0 -6.2764092606616941 -184.37710583208354 0 -184.37710583208354 -189.6344890610344 0 0 0 0 14.542229226458403 -46.281689011186245 0 -46.281689011186245 -127.0131069676936 0 0 0 0 -1.8173630513119861 -28.284455891465768 0 -28.284455891465768 -52.007542771189037 0 0 0 0 -16.28268705109258 -58.61773738964439 0 -58.61773738964439 -41.105689149080717 0 0 0 0 -25.980702357307109 -41.669694307996906 0 -41.669694307996906 40.334873464675184 0 0 0 0 -7.4910675765568158 10.395090476136829 0 10.395090476136829 43.166158774492942 0 0 0 0 -1.4093047553971747 13.595519004102876 0 13.595519004102876 -18.429847628410304 0 0 0 0 -1.5641236283832454 1.0472146249090031 0 1.0472146249090031 1.0114133537407071 0 0 0 0 -6.9405214411017369 -10.992830848637823 0 -10.992830848637823 -27.220831363088109 0 0 0 0 -7.3420046311309264 -34.281510830751785 0 -34.281510830751785 -26.00856022399239 0 0 0 0 -0.67931548134220066 -10.002537859980293 0 -10.002537859980293 -13.555796514328904 0 0 0 0 -8.8467510282093826 -18.619124247967193 0 -18.619124247967193 -10.665512752719223 0 0 0 0 -0.66214265093902624 -14.524865571483613 0 -14.524865571483613 -27.206064756385842 0 0 0 0 -1.6961707688411423 -36.37239304779564 0 -36.37239304779564 -25.63099946112925 0 0 0 0 0.95357398750343236 6.2019569057192712 0 6.2019569057192712 -22.803104949046201 0 0 0 0 6.0207992820183165 -20.476185241402845 0 -20.476185241402845 -95.9009828200833 0 0 0 0 3.0341082229506355 -11.945420671336251 0 -11.945420671336251 -54.691098246184993 0 0 0 0 9.3395195699649776 1.2140664140806621 0 1.2140664140806621 -142.62344250054412 0 0 0 0 8.8174836564359786 -15.082688881056725 0 -15.082688881056725 -93.910527499356249 0 0 0 0 4.9951185113916381 52.426053002176559 0 52.426053002176559 -177.38383990677175 0 0 0 0 57.288448900891353 20.979116290532147 0 20.979116290532147 -225.73788413823058 0 0 0 0 67.68270496141804 70.841336348225013 0 70.841336348225013 -308.81511021195183 0 0 0 0 40.982315116438485 83.551299194820785 0 83.551299194820785 -258.17304301205695 0 0 0 0 60.110787889919493 84.244747036223998 0 84.244747036223998 -323.25495076880361 0 0 0 0 54.730944164442008 94.078681886257982 0 94.078681886257982 -294.09800100096618 0 0 0 0 64.887854169676302 84.151116410563191 0 84.151116410563191 -336.34324752857719 0 0 0 0 48.816775647642999 42.737712953715345 0 42.737712953715345 -276.85776317050113 0 0 0 0 84.892299958242916 43.138304846516121 0 43.138304846516121 -444.88306758617546 0 0 0 0 50.900722209289597 -50.355542717299613 0 -50.355542717299613 -217.33587352643553 0 0 0 0 81.866510822785131 34.998052074264706 0 34.998052074264706 -295.20970839759866 0 0 0 0 53.622746960810218 -51.417708437424153 0 -51.417708437424153 -313.35385168616813 0 0 0 0 40.473622221145888 132.53974143165942 0 132.53974143165942 -374.49755067841761 0 0 0 0 -60.374506926158574 214.6140332295472 0 214.6140332295472 -307.09493491116245 0 0 0 0 36.688817361496604 128.80950784114611 0 128.80950784114611 -370.17108018610452 0 0 0 0 -0.96257472383406384 2.1031513174837224 0 2.1031513174837224 -8.0800984174646828 0 0 0 0 -246.49417370793526 320.95850703618453 0 320.95850703618453 -263.3342036747199 0 0 0 0 25.986897819822843 292.57300406394461 0 292.57300406394461 -687.01716900929569 0 0 0 0 -121.14757227699829 69.74746626128217 0 69.74746626128217 -26.737791132882194 0 0 0 0 39.569994201508052 -174.66400904981265 0 -174.66400904981265 -808.41444182830674 0 0 0 0 -626.41151418683694 -166.97750271217592 0 -166.97750271217592 -159.36234422537143 0 0 0 0 145.55860139435003 12.11739376923083 0 12.11739376923083 19.405030560094019 0 0 0 0 87.296512658508618 70.703377759189607 0 70.703377759189607 12.044054528866127 0 0 0 0 0.0047827662469117627 1.3181168435683972 0 1.3181168435683972 -0.77402427200624668 0 0 0 0 150.51275662901571 -86.507881817228281 0 -86.507881817228281 -273.33892243930063 0 0 0 0 5.4758493332340095 41.100005052205347 0 41.100005052205347 19.296243733707342 0 0 0 0 75.411756754900125 52.916612837712819 0 52.916612837712819 -6.4580417254446729 0 0 0 0 91.027855353810082 48.007801247593534 0 48.007801247593534 5.8248655434085777 0 0 0 0 19.244064670280977 13.359507988352561 0 13.359507988352561 -28.19712379246721 0 0 0 0 7.1378162135825232 -2.8959867879428867 0 -2.8959867879428867 -18.334472099225479 0 0 0 0 3.7298419513828667 3.0722021154772445 0 3.0722021154772445 -2.7518336456142265 0 0 0 0 0.3620873836096683 -2.6236068871014933 0 -2.6236068871014933 -3.15928005648545 0 0 0 0 58.107912178067181 -5.9693616653858044 0 -5.9693616653858044 -26.535423278119197 0 0 0 0 -8.5596717566754705 -9.0388378978968831 0 -9.0388378978968831 -33.279745435772838 0 0 0 0 48.574775222905117 -29.234475644117083 0 -29.234475644117083 -34.352540475067144 0 0 0 0 8.8829219006544804 -21.394574533930381 0 -21.394574533930381 -78.39810402945659 0 0 0 0 1.8336057482258639 18.697562798988656 0 18.697562798988656 -70.203073163966565 0 0 0 0 16.631979954388271 19.32006789730076 0 19.32006789730076 0.56411869342264254 0 0 0 0 1.1092044678296162 -9.3624891482236343 0 -9.3624891482236343 -22.518986549262916 0 0 0 0 37.979673696867735 -34.690907907121982 0 -34.690907907121982 -21.629468483422897 0 0 0 0 -4.2684419409495646 -12.49010744577777 0 -12.49010744577777 -15.629613580318278 0 0 0 0 163.59213373260218 -55.902425991859218 0 -55.902425991859218 -134.52861649877286 0 0 0 0 29.590106921961251 -26.12989072489836 0 -26.12989072489836 35.669778464602132 0 0 0 0 -8.3006173104844265 28.883219529129406 0 28.883219529129406 -117.8068943864746 0 0 0 0 7.8564705247613364 -3.5772012924978824 0 -3.5772012924978824 -22.463442045055359 0 0 0 0 -13.047098858560361 84.424424514475561 0 84.424424514475561 -180.95250348736954 0 0 0 0 12.177397193445813 72.518706907421802 0 72.518706907421802 -188.38778139222268 0 0 0 0 39.707719868983872 97.364431356621935 0 97.364431356621935 -303.6067890118502 0 0 0 0 54.003804559703894 72.325410676423417 0 72.325410676423417 -317.7102175463715 0 0 0 0 -81.120054591153576 103.24913981193822 0 103.24913981193822 -136.98825165320886 0 0 0 0 -3.5232836530479972 119.62455204393973 0 119.62455204393973 -301.51203943288056 0 0 0 0 9.0517943019071936 120.81937632400877 0 120.81937632400877 -302.30026640217511 0 0 0 0 -3.4056042192978566 244.21901343167337 0 244.21901343167337 -232.29832906818956 0 0 0 0 286.44773458439613 -211.03166545937711 0 -211.03166545937711 0.12309990474642518 0 0 0 0 17.925730019206185 10.930924377241354 0 10.930924377241354 -21.280391915162909 0 0 0 0 -162.21488612656822 203.80209858478156 0 203.80209858478156 -241.27665139139299 0 0 0 0 0.17133197662798239 -5.654083629502705 0 -5.654083629502705 -15.059564440645431 0 0 0 0 -1.4102293645888331 -4.5241272128058903 0 -4.5241272128058903 -9.6737791519967402 0 0 0 0 129.57865299161205 50.745316466160546 0 50.745316466160546 -31.872409341322054 0 0 0 0 47.298868543791059 27.364843054026551 0 27.364843054026551 -118.46143026107165 0 0 0 0 145.01936020101402 -78.567753443323454 0 -78.567753443323454 -201.05592602777506 0 0 0 0 6.1104232121870155 -68.967335361980076 0 -68.967335361980076 197.96449227103403 0 0 0 0 205.48550694560481 16.591766422151977 0 16.591766422151977 -52.003770622532102 0 0 0 0 -2.8169076895159213 -2.5400410748106985 0 -2.5400410748106985 -1.633755861569945 0 0 0 0 -113.42728102825868 -424.85641157238024 0 -424.85641157238024 149.97194236416442 0 0 0 0 2.8457371623534584 -32.8491444367246 0 -32.8491444367246 -727.45376520776699 0 0 0 0 -233.13657659434034 -271.76848385574431 0 -271.76848385574431 -144.96106779211846 0 0 0 0 -430.49683010551371 78.717786506253105 0 78.717786506253105 -743.10948116650798 0 0 0 0 -90.869544904110853 -286.32529534399146 0 -286.32529534399146 -539.69491260303403 0 0 0 0 -631.1670430360391 -119.19908848658724 0 -119.19908848658724 -65.568772654123677 0 0 0 0 -775.38002527625645 567.16110088649202 0 567.16110088649202 -326.44157717800408 0 0 0 0 0.12811037348041232 0.10942121365489221 0 0.10942121365489221 -6.5197276060255192 0 0 0 0 -4.571438991289142 -31.282634577853059 0 -31.282634577853059 -14.047285192879144 0 0 0 0 78.941873367575909 630.72094338611896 0 630.72094338611896 -620.33769653282798 0 0 0 0 215.3364234222322 106.29937707282988 0 106.29937707282988 -518.13704265838351 0 0 0 0 -15.085922780362523 190.1070425940934 0 190.1070425940934 -448.5115833527052 0 0 0 0 111.39439277319821 30.62764800693185 0 30.62764800693185 -459.81296305015712 0 0 0 0 70.064802132150362 79.972301266112481 0 79.972301266112481 -370.14682635828103 0 0 0 0 27.534192806023594 90.676347036594734 0 90.676347036594734 -330.32348130899845 0 0 0 0 26.928056063315807 53.412847006505217 0 53.412847006505217 -404.32572905647794 0 0 0 0 -32.924783203162292 -32.906361876364258 0 -32.906361876364258 -289.89976187696811 0 0 0 0 -11.187959783589065 -157.91189246237383 0 -157.91189246237383 -568.67212888092399 0 0 0 0 339.41776631411722 639.86408112344998 0 639.86408112344998 380.00617694468747 0 0 0 0 468.49197487695164 130.80111706947355 0 130.80111706947355 -292.92588834620801 0 0 0 0 4.7912288361967299 -1.7938624569284976 0 -1.7938624569284976 0.51137779400988137 0 0 0 0 65.152547638973601 45.129798784512786 0 45.129798784512786 217.11302966847506 0 0 0 0 165.03629816670446 53.332423928627577 0 53.332423928627577 -273.09268794462332 0 0 0 0 350.26393534075441 114.15794523948352 0 114.15794523948352 -131.21461263516721 0 0 0 0 239.40495761676311 105.85377164294823 0 105.85377164294823 -237.16605438509214 0 0 0 0 -8.926297288937576 17.90764191043445 0 17.90764191043445 -85.64726046117903 0 0 0 0 78.393480906931472 -7.2297839445473073 0 -7.2297839445473073 -432.74513054232193 0 0 0 0 -250.87866685667746 -101.21906565069548 0 -101.21906565069548 -198.00829915345093 0 0 0 0 -191.87239259209605 -307.9950068499702 0 -307.9950068499702 -992.79269975583748 0 0 0 0 -406.63209411623433 228.90830154258833 0 228.90830154258833 67.381706369156745 0 0 0 0 -437.59410572444415 112.92332541542828 0 112.92332541542828 -361.39091398022538 0 0 0 0 -318.07070863017179 -133.69380096653913 0 -133.69380096653913 -104.85816512701513 0 0 0 0 -339.11904045119218 -76.669325386454148 0 -76.669325386454148 0.53010753637681773 0 0 0 0 83.413468071881653 -2.7660599608243501 0 -2.7660599608243501 -48.814880801610116 0 0 0 0 52.323257937510789 -47.928033758373203 0 -47.928033758373203 11.01667088651061 0 0 0 0 1.2864801058490514 -0.034897334675545011 0 -0.034897334675545011 -10.946748119790715 0 0 0 0 145.64526608887172 -41.855089835093167 0 -41.855089835093167 -76.825166538768826 0 0 0 0 70.631753996697626 -20.39590348983711 0 -20.39590348983711 -83.182532369646651 0 0 0 0 -36.497079094235232 6.6465757080404728 0 6.6465757080404728 -66.820060556401586 0 0 0 0 -32.764685658671169 90.375328007550166 0 90.375328007550166 -152.06847552142608 0 0 0 0 -7.1292082100535481 81.062483191507454 0 81.062483191507454 -174.37596484127607 0 0 0 0 -25.51966117903703 -81.17776761317873 0 -81.17776761317873 -117.08500086957429 0 0 0 0 30.423830109652954 11.000582492219834 0 11.000582492219834 -35.907377433670263 0 0 0 0 -56.765406988467703 -3.6397150934017191 0 -3.6397150934017191 -171.45359798006393 0 0 0 0 -0.94421431367025122 -1.543051649809418 0 -1.543051649809418 -2.577515411649145 0 0 0 0 -8.9136420413569795 94.509835633612965 0 94.509835633612965 -24.332904423354194 0 0 0 0 -38.61182161015131 -200.75025947126414 0 -200.75025947126414 -41.067893114057824 0 0 0 0 104.86056397158927 -0.43538730299314921 0 -0.43538730299314921 -266.32986730091397 0 0 0 0 30.957450483427237 30.982861474942183 0 30.982861474942183 -141.47735100446698 0 0 0 0 53.465932257230634 -73.211508934625272 0 -73.211508934625272 -45.754087748329766 0 0 0 0 44.634931738677551 46.969083264512847 0 46.969083264512847 -265.38578068157585 0 0 0 0 3.4190257688022712 87.262756509046085 0 87.262756509046085 -295.00316310484777 0 0 0 0 79.251492568174854 62.049880499100254 0 62.049880499100254 -336.5997886190753 0 0 0 0 130.04004640498715 -55.431614000997797 0 -55.431614000997797 -185.94923207135253 0 0 0 0 30.119804152249344 -12.63678843778689 0 -12.63678843778689 -176.31384513981902 0 0 0 0 29.062203555093674 40.948866105311026 0 40.948866105311026 -206.14709921678877 0 0 0 0 69.984643541506102 8.0080818690366868 0 8.0080818690366868 -222.88438575234886 0 0 0 0 -77.343962275281228 -273.7900322899477 0 -273.7900322899477 -49.008316557257785 0 0 0 0 227.98620016135374 295.82528319623566 0 295.82528319623566 150.27117885593725 0 0 0 0 15.917215076264691 -6.2200712316532361 0 -6.2200712316532361 2.3181816862506643 0 0 0 0 176.47890198571986 53.179885073852347 0 53.179885073852347 -17.34630734523671 0 0 0 0 215.07691298092141 72.464156704789275 0 72.464156704789275 -36.394644762394819 0 0 0 0 194.91273633250512 45.304427064366791 0 45.304427064366791 -58.52617951889988 0 0 0 0 156.22030795551382 30.087804103975031 0 30.087804103975031 -32.411199994807248 0 0 0 0 175.72568093886048 -2.5934719630672589 0 -2.5934719630672589 -25.777050059696194 0 0 0 0 31.302830298657682 -39.798492738137611 0 -39.798492738137611 -141.35162880758071 0 0 0 0 24.599132251647944 -15.463518354193557 0 -15.463518354193557 -2.8686885763591654 0 0 0 0 36.010791556596416 141.64987684368566 0 141.64987684368566 -30.260022694614236 0 0 0 0 53.926820167259393 -89.768602626202664 0 -89.768602626202664 13.326542419970792 0 0 0 0 10.885034018234364 -41.991181991965277 0 -41.991181991965277 59.379990721935428 0 0 0 0 1.4333650759876519 -1.3716375575060518 0 -1.3716375575060518 0.12032699155705995 0 0 0 0 5.1540682483755518 -2.7734246287091082 0 -2.7734246287091082 -2.3921121767962177 0 0 0 0 5.2167013546437602 -3.0210264865473846 0 -3.0210264865473846 -8.0449775615197723 0 0 0 0 0.55649558697235835 -2.9551159945094785 0 -2.9551159945094785 -0.88695953500941016 0 0 0 0 -112.85343338058374 -106.19298421197982 0 -106.19298421197982 -9.2147706215182552 0 0 0 0 10.502042268737569 -4.0413224944713875 0 -4.0413224944713875 -65.938218955361663 0 0 0 0 -12.111731045179113 50.735412831514623 0 50.735412831514623 -4.9810926755308174 0 0 0 0 22.612429815747248 -15.652319448572335 0 -15.652319448572335 -56.651870781402764 0 0 0 0 17.64905817730687 -9.5030976569541963 0 -9.5030976569541963 -33.468412580834411 0 0 0 0 11.335849583103247 -10.903753531492043 0 -10.903753531492043 -46.615599848490525 0 0 0 0 7.5368034260933179 -32.22339045527653 0 -32.22339045527653 -21.571535615127388 0 0 0 0 4.7438614848986109 -3.658863962937609 0 -3.658863962937609 -7.6623928790566982 0 0 0 0 9.0153172165261246 -10.61528336918056 0 -10.61528336918056 -27.521400207079047 0 0 0 0 12.658797756487502 -12.784060480496919 0 -12.784060480496919 -21.14429028129598 0 0 0 0 21.74528797071855 -13.656757898035721 0 -13.656757898035721 -61.614753672962252 0 0 0 0 3.8463304629065806 -7.1564804028683673 0 -7.1564804028683673 -14.289208663783498 0 0 0 0 9.3527515307470264 -5.6512373178609643 0 -5.6512373178609643 -26.941246862021643 0 0 0 0 16.424528742591974 -30.474997771107155 0 -30.474997771107155 -36.376584086334333 0 0 0 0 27.30600412714648 -14.164251446673006 0 -14.164251446673006 -77.941913355050929 0 0 0 0 -15.556748440138108 -30.559914363770076 0 -30.559914363770076 -53.073928267325755 0 0 0 0 5.7850622545305939 -11.537936736726987 0 -11.537936736726987 -23.908976402612069 0 0 0 0 7.9644255963612522 -29.813906158182363 0 -29.813906158182363 -58.318080184742939 0 0 0 0 11.004682466992563 -10.941423435246634 0 -10.941423435246634 -31.893841329172574 0 0 0 0 1.7546221152549037 -11.118729979935786 0 -11.118729979935786 -10.303627826780289 0 0 0 0 -20.072954185518483 -25.781636056204661 0 -25.781636056204661 -45.44571935363274 0 0 0 0 2.9390952679779319 -4.842597966761307 0 -4.842597966761307 -23.754044054184945 0 0 0 0 26.008960900825969 5.1002949565299787 0 5.1002949565299787 -34.868557663518004 0 0 0 0 39.233832637201886 -9.6208571969127661 0 -9.6208571969127661 -34.332217790251889 0 0 0 0 17.347645728331827 -2.739778799144915 0 -2.739778799144915 -14.508767474835622 0 0 0 0 14.71116060317425 7.1101170497286148 0 7.1101170497286148 -24.667700917590992 0 0 0 0 29.006509446705877 -21.755626396559819 0 -21.755626396559819 -12.6146149954875 0 0 0 0 7.2912365299130215 29.907038505880337 0 29.907038505880337 -0.34221488791808952 0 0 0 0 -27.473607271392609 -7.6546601185582404 0 -7.6546601185582404 -7.3058223835141689 0 0 0 0 74.865225846026988 16.804691069817636 0 16.804691069817636 -30.54386703617638 0 0 0 0 -0.46291981770654189 -1.673914912497473 0 -1.673914912497473 -3.5587376943153686 0 0 0 0 0.53320108975557956 -7.4520453925029768 0 -7.4520453925029768 -13.567619997091427 0 0 0 0 -10.494240303538426 -12.442875790743301 0 -12.442875790743301 1.6337066615051299 0 0 0 0 -4.6013630419295168 -20.158006000492605 0 -20.158006000492605 -10.446217721462745 0 0 0 0 4.3386412665899057 -12.713171323493157 0 -12.713171323493157 -6.8937618011007231 0 0 0 0 1.5420825178058521 -5.3003995054932602 0 -5.3003995054932602 -37.639330999907543 0 0 0 0 -3.4863923052654116 8.5143346355707763 0 8.5143346355707763 -19.265724732358649 0 0 0 0 -0.49770508207943021 -1.2639170311234906 0 -1.2639170311234906 -0.2044901616853565 0 0 0 0 24.613516792218377 -18.357918463541864 0 -18.357918463541864 -77.686963224394276 0 0 0 0 -9.9916987117096596 -10.182002751631444 0 -10.182002751631444 -27.576995078961772 0 0 0 0 6.4251796098051841 27.695257449389828 0 27.695257449389828 16.512396788384649 0 0 0 0 -4.0929061380713421 -34.929605642762681 0 -34.929605642762681 56.783136968257168 0 0 0 0 -12.283033955330346 -24.99136740528472 0 -24.99136740528472 -23.052514176358699 0 0 0 0 214.65945620739512 -44.923192042484516 0 -44.923192042484516 -23.852299874741732 0 0 0 0 210.29171854841525 -48.297390600557264 0 -48.297390600557264 -35.852694175811848 0 0 0 0 677.43234648220414 -323.92455301036534 0 -323.92455301036534 -58.678288116318072 0 0 0 0 213.50169194716 -19.520289767135182 0 -19.520289767135182 -94.408913391815076 0 0 0 0 -270.01858984659521 -264.24218946193287 0 -264.24218946193287 257.45123880218307 0 0 0 0 27.717198532759181 9.4976030224961505 0 9.4976030224961505 -51.240347054375889 0 0 0 0 -14.141079743592931 -18.246727515903657 0 -18.246727515903657 -22.054997329910684 0 0 0 0 70.778561661607853 500.12904377060659 0 500.12904377060659 -582.00834643385315 0 0 0 0 147.24086777815333 -273.33286471361953 0 -273.33286471361953 -2757.8724706410503 0 0 0 0 41.287145942690415 -804.0882177071735 0 -804.0882177071735 -2501.1805721924648 0 0 0 0 -358.28684667881845 -800.18925509094151 0 -800.18925509094151 -2191.2319652761526 0 0 0 0 30.739518559107886 -936.10907119062904 0 -936.10907119062904 -1970.5129810831604 0 0 0 0 -51.738616148085967 -319.13215997802763 0 -319.13215997802763 -1367.9451890676246 0 0 0 0 61.944156494400801 -610.27563585256394 0 -610.27563585256394 -2020.0655272973927 0 0 0 0 -0.055290457580391417 -4.1098622230614836 0 -4.1098622230614836 -2.8160180539143767 0 0 0 0 -852.64666434727405 -1236.4788059285238 0 -1236.4788059285238 -1509.363765983564 0 0 0 0 -225.70415819123662 -431.28422616729222 0 -431.28422616729222 -808.40906724211163 0 0 0 0 -84.001260404803389 -1671.6243824590747 0 -1671.6243824590747 -2495.9378384078159 0 0 0 0 49.187953314790505 -922.0683206274316 0 -922.0683206274316 -1982.8195729851577 0 0 0 0 -1484.1466530699483 -869.16682663341271 0 -869.16682663341271 -554.04925841097429 0 0 0 0 -5.5202613356818331 -4.1124736154757002 0 -4.1124736154757002 -14.054554337025223 0 0 0 0 -18.843511148946789 24.689965766732712 0 24.689965766732712 -11.647721431687387 0 0 0 0 10.9286307031864 -1.1019732336699235 0 -1.1019732336699235 -30.252786115663184 0 0 0 0 7.837712704693697 9.2373000592617771 0 9.2373000592617771 -16.994187792199675 0 0 0 0 -0.13965480540121478 -2.4807096476694159 0 -2.4807096476694159 0.63074485002299241 0 0 0 0 -377.29892064757439 -851.42312967686485 0 -851.42312967686485 -1573.7271026284907 0 0 0 0 -379.39675357305788 -1050.9735720448182 0 -1050.9735720448182 -1816.2813688397946 0 0 0 0 -293.3065640514605 -607.18723546668025 0 -607.18723546668025 -1363.7597510559617 0 0 0 0 -615.25372586370793 -539.88647028618152 0 -539.88647028618152 -1377.6698926392146 0 0 0 0 -602.19778278739443 -759.30600838648115 0 -759.30600838648115 -814.90990577100456 0 0 0 0 -409.51588520604491 -491.01384493601017 0 -491.01384493601017 -480.0760066596132 0 0 0 0 -328.03151786250703 -405.65771726840876 0 -405.65771726840876 -793.13110875953862 0 0 0 0 204.59365257350964 -118.7540144416671 0 -118.7540144416671 -262.25263180838715 0 0 0 0 -122.26159434406759 49.108637612547682 0 49.108637612547682 -110.88015719203213 0 0 0 0 275.13097594826968 254.06049187251756 0 254.06049187251756 -43.475054552414804 0 0 0 0 -909.36834613407245 -604.51323199945364 0 -604.51323199945364 -39.75667952526419 0 0 0 0 -10.272808704855606 -147.50283634435254 0 -147.50283634435254 -311.71337964908162 0 0 0 0 -1008.9677223813496 -1073.0433959935399 0 -1073.0433959935399 247.85438119334412 0 0 0 0 -290.31379346012181 -1.1416387011231564 0 -1.1416387011231564 473.32267328084708 0 0 0 0 -931.34577706836512 -1186.5864167023847 0 -1186.5864167023847 -911.00283409305621 0 0 0 0 -506.50774223566293 -761.99118714839824 0 -761.99118714839824 -662.7103815485425 0 0 0 0 -302.74408992608471 -1524.5723968048696 0 -1524.5723968048696 -2728.7970541601353 0 0 0 0 -1169.4770438211278 -1915.1009956723919 0 -1915.1009956723919 -1071.5739210589045 0 0 0 0 -6.9261003710013487 -8.0154947398983332 0 -8.0154947398983332 -9.8256401973799186 0 0 0 0 24.715967104409145 92.554738603457963 0 92.554738603457963 -3025.146750295331 0 0 0 0 -555.30364670035829 -1401.1792875469309 0 -1401.1792875469309 -3212.428729439057 0 0 0 0 -1097.6791410530211 -868.058033341797 0 -868.058033341797 -2499.2857347269983 0 0 0 0 -445.47379599727844 -538.90108784723816 0 -538.90108784723816 -2618.0313542743024 0 0 0 0 -215.99355930553179 -936.77078424083265 0 -936.77078424083265 -2500.0843554243238 0 0 0 0 -19.794260854245543 -648.5688740533401 0 -648.5688740533401 -2127.7953213915434 0 0 0 0 234.10247195939434 -522.79680487546284 0 -522.79680487546284 -2499.6980799673938 0 0 0 0 290.91532215767586 -371.73637178213539 0 -371.73637178213539 -2101.2938252402764 0 0 0 0 58.851974618077151 -378.42324600786924 0 -378.42324600786924 -1827.38851475206 0 0 0 0 130.6154766519947 -383.39657178696507 0 -383.39657178696507 -2101.1558816914403 0 0 0 0 -24.116870215052899 -627.71499598217997 0 -627.71499598217997 -2099.4830211304361 0 0 0 0 437.88852951569186 -122.96585014033326 0 -122.96585014033326 -2142.097329769661 0 0 0 0 377.77131250074223 -314.30763935031337 0 -314.30763935031337 -2499.7736986192685 0 0 0 0 168.79810693107834 -97.26409692883044 0 -97.26409692883044 -1745.1170576483364 0 0 0 0 167.23210636401902 -285.44294597132887 0 -285.44294597132887 -1839.143962136186 0 0 0 0 -2.7166213885818706 -371.5957819868745 0 -371.5957819868745 -1445.4060983621475 0 0 0 0 -95.532691674416867 -335.17013309142408 0 -335.17013309142408 -1208.6019060363615 0 0 0 0 -309.29545613501875 -540.50492575158569 0 -540.50492575158569 -1635.5905175497073 0 0 0 0 -95.71564227391697 -406.64109968049297 0 -406.64109968049297 -1568.933891826845 0 0 0 0 -333.82898345860576 -337.53563811712183 0 -337.53563811712183 -1348.9274480434433 0 0 0 0 -0.10696242108698062 1.0492395248965316 0 1.0492395248965316 -7.1430003272505687 0 0 0 0 -508.82585191338359 -792.53866339107844 0 -792.53866339107844 -1277.6836163870248 0 0 0 0 -240.24321683700009 -553.7474582008258 0 -553.7474582008258 -832.62418048899872 0 0 0 0 -313.08739888591174 -350.50299328889378 0 -350.50299328889378 -449.14029582019634 0 0 0 0 -71.32588160659634 -319.40750101567073 0 -319.40750101567073 -1201.8945294257173 0 0 0 0 -78.798496369089321 -384.07624360193859 0 -384.07624360193859 -944.10810176587938 0 0 0 0 7.7416570645792717 -180.67221289526424 0 -180.67221289526424 -1181.1562331842397 0 0 0 0 -155.82790078821427 -258.95845530437145 0 -258.95845530437145 -792.05615254986606 0 0 0 0 -164.00384941987832 -253.07553798925392 0 -253.07553798925392 -508.19295891156071 0 0 0 0 -162.03751544620738 -418.51341161282227 0 -418.51341161282227 -556.14276847864494 0 0 0 0 -274.55688256799192 -300.51812297496463 0 -300.51812297496463 -313.60432355776402 0 0 0 0 -97.644602816113803 -243.65975312470948 0 -243.65975312470948 -435.29518559798362 0 0 0 0 -121.66263235897873 -263.55945138447532 0 -263.55945138447532 -68.498612159622724 0 0 0 0 -79.981234234199178 -384.70739778397638 0 -384.70739778397638 -250.59563379319206 0 0 0 0 1.6596980709434304 2.0058578369422522 0 2.0058578369422522 -13.403274367342917 0 0 0 0 126.50737658253414 -39.986225874399452 0 -39.986225874399452 -223.24093308828196 0 0 0 0 -106.30720728454025 -488.21730410497366 0 -488.21730410497366 -202.09100568226813 0 0 0 0 -85.705902499710362 -417.34698936559653 0 -417.34698936559653 -382.85813913011043 0 0 0 0 58.335150335838833 256.5225615357665 0 256.5225615357665 -336.98623654697803 0 0 0 0 0.89510785274942684 3.0115904948366747 0 3.0115904948366747 -14.661353702509789 0 0 0 0 -138.49447091376567 -244.01097460326582 0 -244.01097460326582 -504.09084565277158 0 0 0 0 -238.90149012893141 -355.47178301472741 0 -355.47178301472741 -234.57871291825813 0 0 0 0 -37.570625137112756 89.632500892587132 0 89.632500892587132 -990.24020240084155 0 0 0 0 -122.4511341805395 1236.7402882971214 0 1236.7402882971214 -820.76834598432924 0 0 0 0 773.96734000170295 -553.96459920395364 0 -553.96459920395364 -482.67833983653827 0 0 0 0 1.1909310468574632 -1.1337878637113619 0 -1.1337878637113619 -12.283240546157344 0 0 0 0 -379.82009572451341 332.72404948504027 0 332.72404948504027 -539.83393107968186 0 0 0 0 -137.44264894176493 -480.95822611499023 0 -480.95822611499023 -604.86024615500173 0 0 0 0 -400.52252245074845 -37.339652827575719 0 -37.339652827575719 -558.79086091663521 0 0 0 0 -317.36726894087877 -249.61775802630154 0 -249.61775802630154 -402.61373773941887 0 0 0 0 -211.56679253524794 -249.27388256015911 0 -249.27388256015911 -534.56567764218607 0 0 0 0 -279.11894170989046 -272.73276946056586 0 -272.73276946056586 -469.48397778575782 0 0 0 0 -35.339387392352421 -191.71425879337139 0 -191.71425879337139 -501.84559090769608 0 0 0 0 -207.93558722938121 -191.72213248617572 0 -191.72213248617572 -461.42426321946414 0 0 0 0 -6.5062365969320126 -142.39368644922752 0 -142.39368644922752 -593.36729229038065 0 0 0 0 -157.24864928695996 -289.22006575417265 0 -289.22006575417265 -587.13692260489915 0 0 0 0 -81.624665186623929 -69.496419991057337 0 -69.496419991057337 -945.76754845229379 0 0 0 0 -82.350000080198015 -54.218945832291411 0 -54.218945832291411 -518.28985192313667 0 0 0 0 141.20436546321355 52.371854838709169 0 52.371854838709169 -947.66043142085209 0 0 0 0 -11.555603333865623 -253.1686889950266 0 -253.1686889950266 35.995101779644301 0 0 0 0 128.49070904806422 279.55285359361324 0 279.55285359361324 -224.92626194587911 0 0 0 0 727.97781179888784 -137.73789483338567 0 -137.73789483338567 -448.83506266228869 0 0 0 0 -130.17426093868875 451.52535764647826 0 451.52535764647826 -351.99763793515649 0 0 0 0 348.40245441968267 370.44441360486053 0 370.44441360486053 -1716.0211243748499 0 0 0 0 153.54589893108994 309.3089636721852 0 309.3089636721852 -960.10722666578249 0 0 0 0 341.90052809014048 503.15581449908166 0 503.15581449908166 -1772.8253065485651 0 0 0 0 242.84387196137016 65.130110871634997 0 65.130110871634997 -1734.6339107631834 0 0 0 0 18.090266202177133 -212.56719119883297 0 -212.56719119883297 -1144.53782356786 0 0 0 0 164.46200036345863 -8.6458940608408739 0 -8.6458940608408739 -1275.6655987020993 0 0 0 0 426.67738260279498 -90.642314067008442 0 -90.642314067008442 -2194.6266239503439 0 0 0 0 363.96306590559516 157.50870253129824 0 157.50870253129824 -1771.4498066610436 0 0 0 0 486.59539374243133 239.27058615190458 0 239.27058615190458 -2196.8489935349126 0 0 0 0 562.72329810658732 21.763371590404574 0 21.763371590404574 -2296.1100254447579 0 0 0 0 577.29417105468281 35.919148896068691 0 35.919148896068691 -2499.7032997860451 0 0 0 0 454.0656309581309 137.78362252290185 0 137.78362252290185 -2299.9518662549535 0 0 0 0 496.81303890761899 152.47730984502721 0 152.47730984502721 -2500.0070366510358 0 0 0 0 316.78283492023058 148.02407550270573 0 148.02407550270573 -2277.1783973569709 0 0 0 0 -235.46661532893199 71.841412559014543 0 71.841412559014543 -2370.0559855440215 0 0 0 0 -239.35142209818147 521.36400905974665 0 521.36400905974665 -2133.0232834735612 0 0 0 0 280.99418778163499 269.64091186677371 0 269.64091186677371 -2499.7151021337017 0 0 0 0 179.31529436640326 659.14332595166934 0 659.14332595166934 -2224.3965120744178 0 0 0 0 67.91691147617108 483.90397040058861 0 483.90397040058861 -2499.9010498826942 0 0 0 0 208.14216948830293 547.07126086235951 0 547.07126086235951 -2222.0341636367621 0 0 0 0 106.8896055535302 854.41182785085448 0 854.41182785085448 -1968.8475094233736 0 0 0 0 109.57529950345989 336.00157379280313 0 336.00157379280313 -1956.8180296596622 0 0 0 0 20.298355737543616 567.32506333922026 0 567.32506333922026 -2252.3741393537002 0 0 0 0 -23.942935172483544 491.18947437240195 0 491.18947437240195 -1417.828560043954 0 0 0 0 -7.3905656001195155 456.79831958953264 0 456.79831958953264 -1383.9992784782371 0 0 0 0 -272.63791564365232 62.39414715149951 0 62.39414715149951 -1056.12297171929 0 0 0 0 -161.93674838402913 106.471662640467 0 106.471662640467 -501.8323078047124 0 0 0 0 -258.92369367478187 246.28031715339307 0 246.28031715339307 -472.21252059813924 0 0 0 0 -305.42905079026576 -31.695236200349314 0 -31.695236200349314 -324.0052263802354 0 0 0 0 157.56273346581983 -909.06445267377501 0 -909.06445267377501 -110.26280257157785 0 0 0 0 368.29994325881222 325.98658875410001 0 325.98658875410001 -2655.0501660654918 0 0 0 0 -195.31348882951846 1152.6669467978404 0 1152.6669467978404 -1811.1356485496467 0 0 0 0 0.42456643566212693 -2.1213639897098875 0 -2.1213639897098875 -14.36342736338799 0 0 0 0 -81.534382131015633 -259.68950592397766 0 -259.68950592397766 -1825.1979539691031 0 0 0 0 -22.633447254647081 120.42720440666926 0 120.42720440666926 -557.55728660381465 0 0 0 0 -1024.8296651120766 1226.7792417842552 0 1226.7792417842552 -637.38847819650618 0 0 0 0 -129.79756616369562 1500.1905832069629 0 1500.1905832069629 -2490.8854885383444 0 0 0 0 -87.619582054023837 1301.0933678863425 0 1301.0933678863425 -1715.6900468288331 0 0 0 0 -121.58392391321789 863.68611879778655 0 863.68611879778655 -2132.6679518299279 0 0 0 0 2.0809509464096934 577.67363143078546 0 577.67363143078546 -1596.7956344134573 0 0 0 0 -352.52457389039569 668.08829459018239 0 668.08829459018239 -742.68012330803504 0 0 0 0 124.84237399788027 170.21541089185666 0 170.21541089185666 -1205.3123148449649 0 0 0 0 131.2123497532441 600.59632025650899 0 600.59632025650899 -2893.1277319804631 0 0 0 0 -626.15688012357657 1075.9347709696058 0 1075.9347709696058 -2168.5212429736875 0 0 0 0 -379.71919564124858 503.9410557590013 0 503.9410557590013 -2138.1922566443263 0 0 0 0 -179.82881161661797 806.24198689501281 0 806.24198689501281 -2057.633114972552 0 0 0 0 3.7729559717355743 1075.1099400509588 0 1075.1099400509588 -2501.124852922936 0 0 0 0 -177.53250358824582 843.15923646434112 0 843.15923646434112 -2060.8421171140462 0 0 0 0 8.6444318917103402 597.92404206608762 0 597.92404206608762 -2142.0399246310408 0 0 0 0 161.33966202624839 719.0849623990207 0 719.0849623990207 -2499.3937017224221 0 0 0 0 17.660855187175695 779.04485102725471 0 779.04485102725471 -1315.6965830894551 0 0 0 0 196.18803614270544 805.06131761347024 0 805.06131761347024 -2560.8702459551841 0 0 0 0 -15.982313811181655 617.40448857336105 0 617.40448857336105 -1293.7658122881396 0 0 0 0 -305.02007109701367 671.68971548821628 0 671.68971548821628 -356.61137307821627 0 0 0 0 154.29368958793191 134.09188816434562 0 134.09188816434562 -444.07555206494908 0 0 0 0 -147.96353031242458 574.95456162301525 0 574.95456162301525 -811.24810051331133 0 0 0 0 -57.006244172216782 351.788683737268 0 351.788683737268 -859.08221948992036 0 0 0 0 -31.04788095949246 191.77586227896882 0 191.77586227896882 -447.87445303511686 0 0 0 0 32.748008860798052 -2.3628412150146687 0 -2.3628412150146687 -220.25202948581136 0 0 0 0 173.43555707327647 193.80947624484634 0 193.80947624484634 -386.83295209767039 0 0 0 0 -111.51178452951579 199.70012593149295 0 199.70012593149295 -299.71355468936417 0 0 0 0 906.57218138270946 194.78119549113262 0 194.78119549113262 -408.97567795888335 0 0 0 0 217.56092125630505 219.63771660179191 0 219.63771660179191 -338.67290707724078 0 0 0 0 1021.8337752140548 73.311247417854474 0 73.311247417854474 -433.46326515755936 0 0 0 0 -1.0706783941990108 4.3224610263124283 0 4.3224610263124283 -3.6766616132238426 0 0 0 0 379.12422004078257 -19.882206136276181 0 -19.882206136276181 -203.98727766883167 0 0 0 0 273.09283632950417 12.592406556062997 0 12.592406556062997 -260.86914812128816 0 0 0 0 657.77926482030989 281.71497944433804 0 281.71497944433804 -222.33554557877233 0 0 0 0 734.86577271352758 -434.22644763125027 0 -434.22644763125027 109.5676384283579 0 0 0 0 606.41604395740387 -85.599534291870441 0 -85.599534291870441 -232.94864584425159 0 0 0 0 -107.85783886349566 417.68757473119149 0 417.68757473119149 -123.00505563001934 0 0 0 0 -280.75224014268679 245.9951942061216 0 245.9951942061216 296.53484537866825 0 0 0 0 154.3059394843915 -117.15564227003415 0 -117.15564227003415 565.71210887999587 0 0 0 0 1.1343228973069328 4.0282976894664735 0 4.0282976894664735 -7.4243731473236991 0 0 0 0 -169.13521828859439 1364.3039848576664 0 1364.3039848576664 -992.80261923102626 0 0 0 0 -397.25342222572448 1060.1859882434928 0 1060.1859882434928 85.212351325499185 0 0 0 0 169.01333658671177 -502.50164677695557 0 -502.50164677695557 -1439.0697256180974 0 0 0 0 -130.086481063642 -443.36133976434394 0 -443.36133976434394 -121.52352773990424 0 0 0 0 160.38325621649824 50.195717839306781 0 50.195717839306781 -346.69495488589746 0 0 0 0 -302.51091002223546 174.65745630880883 0 174.65745630880883 145.52924048549448 0 0 0 0 4.6117807493339011 4.8644355390286336 0 4.8644355390286336 -9.8299039258279741 0 0 0 0 -139.72062753522098 -207.80440982159962 0 -207.80440982159962 -559.95844748669197 0 0 0 0 38.832558626136688 -228.83527782656893 0 -228.83527782656893 -1414.4374685018083 0 0 0 0 -115.73337345400265 38.280464843776826 0 38.280464843776826 -475.91558921980686 0 0 0 0 -420.49549424201115 -92.576396612383178 0 -92.576396612383178 267.41351310932623 0 0 0 0 -0.030817212589113296 9.8022095091187111 0 9.8022095091187111 7.9568679033104672 0 0 0 0 23.932127899259626 -59.135924301990599 0 -59.135924301990599 -74.475929115736108 0 0 0 0 7.5488226137561041 3.0141584659711196 0 3.0141584659711196 -6.856774379881788 0 0 0 0 90.509910996421866 36.357951179003521 0 36.357951179003521 -32.076690397465427 0 0 0 0 9.2280224011915379 3.5854237448934327 0 3.5854237448934327 -16.774669860164067 0 0 0 0 1.9621967141706955 1.2880290010268638 0 1.2880290010268638 -1.5387954973393558 0 0 0 0 7.0902936899664724 14.239096476900045 0 14.239096476900045 13.806599756154355 0 0 0 0 9.5810125048008103 -3.6210687259704173 0 -3.6210687259704173 -3.6404153601097278 0 0 0 0 10.831931291299384 4.6628456581880755 0 4.6628456581880755 -9.6506689949046631 0 0 0 0 -3.1575075494205294 -0.41994790039802865 0 -0.41994790039802865 -2.0737703635895741 0 0 0 0 0.96892533690921068 1.9051616202515191 0 1.9051616202515191 -9.214793475665072 0 0 0 0 280.58528229186487 -212.36790918323095 0 -212.36790918323095 194.45059048121311 0 0 0 0 372.69548994228825 -170.54326264006022 0 -170.54326264006022 45.734706970301431 0 0 0 0 2.8846242702830196 0.31476641944386685 0 0.31476641944386685 -2.4148408534318366 0 0 0 0 295.11564503051881 -253.05469435855366 0 -253.05469435855366 87.018793455531522 0 0 0 0 374.38159649534134 -205.57364193730791 0 -205.57364193730791 -138.18687244079047 0 0 0 0 297.72063660942808 77.293808004466428 0 77.293808004466428 87.437296367504132 0 0 0 0 304.60285081191699 52.31265575819441 0 52.31265575819441 -329.99507160896064 0 0 0 0 24.069643898860789 57.64786035708039 0 57.64786035708039 -156.11854105484872 0 0 0 0 -43.933563005550695 -31.924495049601319 0 -31.924495049601319 -267.58596066449718 0 0 0 0 304.02286813504554 -232.29804457558521 0 -232.29804457558521 -304.91907601967023 0 0 0 0 48.279086632133087 -119.82624372273017 0 -119.82624372273017 -117.73606542004109 0 0 0 0 51.00984017348685 -278.17373030431099 0 -278.17373030431099 -461.56712727868126 0 0 0 0 341.81216707629187 -455.54305144947193 0 -455.54305144947193 -353.83237472919018 0 0 0 0 212.62314256817604 -175.26779209588176 0 -175.26779209588176 -431.26252009701875 0 0 0 0 68.48648579065889 -41.552896175206115 0 -41.552896175206115 -448.02787587997307 0 0 0 0 46.564517190661434 -114.55226823752946 0 -114.55226823752946 -248.4498483632533 0 0 0 0 48.771079200944811 -101.5142805473468 0 -101.5142805473468 -264.31770002471058 0 0 0 0 19.006030451712263 -36.287163338153277 0 -36.287163338153277 -251.44060297241322 0 0 0 0 113.90906254640186 -38.452099827880033 0 -38.452099827880033 -801.94101650261291 0 0 0 0 55.640962793917424 -141.05301350817899 0 -141.05301350817899 -516.47724634014207 0 0 0 0 107.49157293643179 -46.681299179031612 0 -46.681299179031612 -588.17523781164527 0 0 0 0 381.18671610862805 -208.07163850623743 0 -208.07163850623743 -658.39112287265198 0 0 0 0 91.374305404681877 211.18968186034408 0 211.18968186034408 -690.63408931251251 0 0 0 0 1.577874928198113 -0.32578722368062785 0 -0.32578722368062785 -2.9264341843270962 0 0 0 0 -194.09725420819404 -359.13055610509446 0 -359.13055610509446 -702.14618225910726 0 0 0 0 -48.71347402918218 -106.23083813022913 0 -106.23083813022913 -412.24303663300088 0 0 0 0 29.438249439534047 26.618227686245518 0 26.618227686245518 -472.17826826758437 0 0 0 0 -183.85898246704301 55.870541306557243 0 55.870541306557243 -475.85558571564525 0 0 0 0 -48.969134764997762 -62.291863240153361 0 -62.291863240153361 -432.93255912686436 0 0 0 0 -217.80453777899254 -170.1233213579543 0 -170.1233213579543 -498.80448914911904 0 0 0 0 94.310205247700424 -150.00228856159401 0 -150.00228856159401 -610.94991770316301 0 0 0 0 70.139884853911099 17.845150818847287 0 17.845150818847287 -511.94670245663838 0 0 0 0 102.34932636470398 -123.87073381973323 0 -123.87073381973323 -538.99775615649378 0 0 0 0 -8.4917316522869442 -210.57190874021944 0 -210.57190874021944 -643.20390514908831 0 0 0 0 -22.931043555336146 -67.528275341735025 0 -67.528275341735025 -241.46125177713293 0 0 0 0 -227.93069316460577 480.29182508272515 0 480.29182508272515 -185.0371882443099 0 0 0 0 -2.2567685418557031 4.3858804272685132 0 4.3858804272685132 -11.207557415093584 0 0 0 0 183.07399640353387 721.7185706315131 0 721.7185706315131 -713.68611218523949 0 0 0 0 2.2651283323879969 -3.9226712185313199 0 -3.9226712185313199 -26.218186971619829 0 0 0 0 806.50519568429149 -299.14765939800117 0 -299.14765939800117 -1049.4890637086216 0 0 0 0 -658.27359526865246 310.12834884718518 0 310.12834884718518 87.86074349854789 0 0 0 0 -575.61068949890625 394.78272833981737 0 394.78272833981737 -775.5903160761618 0 0 0 0 -227.13898753161351 136.32216052629678 0 136.32216052629678 -858.66491407096964 0 0 0 0 -513.33516537594846 239.94632675445973 0 239.94632675445973 -413.36207721824508 0 0 0 0 -91.802823112128721 95.945759240712505 0 95.945759240712505 -501.15974364831936 0 0 0 0 -246.00282367633272 38.500804794266969 0 38.500804794266969 -328.20703031460653 0 0 0 0 42.046999282196161 -177.35127238572844 0 -177.35127238572844 -641.51522977167951 0 0 0 0 -476.88839199675795 -544.79745290966821 0 -544.79745290966821 -885.94774984001037 0 0 0 0 -278.28694829258848 269.32953619173668 0 269.32953619173668 -1117.6474724216482 0 0 0 0 -266.69822506363033 -177.39590076341869 0 -177.39590076341869 -247.50304431836139 0 0 0 0 -204.27125433707127 -345.46332169709785 0 -345.46332169709785 -276.39770696191454 0 0 0 0 28.79524116284334 -244.16269161909236 0 -244.16269161909236 -320.79617137005152 0 0 0 0 -148.71815641676574 -137.88596141548305 0 -137.88596141548305 -162.88512473396804 0 0 0 0 -42.87115116103945 -209.19505638468763 0 -209.19505638468763 -336.30339654493491 0 0 0 0 -4.7062760446370984 11.363072433821245 0 11.363072433821245 -31.128460632429615 0 0 0 0 -212.31083092103165 -233.10500142122191 0 -233.10500142122191 -216.16291586938223 0 0 0 0 172.07915444876039 215.07302525551154 0 215.07302525551154 -25.742361004394297 0 0 0 0 5.5324344854109109 -4.449299715546811 0 -4.449299715546811 5.1578148098950853 0 0 0 0 575.49967409667761 335.52997975155995 0 335.52997975155995 65.580290404761399 0 0 0 0 78.135189969994371 -205.57310083537277 0 -205.57310083537277 -299.60377248673694 0 0 0 0 58.834148090008966 223.74328141319006 0 223.74328141319006 -11.968032777958342 0 0 0 0 410.48857622559899 489.28596935701069 0 489.28596935701069 -522.01777268464002 0 0 0 0 718.36469014875388 -84.318062464286413 0 -84.318062464286413 -572.89252743198358 0 0 0 0 751.54511867063729 189.32495353333184 0 189.32495353333184 -136.41661214288342 0 0 0 0 510.51519627758989 -74.304058898364019 0 -74.304058898364019 -359.16646234287145 0 0 0 0 314.31407461352273 105.3152562868255 0 105.3152562868255 54.748823168639319 0 0 0 0 75.173661748794984 -93.322234482683825 0 -93.322234482683825 21.822541824233156 0 0 0 0 319.19013257090842 -190.80832492303659 0 -190.80832492303659 -198.35488061160322 0 0 0 0 215.58845687139092 -198.45350542306915 0 -198.45350542306915 96.65407051114903 0 0 0 0 510.48733492985082 -461.94348965523818 0 -461.94348965523818 91.746872114547159 0 0 0 0 665.84647162068791 -176.70292451446653 0 -176.70292451446653 -384.95379552434463 0 0 0 0 494.82011147804349 -72.116781895415883 0 -72.116781895415883 0.078762480955845149 0 0 0 0 75.773157784830801 -199.50257802945089 0 -199.50257802945089 345.5131309709401 0 0 0 0 6.3950154539744588 -2.8073785263044355 0 -2.8073785263044355 -3.8940710830370397 0 0 0 0 4.2071406201978707 -8.9020603316069931 0 -8.9020603316069931 -11.212707491532417 0 0 0 0 6.7244247400922177 -16.324505187719069 0 -16.324505187719069 -31.993822915011378 0 0 0 0 23.129658955182379 34.141252765433038 0 34.141252765433038 5.1991032514349627 0 0 0 0 23.859288509038834 47.286506280880104 0 47.286506280880104 -89.42818113222188 0 0 0 0 -107.3839531945232 -184.55295365836173 0 -184.55295365836173 -165.78978765130751 0 0 0 0 15.910175701597357 4.7824529595486158 0 4.7824529595486158 -13.206608876307683 0 0 0 0 17.095365845632841 -167.67713256172328 0 -167.67713256172328 -358.38911672578274 0 0 0 0 0.94822174958063599 0.91415103028049138 0 0.91415103028049138 -0.23750562303852019 0 0 0 0 -43.086179489007918 -114.04584806890966 0 -114.04584806890966 -379.49209762110286 0 0 0 0 15.184937410574094 -7.0407110348169226 0 -7.0407110348169226 -6.6764038030833035 0 0 0 0 19.918451900435684 -18.44021305519982 0 -18.44021305519982 -45.163704020066689 0 0 0 0 21.809184521236606 1.6247275300560986 0 1.6247275300560986 -9.0204371273138317 0 0 0 0 30.294650101877778 -13.363119627042352 0 -13.363119627042352 -13.926841676102867 0 0 0 0 6.3573872874446238 -7.1423746852930279 0 -7.1423746852930279 -13.279806145292241 0 0 0 0 11.617435304365756 -5.4517105102462189 0 -5.4517105102462189 -12.381669180195487 0 0 0 0 41.898982623577922 5.8250970451925923 0 5.8250970451925923 -23.690697106961125 0 0 0 0 34.76978365875766 -1.4827996648600674 0 -1.4827996648600674 -0.42886466921845567 0 0 0 0 12.69011255522085 -29.462694944947998 0 -29.462694944947998 -21.743530576610283 0 0 0 0 2.5340999024388551 2.7285203844741925 0 2.7285203844741925 -15.128425607199091 0 0 0 0 33.296478699463371 -25.308282039336678 0 -25.308282039336678 -41.415311683907696 0 0 0 0 12.505020106155371 5.0344023211227977 0 5.0344023211227977 -32.515082132080124 0 0 0 0 12.427722534048241 -8.3130262154673265 0 -8.3130262154673265 -11.387835583794853 0 0 0 0 13.425320007694154 -42.900122917574208 0 -42.900122917574208 9.6278130932100794 0 0 0 0 46.563708530094118 -37.303735715298444 0 -37.303735715298444 -22.395841183608866 0 0 0 0 20.465529486116417 -14.179849817283767 0 -14.179849817283767 0.86598033476942682 0 0 0 0 166.13716254211704 -93.103607296451173 0 -93.103607296451173 -237.34287723738726 0 0 0 0 -10.738781883783446 -18.325360932753028 0 -18.325360932753028 -144.52000478085938 0 0 0 0 -0.51179429636119034 17.794344603174771 0 17.794344603174771 -46.285639350070937 0 0 0 0 -15.181393833956747 -28.485453627499965 0 -28.485453627499965 -144.49533653577419 0 0 0 0 -57.452771864568973 -41.920643780629689 0 -41.920643780629689 -108.57194211794013 0 0 0 0 -41.356098649635058 -101.71712569160286 0 -101.71712569160286 -224.93671603483017 0 0 0 0 43.998956006300659 -29.418304153305144 0 -29.418304153305144 -169.37929246303884 0 0 0 0 0.091861717396113818 -2.3922872736643512 0 -2.3922872736643512 -121.47319493124542 0 0 0 0 63.545271683617329 -59.656091024219677 0 -59.656091024219677 -277.73024848997193 0 0 0 0 15.912883527745862 -13.013466492170437 0 -13.013466492170437 -257.37442615410146 0 0 0 0 9.0219689246678172 17.377126928635334 0 17.377126928635334 -61.06370711582565 0 0 0 0 28.538580664204119 -53.164100410417177 0 -53.164100410417177 -75.139406304072509 0 0 0 0 2.8665228541632359 -94.713734195217171 0 -94.713734195217171 -298.62726413408564 0 0 0 0 129.27487300247913 -24.317599351635181 0 -24.317599351635181 -278.4375621751642 0 0 0 0 35.881220791880878 23.592877320910247 0 23.592877320910247 -287.67723475373168 0 0 0 0 7.7910113896350595 -32.874676250584344 0 -32.874676250584344 -247.96862546913144 0 0 0 0 -11.005607941413928 10.378191661960045 0 10.378191661960045 -87.776004054901989 0 0 0 0 -48.088649381196774 21.741703803934797 0 21.741703803934797 -86.891940599552981 0 0 0 0 4.5679556492805204 -52.667134310901929 0 -52.667134310901929 25.576744572340431 0 0 0 0 48.851913540588612 75.8202598667649 0 75.8202598667649 -81.656914437882733 0 0 0 0 25.219808098766407 -24.638644673270392 0 -24.638644673270392 -25.349881724575425 0 0 0 0 100.96246758272946 -36.147832448609279 0 -36.147832448609279 -24.843919785302205 0 0 0 0 16.92552053485241 -25.829605345678146 0 -25.829605345678146 -16.229457723300584 0 0 0 0 19.965494199195078 -13.349307110185066 0 -13.349307110185066 -8.2071286136570052 0 0 0 0 19.228148107059496 -7.9351385653608304 0 -7.9351385653608304 -30.868768169639225 0 0 0 0 28.203409886344161 -1.0392439831412048 0 -1.0392439831412048 -40.790451196262438 0 0 0 0 21.03948011158235 -8.4500602916812824 0 -8.4500602916812824 -12.529307497366677 0 0 0 0 8.920433278811025 -2.3773567602730896 0 -2.3773567602730896 -8.5602554481557682 0 0 0 0 6.9760442528713611 -13.881623185703575 0 -13.881623185703575 -21.876860705055151 0 0 0 0 -16.972960022457073 -32.040352836897 0 -32.040352836897 -13.657842644141056 0 0 0 0 9.4542431256527379 -13.905834406866234 0 -13.905834406866234 -19.896180079610531 0 0 0 0 16.665298960202634 -4.8847257037383187 0 -4.8847257037383187 -6.499983651714075 0 0 0 0 24.288656687167759 -14.223166933240464 0 -14.223166933240464 -39.858577865245024 0 0 0 0 9.9876038241191054 -3.7362376562336976 0 -3.7362376562336976 -13.409296463643841 0 0 0 0 9.2949063003676358 -8.012654399369918 0 -8.012654399369918 -15.671305252162234 0 0 0 0 20.015595843721712 -4.8828920275805103 0 -4.8828920275805103 -26.51115643922094 0 0 0 0 25.780441356327042 -5.9339637469853344 0 -5.9339637469853344 -11.142610622008167 0 0 0 0 -4.8018357495376627 -8.5212310392746851 0 -8.5212310392746851 -9.379099522197869 0 0 0 0 4.4080176231291262 -12.732581549025781 0 -12.732581549025781 -20.28370209017703 0 0 0 0 6.3630148841009522 -12.520150401834782 0 -12.520150401834782 -16.361489769367694 0 0 0 0 37.645589493182342 17.805914284348546 0 17.805914284348546 -47.962300013805361 0 0 0 0 9.6071353818497585 -9.8426764349491336 0 -9.8426764349491336 -12.140860282598183 0 0 0 0 -16.397984208429989 -4.893253931374602 0 -4.893253931374602 -24.330551752856991 0 0 0 0 6.0677438756017352 0.6248495546048467 0 0.6248495546048467 -23.113674752225435 0 0 0 0 -88.954818517593594 -289.18280600034632 0 -289.18280600034632 -474.33983367573455 0 0 0 0 -1.7244287200254185 0.056621797674473839 0 0.056621797674473839 0.20807556078219847 0 0 0 0 -16.361855263397047 -63.551856087006399 0 -63.551856087006399 -532.90674258600484 0 0 0 0 -2.0616001642017387 4.4681195505184235 0 4.4681195505184235 -8.4989941986672441 0 0 0 0 -7.2368785704875336 -100.15365829360053 0 -100.15365829360053 -659.39188808573999 0 0 0 0 -31.356195129339199 -84.619973925589903 0 -84.619973925589903 -548.69470380849998 0 0 0 0 -81.661746770805166 -200.77214682776935 0 -200.77214682776935 -523.60062300222307 0 0 0 0 -23.744012926211983 -16.406287386276965 0 -16.406287386276965 -7.7758960635331213 0 0 0 0 -42.919777292221625 62.020733230199767 0 62.020733230199767 -102.34536762270363 0 0 0 0 29.972812911140863 -46.11026314182709 0 -46.11026314182709 -10.420128595887945 0 0 0 0 33.164106065412 -35.683763720346292 0 -35.683763720346292 -5.0089178340567742 0 0 0 0 33.913495684218447 -22.108500994725546 0 -22.108500994725546 -72.494369156214816 0 0 0 0 17.71683677026158 -50.089065927371848 0 -50.089065927371848 -23.423505500257306 0 0 0 0 38.37122511225607 -54.646144157173694 0 -54.646144157173694 -26.400190237809511 0 0 0 0 24.672545891229674 -64.382296688822862 0 -64.382296688822862 34.965818689575826 0 0 0 0 18.096971485982067 -26.942166904726037 0 -26.942166904726037 -43.754528371915512 0 0 0 0 28.233445692181704 6.4925694560224656 0 6.4925694560224656 -42.796017950104215 0 0 0 0 32.815584348467382 -37.348312962523778 0 -37.348312962523778 -103.60481969201646 0 0 0 0 8.5699780166857344 0.34416405047531384 0 0.34416405047531384 -11.961029846850032 0 0 0 0 92.998655216440966 33.488469690140846 0 33.488469690140846 -20.410539710368766 0 0 0 0 130.46760590615258 -129.91816663852751 0 -129.91816663852751 -33.79745789829758 0 0 0 0 66.829166720403009 -9.1427144349727314 0 -9.1427144349727314 -39.615838571691711 0 0 0 0 69.324110770167408 -83.633412015737349 0 -83.633412015737349 0.3151756467850646 0 0 0 0 162.77295110876003 -33.237463355988439 0 -33.237463355988439 -45.469983187242178 0 0 0 0 31.520989091945012 -102.01614971472009 0 -102.01614971472009 -8.5743765473271196 0 0 0 0 28.723071912287651 -99.550704017598036 0 -99.550704017598036 25.885753113463579 0 0 0 0 -201.81167283333707 176.8478607860834 0 176.8478607860834 97.370592521845992 0 0 0 0 -1.0577873467739849 2.0250587951876327 0 2.0250587951876327 -2.7173464691995051 0 0 0 0 -52.73717664374999 -414.2289578353375 0 -414.2289578353375 -1282.2694386824187 0 0 0 0 -120.61797222041423 -190.32528721481322 0 -190.32528721481322 -496.86692027416393 0 0 0 0 -176.61600281596475 -377.01141348289457 0 -377.01141348289457 -840.97518296635099 0 0 0 0 -50.622978611967483 -237.78762910568548 0 -237.78762910568548 -992.19076669366405 0 0 0 0 -163.69458242797828 -332.42563796226432 0 -332.42563796226432 -697.52427291354979 0 0 0 0 -21.816824029971031 -167.20106855999438 0 -167.20106855999438 -819.6807002851092 0 0 0 0 -117.85551675673196 -124.4154107458744 0 -124.4154107458744 -642.36202991221944 0 0 0 0 -114.20778949991654 -16.196995794778559 0 -16.196995794778559 -815.75947241336871 0 0 0 0 -109.14464498872621 70.780487767191516 0 70.780487767191516 -1206.1380185354683 0 0 0 0 -153.9723864389066 -42.982295209684253 0 -42.982295209684253 -637.13404011969396 0 0 0 0 -219.29161873531302 -209.01366993428928 0 -209.01366993428928 -709.74489057439132 0 0 0 0 -69.598755687941775 -430.17948139088048 0 -430.17948139088048 -918.81589560668726 0 0 0 0 -85.830730902081996 -228.48127438535812 0 -228.48127438535812 -724.47448932718999 0 0 0 0 -30.250415942200561 -164.53528294103035 0 -164.53528294103035 -741.21373036498335 0 0 0 0 -45.87098131696257 -207.39142832744619 0 -207.39142832744619 -746.1464823410729 0 0 0 0 -73.139920890372196 -159.26850185821149 0 -159.26850185821149 -768.99250347451743 0 0 0 0 -103.25439747194832 -218.27899339051874 0 -218.27899339051874 -733.00680115849013 0 0 0 0 -17.727962059427227 -187.04323729148336 0 -187.04323729148336 -737.02472007910546 0 0 0 0 -110.62064895869662 -79.881737678155332 0 -79.881737678155332 -492.7961810314664 0 0 0 0 -132.11162723751022 -182.35129775871064 0 -182.35129775871064 -386.29416193729776 0 0 0 0 -258.31829542430251 -116.13262288184842 0 -116.13262288184842 -153.46413201760151 0 0 0 0 -199.02586656250969 -366.42742609359084 0 -366.42742609359084 -718.12518541426471 0 0 0 0 -112.10102291591465 -14.735684703438892 0 -14.735684703438892 -150.74525459196593 0 0 0 0 -34.680451560567235 -95.831019835619372 0 -95.831019835619372 -272.49041614266025 0 0 0 0 122.77190249241357 37.374489364345209 0 37.374489364345209 -238.35018314670378 0 0 0 0 163.12425462893225 -24.952994632039918 0 -24.952994632039918 -195.05144653237949 0 0 0 0 0.7371891648015243 1.1300954212184635 0 1.1300954212184635 0.65771388833406519 0 0 0 0 210.21097763898069 -115.3861815679029 0 -115.3861815679029 -242.58633844651195 0 0 0 0 113.39399473182857 -73.087634502162473 0 -73.087634502162473 -19.6521378326579 0 0 0 0 -3.618377433196855 -0.35214432194849721 0 -0.35214432194849721 -0.83988761139785328 0 0 0 0 -168.69610064660992 -46.890030763801406 0 -46.890030763801406 -113.69310082059565 0 0 0 0 13.767338496960292 -382.33318939117635 0 -382.33318939117635 -902.21982408015901 0 0 0 0 128.84593708104148 -388.27616465042411 0 -388.27616465042411 -964.42913343793589 0 0 0 0 30.394334845443154 -423.77028304318083 0 -423.77028304318083 -973.39223353910165 0 0 0 0 227.70756911318267 -6.5093860291417514 0 -6.5093860291417514 -910.29579392739106 0 0 0 0 -108.43971104109914 -777.18712084750405 0 -777.18712084750405 -1513.5423818334975 0 0 0 0 -694.42800810609879 -201.97939262993077 0 -201.97939262993077 152.31264274518799 0 0 0 0 -8.6663180314144199 0.45422242095400378 0 0.45422242095400378 0.78769454780545356 0 0 0 0 -785.64673270012099 -756.07849842428004 0 -756.07849842428004 -326.83226404510515 0 0 0 0 3.3741947724288828 4.5814153015118677 0 4.5814153015118677 -10.903964467431308 0 0 0 0 47.101725258837178 91.664079897047486 0 91.664079897047486 -184.43147350308209 0 0 0 0 42.689896005796982 -5.5678008695358585 0 -5.5678008695358585 -269.76276309067725 0 0 0 0 -40.165587546272945 11.051896607465096 0 11.051896607465096 -42.878774097964197 0 0 0 0 3.491098874887939 25.004876075341599 0 25.004876075341599 -106.52175165482913 0 0 0 0 -13.427884470427671 36.010646365759385 0 36.010646365759385 -113.59687064251557 0 0 0 0 -1.6807603858265168 54.120632869897747 0 54.120632869897747 -13.599627689596673 0 0 0 0 -2.6727550350842648 11.708011676662863 0 11.708011676662863 -98.853639529489556 0 0 0 0 -31.783488170822238 -14.514610521868235 0 -14.514610521868235 -102.44800473400778 0 0 0 0 3.6541137706365134 13.562793372248279 0 13.562793372248279 -95.677996790263251 0 0 0 0 -15.39282926353815 7.3512602837146632 0 7.3512602837146632 -14.802114355691355 0 0 0 0 11.332083717602472 74.916808124089584 0 74.916808124089584 -67.116726386504524 0 0 0 0 -3.5200878245716503 21.004022129154141 0 21.004022129154141 -48.507329864856466 0 0 0 0 -5.6818100621663596 2.153352916973045 0 2.153352916973045 -14.300797895309227 0 0 0 0 -10.455025407602079 3.38586427557766 0 3.38586427557766 -151.392232669431 0 0 0 0 184.18710407934304 230.3022467801311 0 230.3022467801311 -1241.2837568336472 0 0 0 0 -3.9152327587889886 -417.03974750375755 0 -417.03974750375755 -698.49266630664624 0 0 0 0 -115.33441409977786 -654.12610219391081 0 -654.12610219391081 -959.71479554508005 0 0 0 0 60.907355914948312 -338.97305117953556 0 -338.97305117953556 -514.70334187038748 0 0 0 0 -48.847761493797407 -163.25772131411395 0 -163.25772131411395 -583.29705536379879 0 0 0 0 -3.5040319427353097 -244.63243245050762 0 -244.63243245050762 -496.72313674563247 0 0 0 0 29.285535399217224 -327.99030811238435 0 -327.99030811238435 -493.85184604225469 0 0 0 0 -27.166780505962379 -157.75817089575685 0 -157.75817089575685 -204.78311968974867 0 0 0 0 -347.55034505742515 -350.36892143087016 0 -350.36892143087016 -157.86373150252166 0 0 0 0 -48.479604844752771 40.739009927813399 0 40.739009927813399 -44.63932350070445 0 0 0 0 68.889597209463318 -24.814304002561585 0 -24.814304002561585 -150.93608316627888 0 0 0 0 62.691899944793477 -85.938403352498426 0 -85.938403352498426 -23.686328461986704 0 0 0 0 83.719753544264677 -41.636815819076219 0 -41.636815819076219 -902.57068268511784 0 0 0 0 -470.34184481308148 -596.71575328178733 0 -596.71575328178733 -459.6773179400916 0 0 0 0 -346.98019770183964 -156.13205171383925 0 -156.13205171383925 168.0686203007981 0 0 0 0 109.88527333143077 158.64329356573313 0 158.64329356573313 -2017.1211598138543 0 0 0 0 -10.173722004795042 -3.8210196200679132 0 -3.8210196200679132 -2.6965473138762661 0 0 0 0 -4.850159055860555 -5.0839449979935765 0 -5.0839449979935765 -1.6793731728794157 0 0 0 0 34.35409238689499 -24.788654413689073 0 -24.788654413689073 -1494.6475768272066 0 0 0 0 -230.12612412337126 -4.3824373017159814 0 -4.3824373017159814 -3.8130062201162218 0 0 0 0 -395.27909157868635 -362.15173736842917 0 -362.15173736842917 -135.44883851646591 0 0 0 0 135.38892357217082 -193.83189318292352 0 -193.83189318292352 -91.503602591679737 0 0 0 0 103.20189283769014 39.777153936473042 0 39.777153936473042 -803.64644739042342 0 0 0 0 46.063532331821989 360.82168123767951 0 360.82168123767951 -1250.2174933040533 0 0 0 0 422.65144172683722 -264.32468044463167 0 -264.32468044463167 -1336.5797060043992 0 0 0 0 7.2985663018494051 -42.307267953581231 0 -42.307267953581231 -436.2718541311624 0 0 0 0 83.422228185566837 -203.38289697771506 0 -203.38289697771506 -507.22140982345445 0 0 0 0 118.38225822396862 -296.85496088889795 0 -296.85496088889795 -295.12897698283632 0 0 0 0 -8.4065995374312479 -85.436438940887456 0 -85.436438940887456 -333.24794668646246 0 0 0 0 259.5632041562867 -9.0151919260979412 0 -9.0151919260979412 -51.082600948764593 0 0 0 0 100.03633940217333 -70.300506302708527 0 -70.300506302708527 10.080983051768271 0 0 0 0 -0.74185208652909562 -3.0754549653507688 0 -3.0754549653507688 -0.21223849111730431 0 0 0 0 1.2125831153489006 -2.0077496011046065 0 -2.0077496011046065 -1.7342913949385554 0 0 0 0 4.6181623725751333 -4.1714938854510137 0 -4.1714938854510137 -5.8710022880562036 0 0 0 0 5.3638418946438833 -18.92320334584474 0 -18.92320334584474 -7.4632949962106068 0 0 0 0 3.5045134161173337 -54.258157543335983 0 -54.258157543335983 -10.727950846503518 0 0 0 0 43.844839307502298 -51.140121990840271 0 -51.140121990840271 13.266355542175006 0 0 0 0 5.2466911078117846 -22.04910086075688 0 -22.04910086075688 -8.6902050921780756 0 0 0 0 50.574372828439891 -64.624712711610186 0 -64.624712711610186 -8.5285118069514283 0 0 0 0 56.298879852332902 18.688425877371628 0 18.688425877371628 -33.684189001247432 0 0 0 0 -105.26255216419008 30.116829426453933 0 30.116829426453933 -1.8161411864857655 0 0 0 0 -44.807217828569264 9.3152715064534277 0 9.3152715064534277 5.0199101721591433 0 0 0 0 -65.988958536566315 -62.445197576538703 0 -62.445197576538703 21.180131453613285 0 0 0 0 18.92854249818356 -107.57295483439702 0 -107.57295483439702 28.984939623624086 0 0 0 0 -186.11712141471435 -107.08724174655799 0 -107.08724174655799 33.908015658162185 0 0 0 0 -21.669696429427688 -59.390268036291616 0 -59.390268036291616 -10.294222334283404 0 0 0 0 -1.8961467258479328 -13.727898393232657 0 -13.727898393232657 16.509039605701972 0 0 0 0 -21.359511624890729 -46.148331431123552 0 -46.148331431123552 -12.002176845468966 0 0 0 0 -18.497694354090527 -37.019154676427206 0 -37.019154676427206 -18.316498401523859 0 0 0 0 -11.442119980654537 -28.257506476067121 0 -28.257506476067121 -20.004210669808941 0 0 0 0 -355.92508841670781 -624.8179721199931 0 -624.8179721199931 176.80042273349682 0 0 0 0 458.16122105598902 305.6239415359214 0 305.6239415359214 -484.89348226687434 0 0 0 0 270.77019849608644 625.29955539746425 0 625.29955539746425 -203.03451003916416 0 0 0 0 343.02376884971852 410.54627970823822 0 410.54627970823822 -2550.0470032425801 0 0 0 0 -48.74704912622974 -107.12892326077781 0 -107.12892326077781 -1523.4448879665797 0 0 0 0 7.6601244893665807 -287.92221679390059 0 -287.92221679390059 -2308.7339253143218 0 0 0 0 -2.8459500682601546 -2.6232669979694023 0 -2.6232669979694023 -8.4463759606248345 0 0 0 0 41.354472087381055 409.94962563234003 0 409.94962563234003 -2010.4936353296289 0 0 0 0 -46.689973596850677 281.69345913316738 0 281.69345913316738 -823.09318261224325 0 0 0 0 -242.99761141005291 342.23239604319861 0 342.23239604319861 -592.3622179759077 0 0 0 0 -0.40928446011298369 -3.3776953252004489 0 -3.3776953252004489 -10.901539553691251 0 0 0 0 -0.88524452524916342 142.07138356224823 0 142.07138356224823 -786.83672823199595 0 0 0 0 -2.1578342569875062 -8.943528942977121 0 -8.943528942977121 -16.232847065783517 0 0 0 0 -346.18232699505387 792.87708260289287 0 792.87708260289287 -2219.1204387499602 0 0 0 0 -292.81562056909911 -294.75778740592978 0 -294.75778740592978 -129.51651938897703 0 0 0 0 -354.33114846359075 761.62389917404471 0 761.62389917404471 -1683.3302813783584 0 0 0 0 28.791883472782388 -71.223037301451768 0 -71.223037301451768 23.937275406118715 0 0 0 0 12.675058006930531 -3.1537478235636698 0 -3.1537478235636698 -9.2536362571011992 0 0 0 0 -8.3726991364999321 -16.113923436905679 0 -16.113923436905679 41.493314859866587 0 0 0 0 87.24325490706633 -52.631357670945363 0 -52.631357670945363 -215.22721732558875 0 0 0 0 -251.85025604965676 275.66440179544043 0 275.66440179544043 11.338495491516369 0 0 0 0 1.8032631170215416 -13.188433230174887 0 -13.188433230174887 -38.255230549028454 0 0 0 0 -28.763187364681471 230.09314948172414 0 230.09314948172414 -168.696135655131 0 0 0 0 14.460058950354323 128.61755132602957 0 128.61755132602957 -428.19026551856746 0 0 0 0 -189.90975296973647 256.92745724619817 0 256.92745724619817 -438.14872531245533 0 0 0 0 -15.26671623205948 237.55667320715656 0 237.55667320715656 -790.85709526604478 0 0 0 0 -328.43432601681661 212.58926730186249 0 212.58926730186249 -778.04756812402775 0 0 0 0 -57.056256948802911 20.594432603556925 0 20.594432603556925 -1507.8761433224099 0 0 0 0 169.82867973214888 92.251790345520021 0 92.251790345520021 -768.34030548403098 0 0 0 0 -60.545119069424345 269.72163803664716 0 269.72163803664716 -539.65333254821599 0 0 0 0 36.663036394236769 236.02058295660936 0 236.02058295660936 -800.40908511236557 0 0 0 0 -27.438135818893898 206.76934486719256 0 206.76934486719256 -525.72096334055095 0 0 0 0 -22.773980228576875 183.5780941753419 0 183.5780941753419 -493.65156643777573 0 0 0 0 -101.32106797174811 228.13580113269563 0 228.13580113269563 -257.38580214537069 0 0 0 0 -11.851147578419841 92.482531649877274 0 92.482531649877274 -490.89187692594714 0 0 0 0 12.177042282241928 17.817893391314101 0 17.817893391314101 -502.58074374981697 0 0 0 0 39.637351966387541 53.881631140990066 0 53.881631140990066 -593.35537073975684 0 0 0 0 55.788766716133978 125.12654332279817 0 125.12654332279817 -604.6143355129534 0 0 0 0 74.335282824531077 120.56975245505146 0 120.56975245505146 -664.02348029168934 0 0 0 0 68.622549472646824 147.10108978574863 0 147.10108978574863 -560.40865752764876 0 0 0 0 -231.92516572640989 107.00050053043333 0 107.00050053043333 -581.14500383560699 0 0 0 0 -93.190428371981398 -50.383716356855075 0 -50.383716356855075 -648.57520340543851 0 0 0 0 21.007476601080725 107.6593947934789 0 107.6593947934789 -599.98442353127211 0 0 0 0 2.7989790069641458 159.01384532040902 0 159.01384532040902 -740.21595375253219 0 0 0 0 43.489344900175638 270.26004662249306 0 270.26004662249306 -488.9502417691474 0 0 0 0 -0.8043184595066144 -1.8440104494851326 0 -1.8440104494851326 -1.2863418897886483 0 0 0 0 6.5688478788752036 -92.543905120122872 0 -92.543905120122872 102.16035088556964 0 0 0 0 -3.2039231506893238 -4.3487484622625487 0 -4.3487484622625487 -2.6778362242061746 0 0 0 0 25.837767746278587 -27.583527116443292 0 -27.583527116443292 5.3724580547568621 0 0 0 0 11.835071576443625 -29.473643909353996 0 -29.473643909353996 25.399025508163504 0 0 0 0 17.682870319251379 -44.789425841314369 0 -44.789425841314369 76.45749234185314 0 0 0 0 24.746541412851911 -19.773371407317427 0 -19.773371407317427 17.724576850427184 0 0 0 0 100.09988706649983 33.692952308607346 0 33.692952308607346 -625.38364023646773 0 0 0 0 18.033222652485165 83.674138118027258 0 83.674138118027258 -491.33151915021881 0 0 0 0 16.001700440105196 121.86956757969165 0 121.86956757969165 -610.26069484101845 0 0 0 0 0.028496253483353939 -12.215025756772775 0 -12.215025756772775 1.1601274413733336 0 0 0 0 1.3499360941968916 -12.686328907349889 0 -12.686328907349889 -4.0376648810015467 0 0 0 0 -21.558649010454246 -44.750483766165416 0 -44.750483766165416 -407.33305833461782 0 0 0 0 -8.6949683866187115 -13.023410418500134 0 -13.023410418500134 -2.3767697882412904 0 0 0 0 -5.674175127393724 -7.0339174707613381 0 -7.0339174707613381 -3.1789134005250297 0 0 0 0 7.3459946528719229 -22.208507685580116 0 -22.208507685580116 1.8271674201077985 0 0 0 0 8.9767130856180302 -22.413739914911275 0 -22.413739914911275 -4.5750844259728183 0 0 0 0 -13.688963695562052 -18.295134759668144 0 -18.295134759668144 -18.617943245080824 0 0 0 0 7.1195201046312047 -9.4591149632464777 0 -9.4591149632464777 -5.4697848411096928 0 0 0 0 2.572110737899493 -11.907488029617525 0 -11.907488029617525 -6.8791399224319321 0 0 0 0 8.1805473321819591 -21.591909351038339 0 -21.591909351038339 3.8003276271265349 0 0 0 0 17.055383811232787 -23.587400855744818 0 -23.587400855744818 1.3164482646425313 0 0 0 0 17.116932654407719 -23.955548476082186 0 -23.955548476082186 -0.90946489619273052 0 0 0 0 40.446073284762861 -5.2003270924087701 0 -5.2003270924087701 29.071688836505018 0 0 0 0 16.090033966289411 -22.108740221324297 0 -22.108740221324297 0.21080011856975034 0 0 0 0 15.461688709275769 -19.073405302793546 0 -19.073405302793546 1.221323262554936 0 0 0 0 21.113888554838923 -27.393240807426992 0 -27.393240807426992 0.10308203000749927 0 0 0 0 1.5699826758214623 -3.1768149323110109 0 -3.1768149323110109 3.9539546225607545 0 0 0 0 -5.0732254568411008 -11.694947024292105 0 -11.694947024292105 1.8458309314246435 0 0 0 0 33.82061614610393 -32.968570322979758 0 -32.968570322979758 -4.8184603004374367 0 0 0 0 15.90014262799377 -9.8149952449255728 0 -9.8149952449255728 -12.347387907560217 0 0 0 0 24.149093179750707 -16.509523029937554 0 -16.509523029937554 -15.413413691378082 0 0 0 0 19.694316909817644 -27.040138360674973 0 -27.040138360674973 5.3250179612127795 0 0 0 0 24.441095035808758 -27.485887931639809 0 -27.485887931639809 1.249650344485417 0 0 0 0 0.861928856382292 -1.4207929805625099 0 -1.4207929805625099 -25.926097193397254 0 0 0 0 12.625312931050603 -14.461163387319177 0 -14.461163387319177 -8.4178005647537617 0 0 0 0 5.2288320411991602 -0.31078410349470431 0 -0.31078410349470431 -3.5895564707359506 0 0 0 0 21.168680025700269 -27.019806453039564 0 -27.019806453039564 1.4223215720921871 0 0 0 0 42.474319712909846 10.412575042285198 0 10.412575042285198 -35.867696546069055 0 0 0 0 39.62944987218566 14.946454315826486 0 14.946454315826486 -11.050663130403336 0 0 0 0 1.3352692551789005 -3.6520188306367345 0 -3.6520188306367345 -20.00070353405863 0 0 0 0 -7.0849929102050737 26.510073877961986 0 26.510073877961986 4.4166447362831605 0 0 0 0 1.5248994652191641 -0.12370391959473537 0 -0.12370391959473537 0.21800470318608056 0 0 0 0 -36.246532553582256 -59.841967813853444 0 -59.841967813853444 -57.221848255767327 0 0 0 0 -48.639778212532292 -20.628108471031737 0 -20.628108471031737 7.0180601280981136 0 0 0 0 -47.061891608099359 24.214719500032515 0 24.214719500032515 -133.82988199734064 0 0 0 0 -2.8464158857238147 -59.362193443723697 0 -59.362193443723697 -50.988387554365545 0 0 0 0 35.450882220995481 -45.300974028362361 0 -45.300974028362361 -35.678038040281535 0 0 0 0 -60.759438449061179 -41.708315630985794 0 -41.708315630985794 -35.661966771371226 0 0 0 0 81.890299618605241 50.235902186756448 0 50.235902186756448 -765.46028205615767 0 0 0 0 34.533469084226454 -69.142322915673503 0 -69.142322915673503 -200.48006179744425 0 0 0 0 8.0239269639291706 56.77255608658561 0 56.77255608658561 -291.42106960500678 0 0 0 0 0.58412773644091853 2.7655167824332665 0 2.7655167824332665 -18.174010866123531 0 0 0 0 17.91808478854 46.005430645818478 0 46.005430645818478 41.707335532379147 0 0 0 0 91.42464299463245 22.397243200606681 0 22.397243200606681 -102.48209249144202 0 0 0 0 194.98013538796476 127.73499160458323 0 127.73499160458323 -105.73097133271222 0 0 0 0 239.11924815207567 -168.90133681247562 0 -168.90133681247562 -499.56769727593564 0 0 0 0 128.84010688892431 -86.423478710486961 0 -86.423478710486961 -91.082869815826598 0 0 0 0 6.010024258044723 -84.493254275956133 0 -84.493254275956133 -19.619966185100566 0 0 0 0 38.965724799098098 -18.125864121017003 0 -18.125864121017003 -133.32652284064534 0 0 0 0 56.646859179513285 158.11282214894891 0 158.11282214894891 -94.298222193460788 0 0 0 0 -126.42534462761751 -432.97613317503806 0 -432.97613317503806 -759.734307747407 0 0 0 0 -0.60392100635763857 1.8846793053562543 0 1.8846793053562543 -6.0222926723468824 0 0 0 0 224.41409201613669 -229.24981974497314 0 -229.24981974497314 -780.18010859139395 0 0 0 0 202.01733291793153 -284.97084694236491 0 -284.97084694236491 -805.97684554119041 0 0 0 0 -29.948006725023788 -221.04367429501599 0 -221.04367429501599 -414.61142662757265 0 0 0 0 131.86412247089538 -212.53325368835704 0 -212.53325368835704 -1152.1201075206718 0 0 0 0 154.16996164323064 -93.25924118212788 0 -93.25924118212788 -560.98249587902501 0 0 0 0 -764.64518602878525 81.570778751101443 0 81.570778751101443 -37.701960056307144 0 0 0 0 -121.58749567262112 -9.6702411968417437 0 -9.6702411968417437 102.29408544822218 0 0 0 0 -219.82349533809156 395.89743080070548 0 395.89743080070548 -660.74823379496593 0 0 0 0 -50.753502715351715 402.70527208345993 0 402.70527208345993 80.008222780404708 0 0 0 0 -14.954035532601665 -13.617930228167097 0 -13.617930228167097 -25.146579567061053 0 0 0 0 205.02122867965591 379.8423044160736 0 379.8423044160736 19.860699280372501 0 0 0 0 0.83812111603304551 -2.9613521379297403 0 -2.9613521379297403 0.60278047792890277 0 0 0 0 -7.0856444219053643 -5.3816551724907669 0 -5.3816551724907669 2.5409941420938917 0 0 0 0 -18.758416640821451 -63.075509450423851 0 -63.075509450423851 243.46204114107604 0 0 0 0 171.59718694557159 -38.130211217345277 0 -38.130211217345277 108.75423913441773 0 0 0 0 -302.85408912216053 32.954473875337499 0 32.954473875337499 127.85636905628417 0 0 0 0 62.129205176886899 33.042609533582436 0 33.042609533582436 102.93775762031873 0 0 0 0 -144.36408699704407 -81.419198336348927 0 -81.419198336348927 4.518376399846602 0 0 0 0 -285.68409705548947 -28.278743913475409 0 -28.278743913475409 145.52032207605225 0 0 0 0 -159.4985802805295 21.596768054812856 0 21.596768054812856 222.76886229209413 0 0 0 0 -142.39319705538946 -82.744383284740252 0 -82.744383284740252 156.72679853983573 0 0 0 0 -16.533211199241123 -50.821891207961016 0 -50.821891207961016 -2.4288111749556265 0 0 0 0 -2.9593090542664662 -6.4681276345764438 0 -6.4681276345764438 17.144168479947773 0 0 0 0 -86.641643130863486 20.801707662747503 0 20.801707662747503 235.82123294910764 0 0 0 0 -68.887285393629099 2.7303334923026341 0 2.7303334923026341 188.47148518122458 0 0 0 0 8.0924497127598443 -62.074322785952972 0 -62.074322785952972 2.1833622612721229 0 0 0 0 -7.4951270893461697 -33.589349731970287 0 -33.589349731970287 -6.0542056723970745 0 0 0 0 17.364985484846329 -30.397832362401459 0 -30.397832362401459 -9.0529831895109965 0 0 0 0 -10.957922830390089 -10.93090919091992 0 -10.93090919091992 -11.266786248230346 0 0 0 0 -27.153068436055491 -22.645986292877751 0 -22.645986292877751 -9.0870294331252808 0 0 0 0 3.9949780693159482 -35.192772659123875 0 -35.192772659123875 -89.658419500327 0 0 0 0 20.832366412046213 -0.87369696389669116 0 -0.87369696389669116 -209.63735475361318 0 0 0 0 7.9597484900095878 -7.4065060869697845 0 -7.4065060869697845 -70.814275290427759 0 0 0 0 -106.89845411375359 -99.28699843996651 0 -99.28699843996651 79.395853432783042 0 0 0 0 10.420823242642655 -76.868138358536271 0 -76.868138358536271 -88.514687278284327 0 0 0 0 8.1690755719964727 -100.31938380093561 0 -100.31938380093561 2.7634265638143916 0 0 0 0 37.616095751772832 -341.82068044443531 0 -341.82068044443531 295.72176154409681 0 0 0 0 85.955225474930558 -166.8163224153941 0 -166.8163224153941 100.40480395887425 0 0 0 0 -240.87182424329694 -290.76201696603573 0 -290.76201696603573 64.49796656163744 0 0 0 0 9.2483937278802841 -11.628878390954924 0 -11.628878390954924 -60.804030875628087 0 0 0 0 173.64533212052538 -115.70807745106322 0 -115.70807745106322 76.380109570478453 0 0 0 0 0.73670354709231489 -0.15684553946806901 0 -0.15684553946806901 -0.22219529102200397 0 0 0 0 169.45432301573533 -166.04101433859751 0 -166.04101433859751 48.875957324660703 0 0 0 0 5.9481450357536154 -1.2781515600343987 0 -1.2781515600343987 -7.005016988905254 0 0 0 0 267.89614738847149 -151.02514188428268 0 -151.02514188428268 -221.08234856706622 0 0 0 0 29.971832599561822 -216.25174854839133 0 -216.25174854839133 10.311660467592446 0 0 0 0 48.740251160745174 -106.85804468232709 0 -106.85804468232709 -92.808927096899424 0 0 0 0 -395.08533786836324 -469.33079602616408 0 -469.33079602616408 -379.0764454818509 0 0 0 0 171.83037824284384 124.92822522367533 0 124.92822522367533 -963.95425077238542 0 0 0 0 161.76639974004456 79.464743612994425 0 79.464743612994425 -221.10975532137309 0 0 0 0 375.09103322097599 285.75515501053087 0 285.75515501053087 -240.05301881775449 0 0 0 0 190.76898849435565 158.04566585565044 0 158.04566585565044 -36.716828504908335 0 0 0 0 -0.69941141660938388 1.4613737260992412 0 1.4613737260992412 1.1029246508239936 0 0 0 0 340.32195081623468 195.15956178568194 0 195.15956178568194 -459.17675600732218 0 0 0 0 60.225725799320116 347.51456199129643 0 347.51456199129643 -365.58427838202897 0 0 0 0 56.049758572961537 449.13887011987299 0 449.13887011987299 -661.70148844402138 0 0 0 0 -102.17320506123679 -164.37854570203854 0 -164.37854570203854 -858.32499803119572 0 0 0 0 46.543981970649838 77.660313224920174 0 77.660313224920174 -511.56123554163787 0 0 0 0 271.83876402819442 269.8341025545169 0 269.8341025545169 -390.3003156454397 0 0 0 0 47.694129196421272 140.13099842847805 0 140.13099842847805 5.1530573227100831 0 0 0 0 3.6935759166372009 455.37448193371711 0 455.37448193371711 -505.05061018319429 0 0 0 0 48.671123771055136 348.2136793168429 0 348.2136793168429 -285.77038795985936 0 0 0 0 -212.83739831390812 259.97960910589063 0 259.97960910589063 -191.0757235063611 0 0 0 0 -1.2682672389177228 2.3047137355895213 0 2.3047137355895213 -14.075354545809603 0 0 0 0 -147.11429566052084 -322.42707504082182 0 -322.42707504082182 -406.12646586726078 0 0 0 0 -17.897589037126636 -35.013764073433777 0 -35.013764073433777 -85.810763158801819 0 0 0 0 -277.29243794429931 -538.23480885100116 0 -538.23480885100116 -702.52088239221848 0 0 0 0 0.92830973507841907 9.0991973261195174 0 9.0991973261195174 -37.627760384159373 0 0 0 0 22.28853665070892 82.739986738651169 0 82.739986738651169 -127.10662119868175 0 0 0 0 190.85264835114981 -44.330334960922528 0 -44.330334960922528 -43.448650394577271 0 0 0 0 94.2290831681903 -65.196133092659693 0 -65.196133092659693 -20.65695235572457 0 0 0 0 153.87340733609381 36.930207582125149 0 36.930207582125149 20.103671919579938 0 0 0 0 288.40736889174786 134.94416987409659 0 134.94416987409659 0.96620769071159884 0 0 0 0 4.4876905171315364 -3.2952747824466755 0 -3.2952747824466755 -4.5990577257691783 0 0 0 0 67.623875707668049 39.941825851260546 0 39.941825851260546 -88.928755768909468 0 0 0 0 73.25458829360241 25.553851842220411 0 25.553851842220411 -53.893161515192332 0 0 0 0 28.639165065013003 37.207207326862772 0 37.207207326862772 10.710947391708032 0 0 0 0 30.010998823086993 50.677241902505557 0 50.677241902505557 -8.0803541644709185 0 0 0 0 -1.3300052466121284 22.139067623023823 0 22.139067623023823 -40.249801297988917 0 0 0 0 104.021118585154 13.731658735236124 0 13.731658735236124 -91.651128458219318 0 0 0 0 -19.734890445235123 23.75582545182715 0 23.75582545182715 -16.788796641558292 0 0 0 0 1.7564278399477189 31.971542985550514 0 31.971542985550514 1.9394988613876194 0 0 0 0 20.092535777792762 16.121694460706443 0 16.121694460706443 -36.056042962436067 0 0 0 0 16.279263797816384 10.518567200459074 0 10.518567200459074 -22.820650618901709 0 0 0 0 22.277362583943368 12.700812307401671 0 12.700812307401671 -34.323592992569957 0 0 0 0 -141.93694007953445 -42.565541173671591 0 -42.565541173671591 25.819724284054246 0 0 0 0 14.869138655997098 7.6651392390437643 0 7.6651392390437643 -24.240529493439752 0 0 0 0 12.631147714390863 53.117878734450642 0 53.117878734450642 -11.79992024880994 0 0 0 0 185.69104657325352 -41.423036272701211 0 -41.423036272701211 21.185697751675434 0 0 0 0 1.0527925882497193 5.3252371487011345 0 5.3252371487011345 -7.4304516050933636 0 0 0 0 282.94232076012031 57.339032657553616 0 57.339032657553616 -76.281092110773898 0 0 0 0 288.53702311867892 41.157535605729208 0 41.157535605729208 -32.769546284493117 0 0 0 0 310.07718506760557 -14.090900489551132 0 -14.090900489551132 -97.634211766382577 0 0 0 0 305.0062607567952 -11.691854269098258 0 -11.691854269098258 -55.738826945737856 0 0 0 0 -95.164096733437191 -47.205050526779814 0 -47.205050526779814 13.976343253416417 0 0 0 0 -177.26890210585043 -246.93587840224427 0 -246.93587840224427 -35.405428878762905 0 0 0 0 1.6927896244744964 -3.0289693154411523 0 -3.0289693154411523 3.7616898954413074 0 0 0 0 -167.45202459693292 200.79257983758907 0 200.79257983758907 147.69619377433992 0 0 0 0 -292.15794734287101 -102.43635761100086 0 -102.43635761100086 106.79860694611125 0 0 0 0 267.42329281705861 103.31522072205007 0 103.31522072205007 -61.631473968191131 0 0 0 0 234.9741735391035 -24.938927910267921 0 -24.938927910267921 -99.903589813693543 0 0 0 0 13.781835818185755 -34.63306708789969 0 -34.63306708789969 -38.788188895705389 0 0 0 0 35.702848318093857 -73.480977150908075 0 -73.480977150908075 -35.299412789856433 0 0 0 0 -66.643448537350196 -139.69246564257264 0 -139.69246564257264 -64.179795002783067 0 0 0 0 0.78909992274537588 -1.4442595403021272 0 -1.4442595403021272 0.62576798403313205 0 0 0 0 -104.93720496815786 89.689163339473453 0 89.689163339473453 75.917486721429668 0 0 0 0 -3.1061783285101683 -55.066517036299956 0 -55.066517036299956 46.132015774775937 0 0 0 0 -111.28549044745611 -25.230174072725958 0 -25.230174072725958 18.305161647425848 0 0 0 0 211.406300065084 -96.087105096095911 0 -96.087105096095911 -142.6275807194379 0 0 0 0 -2.1009222001375747 -186.42909084491112 0 -186.42909084491112 -132.89922750138066 0 0 0 0 -428.97371675835359 49.676428682102596 0 49.676428682102596 -109.96269778241913 0 0 0 0 -198.04671235622038 -34.129133190453615 0 -34.129133190453615 -82.672656024282333 0 0 0 0 0.3554857318897211 -1.4063820832030807 0 -1.4063820832030807 1.9200509052494823 0 0 0 0 -201.21221948353363 -90.771533686798875 0 -90.771533686798875 -83.943970335269114 0 0 0 0 -43.969779886783726 -104.59815107339818 0 -104.59815107339818 -85.070476344153576 0 0 0 0 -221.31960122342753 -246.36222650708442 0 -246.36222650708442 -172.6109779040853 0 0 0 0 112.32403587828139 -222.37717246020111 0 -222.37717246020111 -43.375066931857873 0 0 0 0 446.99864615994011 -29.747781668957941 0 -29.747781668957941 -137.24120322655654 0 0 0 0 108.22862473263467 -62.883187760842702 0 -62.883187760842702 -95.561964694399649 0 0 0 0 -53.973809179724412 -196.71508835156419 0 -196.71508835156419 -42.708639206555745 0 0 0 0 131.87739273136867 -89.384786857186555 0 -89.384786857186555 -129.38008101448213 0 0 0 0 -43.317190015605547 -101.19735002478728 0 -101.19735002478728 -19.047146078642982 0 0 0 0 41.678069549194788 -130.8196167702481 0 -130.8196167702481 -593.18435895569701 0 0 0 0 69.233107242421738 -69.143397234710392 0 -69.143397234710392 -629.18517484966105 0 0 0 0 99.475897524660695 -52.155508734211026 0 -52.155508734211026 -624.61511519109627 0 0 0 0 -38.897918080971522 -162.45472908319198 0 -162.45472908319198 -601.20023646877962 0 0 0 0 24.045889263339859 -216.58731341471321 0 -216.58731341471321 -781.66550599942639 0 0 0 0 -38.235647898488878 -77.360704436035121 0 -77.360704436035121 41.171386710917432 0 0 0 0 73.049375249031073 -164.31281646467369 0 -164.31281646467369 -861.22511855869561 0 0 0 0 -1.5216873938673299 -0.67198172153357127 0 -0.67198172153357127 -0.60649504144569022 0 0 0 0 38.749693574438425 -0.63951281903428026 0 -0.63951281903428026 -33.378143809151879 0 0 0 0 -239.71107355600452 35.040315382986591 0 35.040315382986591 -251.31701386876375 0 0 0 0 -0.96205235258064192 -3.2894486787262949 0 -3.2894486787262949 -1.5665606177422102 0 0 0 0 -88.312494238813088 -125.68179575259728 0 -125.68179575259728 -137.57372014088651 0 0 0 0 3.0946978521060036 1.1413184801099732 0 1.1413184801099732 -2.1162011543069568 0 0 0 0 -22.471123402257945 106.39652520477284 0 106.39652520477284 -63.221112462119891 0 0 0 0 -0.13271327445909264 -84.992752452081731 0 -84.992752452081731 -319.50995152077485 0 0 0 0 135.87686940516778 -141.0141681857358 0 -141.0141681857358 -995.14978147393049 0 0 0 0 -60.800565614959396 176.31806429888411 0 176.31806429888411 -638.25841296384715 0 0 0 0 135.08958086869694 -118.86894558391054 0 -118.86894558391054 -635.93281239674616 0 0 0 0 -20.289815719561375 -170.33351926865544 0 -170.33351926865544 -510.03695230109497 0 0 0 0 54.328243760424812 87.279704366980695 0 87.279704366980695 -225.0350740753056 0 0 0 0 2.6332963190121745 0.89339992220391196 0 0.89339992220391196 -49.514596601482481 0 0 0 0 19.166128024697116 7.1028917740755322 0 7.1028917740755322 -0.66277246482431451 0 0 0 0 11.139428879753268 31.476177790176735 0 31.476177790176735 -11.064891914670625 0 0 0 0 13.933015280983 9.3247155429098711 0 9.3247155429098711 -13.202128790143433 0 0 0 0 24.837746566764963 15.253795288535002 0 15.253795288535002 -8.0725470358877942 0 0 0 0 14.690725969155618 -2.8350560212840712 0 -2.8350560212840712 -1.4634486406640512 0 0 0 0 29.377158269827305 17.240517953934614 0 17.240517953934614 -8.1344527258544588 0 0 0 0 55.572947272635474 -43.264791880533721 0 -43.264791880533721 -98.839223927083367 0 0 0 0 24.108736729095426 -3.2124432985910971 0 -3.2124432985910971 16.841887421564024 0 0 0 0 38.867557915546513 9.3343225181115486 0 9.3343225181115486 -10.410274072886068 0 0 0 0 26.887712175622767 -8.4861974532957447 0 -8.4861974532957447 -26.727254104071108 0 0 0 0 16.237356065741096 7.7971888100992146 0 7.7971888100992146 -9.5482295952465392 0 0 0 0 66.544784835507016 24.270133116140642 0 24.270133116140642 -32.896448554412927 0 0 0 0 91.103864891068042 -20.920387115789708 0 -20.920387115789708 -10.001256126075532 0 0 0 0 22.867153963895817 -50.428873062497587 0 -50.428873062497587 -84.799858193690852 0 0 0 0 15.936063299527124 -0.52852540070223952 0 -0.52852540070223952 -3.9692643226469499 0 0 0 0 0.35955906969599916 0.75508284902613099 0 0.75508284902613099 0.19444995746752491 0 0 0 0 1.8189322124144383 15.922876697981337 0 15.922876697981337 5.0905101122307315 0 0 0 0 22.856224776111958 18.246181150172561 0 18.246181150172561 -13.340329292113893 0 0 0 0 11.527558683656935 0.62320048843984921 0 0.62320048843984921 -5.7857310765046002 0 0 0 0 7.9173506048873605 20.267070071977741 0 20.267070071977741 8.0930170245233057 0 0 0 0 8.005554377094029 -28.021585436101191 0 -28.021585436101191 -33.245295616068688 0 0 0 0 -29.668312176272138 -200.9176416598284 0 -200.9176416598284 -483.76475533090888 0 0 0 0 35.105628810676023 91.0263998294879 0 91.0263998294879 73.812171590083381 0 0 0 0 2.2531131102535196 -1.2356117424828437 0 -1.2356117424828437 0.26891971357519395 0 0 0 0 -12.818916762975391 5.4128054479297134 0 5.4128054479297134 50.6786254836843 0 0 0 0 55.65491970107405 17.664548824859594 0 17.664548824859594 -31.977311194167726 0 0 0 0 6.8411529768894823 -3.278901050967276 0 -3.278901050967276 1.1384993995613826 0 0 0 0 22.874963994941254 48.264002890819711 0 48.264002890819711 37.898733057400023 0 0 0 0 44.616370693604495 -81.367100688914434 0 -81.367100688914434 -254.3089065481804 0 0 0 0 -57.183641852321216 -40.651216181818199 0 -40.651216181818199 -159.33098333112775 0 0 0 0 87.225475738851856 40.938397713563973 0 40.938397713563973 -147.48917975231234 0 0 0 0 -14.112374096087024 -21.045606374466843 0 -21.045606374466843 -67.613457044551978 0 0 0 0 44.457900396322202 52.082405429431219 0 52.082405429431219 -56.119112906390001 0 0 0 0 84.629159907997746 -22.220816933258902 0 -22.220816933258902 -106.6569127942571 0 0 0 0 142.25982794109768 47.748019550959725 0 47.748019550959725 -86.844697013710174 0 0 0 0 77.407681592708286 72.24123303536544 0 72.24123303536544 -10.660771745981037 0 0 0 0 -8.0035497883857118 21.677743113143102 0 21.677743113143102 -27.316041585652606 0 0 0 0 69.268854250217373 83.510946282885016 0 83.510946282885016 -18.62079709460977 0 0 0 0 56.421706625430488 97.612616112424803 0 97.612616112424803 45.038059735517891 0 0 0 0 -1.0369838332580563 5.4737395672541851 0 5.4737395672541851 -2.4104935206650371 0 0 0 0 58.139274313909482 110.50492137825859 0 110.50492137825859 52.95997104030539 0 0 0 0 -22.900592758956805 -7.0447309375940677 0 -7.0447309375940677 -117.98508063394911 0 0 0 0 -36.118587269194109 -262.58635336345833 0 -262.58635336345833 -2500.8875485409244 0 0 0 0 27.510000982442762 -16.408820223197836 0 -16.408820223197836 -131.29600175828818 0 0 0 0 -12.477063088585153 21.91781779469952 0 21.91781779469952 -9.174142474373749 0 0 0 0 72.601796390061736 106.21661706703571 0 106.21661706703571 32.900090307695791 0 0 0 0 -9.0379342111056467 -0.23489027108238503 0 -0.23489027108238503 -5.8631991037131055 0 0 0 0 -41.162089000432445 -296.40647120343419 0 -296.40647120343419 -2455.7301403928541 0 0 0 0 -30.366124578837116 -13.789427426734619 0 -13.789427426734619 -128.08509984126613 0 0 0 0 68.030713066588987 114.55681394541079 0 114.55681394541079 176.80719561978913 0 0 0 0 60.883852755976477 86.749137750679438 0 86.749137750679438 18.66116223402787 0 0 0 0 72.108048115739393 55.444163979918812 0 55.444163979918812 -79.782301536546584 0 0 0 0 103.51824905461399 124.05528828416391 0 124.05528828416391 -51.380267856087812 0 0 0 0 164.5717827420026 11.290050363965747 0 11.290050363965747 -247.01439749226847 0 0 0 0 132.43143149142588 116.60495711718795 0 116.60495711718795 -140.33043574647309 0 0 0 0 150.79017475564797 66.203944039540147 0 66.203944039540147 -69.382145882686018 0 0 0 0 216.73108823854454 190.41438717992241 0 190.41438717992241 -29.018298210075955 0 0 0 0 117.38574588274605 321.63484330086067 0 321.63484330086067 368.05375360332982 0 0 0 0 -6.1895424710065328 13.588666672837498 0 13.588666672837498 -5.9951081094538452 0 0 0 0 -60.969795188014729 -410.12089746881611 0 -410.12089746881611 -2499.2990824607386 0 0 0 0 -1.1932228125569266 -2.4880344786553721 0 -2.4880344786553721 -2.5306464545377523 0 0 0 0 321.02856711727509 264.57282641938582 0 264.57282641938582 40.415876504326661 0 0 0 0 -22.631743360696678 7.9716770213708514 0 7.9716770213708514 -2496.6007719773625 0 0 0 0 -7.1176561106975811 3.9407245985928405 0 3.9407245985928405 -5.3983417596275718 0 0 0 0 -493.85625292360874 369.9612612711262 0 369.9612612711262 744.87894468061791 0 0 0 0 223.05761021834275 26.609588180242554 0 26.609588180242554 -102.37995713328746 0 0 0 0 -148.91499064858135 125.12294378403658 0 125.12294378403658 -377.78990610655455 0 0 0 0 -24.091208044462292 -71.20455412695992 0 -71.20455412695992 -93.383039623414561 0 0 0 0 -34.141851457710345 27.948358931478651 0 27.948358931478651 -62.458769399989251 0 0 0 0 1.7902447613344075 13.528060608955069 0 13.528060608955069 -56.865267552725058 0 0 0 0 -58.459129276764543 32.869839511944292 0 32.869839511944292 -7.5924341423342412 0 0 0 0 1.9499787631123855 0.91812432851500603 0 0.91812432851500603 -10.023745381524634 0 0 0 0 -88.556040932606265 -52.992221891324334 0 -52.992221891324334 -58.80778925926279 0 0 0 0 31.471922855555249 36.005613410145088 0 36.005613410145088 -95.066457444998377 0 0 0 0 9.1765439642681486 45.237914195371559 0 45.237914195371559 -45.69037931755156 0 0 0 0 -1.4133296485459041 28.711503026826612 0 28.711503026826612 -29.173933913213808 0 0 0 0 -2.6026163610619037 4.2091834903419088 0 4.2091834903419088 7.3690203521373547 0 0 0 0 -70.710523679991638 -28.234535300929565 0 -28.234535300929565 17.442981385349412 0 0 0 0 -37.990509960646932 31.121861070161685 0 31.121861070161685 78.668328834479325 0 0 0 0 -6.7911763071215319 -27.290048212003967 0 -27.290048212003967 9.2188687521702377 0 0 0 0 -6.6546161231389078 41.19219976120894 0 41.19219976120894 -21.02308727230411 0 0 0 0 -24.80418930155156 -46.685246340402955 0 -46.685246340402955 5.6450210213952232 0 0 0 0 -63.378868716684792 -11.978775153496827 0 -11.978775153496827 -19.16118770358662 0 0 0 0 419.46574483643508 -26.637682965274507 0 -26.637682965274507 -187.01368583698059 0 0 0 0 2.3205624995480854 -2.2598771132400444 0 -2.2598771132400444 1.9834203094247016 0 0 0 0 76.193986054908237 -56.810566101074073 0 -56.810566101074073 -118.98645358183785 0 0 0 0 80.893706815841142 89.289632279267607 0 89.289632279267607 -14.851252685290092 0 0 0 0 49.796766857347393 61.752983152229717 0 61.752983152229717 -51.189787812485065 0 0 0 0 26.394026010082598 34.185020186261681 0 34.185020186261681 -53.861676578690549 0 0 0 0 -7.8875640051224964 21.038631021771486 0 21.038631021771486 -33.946005226470561 0 0 0 0 105.1788223493113 132.6562674199613 0 132.6562674199613 23.041181264977922 0 0 0 0 131.77019263985721 49.466983527116099 0 49.466983527116099 -117.49204999823269 0 0 0 0 5.1788829517070099 26.50094618221101 0 26.50094618221101 22.333201218301838 0 0 0 0 -30.130402868408964 -58.896571632103587 0 -58.896571632103587 -33.706915921004111 0 0 0 0 83.54040305691251 18.089976657369334 0 18.089976657369334 0.033550915450177854 0 0 0 0 -14.958540113444656 10.817876376842378 0 10.817876376842378 -101.12808845395193 0 0 0 0 4.7700946202444356 -63.619674612064046 0 -63.619674612064046 -82.330694993850557 0 0 0 0 11.671790766986865 6.5918049339528793 0 6.5918049339528793 -8.5571845641628244 0 0 0 0 -29.627333380016125 -35.488824424386621 0 -35.488824424386621 21.971136226246017 0 0 0 0 130.4724709360089 -14.675517039562692 0 -14.675517039562692 -121.82849586216435 0 0 0 0 0.95876818176853629 -0.57095536428408522 0 -0.57095536428408522 0.27354920518051529 0 0 0 0 11.926054654168638 -7.6650332048047858 0 -7.6650332048047858 -119.5206672407221 0 0 0 0 176.11594766945322 -149.44984637348898 0 -149.44984637348898 -2451.1979724603889 0 0 0 0 -1.5132311466022657 -9.8769335517717991 0 -9.8769335517717991 -79.046711782564671 0 0 0 0 225.99918916582587 -166.24978801913676 0 -166.24978801913676 -2496.3381203325025 0 0 0 0 7.6306678868170277 8.7201191040570336 0 8.7201191040570336 -10.919068250933849 0 0 0 0 -259.44306593479098 684.95704101871161 0 684.95704101871161 -1749.8405280808402 0 0 0 0 2.932682110305926 0.0087220376043077863 0 0.0087220376043077863 -4.9996718187819624 0 0 0 0 1.9074066720547549 5.4262762705692751 0 5.4262762705692751 -11.919542635473093 0 0 0 0 -5.1999573350658466 -48.630496043737367 0 -48.630496043737367 -101.89494060914512 0 0 0 0 3.7982641102125854 -2.3779417501791613 0 -2.3779417501791613 -74.539677763656073 0 0 0 0 4.3488314858426396 11.570819980612555 0 11.570819980612555 -45.808568135899804 0 0 0 0 -59.598028016838271 -23.861175327056117 0 -23.861175327056117 -70.20983678975972 0 0 0 0 15.262292595120243 0.80359822383979918 0 0.80359822383979918 -74.664110478792281 0 0 0 0 15.257434997534347 19.554680078679667 0 19.554680078679667 -108.33645432133198 0 0 0 0 -133.10228848366191 -950.27038115343703 0 -950.27038115343703 -2496.6889326404998 0 0 0 0 10.357412115230394 -9.5702098269483429 0 -9.5702098269483429 -6.8374587159593929 0 0 0 0 -20.529760928813715 -292.30199687866116 0 -292.30199687866116 -1924.5290665383945 0 0 0 0 -1.9697334375278608 -268.2518187130363 0 -268.2518187130363 -2116.3967912303706 0 0 0 0 165.2748715959963 -107.43951737689895 0 -107.43951737689895 -2501.0233840711408 0 0 0 0 2.2770825467386828 0.69554065553529654 0 0.69554065553529654 -221.07383994396514 0 0 0 0 -10.611935999406683 34.518259465607116 0 34.518259465607116 -111.38238430554338 0 0 0 0 26.65299590239556 7.4461867346981307 0 7.4461867346981307 -205.71295389300394 0 0 0 0 6.595453908058091 -5.1157272950043193 0 -5.1157272950043193 -0.68191640305669132 0 0 0 0 -0.40507638893711828 -8.539776872227776 0 -8.539776872227776 -98.275907861097949 0 0 0 0 10.871958114121071 2.8523871609377238 0 2.8523871609377238 -79.117927536506613 0 0 0 0 26.34596180287167 46.279785479342536 0 46.279785479342536 -103.91679115802935 0 0 0 0 -12.296484355204484 89.849713577168586 0 89.849713577168586 -0.6672611608664738 0 0 0 0 3.8219806090225585 29.406440602199162 0 29.406440602199162 -22.627037908496415 0 0 0 0 -37.160598626754563 99.993427555116796 0 99.993427555116796 180.41859200751242 0 0 0 0 11.256353371899763 6.027185315576844 0 6.027185315576844 68.920959959381435 0 0 0 0 30.590871456082212 33.641149107104866 0 33.641149107104866 -17.731623927330389 0 0 0 0 5.540538269630737 5.7207507596467622 0 5.7207507596467622 -13.929957587704848 0 0 0 0 5.9256662454858358 0.73361431987177639 0 0.73361431987177639 -10.901870043868257 0 0 0 0 -0.2222711907700301 49.504880756103375 0 49.504880756103375 43.525209759467543 0 0 0 0 10.097174222969423 27.008180534512512 0 27.008180534512512 -22.080975141714674 0 0 0 0 -48.166268494159567 17.10551264618698 0 17.10551264618698 -129.01919487922896 0 0 0 0 19.374024999431896 30.404362529599894 0 30.404362529599894 -52.358486036246177 0 0 0 0 0.078485908305851115 -0.80084404990647329 0 -0.80084404990647329 0.53708235002946125 0 0 0 0 -18.049681503649545 13.33796457626886 0 13.33796457626886 -17.563809154715017 0 0 0 0 4.1161502069265907 -5.1004402108446811 0 -5.1004402108446811 -58.382780758656736 0 0 0 0 -0.27561527622034254 -0.51420651799773509 0 -0.51420651799773509 -0.41088877803245083 0 0 0 0 119.06801272019356 58.324268913296692 0 58.324268913296692 -546.86996009770519 0 0 0 0 -881.68927379481443 528.80543094622044 0 528.80543094622044 -33.889000526658492 0 0 0 0 60.966868389048386 -79.988165907863731 0 -79.988165907863731 -369.40933535062504 0 0 0 0 13.35099286226955 40.28512990435047 0 40.28512990435047 -302.02143557820091 0 0 0 0 -32.690021872989973 67.917728169930342 0 67.917728169930342 -183.24108970274392 0 0 0 0 2.2239608186505597 -0.88358407930071792 0 -0.88358407930071792 -1.6649922227871414 0 0 0 0 238.9218755653269 209.40062699093687 0 209.40062699093687 -1626.5555477563994 0 0 0 0 463.56111815588565 18.891335209165845 0 18.891335209165845 -1543.0512461753824 0 0 0 0 66.03277601550289 1101.06470924514 0 1101.06470924514 -2495.7170616052972 0 0 0 0 -1678.2641855183103 -1872.3991724481239 0 -1872.3991724481239 -1300.2057113023111 0 0 0 0 -825.12679770172042 818.12346516628168 0 818.12346516628168 -333.69575344591431 0 0 0 0 -2.0220989427978511 1.172852384274929 0 1.172852384274929 -13.094899697535368 0 0 0 0 -549.13259937502482 -1359.0825088765414 0 -1359.0825088765414 -2497.5363194693282 0 0 0 0 -612.65556493569818 -1295.176527590872 0 -1295.176527590872 -1778.3925404629554 0 0 0 0 -528.42948722026699 -1107.4304968040151 0 -1107.4304968040151 -2071.7037588975072 0 0 0 0 -227.47102458209974 -510.77774480049993 0 -510.77774480049993 -2205.8507189570591 0 0 0 0 -8.8795701499923592 -2.1171869511790646 0 -2.1171869511790646 -7.2823158319877663 0 0 0 0 -538.33104031070297 -830.65853694789985 0 -830.65853694789985 -1413.2695954652445 0 0 0 0 189.02396928768849 -445.1994221447967 0 -445.1994221447967 -1745.1102486887394 0 0 0 0 -58.018430638127029 738.2018473217031 0 738.2018473217031 172.70994627074106 0 0 0 0 28.857850755415711 -61.343964512867387 0 -61.343964512867387 102.0828913806472 0 0 0 0 -1.2072323034458383 1.4555391673289115 0 1.4555391673289115 0.15001321804700751 0 0 0 0 -196.7989949531127 -423.89393122672482 0 -423.89393122672482 -1063.1249103494774 0 0 0 0 75.819502661564798 215.94212875532412 0 215.94212875532412 433.15027766703861 0 0 0 0 -153.20562796922832 -437.38606959221579 0 -437.38606959221579 -1066.7038431571273 0 0 0 0 -1.2067810293665353 6.825904972749619 0 6.825904972749619 -30.675044206530885 0 0 0 0 223.82370205155405 38.781053334849275 0 38.781053334849275 -372.140160898678 0 0 0 0 -82.002228126755654 275.08384250087693 0 275.08384250087693 -200.15148763357865 0 0 0 0 234.32136355559214 -41.493652296878281 0 -41.493652296878281 160.41139352551545 0 0 0 0 -684.67251709393656 -1050.6396212235941 0 -1050.6396212235941 -2499.5080268595657 0 0 0 0 -316.13883567436937 -510.41391342543466 0 -510.41391342543466 -1746.06748553121 0 0 0 0 -232.58607521299513 -709.95368473221606 0 -709.95368473221606 -1781.495759004345 0 0 0 0 -793.9322073304545 -928.97294271843566 0 -928.97294271843566 -923.68447880880558 0 0 0 0 -917.2744021979579 -234.08192302342923 0 -234.08192302342923 135.39496610591596 0 0 0 0 -33.99782349523548 -267.08582395637495 0 -267.08582395637495 -339.47985918431732 0 0 0 0 -350.66544834486763 17.422350814740639 0 17.422350814740639 34.796847247591359 0 0 0 0 -208.29935260242542 -261.16692250930646 0 -261.16692250930646 -376.11930545616997 0 0 0 0 -568.14334317356247 -350.69241453284485 0 -350.69241453284485 -199.87009209251846 0 0 0 0 -100.74098594681186 22.302527241969074 0 22.302527241969074 -34.09876435748447 0 0 0 0 14.138213596166224 12.720392597006139 0 12.720392597006139 -73.112838247441687 0 0 0 0 0.66746699315600155 -0.082024914822881101 0 -0.082024914822881101 -8.7495113194664604 0 0 0 0 14.513352506582805 13.070866910147743 0 13.070866910147743 -49.309170385875404 0 0 0 0 -13.480414858023778 10.065078630177595 0 10.065078630177595 -48.760202561938058 0 0 0 0 -1.9480158315536376 -0.56309856754604937 0 -0.56309856754604937 -28.573200646388344 0 0 0 0 10.403133065387919 -2.2516857705704751 0 -2.2516857705704751 -14.472418280434795 0 0 0 0 1.0077648397883072 3.4371733120127601 0 3.4371733120127601 -38.031889160974259 0 0 0 0 3.46779033710592 -5.1059289368513134 0 -5.1059289368513134 -29.875666189203656 0 0 0 0 283.55103259678049 -115.36372184954962 0 -115.36372184954962 -85.220150645691319 0 0 0 0 155.5702859091125 162.07515918179342 0 162.07515918179342 -141.34979376599949 0 0 0 0 -364.13747237704411 10.788467048703751 0 10.788467048703751 53.840687206669827 0 0 0 0 28.562942419720422 7.3037100220954017 0 7.3037100220954017 -33.345589353542891 0 0 0 0 4.0324989732559366 -4.5804043493558382 0 -4.5804043493558382 -38.807867553491405 0 0 0 0 1.2914109390158046 15.337917837141504 0 15.337917837141504 -20.139066881300096 0 0 0 0 2.5527851515877154 4.0032964857001065 0 4.0032964857001065 -28.975724265462731 0 0 0 0 8.3441415556849279 17.036724388988659 0 17.036724388988659 -37.86110307996023 0 0 0 0 8.5960445824479805 11.665956385837438 0 11.665956385837438 -28.773497181410818 0 0 0 0 19.006809564428089 34.379342719990746 0 34.379342719990746 5.9560226952526136 0 0 0 0 19.628624913119893 5.2990106038087106 0 5.2990106038087106 -67.031902957314742 0 0 0 0 3.3700774148553072 10.990656721261669 0 10.990656721261669 -48.996460861673597 0 0 0 0 22.567084572659141 19.453326804410324 0 19.453326804410324 -46.631485823498593 0 0 0 0 -138.71199580085249 413.45876828118253 0 413.45876828118253 -121.56192696712242 0 0 0 0 115.08168724662028 -155.5157559283798 0 -155.5157559283798 -346.97091882422956 0 0 0 0 343.35009869617261 -135.32294399689545 0 -135.32294399689545 -820.50704135154228 0 0 0 0 165.2360575195753 64.888804919341055 0 64.888804919341055 -58.953852649006876 0 0 0 0 5.8688256182515701 7.9986186779229493 0 7.9986186779229493 -12.269269286250605 0 0 0 0 -447.12961625772226 -316.11296238251271 0 -316.11296238251271 -170.1225381077893 0 0 0 0 118.21569356721557 36.178732460935862 0 36.178732460935862 -123.36965317150316 0 0 0 0 -240.32285856062504 61.839134857709723 0 61.839134857709723 26.856927290831663 0 0 0 0 -16.363188750639679 -3.0761177966267184 0 -3.0761177966267184 -20.159465404428815 0 0 0 0 -22.907144015356607 -155.41782156705449 0 -155.41782156705449 -236.29613085607707 0 0 0 0 -38.711696820599172 -55.145329935659902 0 -55.145329935659902 -123.36081256830221 0 0 0 0 23.583576241970171 -0.84768477343986959 0 -0.84768477343986959 -118.72747539735217 0 0 0 0 11.390278581831808 -37.561296859079448 0 -37.561296859079448 -179.9020387132914 0 0 0 0 120.34682498583607 -124.44953914531561 0 -124.44953914531561 -214.51052300789888 0 0 0 0 82.488623721221302 16.421631666107714 0 16.421631666107714 -171.03124818368633 0 0 0 0 20.770338698730896 -5.3609281148720207 0 -5.3609281148720207 -120.21953099410749 0 0 0 0 86.09758275447075 380.08389412549695 0 380.08389412549695 52.085824729727392 0 0 0 0 -304.50776017628232 608.89945101567901 0 608.89945101567901 5.506427086682379 0 0 0 0 -0.9115551830408215 -2.4366221777189114 0 -2.4366221777189114 -3.0539161221918789 0 0 0 0 212.86484749526608 -139.09780960127 0 -139.09780960127 -148.76823471487296 0 0 0 0 55.219832639801098 -157.40964233491832 0 -157.40964233491832 -110.14064835133422 0 0 0 0 44.849656477290409 -203.1369642929576 0 -203.1369642929576 -235.06700268937129 0 0 0 0 0.30951037775739909 0.97746531420648353 0 0.97746531420648353 -6.4142161551645245 0 0 0 0 275.64157772949966 83.517394227954355 0 83.517394227954355 -156.18580991876706 0 0 0 0 449.18970993908897 111.79647493838638 0 111.79647493838638 -159.51320865731759 0 0 0 0 0.72248278125662679 2.3712194293123758 0 2.3712194293123758 -14.070131005362128 0 0 0 0 -110.19893252973816 -211.27914365295874 0 -211.27914365295874 -210.06078126409966 0 0 0 0 -217.83937300272828 143.93421753603616 0 143.93421753603616 -234.8899858250079 0 0 0 0 -64.732854213176779 75.307702959995368 0 75.307702959995368 -414.60038325159076 0 0 0 0 174.19883840958892 -39.871171313576269 0 -39.871171313576269 -371.83195609402537 0 0 0 0 19.112110913515608 -6.704517590254909 0 -6.704517590254909 -129.18254546609387 0 0 0 0 23.645231981351117 -62.197135790267566 0 -62.197135790267566 -345.40564794685633 0 0 0 0 19.030074402419814 -55.601777353978832 0 -55.601777353978832 -277.70422404198689 0 0 0 0 53.402294680000068 -34.831495328126039 0 -34.831495328126039 -359.06211982304012 0 0 0 0 25.236505700988346 -140.54610345516448 0 -140.54610345516448 -352.2820479630609 0 0 0 0 13.342778614068266 -120.48311855340216 0 -120.48311855340216 -373.10050017733056 0 0 0 0 51.497732452123046 -90.091127534574298 0 -90.091127534574298 -359.51169270135506 0 0 0 0 -46.613677384734729 -85.542995578212867 0 -85.542995578212867 -359.0786754283472 0 0 0 0 -18.389917700584192 -143.05575487135502 0 -143.05575487135502 -351.76653325557754 0 0 0 0 -77.970630630306005 -67.039865405184173 0 -67.039865405184173 -141.57027618662687 0 0 0 0 -142.81744702219908 -186.21260541355423 0 -186.21260541355423 -255.86450649059771 0 0 0 0 -0.14559854255321625 -211.41963925173877 0 -211.41963925173877 -523.45282357437827 0 0 0 0 -107.82638349254769 297.33928767575526 0 297.33928767575526 -207.14152199519776 0 0 0 0 -2.5962145346109358 4.3781479227293332 0 4.3781479227293332 -8.6085784762412132 0 0 0 0 -214.18626644209712 -320.42994406610887 0 -320.42994406610887 -489.94707571959043 0 0 0 0 -183.22091583331235 -459.59529170728638 0 -459.59529170728638 -1007.3557265188784 0 0 0 0 -87.637034298816616 189.3757997247194 0 189.3757997247194 -372.0533248152351 0 0 0 0 -43.970018100734706 352.01376525502201 0 352.01376525502201 -1079.3065633063168 0 0 0 0 -1025.4959957919905 -170.88344202675216 0 -170.88344202675216 -165.88866578719171 0 0 0 0 35.567789505101246 -17.185125252522994 0 -17.185125252522994 -491.3787756128836 0 0 0 0 17.887885705337794 54.565452916678623 0 54.565452916678623 -920.99241317430278 0 0 0 0 -43.436727762074042 118.67444466050802 0 118.67444466050802 -471.13717626564448 0 0 0 0 10.394965817773027 -27.55019724743488 0 -27.55019724743488 -441.82261539565661 0 0 0 0 25.199840469023002 57.948853012178006 0 57.948853012178006 -326.55579346849981 0 0 0 0 -11.878105891935775 19.558178984851111 0 19.558178984851111 -244.16552607567428 0 0 0 0 -59.805773702693841 57.259781293008928 0 57.259781293008928 -40.079430545247305 0 0 0 0 -136.07682609381527 117.98453658890503 0 117.98453658890503 -230.37242786239949 0 0 0 0 -72.266073013027835 98.440365972099244 0 98.440365972099244 -224.4046520646898 0 0 0 0 -90.786944633356597 146.25963921947914 0 146.25963921947914 -182.77888567255013 0 0 0 0 -232.80808007572386 -127.15432172776855 0 -127.15432172776855 -87.455217024689773 0 0 0 0 -134.20830963491153 136.43271134319366 0 136.43271134319366 -344.52664604771235 0 0 0 0 -283.33571552117019 146.50547066009858 0 146.50547066009858 -156.23134036604461 0 0 0 0 -191.25358668509398 35.243273710520953 0 35.243273710520953 -30.226976895151893 0 0 0 0 -168.46272529875387 -82.642785019350413 0 -82.642785019350413 66.222372643696872 0 0 0 0 -40.184514734663253 3.691039647681464 0 3.691039647681464 15.465188614165527 0 0 0 0 -139.50111336263342 65.126750435668555 0 65.126750435668555 -18.471052063065144 0 0 0 0 -32.032376979782384 -90.358114741742611 0 -90.358114741742611 57.062874263005142 0 0 0 0 -110.4763080394373 -34.603149060500073 0 -34.603149060500073 72.540532342420192 0 0 0 0 -85.005608817253233 12.163910458933969 0 12.163910458933969 119.44905581153034 0 0 0 0 41.603876713304771 94.111969189185402 0 94.111969189185402 -43.745690193947667 0 0 0 0 63.108756696705655 65.056086369339596 0 65.056086369339596 -44.954890726068697 0 0 0 0 -9.0404550053963249 141.52795305255495 0 141.52795305255495 140.79571950005084 0 0 0 0 94.297248700484488 84.249333897521865 0 84.249333897521865 14.001771753684807 0 0 0 0 68.745219711545815 120.17059922248586 0 120.17059922248586 -36.054031273208238 0 0 0 0 19.001648093482487 24.340832158353926 0 24.340832158353926 -24.638967615732842 0 0 0 0 109.85997731009684 85.184448970812809 0 85.184448970812809 -5.0872280693856737 0 0 0 0 75.957146801979889 27.523702394025349 0 27.523702394025349 -65.759908716921927 0 0 0 0 70.496930402108774 62.237083619005716 0 62.237083619005716 -173.49954756603984 0 0 0 0 28.1330113029735 54.214150165800675 0 54.214150165800675 -177.34813765796935 0 0 0 0 42.007371222509391 23.273104144662284 0 23.273104144662284 -136.782687274419 0 0 0 0 11.693400911655772 9.1952133823269833 0 9.1952133823269833 -197.86079988806887 0 0 0 0 40.947000873615252 96.218133608264907 0 96.218133608264907 -193.98008577176677 0 0 0 0 15.417878545655185 103.08102559601321 0 103.08102559601321 -68.902406825245635 0 0 0 0 -0.000106761099642496 -5.4753623519645771 0 -5.4753623519645771 -33.238154179594858 0 0 0 0 -50.546391650914416 12.874460501356225 0 12.874460501356225 5.2236622521268146 0 0 0 0 8.4344507270013125 8.0267475575946321 0 8.0267475575946321 -3.1870401019748442 0 0 0 0 2.042795205197137 -2.7875609094168752 0 -2.7875609094168752 -38.288813405922184 0 0 0 0 57.219828984716109 45.598956931669022 0 45.598956931669022 -69.073888448343496 0 0 0 0 2.8818680362617108 -3.3108242456364678 0 -3.3108242456364678 -31.614129566856718 0 0 0 0 0.0029227578745762398 -3.4035053949753431 0 -3.4035053949753431 -29.755867534928257 0 0 0 0 0.94965006678888808 2.9195626281965446 0 2.9195626281965446 -5.0351857032990495 0 0 0 0 -497.77057376038886 -773.74072470344254 0 -773.74072470344254 -1255.3629807099605 0 0 0 0 2.5140719804207206 0.084183863198545636 0 0.084183863198545636 -2491.3458856067591 0 0 0 0 -0.2108219918829925 2.5480436177423278 0 2.5480436177423278 -15.231736925184691 0 0 0 0 -1223.7255011686607 1177.2437538059085 0 1177.2437538059085 -1120.8469356464921 0 0 0 0 -208.04930114048904 40.981182525443728 0 40.981182525443728 -48.132241228493513 0 0 0 0 -88.682450953644846 708.00152413227261 0 708.00152413227261 -1176.9481928706045 0 0 0 0 9.3089262043938561 1137.8038965747546 0 1137.8038965747546 -2495.4980801318525 0 0 0 0 277.74032987097894 546.14394241103037 0 546.14394241103037 -1378.254797815207 0 0 0 0 381.41508141472434 577.11599622050107 0 577.11599622050107 -2500.2006557470595 0 0 0 0 -151.1979900964098 375.35506281983726 0 375.35506281983726 -321.78257323511934 0 0 0 0 -43.152215327630529 -51.025246564178815 0 -51.025246564178815 -210.11091016617502 0 0 0 0 20.628917157931994 -271.13005011375571 0 -271.13005011375571 -203.30922293688309 0 0 0 0 1.2359768662801458 1.0500268453274231 0 1.0500268453274231 2.0724176361807451 0 0 0 0 -144.86561345737488 85.813184304890456 0 85.813184304890456 -439.5702910012842 0 0 0 0 -310.05774397326843 -380.16996291660689 0 -380.16996291660689 -679.17564705423047 0 0 0 0 -107.269098601103 -319.40612389943999 0 -319.40612389943999 -1063.6837477922818 0 0 0 0 -181.91803272749996 -114.17347443657354 0 -114.17347443657354 -765.66142157699505 0 0 0 0 -185.53163612622342 -120.11865563567335 0 -120.11865563567335 -695.1492158930123 0 0 0 0 56.330928467399957 420.86131385324916 0 420.86131385324916 -1278.8313991810719 0 0 0 0 275.7471258407885 192.15569022603813 0 192.15569022603813 -1482.0476821969369 0 0 0 0 265.35079800532623 106.76716684545841 0 106.76716684545841 -1816.6966141302255 0 0 0 0 290.51909787566314 -218.71906698428575 0 -218.71906698428575 -2499.3757196927982 0 0 0 0 194.67045168887543 -243.2909284989646 0 -243.2909284989646 -1612.4183642473945 0 0 0 0 38.34572501603499 -636.46986588584696 0 -636.46986588584696 -2499.7252189391616 0 0 0 0 -302.97343562395702 -417.96854617740064 0 -417.96854617740064 -946.50862639421757 0 0 0 0 -112.5626593040986 -416.26204633106317 0 -416.26204633106317 -1666.7275921885821 0 0 0 0 -417.80956044844328 -651.77094666613903 0 -651.77094666613903 -770.29194488138455 0 0 0 0 -287.81749992673099 -292.45064726758574 0 -292.45064726758574 -502.28695436071212 0 0 0 0 -394.49696883796656 -458.14704394185264 0 -458.14704394185264 -370.03715058735543 0 0 0 0 -295.21517838633031 -358.77535923314281 0 -358.77535923314281 -353.95402293132793 0 0 0 0 -167.32253418042345 -344.97232946624445 0 -344.97232946624445 -443.35397329668194 0 0 0 0 -236.86260680898152 -149.15323420548157 0 -149.15323420548157 -123.32157386830659 0 0 0 0 -12.644847087118029 2.5426686420345135 0 2.5426686420345135 1.9692315568655232 0 0 0 0 -15.76999529153295 -77.587857665072079 0 -77.587857665072079 -199.5943681049248 0 0 0 0 -49.459764634954809 -74.930046146717359 0 -74.930046146717359 -161.41241008570796 0 0 0 0 -50.529251315935653 -69.567641188335983 0 -69.567641188335983 -181.13040314504178 0 0 0 0 -279.91156977550293 -369.92060025874525 0 -369.92060025874525 -441.05776492307632 0 0 0 0 -8.8822122360441682 0.68801335877957115 0 0.68801335877957115 -0.5391069693037025 0 0 0 0 -287.61027538733339 -347.96393407302457 0 -347.96393407302457 -502.90249190855684 0 0 0 0 -32.790621304044976 -121.99053576075585 0 -121.99053576075585 -293.31666827915615 0 0 0 0 -2.9259161085635421 0.31602133427152523 0 0.31602133427152523 -1.0358589601864736 0 0 0 0 -94.483737155976542 18.898253111005033 0 18.898253111005033 -241.66370871018444 0 0 0 0 -422.37305303814071 -689.89144488477177 0 -689.89144488477177 -887.28378195875848 0 0 0 0 -469.31999139165009 -440.99785681147841 0 -440.99785681147841 -291.97666967204714 0 0 0 0 -360.00746040452765 -448.01648910961376 0 -448.01648910961376 -465.48527932860816 0 0 0 0 -308.55372658651942 -352.04276956985996 0 -352.04276956985996 -267.50802594639936 0 0 0 0 -181.09967685475496 -351.86837384224418 0 -351.86837384224418 -322.05288124433719 0 0 0 0 -168.31492828247394 -89.293355900721508 0 -89.293355900721508 -105.54663332106429 0 0 0 0 -143.02350107012956 -98.280169742100043 0 -98.280169742100043 -202.34430105180945 0 0 0 0 -271.55396291362734 -293.44556245335298 0 -293.44556245335298 -235.78436693812546 0 0 0 0 -247.1557091103553 -246.92231419013842 0 -246.92231419013842 -351.7639464027834 0 0 0 0 -415.25365152676909 -493.63526563901905 0 -493.63526563901905 -437.04405070808389 0 0 0 0 -257.75728490395841 -454.79391945403768 0 -454.79391945403768 -703.57257677503731 0 0 0 0 -553.95354128226245 -351.24214256963114 0 -351.24214256963114 -570.78258054855542 0 0 0 0 -512.62081730014904 -691.11545012635906 0 -691.11545012635906 -601.8406455314398 0 0 0 0 -254.89267681636878 -493.42897051200634 0 -493.42897051200634 -957.633497552466 0 0 0 0 -436.85698065034035 -308.72620037598244 0 -308.72620037598244 -143.38071474239405 0 0 0 0 -352.04208541071705 -298.30501092646955 0 -298.30501092646955 -299.17621418973431 0 0 0 0 -127.88694589042825 -16.056769596376398 0 -16.056769596376398 -124.00849425295928 0 0 0 0 0.40358447152996635 -4.7540316724229736 0 -4.7540316724229736 -26.534383244967643 0 0 0 0 62.026538046054611 -84.920019052657153 0 -84.920019052657153 -254.23507511729986 0 0 0 0 -1139.3282493753447 -908.91173459056517 0 -908.91173459056517 -687.86011152201536 0 0 0 0 -625.6154501501162 -323.43045426647586 0 -323.43045426647586 -32.658459852498709 0 0 0 0 -0.26614719503589646 -3.006517368579888 0 -3.006517368579888 -11.068422473292372 0 0 0 0 0.19171411815616141 -125.74690810644097 0 -125.74690810644097 89.542313957390434 0 0 0 0 519.66864984256881 1.597405527067167 0 1.597405527067167 -1121.9500749998915 0 0 0 0 130.48762556152607 -122.76729971486202 0 -122.76729971486202 57.364567839646043 0 0 0 0 0.085011274624618507 -20.856342048853548 0 -20.856342048853548 -8.3344804567896063 0 0 0 0 -163.22029066326195 -129.81072868533556 0 -129.81072868533556 77.989498328504851 0 0 0 0 0.22650718698781416 -4.3692330753422857 0 -4.3692330753422857 -33.696604783761359 0 0 0 0 141.40345275249797 24.43005217553582 0 24.43005217553582 -150.35832174944517 0 0 0 0 19.218814083169367 -22.577470456893025 0 -22.577470456893025 -18.054983765163342 0 0 0 0 -0.38103577367826397 -105.44329285006097 0 -105.44329285006097 -632.44075822879313 0 0 0 0 -132.45071395723133 -186.10800915566779 0 -186.10800915566779 -412.52465135403327 0 0 0 0 -166.68803850391137 -27.250261192275502 0 -27.250261192275502 -289.32066204310831 0 0 0 0 -56.937719926477776 -85.664971349211555 0 -85.664971349211555 -562.35947946362103 0 0 0 0 -281.45742405997441 -75.671449899102299 0 -75.671449899102299 -558.98458504854352 0 0 0 0 -222.18856248199918 -53.239685824690241 0 -53.239685824690241 -788.99742561216408 0 0 0 0 -338.68570739187714 -442.73928671230533 0 -442.73928671230533 -945.85592591190652 0 0 0 0 0.14424006054944249 -334.12737448420012 0 -334.12737448420012 -1207.8942890350881 0 0 0 0 -520.10836249475346 -833.01530517945503 0 -833.01530517945503 -1624.2066931051377 0 0 0 0 -239.14777578977885 -622.79260803655052 0 -622.79260803655052 -1884.0586596180656 0 0 0 0 -253.10016348434777 -232.93064218034851 0 -232.93064218034851 -1017.3599294334781 0 0 0 0 -524.54210446957984 48.953408191952576 0 48.953408191952576 -1239.8593613172416 0 0 0 0 -295.14318381015664 -28.444390560184274 0 -28.444390560184274 -818.84162573750655 0 0 0 0 -144.59060863930466 -273.6687776738072 0 -273.6687776738072 -1213.2548952900615 0 0 0 0 -251.31633734884369 -480.12675550158178 0 -480.12675550158178 -941.86712623942003 0 0 0 0 -296.42704582251122 -357.62398028906682 0 -357.62398028906682 -834.43789636454312 0 0 0 0 -170.63234734102343 -176.32008154891128 0 -176.32008154891128 -660.75247041308467 0 0 0 0 -20.281140365795864 -6.6996042573155137 0 -6.6996042573155137 -782.46075389745238 0 0 0 0 -63.786271396988241 105.12382842346597 0 105.12382842346597 -536.1108529131161 0 0 0 0 39.567973118240502 -4.6647805760367191 0 -4.6647805760367191 -633.48085160226765 0 0 0 0 -178.37431726620076 23.281972697855963 0 23.281972697855963 -621.5362551635335 0 0 0 0 -90.31040625173398 -71.783742922692909 0 -71.783742922692909 -818.0227634889452 0 0 0 0 -117.21938144538692 57.612684500458272 0 57.612684500458272 -433.43002212169813 0 0 0 0 -16.695452393315918 125.19136169235571 0 125.19136169235571 -340.06009405185614 0 0 0 0 82.598449055328274 27.962870285798999 0 27.962870285798999 -497.18353517998912 0 0 0 0 87.097860896132488 114.43655364312144 0 114.43655364312144 -617.28875063164014 0 0 0 0 14.94802107573696 83.66791824210668 0 83.66791824210668 -380.50457241951517 0 0 0 0 57.734987714575709 3.2260553992600762 0 3.2260553992600762 -384.09946995023347 0 0 0 0 -18.136189051619667 154.60496251180689 0 154.60496251180689 -465.73107506686938 0 0 0 0 -18.405753218577502 161.45504013522077 0 161.45504013522077 -574.38804807049746 0 0 0 0 5.7823935837714089 159.78812462369388 0 159.78812462369388 -605.52652246628895 0 0 0 0 64.524486558442277 79.575097400964296 0 79.575097400964296 -628.68908311596169 0 0 0 0 -104.88339681469256 26.938887943375448 0 26.938887943375448 -598.14741321242764 0 0 0 0 -35.462412684038782 107.54057587909847 0 107.54057587909847 -520.71575270639732 0 0 0 0 -246.18784865813541 -89.216028590797578 0 -89.216028590797578 -317.5644798038993 0 0 0 0 -46.417359001240357 16.43701423834591 0 16.43701423834591 -323.79148001202702 0 0 0 0 -41.024505717334478 -17.281838239709032 0 -17.281838239709032 -598.7213731545271 0 0 0 0 -11.038843218737384 10.827441194564017 0 10.827441194564017 -374.40132786276808 0 0 0 0 -73.196107410624791 172.63705572001345 0 172.63705572001345 -404.91954677448211 0 0 0 0 -23.06735391765551 16.293045440840615 0 16.293045440840615 -164.42656133192213 0 0 0 0 28.024934392704836 -54.589108839423716 0 -54.589108839423716 -219.3992649372376 0 0 0 0 92.955295113825741 120.05135491415422 0 120.05135491415422 -298.84377551838406 0 0 0 0 -147.20773514724715 237.8965554870083 0 237.8965554870083 -323.59689505643564 0 0 0 0 17.172391765382145 55.421568442499847 0 55.421568442499847 -340.51969724552328 0 0 0 0 57.745704588515309 5.2893678705913771 0 5.2893678705913771 -929.78051822061025 0 0 0 0 -61.396431842435049 329.63251737841711 0 329.63251737841711 -628.3831272738571 0 0 0 0 155.53395367833491 156.1945941067961 0 156.1945941067961 -566.23770214155229 0 0 0 0 19.697700076234511 -2.7246149140330616 0 -2.7246149140330616 -119.59472076581437 0 0 0 0 253.94218024885868 324.87780377439776 0 324.87780377439776 -1219.4245502656559 0 0 0 0 -64.134184818834456 -3.2386394542354537 0 -3.2386394542354537 -135.36447201961346 0 0 0 0 -3.3376832736340933 3.0601567022354033 0 3.0601567022354033 -3.2985050423201301 0 0 0 0 0.38354246651567792 62.355663621155145 0 62.355663621155145 39.079663402793813 0 0 0 0 22.085139069761773 -3.9439706224635671 0 -3.9439706224635671 -114.66668102490362 0 0 0 0 81.949337605814435 82.385125038395927 0 82.385125038395927 28.310612614324782 0 0 0 0 21.507132344740057 41.64993371073615 0 41.64993371073615 -247.99257702244722 0 0 0 0 3.2531666449694114 -3.8030296628439473 0 -3.8030296628439473 -27.146517612786099 0 0 0 0 -7.1594514455773606 -7.9161972012661863 0 -7.9161972012661863 -254.19394223078052 0 0 0 0 -3.0084651004308398 32.688744530179974 0 32.688744530179974 -216.35869290923074 0 0 0 0 -3.1489686124696163 11.849675349312747 0 11.849675349312747 -158.48778475091058 0 0 0 0 17.589270182655504 1.1780138636322803 0 1.1780138636322803 -116.30097483942217 0 0 0 0 37.067848761378627 67.721168570804366 0 67.721168570804366 -204.31156180437029 0 0 0 0 33.698324781319819 -62.275075781792111 0 -62.275075781792111 -208.39285538681725 0 0 0 0 220.8119692923882 -61.240308416134212 0 -61.240308416134212 -266.10376246535452 0 0 0 0 108.75271791106861 329.42139453555865 0 329.42139453555865 -364.97241678693899 0 0 0 0 17.636327152279591 -182.15401730816666 0 -182.15401730816666 -286.26500780315837 0 0 0 0 -28.748556823084925 132.23192714175093 0 132.23192714175093 -424.40640748469741 0 0 0 0 -261.77701330481591 -49.745156652672449 0 -49.745156652672449 -149.22753522117273 0 0 0 0 29.285648012369176 -25.81515395585302 0 -25.81515395585302 -147.61814203117865 0 0 0 0 -33.691583188978065 -73.137695595486377 0 -73.137695595486377 -56.925815293609048 0 0 0 0 35.556073027378034 35.826210134749999 0 35.826210134749999 -92.442601973511046 0 0 0 0 -7.9347530646965749 9.6342482704672392 0 9.6342482704672392 -8.0672392031420941 0 0 0 0 17.911186449428101 -1.7602532591003381 0 -1.7602532591003381 -2.47924187416141 0 0 0 0 42.371828469445973 16.631649205774011 0 16.631649205774011 -79.461437952280903 0 0 0 0 25.157652326319294 53.022607753599004 0 53.022607753599004 -18.532255366088066 0 0 0 0 21.73585005293706 -9.3249930940894785 0 -9.3249930940894785 -36.364931359776648 0 0 0 0 -16.723825492269043 65.157335224532289 0 65.157335224532289 -148.19922949267493 0 0 0 0 1.8688142552705358 95.425535888229206 0 95.425535888229206 -142.51510516780399 0 0 0 0 35.409116372088647 60.530082596116699 0 60.530082596116699 -371.34179280703756 0 0 0 0 42.505170689720444 142.44603015676694 0 142.44603015676694 -178.64762349345256 0 0 0 0 193.09202515792219 141.06291593774222 0 141.06291593774222 -155.011061185578 0 0 0 0 104.02087670242673 10.354880808950838 0 10.354880808950838 -259.60209477327589 0 0 0 0 40.703750736114529 -56.95489848843954 0 -56.95489848843954 -350.98556711760466 0 0 0 0 89.228730006836258 -59.361455910315271 0 -59.361455910315271 -42.226052391284611 0 0 0 0 -82.116993308899907 -21.600003077623114 0 -21.600003077623114 -56.472194576665061 0 0 0 0 39.679572640486413 54.971361436735606 0 54.971361436735606 -275.09565684074914 0 0 0 0 23.89844449619514 95.526843581338738 0 95.526843581338738 160.98187518853229 0 0 0 0 23.286688941419957 -3.3871208872095906 0 -3.3871208872095906 -102.13815234892536 0 0 0 0 143.35241328866039 159.8636162840703 0 159.8636162840703 63.215541215344274 0 0 0 0 21.830932755110609 77.169665726207313 0 77.169665726207313 240.65661128265492 0 0 0 0 161.64830500304799 22.109549997097929 0 22.109549997097929 -11.153954017790966 0 0 0 0 0.74254156663712045 2.2383223276531652 0 2.2383223276531652 -2.7419898742980209 0 0 0 0 2.6980141977996661 1.2699211449484977 0 1.2699211449484977 -3.3193135081709215 0 0 0 0 -29.235558546119229 83.192921308632094 0 83.192921308632094 -74.185672072097077 0 0 0 0 44.74058731853961 -59.985402609883749 0 -59.985402609883749 -234.27274253589712 0 0 0 0 52.421890837465071 -51.005634297136567 0 -51.005634297136567 -468.42751093069637 0 0 0 0 20.178681523077273 45.161149708117591 0 45.161149708117591 -281.73520835930321 0 0 0 0 36.851746958251908 50.161516892509098 0 50.161516892509098 -315.97104470439081 0 0 0 0 25.548688772277274 -9.9920233706361614 0 -9.9920233706361614 -215.56639049419755 0 0 0 0 27.683225096494226 -3.3346990071004257 0 -3.3346990071004257 -315.92320245884434 0 0 0 0 48.79820324814537 68.41773342621309 0 68.41773342621309 -384.06581535936857 0 0 0 0 45.351915630819278 87.359043940447009 0 87.359043940447009 -244.58384823768574 0 0 0 0 54.989662583751084 182.90389430853975 0 182.90389430853975 8.3115242543426575 0 0 0 0 40.85831478377937 -31.989599962467764 0 -31.989599962467764 -412.32078258696129 0 0 0 0 0.029675344386476676 0.22871026769981029 0 0.22871026769981029 -0.30990012181001703 0 0 0 0 39.234736975181818 192.6805239512978 0 192.6805239512978 150.23647651114152 0 0 0 0 -24.613454356101983 64.092902625496208 0 64.092902625496208 -149.9472471218487 0 0 0 0 23.360113812920858 64.194151856594544 0 64.194151856594544 -151.56581625460058 0 0 0 0 5.1406473098071119 41.197753348991682 0 41.197753348991682 -164.37622587999067 0 0 0 0 -0.03726762975312109 37.642974117115955 0 37.642974117115955 -150.6313113221986 0 0 0 0 -8.1385442132814063 45.745035338626622 0 45.745035338626622 -138.35615360999509 0 0 0 0 -101.33234022001893 -25.714976928269607 0 -25.714976928269607 -100.66116277214132 0 0 0 0 -42.768510768530362 -40.740949798468137 0 -40.740949798468137 -295.16149482072797 0 0 0 0 -0.044983308325627608 -21.177900462029356 0 -21.177900462029356 -290.11851768308406 0 0 0 0 0.54184424877630377 0.70677445785423032 0 0.70677445785423032 -11.978465924710505 0 0 0 0 82.093926492822902 12.759046751101778 0 12.759046751101778 -40.607751099239977 0 0 0 0 78.164304831792492 -28.451802030796784 0 -28.451802030796784 -69.849792705441359 0 0 0 0 -104.88053980220775 21.710523050746815 0 21.710523050746815 -117.68100523473913 0 0 0 0 -58.995100286269007 -63.207029805282218 0 -63.207029805282218 4.4733063429257527 0 0 0 0 15.639623632667963 200.05254302806134 0 200.05254302806134 -645.8521286268151 0 0 0 0 -84.990141666239197 213.1834125702062 0 213.1834125702062 -144.1830970425508 0 0 0 0 -137.82668248316804 -184.95024906345134 0 -184.95024906345134 -243.52810275242882 0 0 0 0 76.407513291438136 151.92279775250336 0 151.92279775250336 -715.73493968481489 0 0 0 0 0.56039332682083032 0.71908621290536701 0 0.71908621290536701 -4.2355587440315219 0 0 0 0 -119.27307639761193 -39.390946804269333 0 -39.390946804269333 -7.2329801121995843 0 0 0 0 5.7752575210684256 -13.584034913728829 0 -13.584034913728829 -93.9094308130625 0 0 0 0 1.8116924832568297 1.5940761776458388 0 1.5940761776458388 -7.8269481074204066 0 0 0 0 105.60895614347021 42.704336039175359 0 42.704336039175359 -376.84668565719767 0 0 0 0 -12.470514563169218 -28.943943546710216 0 -28.943943546710216 -71.334846361791278 0 0 0 0 10.384605403552086 -10.986322865828697 0 -10.986322865828697 -66.488048241165416 0 0 0 0 5.0569171644019661 -28.221942642063368 0 -28.221942642063368 -45.657777620097477 0 0 0 0 5.1876909433210923 -4.5917791798499312 0 -4.5917791798499312 -42.317099310807151 0 0 0 0 6.6978626468700782 -7.6628533832845278 0 -7.6628533832845278 -63.062325653820153 0 0 0 0 -6.4860627700006717 -12.028137117540609 0 -12.028137117540609 -37.247514442518877 0 0 0 0 -13.873717853661333 -21.007547587041699 0 -21.007547587041699 -27.798952189010379 0 0 0 0 -13.133241106300034 -16.254695714727859 0 -16.254695714727859 -40.525410427999759 0 0 0 0 -25.436172010588109 -26.558203310487443 0 -26.558203310487443 -36.240126942746429 0 0 0 0 -2.1094128637537728 -12.043728459209632 0 -12.043728459209632 -22.056426619990063 0 0 0 0 6.7429813053090584 -9.7928603636446496 0 -9.7928603636446496 -27.423278099033269 0 0 0 0 -0.81075584158253822 -3.7178042880034177 0 -3.7178042880034177 -0.8409333121311704 0 0 0 0 324.41256453845335 -49.940932809061451 0 -49.940932809061451 -40.592346196574908 0 0 0 0 -34.044200139983218 -77.306649676040706 0 -77.306649676040706 -46.749101804394741 0 0 0 0 88.507720653556873 -46.683499758610196 0 -46.683499758610196 -75.902065864116594 0 0 0 0 -142.28179286965104 -133.90007474524282 0 -133.90007474524282 15.864310920525895 0 0 0 0 -4.6634027081432023 10.036660036000711 0 10.036660036000711 -25.94687485824852 0 0 0 0 -22.807539018530406 -13.123298624961535 0 -13.123298624961535 -173.75892733944784 0 0 0 0 101.52885351030079 20.043449784949189 0 20.043449784949189 -60.389917471886292 0 0 0 0 -6.239572904450597 -128.16263604559754 0 -128.16263604559754 -335.95329622264398 0 0 0 0 -43.312226889045633 -39.945631709574627 0 -39.945631709574627 -48.734113255923148 0 0 0 0 -2.2249706042355903 -0.095246361673709146 0 -0.095246361673709146 0.11120919689776088 0 0 0 0 0.1324679018750885 -67.935488847560919 0 -67.935488847560919 -462.80340339548275 0 0 0 0 36.911007764162605 30.690373875622754 0 30.690373875622754 -294.9382469493612 0 0 0 0 -4.9055019886799727 1.3604044612253929 0 1.3604044612253929 -7.0641725052850433 0 0 0 0 19.691792129061469 -20.587352240996552 0 -20.587352240996552 -0.53267426141974283 0 0 0 0 9.4777547029789275 -69.081884298668228 0 -69.081884298668228 -47.24115113382868 0 0 0 0 -51.379906324509648 -37.876602241765795 0 -37.876602241765795 -0.13720273876970168 0 0 0 0 -156.48175899370563 -126.09561285533528 0 -126.09561285533528 -66.31372914606618 0 0 0 0 -244.12547200133758 -104.39347930880467 0 -104.39347930880467 43.849802941596863 0 0 0 0 -107.0658614188028 -158.52271832866063 0 -158.52271832866063 -306.51760030368314 0 0 0 0 -216.68357062430368 -159.63782760208051 0 -159.63782760208051 -363.15761471022415 0 0 0 0 -267.2755330769553 -3.1952292929436226 0 -3.1952292929436226 -124.93247171580879 0 0 0 0 -45.530896334879799 -163.22031218383609 0 -163.22031218383609 -40.463251742039574 0 0 0 0 -96.521274100824485 -93.805810511634263 0 -93.805810511634263 -51.161693806552648 0 0 0 0 120.1124254550441 -170.44654887537217 0 -170.44654887537217 -97.217675164385582 0 0 0 0 -47.084916041312681 -81.945790550000311 0 -81.945790550000311 -43.650027934592799 0 0 0 0 292.24833851976246 40.306118651386896 0 40.306118651386896 -99.064838819598663 0 0 0 0 -100.3245599100328 -161.45267822132882 0 -161.45267822132882 -99.433749955456733 0 0 0 0 -69.593464184100412 -96.273463845467631 0 -96.273463845467631 -79.047555366589222 0 0 0 0 321.46192129220253 146.11301026957153 0 146.11301026957153 -187.13502207031797 0 0 0 0 -121.21148012556523 -114.80323703747854 0 -114.80323703747854 10.388324119034223 0 0 0 0 0.74409798543693739 2.1018770163283627 0 2.1018770163283627 -13.660507948766522 0 0 0 0 -91.728306130617511 82.474589166438818 0 82.474589166438818 -38.412479285005247 0 0 0 0 20.248208808800747 -3.1512771115652392 0 -3.1512771115652392 -120.0015075867918 0 0 0 0 -3.9962843235916807 471.00821960452413 0 471.00821960452413 -417.54450908173021 0 0 0 0 0.50054689435875943 0.38514142662397788 0 0.38514142662397788 -6.2377862149214991 0 0 0 0 -37.079249740294927 -305.73698059891376 0 -305.73698059891376 -539.8714515028696 0 0 0 0 64.76909040852297 123.41501938726105 0 123.41501938726105 -914.0408068964316 0 0 0 0 -234.77550792537022 252.95462104580292 0 252.95462104580292 -549.4054605993224 0 0 0 0 -131.85270646926529 -68.449674211567981 0 -68.449674211567981 -521.75692011965293 0 0 0 0 97.286623492405852 40.846088901740586 0 40.846088901740586 -772.08364886288655 0 0 0 0 -13.972077897235522 -1.4069034875792568 0 -1.4069034875792568 -326.43803792786275 0 0 0 0 -2.3752908447077061 -6.7051637791973917 0 -6.7051637791973917 -399.31485783213429 0 0 0 0 -5.3884059112533578 -204.61688980799954 0 -204.61688980799954 -238.92523671323579 0 0 0 0 100.63146410558329 6.451955885479947 0 6.451955885479947 -532.90900332726596 0 0 0 0 9.2507713660588706 162.93366622463145 0 162.93366622463145 -429.11592208242655 0 0 0 0 59.085990329973811 143.81504690735892 0 143.81504690735892 -559.1429478816608 0 0 0 0 -10.441149575354757 74.144733373723284 0 74.144733373723284 -497.38796344672301 0 0 0 0 32.873337008075396 192.63742082327008 0 192.63742082327008 -644.12705158844619 0 0 0 0 -40.085849107395461 53.686271479287143 0 53.686271479287143 -274.52826267068303 0 0 0 0 -26.981626347464044 -11.810747051657017 0 -11.810747051657017 -340.74311586349904 0 0 0 0 -25.709389104695845 113.39118357423126 0 113.39118357423126 -467.01801382504345 0 0 0 0 20.08430252215021 46.010767744610348 0 46.010767744610348 -376.78071931421528 0 0 0 0 -59.056489395021345 34.190265100754914 0 34.190265100754914 -377.94999452987759 0 0 0 0 -92.336801647054472 120.00975096919319 0 120.00975096919319 -426.58654240576288 0 0 0 0 41.486920778821514 105.48231084210784 0 105.48231084210784 -426.96462518873363 0 0 0 0 -87.044561455055373 84.615035037161761 0 84.615035037161761 -177.32079752230129 0 0 0 0 -2.0834494370993326 1.0201107300513002 0 1.0201107300513002 2.6232290596318961 0 0 0 0 -35.746483734408685 35.840291802513093 0 35.840291802513093 -269.17894812514896 0 0 0 0 -0.56194229457105394 -48.23665928265109 0 -48.23665928265109 -73.214859397339751 0 0 0 0 4.8745820669664681 -30.441620453764699 0 -30.441620453764699 -440.35676173614775 0 0 0 0 -36.149438159489364 67.195128975042735 0 67.195128975042735 -328.0691569987539 0 0 0 0 -1.4049711043953721 -45.166989382330939 0 -45.166989382330939 -276.42587500273294 0 0 0 0 -4.5652297430042381 45.801186110849812 0 45.801186110849812 -300.25643280740769 0 0 0 0 -88.869451153167574 -80.920528188612479 0 -80.920528188612479 -378.80134475905652 0 0 0 0 -10.394903461695321 -102.9873712860317 0 -102.9873712860317 -394.04397427068034 0 0 0 0 5.7509478419233346 111.43974510918997 0 111.43974510918997 -250.29946855845265 0 0 0 0 -1.1920922980822866 0.11730887284684854 0 0.11730887284684854 -0.5536086574259329 0 0 0 0 -104.05588997858558 -33.485770678324116 0 -33.485770678324116 -23.250708413583197 0 0 0 0 -45.434108610445037 -179.91101606860684 0 -179.91101606860684 -423.17619922945596 0 0 0 0 -79.071426483990649 -99.159274891474524 0 -99.159274891474524 -518.13213058705878 0 0 0 0 -84.864977335373624 -10.085315398901002 0 -10.085315398901002 -339.50079581348837 0 0 0 0 12.656559146935706 -144.41951285845062 0 -144.41951285845062 -353.84119515055681 0 0 0 0 10.565072451083552 -53.444057924960362 0 -53.444057924960362 -395.8970328702344 0 0 0 0 54.286867845331471 -65.403331988425634 0 -65.403331988425634 -471.01910436896651 0 0 0 0 -33.142008940360938 22.538564327427594 0 22.538564327427594 -497.65359151035864 0 0 0 0 0.27050989342569665 11.915752924909611 0 11.915752924909611 -529.44648108773981 0 0 0 0 44.391161182465908 114.77508002021659 0 114.77508002021659 -717.58979835720675 0 0 0 0 -87.540067089095373 286.2749419123611 0 286.2749419123611 -609.73029799101278 0 0 0 0 51.648500183969645 246.81415157232368 0 246.81415157232368 -658.68673897349072 0 0 0 0 -189.01732463375993 41.509214614859957 0 41.509214614859957 -563.05754881781104 0 0 0 0 3.2399963170925048 100.48778121390387 0 100.48778121390387 -567.99951895698177 0 0 0 0 -493.12014058681189 -76.143923565523437 0 -76.143923565523437 396.88570853999045 0 0 0 0 238.12453374416106 390.56730725587659 0 390.56730725587659 -495.57174297849997 0 0 0 0 -12.383615835128987 -25.920296640062062 0 -25.920296640062062 -26.329072151660736 0 0 0 0 -0.66594932527516393 -7.5690779649846114 0 -7.5690779649846114 -4.8798709846719959 0 0 0 0 -239.08960569137821 259.76243983830864 0 259.76243983830864 -186.81169462713478 0 0 0 0 10.441860131286603 314.83759000358623 0 314.83759000358623 -629.23979339710422 0 0 0 0 83.998586580641586 299.38945439462259 0 299.38945439462259 -644.75994276831625 0 0 0 0 97.375838340388555 455.40165742509544 0 455.40165742509544 -966.43040837224544 0 0 0 0 138.01528641189157 58.33869577193218 0 58.33869577193218 -696.44660170465067 0 0 0 0 273.77251734369429 40.004426857838553 0 40.004426857838553 -1014.9193343453935 0 0 0 0 286.09418162937214 144.6291964034026 0 144.6291964034026 -1985.8171593050283 0 0 0 0 -37.475038901684485 342.29443814336264 0 342.29443814336264 -497.68386801598535 0 0 0 0 -247.69365503515678 963.18476829231258 0 963.18476829231258 -1366.7081906989988 0 0 0 0 -1506.811276995945 -181.8040997959215 0 -181.8040997959215 -602.98188756290074 0 0 0 0 -243.38935511032406 -709.16251047779917 0 -709.16251047779917 -982.81753257492528 0 0 0 0 129.43335728177442 -85.094412981743517 0 -85.094412981743517 -525.53989706679749 0 0 0 0 -42.552064424666469 -251.91754449153996 0 -251.91754449153996 -333.96286031856653 0 0 0 0 110.59580615608593 -139.79911505512428 0 -139.79911505512428 -725.35496646389356 0 0 0 0 -34.564695532111273 -25.099246126772414 0 -25.099246126772414 -136.66394182762087 0 0 0 0 3.4432797153031403 3.1716099336610171 0 3.1716099336610171 -1.9615463485327922 0 0 0 0 -293.0230568364338 88.033145972902275 0 88.033145972902275 113.30990570817085 0 0 0 0 -3.7807400390462931 -39.265282000227671 0 -39.265282000227671 4.3445800603694806 0 0 0 0 -68.448990735893858 22.768524865908148 0 22.768524865908148 101.74937160182162 0 0 0 0 -40.585665993158955 5.8668828179734192 0 5.8668828179734192 -35.009114744680119 0 0 0 0 -160.30544502410726 -79.905806568290245 0 -79.905806568290245 -65.344182510125393 0 0 0 0 -23.338114354674644 4.7516788659213489 0 4.7516788659213489 -37.882695558475461 0 0 0 0 3.5248445651898237 -4.9003583272387914 0 -4.9003583272387914 -265.84059655963574 0 0 0 0 52.726627333590159 52.498949371856725 0 52.498949371856725 -256.18944347930665 0 0 0 0 -32.796886264976365 39.062358686185689 0 39.062358686185689 -253.23173827875144 0 0 0 0 -89.749339659566886 -106.25662025561724 0 -106.25662025561724 -156.90437674808345 0 0 0 0 -17.020224175949352 -129.9613601856945 0 -129.9613601856945 -225.92712810172407 0 0 0 0 -0.18827503667779422 -0.0076963620153360779 0 -0.0076963620153360779 -2.9250975095545186 0 0 0 0 -26.877813584624619 -37.784773725488776 0 -37.784773725488776 -172.90296538875555 0 0 0 0 -62.763201815842308 45.279650693517397 0 45.279650693517397 -41.359267283332883 0 0 0 0 -1.1121178590501541 -2.1661382858473957 0 -2.1661382858473957 -2.5031333262277116 0 0 0 0 -17.758128341012707 98.464928247456555 0 98.464928247456555 -181.6899322267127 0 0 0 0 -14.592970173145432 -104.5341373563715 0 -104.5341373563715 -3.4809177970425935 0 0 0 0 -18.16256169558028 -126.86133040548884 0 -126.86133040548884 -141.67684903995541 0 0 0 0 -10.708535268444734 -113.11292766089718 0 -113.11292766089718 -246.86861919559306 0 0 0 0 7.4393471338480595 22.009189159543894 0 22.009189159543894 -108.15294060235533 0 0 0 0 -57.587142203410622 -136.43085151950618 0 -136.43085151950618 -98.093895262223668 0 0 0 0 -1.2078282139596013 13.961181786931775 0 13.961181786931775 -21.943143892640364 0 0 0 0 35.132389590432922 42.961579044160317 0 42.961579044160317 -13.499943671372648 0 0 0 0 28.131924411730324 34.529419215810776 0 34.529419215810776 -29.757763261439322 0 0 0 0 25.372875374888054 36.86623728971972 0 36.86623728971972 -57.450031395127553 0 0 0 0 1.3133259514626161 66.881071632223666 0 66.881071632223666 46.119885342075577 0 0 0 0 -2.6897148635753041 5.8607953318378776 0 5.8607953318378776 -4.1327514663495037 0 0 0 0 -11.041152021483867 10.095683379568072 0 10.095683379568072 -161.5280312529103 0 0 0 0 -7.3397238070284025 7.2012674032311494 0 7.2012674032311494 -5.6969952046610643 0 0 0 0 19.03240487948824 -106.45909741178616 0 -106.45909741178616 -268.25985484928606 0 0 0 0 -51.768593450112348 98.921018171480682 0 98.921018171480682 -65.290769013507088 0 0 0 0 -13.906384418017296 -8.0723629008243734 0 -8.0723629008243734 -376.07758084920715 0 0 0 0 -4.1842671472052473 0.3762455381515899 0 0.3762455381515899 -2.3149740087010002 0 0 0 0 -159.77097578082066 -77.932853375716149 0 -77.932853375716149 -52.911927701701643 0 0 0 0 -5.6626867603472419 268.196354560896 0 268.196354560896 228.46854447096484 0 0 0 0 -8.7296071058125566 8.8133587752345619 0 8.8133587752345619 -6.4954834953600411 0 0 0 0 100.83796789274925 255.52644878920091 0 255.52644878920091 -81.793493837350979 0 0 0 0 28.628138792508977 20.035114005137814 0 20.035114005137814 -9.0787775444005092 0 0 0 0 57.640555593998101 6.8975253090097794 0 6.8975253090097794 -22.847303237846063 0 0 0 0 -42.722372253534559 -82.948640814596729 0 -82.948640814596729 -182.55618423254055 0 0 0 0 -71.100763615779215 -199.95420161514267 0 -199.95420161514267 -264.72413854809929 0 0 0 0 -49.593531120905027 43.80088947000695 0 43.80088947000695 4.7308500007566181 0 0 0 0 -9.1129373366434265 -117.63072472968179 0 -117.63072472968179 -155.97315883633564 0 0 0 0 -91.618771352164913 -73.616953572471175 0 -73.616953572471175 -174.9203170531764 0 0 0 0 -13.412509196954488 21.729290267096076 0 21.729290267096076 -66.83362418222714 0 0 0 0 -60.067442678990119 -124.84445986235551 0 -124.84445986235551 -106.46537504081789 0 0 0 0 -77.636094656888417 -101.03609963016243 0 -101.03609963016243 -126.56457875232445 0 0 0 0 52.243997160649997 80.175371616722259 0 80.175371616722259 40.310859823879582 0 0 0 0 -6.5445930016315685 9.0798622382301488 0 9.0798622382301488 -7.1617844187931539 0 0 0 0 -1.710450740754311 0.6348115798616476 0 0.6348115798616476 -0.20063285888343785 0 0 0 0 102.76528620986528 31.149522732930564 0 31.149522732930564 -66.13434562223847 0 0 0 0 51.139162229031626 37.925292946019908 0 37.925292946019908 76.295746196083201 0 0 0 0 -28.761474663164336 -26.530185770501703 0 -26.530185770501703 -49.697719186347967 0 0 0 0 43.168605343183231 16.621000671090769 0 16.621000671090769 -68.379812638930161 0 0 0 0 60.397115452924481 31.993778664338606 0 31.993778664338606 -23.54570513055296 0 0 0 0 37.28621608809749 32.306640794719897 0 32.306640794719897 -16.631085168199206 0 0 0 0 -4.416910782774262 -1.9951230835380969 0 -1.9951230835380969 -5.4524864272783589 0 0 0 0 -257.97201565783325 -509.54938840712202 0 -509.54938840712202 -335.11835327502922 0 0 0 0 128.46505529158912 21.791423664391914 0 21.791423664391914 -346.99029231395252 0 0 0 0 -7.3061545059272248 -63.849324715693001 0 -63.849324715693001 -15.225426744775177 0 0 0 0 -148.94600616954312 -220.11573073594627 0 -220.11573073594627 -187.49291389267637 0 0 0 0 -175.40145643744881 -191.39173348894019 0 -191.39173348894019 70.834745854772336 0 0 0 0 -2.5404783324842821 -3.0998756854143075 0 -3.0998756854143075 -5.1727180281378935 0 0 0 0 22.177330688608436 496.54768502304614 0 496.54768502304614 37.091587528675518 0 0 0 0 -236.64863816739094 -9.3026953068911098 0 -9.3026953068911098 150.41177847622021 0 0 0 0 -196.95534115430075 37.019102903634121 0 37.019102903634121 -118.07606621337618 0 0 0 0 -157.78855568420386 -24.879686405416578 0 -24.879686405416578 -25.215953329505282 0 0 0 0 -81.30159668370834 -1.1602869336275035 0 -1.1602869336275035 -226.60148413983552 0 0 0 0 -134.55397110457898 -160.37679714937622 0 -160.37679714937622 -179.12629491089592 0 0 0 0 49.090186222041041 306.9091516045778 0 306.9091516045778 -46.531968354091077 0 0 0 0 29.526691804118627 -9.6153717072670588 0 -9.6153717072670588 -28.962865537367179 0 0 0 0 -30.253987806332134 -15.011904041512025 0 -15.011904041512025 -62.523302675188461 0 0 0 0 -36.387084229233096 -56.213389427564834 0 -56.213389427564834 -159.14343338306207 0 0 0 0 34.833066206948274 -25.713006127913104 0 -25.713006127913104 -82.412514824813115 0 0 0 0 32.578646129204571 -54.294639400366577 0 -54.294639400366577 -134.87410515115334 0 0 0 0 30.64646813241211 -62.10467001601728 0 -62.10467001601728 -15.64055815890606 0 0 0 0 -29.189206799575913 -93.820177485667955 0 -93.820177485667955 -106.77935279238955 0 0 0 0 -34.327162534299532 -65.943264758275063 0 -65.943264758275063 -63.388411620842817 0 0 0 0 -60.112463260833465 -95.475776560488157 0 -95.475776560488157 -82.918974038348097 0 0 0 0 -74.246783273410074 -75.65687224249632 0 -75.65687224249632 -88.804223660095886 0 0 0 0 -32.713609326701771 -56.866430660538754 0 -56.866430660538754 -153.5680382762439 0 0 0 0 -31.627810047009007 -47.531220577977365 0 -47.531220577977365 -90.451484599947662 0 0 0 0 -156.93246502997368 -185.02474910078672 0 -185.02474910078672 182.59822387500753 0 0 0 0 59.092496074061046 95.189038657044875 0 95.189038657044875 -73.020505007974862 0 0 0 0 -0.18362490266897158 1.1803204547692374 0 1.1803204547692374 -5.822517538920863 0 0 0 0 -3.1330486327411009 7.2478250898532295 0 7.2478250898532295 -14.317558498499835 0 0 0 0 -66.241371277953419 30.40746281983138 0 30.40746281983138 -25.807622815591458 0 0 0 0 -53.48432405938911 74.808693431150459 0 74.808693431150459 -25.021799180900416 0 0 0 0 97.051218370691288 0.41332189984768775 0 0.41332189984768775 -51.211039532201539 0 0 0 0 0.25872951878932327 29.616449339049723 0 29.616449339049723 -52.30974435238511 0 0 0 0 17.73308376753198 -0.22137278936497751 0 -0.22137278936497751 -5.1541538248438883 0 0 0 0 34.281071723412651 -37.347265061300277 0 -37.347265061300277 -15.224262489369721 0 0 0 0 13.707244735107452 -32.972044487174571 0 -32.972044487174571 -41.381794843275202 0 0 0 0 55.685033092826188 -35.709359668553589 0 -35.709359668553589 -46.868980270402972 0 0 0 0 -14.519232239745065 38.322736715555948 0 38.322736715555948 -56.16077092487194 0 0 0 0 -20.932550960385129 4.9035169384533219 0 4.9035169384533219 0.26946815415431047 0 0 0 0 -1.482576572918137 -3.1052108268343943 0 -3.1052108268343943 -1.3813608151994288 0 0 0 0 0.39604741187954984 -0.86619365119889835 0 -0.86619365119889835 -3.3313762938104077 0 0 0 0 91.089461774410097 11.700719284579463 0 11.700719284579463 -71.202676253218669 0 0 0 0 4.5376314432128311 -6.4481777910004894 0 -6.4481777910004894 -15.217236417622189 0 0 0 0 -356.86264549431689 -39.563945239708119 0 -39.563945239708119 228.32083532448451 0 0 0 0 -4.5495712382755755 -6.5216208649617329 0 -6.5216208649617329 -17.572677276388276 0 0 0 0 -0.14347642599773414 -1.499348188841342 0 -1.499348188841342 -8.7240682300829064 0 0 0 0 -6.7668069882561213 -2.3440846371886437 0 -2.3440846371886437 -11.84435678114189 0 0 0 0 -2.6268565487659075 0.22458479874342174 0 0.22458479874342174 0.13094171202854454 0 0 0 0 -11.903287955869928 -10.957234166751732 0 -10.957234166751732 -11.85490950886053 0 0 0 0 0.084058228698859594 -1.9553880286069898 0 -1.9553880286069898 -12.163344763961952 0 0 0 0 -5.390200006167106 -0.36310566918109544 0 -0.36310566918109544 4.2231303966545966 0 0 0 0 0.72339501387158389 -0.098101618854400385 0 -0.098101618854400385 -0.47369162416356403 0 0 0 0 -3.0460710679440126 -12.27471260038692 0 -12.27471260038692 -21.005919458046264 0 0 0 0 1.2788829299865938 -16.405704997043358 0 -16.405704997043358 -18.402566171753278 0 0 0 0 0.42799812122599568 -4.3445298866031834 0 -4.3445298866031834 -2.5991404306431463 0 0 0 0 -1.058640716360181 -1.950828853015345 0 -1.950828853015345 -4.0725987468488043 0 0 0 0 -1.1748794204085016 -4.7844233102878206 0 -4.7844233102878206 -10.623286390629801 0 0 0 0 -5.5783922776745385 -10.461112768709427 0 -10.461112768709427 -22.026222252723528 0 0 0 0 0.1326658370130076 -3.4513562498104875 0 -3.4513562498104875 -10.140375381073682 0 0 0 0 -0.91766136526563169 -4.7724311599125144 0 -4.7724311599125144 -6.796366320372087 0 0 0 0 -4.6264254088110084 -7.1942098701933759 0 -7.1942098701933759 -4.1077735160281037 0 0 0 0 1.2589622136894434 -10.557235938482336 0 -10.557235938482336 -15.992136218643282 0 0 0 0 -1.7839045731393415 -4.2010117341183282 0 -4.2010117341183282 -9.2830246428559349 0 0 0 0 -0.69650889714057485 -6.8206296074276906 0 -6.8206296074276906 -11.633414563140832 0 0 0 0 -0.67440630955672987 -6.9734970881836489 0 -6.9734970881836489 -12.847159876095247 0 0 0 0 -22.711555526596158 -14.286412760320673 0 -14.286412760320673 54.941252717806492 0 0 0 0 1.9188263987444028 -1.7752438351194613 0 -1.7752438351194613 -9.2723977008885328 0 0 0 0 273.64556162056942 -185.62662270617147 0 -185.62662270617147 -323.30110857186082 0 0 0 0 1.466114701659569 -1.6351264345190337 0 -1.6351264345190337 -11.558264758145413 0 0 0 0 0.81545682947570697 -5.8244586632008577 0 -5.8244586632008577 -12.383866223783116 0 0 0 0 1.2659307345545585 -1.7330641373991966 0 -1.7330641373991966 -11.643024108894679 0 0 0 0 0.65287309892758927 -3.9512517863557672 0 -3.9512517863557672 -13.257693321915326 0 0 0 0 17.95762050414811 -20.917722556558147 0 -20.917722556558147 -13.940961725180387 0 0 0 0 3.9773958957901385 -0.36746659555410588 0 -0.36746659555410588 -14.867257105397584 0 0 0 0 0.14221837685363425 -4.2311022919166135 0 -4.2311022919166135 -12.890842349832383 0 0 0 0 -6.972308724218351 -11.074706954175781 0 -11.074706954175781 -16.489937971033214 0 0 0 0 6.2988163832144437 6.0415833865918103 0 6.0415833865918103 -15.296494420879753 0 0 0 0 -1.6028607870734919 1.4864067843923934 0 1.4864067843923934 -5.0503206317187619 0 0 0 0 -7.4064617512249242 -12.679791833586933 0 -12.679791833586933 -12.147973197817919 0 0 0 0 -7.9263398265147771 -8.6658161774248583 0 -8.6658161774248583 -12.217277518560877 0 0 0 0 -7.9520591786715613 -11.888341683237741 0 -11.888341683237741 -12.123396929979208 0 0 0 0 3.2308872952310139 8.5106973519068561 0 8.5106973519068561 -17.262374479723803 0 0 0 0 -2.2109002577749379 2.1659868760543759 0 2.1659868760543759 -11.425969689276826 0 0 0 0 -1.8622122047272052 -2.5077174437000238 0 -2.5077174437000238 -9.9660431123625557 0 0 0 0 -6.3082678769510494 -5.7609328055987135 0 -5.7609328055987135 -13.245129659422673 0 0 0 0 0.51969553992267414 -0.86219719906482339 0 -0.86219719906482339 -1.2132328316935386 0 0 0 0 3.2512812369682251 8.8868155391101027 0 8.8868155391101027 -4.2461912316939561 0 0 0 0 -22.179378494458433 -8.64943555710488 0 -8.64943555710488 -12.857226094678481 0 0 0 0 0.24794497647144453 -11.833512481600337 0 -11.833512481600337 -15.865590397530468 0 0 0 0 2.6604697413877147 -10.403165264200652 0 -10.403165264200652 -10.408269824671152 0 0 0 0 -0.18659898741907455 -8.5310605100894463 0 -8.5310605100894463 -11.265671182736696 0 0 0 0 -1.5518488381148927 -11.277011836311431 0 -11.277011836311431 -13.178811471967492 0 0 0 0 15.115778624169707 9.9081597892800346 0 9.9081597892800346 -34.945461790077388 0 0 0 0 21.131963874254666 -10.203942484661638 0 -10.203942484661638 -68.264202467296855 0 0 0 0 -5.5582781018952119 -11.32230277677445 0 -11.32230277677445 -11.388797055275063 0 0 0 0 -3.9790851784800907 -13.541240101545554 0 -13.541240101545554 -26.418610562308459 0 0 0 0 -0.34094950310736749 -3.2869747925942647 0 -3.2869747925942647 -2.9259526926034596 0 0 0 0 -3.0095357656927222 -5.699768359486761 0 -5.699768359486761 -8.6774845294797416 0 0 0 0 8.5409019865883238 -6.2191914532850205 0 -6.2191914532850205 -14.25664487312315 0 0 0 0 -0.18102088358240431 -3.5231012686770846 0 -3.5231012686770846 -7.4805551240981885 0 0 0 0 -0.24883489594011365 -1.559715254970655 0 -1.559715254970655 -5.0048811329350826 0 0 0 0 -6.3015527643409541 57.500690631659381 0 57.500690631659381 93.115182035093312 0 0 0 0 -0.85997457590679005 -0.49484643621711655 0 -0.49484643621711655 0.80823456124224435 0 0 0 0 63.408186441358794 -230.00899446777839 0 -230.00899446777839 -197.36982464187895 0 0 0 0 -73.677784502979421 147.52693704622288 0 147.52693704622288 104.8776955659996 0 0 0 0 -3.8038675779270066 -9.8007695643854156 0 -9.8007695643854156 -12.991707563170081 0 0 0 0 40.134794910402661 -193.07142761946852 0 -193.07142761946852 -287.14216306260641 0 0 0 0 170.4588735757805 -204.56867001445607 0 -204.56867001445607 -172.19886684272205 0 0 0 0 2.4371903022099777 -2.5451740516061676 0 -2.5451740516061676 -2.3983765393090835 0 0 0 0 1.7564276540165338 -23.343281331151957 0 -23.343281331151957 -5.1662407391122542 0 0 0 0 -1.3044201091617893 -7.3825871392205329 0 -7.3825871392205329 2.4670934776004287 0 0 0 0 -9.7056259864056997 11.097782613156596 0 11.097782613156596 9.5036161046809866 0 0 0 0 -0.0015206597328406204 16.088431753509212 0 16.088431753509212 -5.9032544832371059 0 0 0 0 0.16321508070594959 -0.057393246259152875 0 -0.057393246259152875 -0.017631035571477938 0 0 0 0 -2.3008773151897586 -2.0779493078116502 0 -2.0779493078116502 -10.800264036082808 0 0 0 0 -6.8180356934929272 12.87019815192707 0 12.87019815192707 -17.139179750338371 0 0 0 0 0.0095960458867212425 19.146106696971401 0 19.146106696971401 -45.628916023488273 0 0 0 0 4.8757686655526333 2.3040276653955516 0 2.3040276653955516 -32.740701734088361 0 0 0 0 -9.043253334018388 -6.4333571710958495 0 -6.4333571710958495 -78.649046379578067 0 0 0 0 0.011899847026549074 0.040954598703393685 0 0.040954598703393685 -0.10740270404856744 0 0 0 0 27.735399853451149 7.4295652626096853 0 7.4295652626096853 -160.10395267501099 0 0 0 0 0.045826123743684347 22.308130894685753 0 22.308130894685753 -114.85665132977738 0 0 0 0 23.722311321445488 17.331949668749075 0 17.331949668749075 -176.38355647932622 0 0 0 0 0.41299360075616676 13.330821779216421 0 13.330821779216421 -51.96217846518266 0 0 0 0 14.266553827120822 -47.712533877966507 0 -47.712533877966507 12.913934659212828 0 0 0 0 13.712761282809652 -58.96172291124094 0 -58.96172291124094 -119.8354207055454 0 0 0 0 -8.4164767612668925 -14.444306846198742 0 -14.444306846198742 -255.05470509188035 0 0 0 0 33.593183068166724 -34.540377535289736 0 -34.540377535289736 -252.84023359460116 0 0 0 0 -0.57293384961082228 -0.16433843963011441 0 -0.16433843963011441 0.34517518544797099 0 0 0 0 -42.782659236278676 21.802455164066487 0 21.802455164066487 0.22343455372902099 0 0 0 0 35.711694827448753 2.7845306986637297 0 2.7845306986637297 -25.266122425760841 0 0 0 0 28.830693484408926 -12.226871969382046 0 -12.226871969382046 -21.542583319547703 0 0 0 0 0.61282243606643894 1.8250508251026218 0 1.8250508251026218 -5.1342339738429814 0 0 0 0 14.187899269837601 3.1268643765724846 0 3.1268643765724846 -21.253627932062955 0 0 0 0 12.773364472002783 3.1305393925358658 0 3.1305393925358658 -28.217720731896407 0 0 0 0 25.686063735544792 -8.4459598246030509 0 -8.4459598246030509 -19.983741949894466 0 0 0 0 5.0623330526266272 13.081552486586588 0 13.081552486586588 -41.283990315414485 0 0 0 0 -0.0033460082763387411 0.059451749377657848 0 0.059451749377657848 -0.034826091189984254 0 0 0 0 6.8522088978584463 -6.0625587459617236 0 -6.0625587459617236 -31.903057777522918 0 0 0 0 0.66244556777071106 0.29922018519734195 0 0.29922018519734195 0.50086748222350863 0 0 0 0 13.086706169920035 2.0392035902023053 0 2.0392035902023053 -31.489320661275997 0 0 0 0 0.97931021928817863 -1.9947377838297484 0 -1.9947377838297484 -7.567443907367565 0 0 0 0 -1.8209158561076038 -10.022026450584235 0 -10.022026450584235 -21.644076669137576 0 0 0 0 -10.178521936652032 -15.4897284587787 0 -15.4897284587787 -26.039112210437452 0 0 0 0 -5.8533782240516832 -13.047843816715556 0 -13.047843816715556 -21.046034566343025 0 0 0 0 9.4008060204128014 -10.693293850101327 0 -10.693293850101327 -28.396092037321068 0 0 0 0 20.600524028623113 -19.196718639155733 0 -19.196718639155733 -26.762998020742089 0 0 0 0 -1.1860815909470492 -9.476344544424407 0 -9.476344544424407 -20.137744320001865 0 0 0 0 -12.865543636289484 -23.26946413105037 0 -23.26946413105037 -36.653929564116055 0 0 0 0 -4.1507408703182591 -15.002654789721419 0 -15.002654789721419 -26.118020729961245 0 0 0 0 -10.191039319675255 -20.686152215745487 0 -20.686152215745487 -18.4694348077077 0 0 0 0 -18.995536553623424 -24.966424939670105 0 -24.966424939670105 -44.033504679915495 0 0 0 0 -9.6254459831725399 -26.202944834280061 0 -26.202944834280061 -41.970701080432264 0 0 0 0 -4.5006625158740832 -12.907988199479931 0 -12.907988199479931 -28.289819567832673 0 0 0 0 -15.594043556311762 -23.105426416857654 0 -23.105426416857654 -32.010880118821419 0 0 0 0 -22.47207453182159 -43.84918114975676 0 -43.84918114975676 -81.273429775465047 0 0 0 0 20.363582612716527 -13.796759497327002 0 -13.796759497327002 -50.718564006383531 0 0 0 0 3.8659494383395669 -3.3313960776758744 0 -3.3313960776758744 -32.181680772330253 0 0 0 0 125.119539090633 11.8337803286704 0 11.8337803286704 -87.310534796430147 0 0 0 0 26.430769183965545 18.088379617249956 0 18.088379617249956 -26.920473497789786 0 0 0 0 22.259731935077525 -9.3015956302187988 0 -9.3015956302187988 -51.02473702885618 0 0 0 0 23.58108745428035 -2.5101747316366527 0 -2.5101747316366527 -68.8217865137849 0 0 0 0 -4.0576364718279621 -8.5841446185474055 0 -8.5841446185474055 -30.712646749595933 0 0 0 0 6.3019081212826116 2.0972899333155723 0 2.0972899333155723 -7.6160296688388769 0 0 0 0 13.624551774726513 26.089779825317237 0 26.089779825317237 -11.080831293140363 0 0 0 0 0.65990126408700611 3.4603914797938859 0 3.4603914797938859 -11.850339108590134 0 0 0 0 -85.441164947996299 49.762392473603541 0 49.762392473603541 68.873543553811032 0 0 0 0 -17.48794674862512 144.30168606791631 0 144.30168606791631 104.35170062005636 0 0 0 0 -0.41607579641359371 0.93826461052388588 0 0.93826461052388588 -3.9871619019693867 0 0 0 0 -53.510499310341572 -155.08300052096456 0 -155.08300052096456 -242.86242541075626 0 0 0 0 -358.98908830416588 122.1629000538851 0 122.1629000538851 -48.407841135631315 0 0 0 0 392.53223444904825 207.21271587782394 0 207.21271587782394 -357.8594545461674 0 0 0 0 16.093716877658252 -0.4661240499054955 0 -0.4661240499054955 -104.76112433524256 0 0 0 0 30.314652054930662 -90.618990793409466 0 -90.618990793409466 11.436729797947919 0 0 0 0 3.4672277788449719 -44.494046362497102 0 -44.494046362497102 -122.70044318465079 0 0 0 0 17.071412929810254 -5.7114141759671568 0 -5.7114141759671568 -90.444725016504748 0 0 0 0 144.47379591598525 139.91522376558714 0 139.91522376558714 -21.829537326178979 0 0 0 0 9.0922502318971965 -30.434174239033382 0 -30.434174239033382 -89.566699466418868 0 0 0 0 -8.9010064100366435 -47.286048516940355 0 -47.286048516940355 -120.19491343791742 0 0 0 0 -13.437206384035562 -28.159877108265846 0 -28.159877108265846 -157.54051964451355 0 0 0 0 7.2159270658612513 -15.679645277332384 0 -15.679645277332384 -185.23721069528983 0 0 0 0 33.97918460627443 22.30811935298334 0 22.30811935298334 -136.59365274141601 0 0 0 0 -46.126762953439538 -54.80690103795132 0 -54.80690103795132 -206.48008077293343 0 0 0 0 -10.525175326399221 -33.403352419130897 0 -33.403352419130897 -197.15197814719431 0 0 0 0 -25.899226186529631 -12.385358579944295 0 -12.385358579944295 -153.68412528175395 0 0 0 0 -58.260656832591849 -53.093014754158503 0 -53.093014754158503 -179.56085035426077 0 0 0 0 -57.750769733615016 -57.167319140531617 0 -57.167319140531617 -161.36760218050676 0 0 0 0 -100.48522898971351 -72.552329191370518 0 -72.552329191370518 -128.56962583128188 0 0 0 0 -168.45698793842166 -140.65126960905036 0 -140.65126960905036 -163.59626147308609 0 0 0 0 -259.87759929338426 -138.40350437646703 0 -138.40350437646703 -116.44040704177314 0 0 0 0 -102.18374087463235 -72.843865358183393 0 -72.843865358183393 -94.789313477202086 0 0 0 0 -61.412052161154861 24.149518082103896 0 24.149518082103896 -23.779446349280988 0 0 0 0 1.1396284605557057 1.9665928629900407 0 1.9665928629900407 -4.2166704349225981 0 0 0 0 18.132577552849398 -160.28122984375659 0 -160.28122984375659 -115.93167111442381 0 0 0 0 -142.18052575026559 73.7074260594527 0 73.7074260594527 -37.494282964296872 0 0 0 0 -14.193221062321754 -76.387049560573359 0 -76.387049560573359 -61.365598893476999 0 0 0 0 -23.898057050804709 -54.053092625092177 0 -54.053092625092177 -63.035922006863984 0 0 0 0 -23.718985662863133 -52.873923171624938 0 -52.873923171624938 -69.676752131985268 0 0 0 0 59.752288272029546 -40.247432906515314 0 -40.247432906515314 -134.977500824054 0 0 0 0 -15.764870190283546 -69.038485092700284 0 -69.038485092700284 -89.868359945830889 0 0 0 0 -7.3238901734148385 -23.095530292892363 0 -23.095530292892363 -50.368815855879802 0 0 0 0 -0.78305993852583811 -6.5541786687486479 0 -6.5541786687486479 -9.6335068742702106 0 0 0 0 25.992453455353825 -35.727435271306604 0 -35.727435271306604 -64.398110963215004 0 0 0 0 -25.4756126096363 -50.098040884513466 0 -50.098040884513466 -46.543426890662886 0 0 0 0 -19.200209995924524 -32.077445659782825 0 -32.077445659782825 -28.654359600966472 0 0 0 0 -17.142711953992553 -22.859328996719185 0 -22.859328996719185 -26.83563306166576 0 0 0 0 -0.5486024223138557 -5.2471517512324084 0 -5.2471517512324084 -5.4318221373629374 0 0 0 0 -11.448252860136563 -32.543308335218171 0 -32.543308335218171 -42.770159453847555 0 0 0 0 -24.998002761931275 -15.316397884089383 0 -15.316397884089383 -12.606507630416672 0 0 0 0 -36.548433422707603 -31.830268516860087 0 -31.830268516860087 -15.658900870170328 0 0 0 0 -119.47815813022953 -61.991675386245333 0 -61.991675386245333 -16.130360700510209 0 0 0 0 -0.60447157187862466 2.2726380071190562 0 2.2726380071190562 -14.721259345467729 0 0 0 0 74.325093600243235 3.4833462827537005 0 3.4833462827537005 -49.782578419108177 0 0 0 0 -21.891446531768452 -13.924948587224208 0 -13.924948587224208 -15.301546505506849 0 0 0 0 -1.4068037610839674 -0.99608962709096005 0 -0.99608962709096005 -16.624956692841209 0 0 0 0 -10.366096971458379 -13.956805881830896 0 -13.956805881830896 -30.643573183452517 0 0 0 0 -10.011747398326861 -22.794261182463742 0 -22.794261182463742 -48.989003046830476 0 0 0 0 -19.543703647819711 -24.033820075906988 0 -24.033820075906988 -31.045642201279406 0 0 0 0 -21.616711860804571 -13.881002870715747 0 -13.881002870715747 -28.26107422088171 0 0 0 0 -124.09167927238332 -533.82721292914357 0 -533.82721292914357 -151.01554666589072 0 0 0 0 41.277695964107693 155.22471376543399 0 155.22471376543399 -44.845762373894104 0 0 0 0 -7.5577382458821862 -21.447178185364876 0 -21.447178185364876 -53.074739249532541 0 0 0 0 -2.2705014398099665 -8.828805544874605 0 -8.828805544874605 -42.892277875939584 0 0 0 0 19.722614316324325 42.791495363169815 0 42.791495363169815 -90.314013270784926 0 0 0 0 -1.6334018558209209 -12.84647428477183 0 -12.84647428477183 -49.195546779875826 0 0 0 0 -0.78078031524398384 2.4150824321902178 0 2.4150824321902178 -4.2457050884887337 0 0 0 0 1.8800898279061826 4.0369074962847833 0 4.0369074962847833 -10.683370052496969 0 0 0 0 48.902658346464705 60.769557733630791 0 60.769557733630791 -176.8940785983541 0 0 0 0 3.216981351997684 -8.9152960467224673 0 -8.9152960467224673 -77.868875811918002 0 0 0 0 251.84722232172805 183.40024213403376 0 183.40024213403376 -142.91505308027263 0 0 0 0 102.57526878063891 -128.39293288938643 0 -128.39293288938643 -41.685910623108612 0 0 0 0 -0.4263610453347928 1.1020388350724364 0 1.1020388350724364 -6.4170975033842694 0 0 0 0 -102.72019285519814 -146.97089232137932 0 -146.97089232137932 -153.49260988544847 0 0 0 0 -138.56882003166731 118.47152936081329 0 118.47152936081329 35.551548881077906 0 0 0 0 22.504561456478541 347.12076883906411 0 347.12076883906411 -68.232686848408775 0 0 0 0 16.27603988721421 -117.68650890327262 0 -117.68650890327262 -345.96010506305993 0 0 0 0 27.243719913855386 -61.611372209974434 0 -61.611372209974434 -230.73992623225786 0 0 0 0 -32.572764769559853 -54.836963556073897 0 -54.836963556073897 -194.88695007689967 0 0 0 0 -69.405475052141128 -72.216607844515238 0 -72.216607844515238 -14.750362803199096 0 0 0 0 -37.111629687148024 -103.52406726415211 0 -103.52406726415211 -165.41084938376298 0 0 0 0 -38.177506351899183 -44.398396263713948 0 -44.398396263713948 -63.888912431575591 0 0 0 0 -51.516919082162985 -53.462938445154577 0 -53.462938445154577 -55.408899687325174 0 0 0 0 -40.689950230295608 6.7547289715002989 0 6.7547289715002989 29.435952112129598 0 0 0 0 -0.13191313178640485 -24.566636127565289 0 -24.566636127565289 -111.17052365207928 0 0 0 0 -30.273783446860762 -50.816070608168957 0 -50.816070608168957 -105.53913546256081 0 0 0 0 -23.049454060919146 -77.052332993609525 0 -77.052332993609525 -164.02324205801415 0 0 0 0 -10.539038686827098 -5.2946163824053656 0 -5.2946163824053656 0.77663020331237931 0 0 0 0 3.9313431241270109 -95.57218276484673 0 -95.57218276484673 -264.84512540754076 0 0 0 0 -57.111030081361832 -93.088296943067689 0 -93.088296943067689 -165.72103494268686 0 0 0 0 -11.924684190924268 -21.376255015406059 0 -21.376255015406059 -2.9983101204561535 0 0 0 0 26.500549466559278 9.6285894196189474 0 9.6285894196189474 -8.3731042821891606 0 0 0 0 -0.60819954644104657 0.029632497161873772 0 0.029632497161873772 0.010901968930909334 0 0 0 0 -37.982338061219025 -19.034209444223961 0 -19.034209444223961 3.8613919074705336 0 0 0 0 -20.763389821462169 -62.748011382071127 0 -62.748011382071127 -226.06924513436388 0 0 0 0 20.642442959440359 71.577694628766039 0 71.577694628766039 -17.360285925606149 0 0 0 0 33.248146449257774 9.9378725761853275 0 9.9378725761853275 -330.2394301270233 0 0 0 0 -21.214666183114332 -14.326762156322729 0 -14.326762156322729 -35.575962334158248 0 0 0 0 -38.081776671106809 -76.337964556438237 0 -76.337964556438237 150.46436138285571 0 0 0 0 -14.175717542050039 -25.379847573164788 0 -25.379847573164788 -38.23468218798709 0 0 0 0 -16.764491536444552 -30.835861787109025 0 -30.835861787109025 14.968155140926683 0 0 0 0 -9.2969861610050657 -18.091833854716697 0 -18.091833854716697 -27.431671100006497 0 0 0 0 1.5579450763827676 -8.2287388283347731 0 -8.2287388283347731 -19.506348362953645 0 0 0 0 -36.435028427825955 -0.72318381956938538 0 -0.72318381956938538 5.2772223208539799 0 0 0 0 -7.2199888237893202 -7.3125155581357433 0 -7.3125155581357433 1.6997672658901593 0 0 0 0 -3.1668807168499402 -12.507883029436925 0 -12.507883029436925 -19.610715588671155 0 0 0 0 0.18155682928912142 -10.062089850100165 0 -10.062089850100165 -28.124222118832222 0 0 0 0 -0.41882328470949304 -8.9628536225609423 0 -8.9628536225609423 -18.018984215363162 0 0 0 0 -0.91397577043152012 -9.6260917475592578 0 -9.6260917475592578 -13.11643106399606 0 0 0 0 -0.78331657516821451 -9.4677520474979247 0 -9.4677520474979247 -17.650877880831104 0 0 0 0 0.14299876769556974 -9.6475080269265163 0 -9.6475080269265163 -20.625694697919243 0 0 0 0 1.4278843300026192 -1.1413626478625218 0 -1.1413626478625218 -3.1135458366105979 0 0 0 0 -2.9266657188469765 0.54579214470322768 0 0.54579214470322768 -1.3523877940460807 0 0 0 0 -1.568971047957973 -6.814916111434286 0 -6.814916111434286 -13.047588967187039 0 0 0 0 5.6720112107432215 -1.1458299526311748 0 -1.1458299526311748 -4.3872339506924618 0 0 0 0 -1.0715923776906604 -0.66261007292655449 0 -0.66261007292655449 -0.65532119162023139 0 0 0 0 -13.515924045611314 -55.146182783370023 0 -55.146182783370023 -210.16474762879079 0 0 0 0 2.6595058133884777 -75.547068077430595 0 -75.547068077430595 -205.95121972773995 0 0 0 0 -41.096392302818799 -72.123258660983993 0 -72.123258660983993 -140.85359576089832 0 0 0 0 -16.33276047952927 -24.363675991087803 0 -24.363675991087803 -177.95542097608268 0 0 0 0 -63.597569948960043 -113.20898791474792 0 -113.20898791474792 -211.91346166818403 0 0 0 0 8.9905123873157891 -83.346486765913141 0 -83.346486765913141 -226.06722356307728 0 0 0 0 -0.1370526652816686 0.19321774447037399 0 0.19321774447037399 -0.86930207868707043 0 0 0 0 32.011520816401855 -4.1002061514154775 0 -4.1002061514154775 -3.684188371677898 0 0 0 0 1.5336985309649187 -0.61991447904392771 0 -0.61991447904392771 -0.70429908583308454 0 0 0 0 32.951044418881708 -19.590172097445247 0 -19.590172097445247 -180.09431094193133 0 0 0 0 18.367251559986755 -90.657812895013194 0 -90.657812895013194 -187.94012984849633 0 0 0 0 -22.129611293221213 -44.798922774018365 0 -44.798922774018365 -239.79573461333348 0 0 0 0 -22.399761255760179 -38.373692999744435 0 -38.373692999744435 -204.37154643624672 0 0 0 0 0.075652676999605012 -94.687541068447899 0 -94.687541068447899 -143.81271621726046 0 0 0 0 22.874611465891007 -52.930115076946095 0 -52.930115076946095 -213.47083375000511 0 0 0 0 42.063104913069594 -61.533136909507448 0 -61.533136909507448 -265.64783452155825 0 0 0 0 -28.139857428276954 -44.792257046159648 0 -44.792257046159648 55.426188670702686 0 0 0 0 0.44564176769845038 -0.22932225992279598 0 -0.22932225992279598 0.060915349695374932 0 0 0 0 6.932297831519854 -11.620138370148197 0 -11.620138370148197 -45.936467931067355 0 0 0 0 -2.1286596741232415 -7.0440771191060776 0 -7.0440771191060776 -15.918377553825849 0 0 0 0 -0.012657052704917942 -15.656042126300935 0 -15.656042126300935 -32.215896533452906 0 0 0 0 -0.95374627727075278 -9.4403818230784964 0 -9.4403818230784964 -17.858463716853294 0 0 0 0 2.3219727280812492 -6.021285753166012 0 -6.021285753166012 -34.81790177552466 0 0 0 0 0.88579494264327252 -9.8057310784242873 0 -9.8057310784242873 -17.98984982939146 0 0 0 0 -3.8153081141507741 -6.127210652375652 0 -6.127210652375652 9.9804101419922517 0 0 0 0 0.014898213478828241 -16.761000122306474 0 -16.761000122306474 -12.143595643690787 0 0 0 0 -5.7591905617874595 8.5746495123094064 0 8.5746495123094064 -12.787784502006616 0 0 0 0 -13.350136704237867 -16.039043544318702 0 -16.039043544318702 -21.015597211020577 0 0 0 0 0.034146039451782184 -0.18925632402481085 0 -0.18925632402481085 -2.9308496826841406 0 0 0 0 18.105497616359806 2.8856617919554992 0 2.8856617919554992 -15.903296716925979 0 0 0 0 -9.9211384057411109 2.1198714663041756 0 2.1198714663041756 13.424331597962009 0 0 0 0 -0.00075415585234342442 0.00581676399173503 0 0.00581676399173503 -1.1813848419552926 0 0 0 0 -26.906186149467771 -34.50199590824559 0 -34.50199590824559 -30.982473927324463 0 0 0 0 -0.038118924221581085 -15.535236739331594 0 -15.535236739331594 -34.976580349932192 0 0 0 0 0.11757340103759902 -17.805075567215681 0 -17.805075567215681 -69.316274500317377 0 0 0 0 -4.7603271919873507 -34.60670499905973 0 -34.60670499905973 -54.567528223917179 0 0 0 0 54.417845386277122 -56.621962212841026 0 -56.621962212841026 -318.51329487976182 0 0 0 0 35.198675376712686 -103.3372798042401 0 -103.3372798042401 -284.77484529504727 0 0 0 0 -31.422768427249544 -2.117255295815994 0 -2.117255295815994 -36.089905347776948 0 0 0 0 -0.60028716586096598 -0.59154336061594393 0 -0.59154336061594393 -0.3543203482855084 0 0 0 0 -0.44451190944598989 -106.09690525673511 0 -106.09690525673511 -242.31903287666501 0 0 0 0 -1.232138808743116 3.6838716116290016 0 3.6838716116290016 -219.06586872247863 0 0 0 0 -6.1692362820563176 -9.1963746174369589 0 -9.1963746174369589 -252.66692003642675 0 0 0 0 -87.69631941691847 81.866131730450434 0 81.866131730450434 -110.5240545811248 0 0 0 0 -4.8186967010391113 -36.278254491558982 0 -36.278254491558982 -86.222242056988762 0 0 0 0 -0.97966419014829142 40.044243521844692 0 40.044243521844692 -62.868610538644134 0 0 0 0 25.230703132302665 19.493045995368448 0 19.493045995368448 -66.047062122801435 0 0 0 0 31.988444306666906 -31.077988667864702 0 -31.077988667864702 -118.26551112314337 0 0 0 0 24.199356183909487 -28.444794896644453 0 -28.444794896644453 -147.9172110499203 0 0 0 0 23.751646293814076 8.3847715665324358 0 8.3847715665324358 -140.76139121915912 0 0 0 0 34.042453825294274 -16.601429342430492 0 -16.601429342430492 -134.10465302785451 0 0 0 0 -27.649833223328415 -49.278071803310013 0 -49.278071803310013 -83.660713354438485 0 0 0 0 -37.718821345114748 -38.862846781834378 0 -38.862846781834378 -89.276549772272119 0 0 0 0 72.249746989940377 -74.336320008907933 0 -74.336320008907933 -152.18854393647052 0 0 0 0 -1.1588449796834652 -1.0355023704257178 0 -1.0355023704257178 -0.37619905634024775 0 0 0 0 -4.1472953102181691 3.5564897870644927 0 3.5564897870644927 -189.16080182450241 0 0 0 0 -102.08795118853595 40.210988333506975 0 40.210988333506975 -162.6047599095109 0 0 0 0 0.77116516547926039 -28.415112469912856 0 -28.415112469912856 -145.21164882821176 0 0 0 0 30.284249971916552 -54.572183317650342 0 -54.572183317650342 -124.52981500192982 0 0 0 0 4.4696069262582796 -17.228496627176355 0 -17.228496627176355 9.2659027915797196 0 0 0 0 17.383919495101395 7.403134546293586 0 7.403134546293586 -48.686757369432598 0 0 0 0 0.16586082981838568 -0.31041863248968582 0 -0.31041863248968582 0.53722833614249055 0 0 0 0 31.535393623404033 -28.15238590649642 0 -28.15238590649642 -36.307219412061386 0 0 0 0 16.860749678102877 3.7229285425091803 0 3.7229285425091803 -28.576731946261134 0 0 0 0 13.556982775451388 9.441853055912361 0 9.441853055912361 -34.80930847677746 0 0 0 0 2.4505482745363452 7.5396851270998013 0 7.5396851270998013 -29.277561749448068 0 0 0 0 7.9107264198419216 24.300758730219968 0 24.300758730219968 -38.54604124060279 0 0 0 0 7.0300814070463957 15.20047895621974 0 15.20047895621974 -19.315862307106727 0 0 0 0 -2.6133021674539805 16.76086650038269 0 16.76086650038269 3.2985453677829355 0 0 0 0 40.295315388133218 -7.0509016146243084 0 -7.0509016146243084 -12.839752446307102 0 0 0 0 7.3428137247844063 4.3653190304830787 0 4.3653190304830787 -8.0114881099871127 0 0 0 0 18.210856267781764 -13.425212631955219 0 -13.425212631955219 1.6115234505377884 0 0 0 0 13.084732323881894 -10.129717880925455 0 -10.129717880925455 -10.388366877115914 0 0 0 0 -0.70482801042589927 0.21681873035049648 0 0.21681873035049648 -11.564988689744496 0 0 0 0 6.0425494086820777 -1.0971010076827952 0 -1.0971010076827952 -23.375516693922691 0 0 0 0 0.77451605772848042 0.9715047782973607 0 0.9715047782973607 -0.62853731962167103 0 0 0 0 -26.66644605821989 -12.859841526260425 0 -12.859841526260425 -10.693400926225877 0 0 0 0 -6.0529045992497004 -12.449252044731111 0 -12.449252044731111 -40.364374298551184 0 0 0 0 18.128958574605008 16.08698285425271 0 16.08698285425271 -32.970618426224974 0 0 0 0 -8.1789209526740478 11.661486084482021 0 11.661486084482021 0.9402650439660647 0 0 0 0 -5.5801005819648708 0.45198652036197018 0 0.45198652036197018 -6.7848192791861948 0 0 0 0 0.29218449804121693 -1.0616965239521221 0 -1.0616965239521221 -10.593098957396563 0 0 0 0 14.772450806341453 -9.6487467978768109 0 -9.6487467978768109 -29.229748168130754 0 0 0 0 -4.5734864125971058 -23.072538943039035 0 -23.072538943039035 -35.616126406399417 0 0 0 0 -25.668277484474515 -3.1491527624202718 0 -3.1491527624202718 -19.569565577388857 0 0 0 0 -1.4098396408926419 13.861919663453591 0 13.861919663453591 -39.631306085839469 0 0 0 0 -0.84329745292734515 7.1576450891298009 0 7.1576450891298009 -12.450847890941077 0 0 0 0 87.877813308889245 52.329105220851488 0 52.329105220851488 -179.47327504707209 0 0 0 0 5.0755435835549179 -3.2708011515860562 0 -3.2708011515860562 -19.574556204803685 0 0 0 0 -0.55973609072695663 -0.43326416919980204 0 -0.43326416919980204 -0.18973626633667706 0 0 0 0 -44.20929916543605 -12.37338019276649 0 -12.37338019276649 28.899609808773675 0 0 0 0 -36.336583864398563 14.153208897390869 0 14.153208897390869 9.9931584530277178 0 0 0 0 -45.450927726224492 -38.419025136442542 0 -38.419025136442542 -27.76215155448881 0 0 0 0 11.361554813999703 22.277289952387036 0 22.277289952387036 -44.487822157330811 0 0 0 0 10.600802305851516 29.318522239889717 0 29.318522239889717 -0.78412674631545087 0 0 0 0 -42.201375012013273 -10.533968676765653 0 -10.533968676765653 -9.3436262265458936 0 0 0 0 -3.801583818542781 -23.14039658546244 0 -23.14039658546244 -6.6286476900495472 0 0 0 0 1.0007447683434951 -0.54145061817696671 0 -0.54145061817696671 -6.5298116012470189 0 0 0 0 -4.3715680256140104 -10.069035840828292 0 -10.069035840828292 -19.855739309597993 0 0 0 0 -85.383614312192776 -91.926488689423422 0 -91.926488689423422 -123.17953042722365 0 0 0 0 -13.463985376630262 -15.244920662844379 0 -15.244920662844379 -16.121618598561327 0 0 0 0 3.1157897576867981 -9.8863540069396549 0 -9.8863540069396549 -24.023725595319775 0 0 0 0 -16.133658637097096 -15.720420123255892 0 -15.720420123255892 -15.857638428328755 0 0 0 0 14.626825300741476 -6.7500344306699844 0 -6.7500344306699844 -46.573430285253238 0 0 0 0 1.2186249336592025 2.571656277382333 0 2.571656277382333 -19.298470811019826 0 0 0 0 92.244272900347937 -12.839346214183024 0 -12.839346214183024 -109.55651019075594 0 0 0 0 5.4563602812371395 -11.335676686465398 0 -11.335676686465398 -54.825451611468964 0 0 0 0 36.548311204626941 36.75853384187576 0 36.75853384187576 -12.534968212573403 0 0 0 0 65.032741890813128 6.6624918193410849 0 6.6624918193410849 -35.539748271228746 0 0 0 0 25.509691343489749 -43.756441347882173 0 -43.756441347882173 -72.235073860261764 0 0 0 0 -50.858044991507086 -96.399225318164099 0 -96.399225318164099 -77.821666810286843 0 0 0 0 -41.844201538904599 -49.613634294466465 0 -49.613634294466465 -43.111609509331174 0 0 0 0 -20.731455574342817 -19.715885644216542 0 -19.715885644216542 -17.724148652458098 0 0 0 0 -1.5363809221008999 -7.0162764801015953 0 -7.0162764801015953 -9.2795026553997104 0 0 0 0 -3.2097202884624494 -0.7565172169561265 0 -0.7565172169561265 -9.9643936276934255 0 0 0 0 -4.2703943342785351 -0.29094995626837772 0 -0.29094995626837772 -2.3469227199093439 0 0 0 0 -31.981620881041522 -10.481013473747225 0 -10.481013473747225 49.554198942772928 0 0 0 0 -20.386617155230624 -9.6726245198915421 0 -9.6726245198915421 -5.5920607030420797 0 0 0 0 -0.66901351700615486 0.94461482212841474 0 0.94461482212841474 -1.2776624224700299 0 0 0 0 3.796060318415357 -6.3808426329105714 0 -6.3808426329105714 -16.682329289382324 0 0 0 0 -0.3690528498796235 -8.4391922422971568 0 -8.4391922422971568 -14.737068789844699 0 0 0 0 -5.6433634864493367 -5.7584887851458078 0 -5.7584887851458078 -4.8411090897891427 0 0 0 0 3.2766002071190705 -5.1756566228654037 0 -5.1756566228654037 -22.09212569723843 0 0 0 0 -5.3720917680521563 -8.6928844747313718 0 -8.6928844747313718 -11.90648588374944 0 0 0 0 6.6718731493074301 1.4557511936582159 0 1.4557511936582159 -8.463440937543055 0 0 0 0 0.40308704000691176 0.63389405254559783 0 0.63389405254559783 -7.6291785655884894 0 0 0 0 -14.218627209606893 -1.664646581029956 0 -1.664646581029956 -3.8648448488675058 0 0 0 0 -0.70639984870990347 -0.99602790440626876 0 -0.99602790440626876 -6.7162129798284127 0 0 0 0 -3.5593720537017113 2.059540728519778 0 2.059540728519778 -3.1799447558468046 0 0 0 0 -95.260461487960185 -67.921910928927275 0 -67.921910928927275 -54.612528388926876 0 0 0 0 -109.94355611917899 -83.565538001317691 0 -83.565538001317691 -34.812438495049719 0 0 0 0 -111.88268247780343 -81.586429411723657 0 -81.586429411723657 -20.458559823877295 0 0 0 0 -124.1724536538004 -66.730930793764855 0 -66.730930793764855 -4.2965907103207428 0 0 0 0 -103.37091386724751 -50.185231497845962 0 -50.185231497845962 -34.399178399991797 0 0 0 0 -95.53630873881805 -55.471654881755114 0 -55.471654881755114 -33.648395046162477 0 0 0 0 -32.710866037786218 -11.985261202375113 0 -11.985261202375113 -14.008580965739384 0 0 0 0 -1.1442146016450416 1.7369527012962536 0 1.7369527012962536 0.29145226555124282 0 0 0 0 -150.63036568488678 -74.939716937209596 0 -74.939716937209596 -6.8049733957814169 0 0 0 0 -0.83284885622071947 0.60574593635348961 0 0.60574593635348961 -1.9220667290666711 0 0 0 0 33.781333777670966 15.380623962622849 0 15.380623962622849 -12.121212373604067 0 0 0 0 -15.581561300828071 -82.81885078495543 0 -82.81885078495543 -89.396559069529758 0 0 0 0 -136.11521877222879 -36.264285149003626 0 -36.264285149003626 24.459497739488143 0 0 0 0 -242.10231274980561 -100.61466548699536 0 -100.61466548699536 -8.9505650852879626 0 0 0 0 -31.746849696233767 114.81069181885687 0 114.81069181885687 -3.4945912771800067 0 0 0 0 -96.859960342457271 -72.340904396463884 0 -72.340904396463884 -163.9522080438328 0 0 0 0 -83.679892693379543 -27.806936402113934 0 -27.806936402113934 -24.343559171713423 0 0 0 0 0.40698731741115823 -0.77676486277004386 0 -0.77676486277004386 -1.8210141521962839 0 0 0 0 -31.326151837617999 -7.8218208745893207 0 -7.8218208745893207 -86.789839940640377 0 0 0 0 -167.03939118058327 -104.56312213243473 0 -104.56312213243473 -33.671244479563029 0 0 0 0 -124.67437923055786 -87.377036195244727 0 -87.377036195244727 -22.662433418168803 0 0 0 0 -256.05524197558952 -146.72500415143622 0 -146.72500415143622 -104.47643092060753 0 0 0 0 0.059763889347434151 -0.4015983753054897 0 -0.4015983753054897 -0.89560403183750736 0 0 0 0 -241.51101743275444 -116.21007417049623 0 -116.21007417049623 -40.462142656295327 0 0 0 0 -66.828467001938634 3.6039631074781937 0 3.6039631074781937 -44.543382138988818 0 0 0 0 -150.66724406305161 -48.657645533308823 0 -48.657645533308823 -23.677699564999784 0 0 0 0 -114.14267871119364 -64.406633932463592 0 -64.406633932463592 -135.42451947849804 0 0 0 0 -153.02613132285484 -47.039793687817564 0 -47.039793687817564 -23.790150028566131 0 0 0 0 -201.26780581326648 -53.000723889623259 0 -53.000723889623259 14.393214253752376 0 0 0 0 -0.3874843933979637 0.66558309427370688 0 0.66558309427370688 -2.4305903616098021 0 0 0 0 -159.6829090809606 -12.314983399162884 0 -12.314983399162884 32.314017991098808 0 0 0 0 -183.77399591143103 20.581504612353456 0 20.581504612353456 -62.777336331142578 0 0 0 0 -111.84573930086412 -67.020305027086579 0 -67.020305027086579 30.948733872821322 0 0 0 0 -72.393596273284857 35.767625267711992 0 35.767625267711992 -26.93953700667771 0 0 0 0 93.156983904300432 27.46895470209347 0 27.46895470209347 -106.45732428600604 0 0 0 0 -93.116770858610835 -16.489291326848615 0 -16.489291326848615 -119.91311068588402 0 0 0 0 0.25920841579906817 -0.75123564388664477 0 -0.75123564388664477 -1.2160791090886676 0 0 0 0 1.1107862534685105 -2.9538665311544512 0 -2.9538665311544512 -24.440952765826466 0 0 0 0 38.358016514474457 98.145000826218165 0 98.145000826218165 -158.68609710101737 0 0 0 0 -71.827088237669159 -102.08417334448313 0 -102.08417334448313 5.1920117971822037 0 0 0 0 -128.98449903181745 -74.657604103471385 0 -74.657604103471385 -107.64622558634437 0 0 0 0 105.81428915478926 -23.364015021429623 0 -23.364015021429623 -34.398127173917601 0 0 0 0 -0.55127417381621835 -1.6677686762867419 0 -1.6677686762867419 -16.921545794178542 0 0 0 0 34.74922693679423 -46.652388264085403 0 -46.652388264085403 21.39741098054219 0 0 0 0 -1.0908322809661017 0.41175160095725261 0 0.41175160095725261 -7.2644247100980976 0 0 0 0 38.140276009060017 -49.91895493753691 0 -49.91895493753691 -15.933037982438691 0 0 0 0 35.347378419469351 -46.25457156642733 0 -46.25457156642733 -15.8198298230418 0 0 0 0 81.290165779358176 -42.27817621442955 0 -42.27817621442955 -29.07355902751442 0 0 0 0 53.681609612379816 3.5405477420717943 0 3.5405477420717943 -15.309446960876812 0 0 0 0 91.278425047534711 -3.7572250660305144 0 -3.7572250660305144 -36.621842313848902 0 0 0 0 18.823420745053227 -32.006477176066255 0 -32.006477176066255 -13.877119929689798 0 0 0 0 24.77781416540779 -44.934838244083949 0 -44.934838244083949 -22.232108858355787 0 0 0 0 12.943165553158678 -34.68477425641322 0 -34.68477425641322 -19.646843719986464 0 0 0 0 18.821050867296435 -38.609447171751526 0 -38.609447171751526 -36.347467113184393 0 0 0 0 -50.712199607682123 -24.586626449796313 0 -24.586626449796313 -12.91829755998333 0 0 0 0 2.4824915339520932 -1.7780735391605162 0 -1.7780735391605162 -1.9324414115162085 0 0 0 0 -9.3057798034053008 -8.2392612684343476 0 -8.2392612684343476 -4.1390669482934754 0 0 0 0 -4.2477075429255819 -6.7415869520264096 0 -6.7415869520264096 -5.4590519661651342 0 0 0 0 0.50499599027283892 -5.1857830588597693 0 -5.1857830588597693 2.7439410585945154 0 0 0 0 -0.19209003883634068 -2.6596383907963173 0 -2.6596383907963173 -8.6595144057573634 0 0 0 0 0.86264510186587495 -0.52267434353892384 0 -0.52267434353892384 -3.0509511475737838 0 0 0 0 -3.041155979404266 -19.917297901254642 0 -19.917297901254642 8.375232683683862 0 0 0 0 -4.3453692086794717 13.191963902952921 0 13.191963902952921 18.718720491538988 0 0 0 0 3.5150828207956337 -0.97166743611578799 0 -0.97166743611578799 -7.0107418253879246 0 0 0 0 -0.28865419481735444 -5.8231508409662638 0 -5.8231508409662638 -14.495144439584692 0 0 0 0 0.99437443944568926 0.68267747859579231 0 0.68267747859579231 -12.074861420640701 0 0 0 0 2.3831456349689688 0.19430245719559025 0 0.19430245719559025 -17.515480914284126 0 0 0 0 2.4509050279091937 -0.39072471509682316 0 -0.39072471509682316 -8.827112130119076 0 0 0 0 -14.277637984072442 -3.189272605071892 0 -3.189272605071892 -4.3371842282867874 0 0 0 0 0.30171409153354034 -4.1886152509068779 0 -4.1886152509068779 -1.6711243965255562 0 0 0 0 -4.0635272214028646 -12.364065294626926 0 -12.364065294626926 -15.164139446031186 0 0 0 0 8.3054483186690504 -10.655644777638372 0 -10.655644777638372 -7.135421966391732 0 0 0 0 20.570270037534797 2.5225607983502414 0 2.5225607983502414 1.1084406212321483 0 0 0 0 13.564957862784809 -11.665906334295869 0 -11.665906334295869 3.5611564841710788 0 0 0 0 10.667463049330877 -6.1949856081882899 0 -6.1949856081882899 -5.4378397294785827 0 0 0 0 17.944201954946948 -4.0045766169405397 0 -4.0045766169405397 -7.4269363099592738 0 0 0 0 2.6145106067174666 -0.86129654435717384 0 -0.86129654435717384 -4.0655208165990189 0 0 0 0 22.850813858194613 -10.06251632693602 0 -10.06251632693602 -7.6300299260328757 0 0 0 0 -0.00051800820912360768 -0.44362476998481348 0 -0.44362476998481348 -3.8833494536961837 0 0 0 0 13.967383708110702 -12.153166912521556 0 -12.153166912521556 -4.0498476833454333 0 0 0 0 -1.5798575510505088 -11.912691299803555 0 -11.912691299803555 -2.5786912331604981 0 0 0 0 6.155920315020353 -10.461804873091751 0 -10.461804873091751 -6.0764555938394551 0 0 0 0 -4.7618753981065538 -5.8734444484580308 0 -5.8734444484580308 -7.478619587564026 0 0 0 0 6.9828436857891916 -5.9670911061257357 0 -5.9670911061257357 -5.7087137666821945 0 0 0 0 -6.283743042427659 -12.962177968991455 0 -12.962177968991455 -4.7474887299649708 0 0 0 0 -1.785972126849515 -6.1785223738261266 0 -6.1785223738261266 -3.7723611853725743 0 0 0 0 7.1971513966375369 -8.0952624734854908 0 -8.0952624734854908 -6.6403562401974341 0 0 0 0 0.73576496329419849 -3.1582523649824452 0 -3.1582523649824452 3.6486771413155168 0 0 0 0 -1.5626405673932631 -0.26867167838385342 0 -0.26867167838385342 1.7074480050500256 0 0 0 0 -55.146758159550373 -61.03683772416025 0 -61.03683772416025 -5.6760772471898235 0 0 0 0 -8.7294391863094916 -22.694781536309165 0 -22.694781536309165 26.226981701824116 0 0 0 0 -122.43568562418022 -32.444272301596357 0 -32.444272301596357 -13.378169699921273 0 0 0 0 0.96722337473945208 -0.20480835415156662 0 -0.20480835415156662 -0.43532304302124203 0 0 0 0 -29.237505045906801 -40.856307316804305 0 -40.856307316804305 -10.583052656525979 0 0 0 0 -33.36962886711126 -69.01651467771444 0 -69.01651467771444 -10.4545436060871 0 0 0 0 -87.09234491381153 -22.189617282092513 0 -22.189617282092513 -0.27267074474366382 0 0 0 0 37.461889826354195 -4.9993744882776809 0 -4.9993744882776809 -4.084816565606161 0 0 0 0 7.838324601118984 6.9122417376347585 0 6.9122417376347585 8.5262441657541785 0 0 0 0 20.036650502267022 -10.401552593015367 0 -10.401552593015367 -4.9101502171397442 0 0 0 0 0.66352760950059775 -0.10670030930880614 0 -0.10670030930880614 -2.1847281244179726 0 0 0 0 -2.7440557711457458 -3.3629292118876037 0 -3.3629292118876037 21.938407022171305 0 0 0 0 0.10239123414388152 -2.1247345885153948 0 -2.1247345885153948 -3.9784573696964571 0 0 0 0 23.695399555372902 -17.036955017676519 0 -17.036955017676519 2.4536997257528128 0 0 0 0 8.8703176734625515 -9.5551719615141337 0 -9.5551719615141337 -3.3174575327720959 0 0 0 0 7.7138629140181081 -11.42857906192512 0 -11.42857906192512 -4.7506524373020511 0 0 0 0 11.705478152144607 -4.7660706100587049 0 -4.7660706100587049 -1.4839471274171956 0 0 0 0 11.290241152486828 -7.2133829262456857 0 -7.2133829262456857 -6.3422884917235933 0 0 0 0 1.1913309263779481 1.0466381450526683 0 1.0466381450526683 -2.7689297862609692 0 0 0 0 22.57142901536389 -14.473315051558529 0 -14.473315051558529 6.8184708931366913 0 0 0 0 15.691689865381168 -23.200392208236735 0 -23.200392208236735 -4.1873101596665947 0 0 0 0 38.132921259205204 -21.508239279955887 0 -21.508239279955887 -4.7475386978330789 0 0 0 0 0.061985784808106154 -33.435270741105342 0 -33.435270741105342 3.1095366432127776 0 0 0 0 15.543242078434327 -22.832967760067731 0 -22.832967760067731 8.0963903028896311 0 0 0 0 12.956380807943582 -11.457258628801355 0 -11.457258628801355 12.411081164580537 0 0 0 0 -0.0033952244843036324 -19.487328160081233 0 -19.487328160081233 11.471334867856058 0 0 0 0 2.7239647600967931 6.7118207909755938 0 6.7118207909755938 -3.5680858079140307 0 0 0 0 15.459596228739901 -20.725034921888437 0 -20.725034921888437 6.1629729839755782 0 0 0 0 0.044699032005978349 0.047325244689261581 0 0.047325244689261581 -0.46965866006394208 0 0 0 0 -2.5167466959287621 -2.8693187206226867 0 -2.8693187206226867 -0.50604798826680053 0 0 0 0 0.023814362492707037 -10.104749634469044 0 -10.104749634469044 12.638266112538986 0 0 0 0 0.02793934472704503 -0.037519493334997378 0 -0.037519493334997378 -0.084818288495824845 0 0 0 0 7.5697706434683596 18.295739159559162 0 18.295739159559162 -224.1007250026305 0 0 0 0 -56.401193258186822 -5.3539067532292393 0 -5.3539067532292393 -176.91948060279537 0 0 0 0 -113.31030875689567 112.23385598696041 0 112.23385598696041 -267.02915987951383 0 0 0 0 -1.1288651730293111 -33.358428807952791 0 -33.358428807952791 -11.882351323749241 0 0 0 0 10.03122529925713 -21.623003895392685 0 -21.623003895392685 -146.52721667007427 0 0 0 0 14.142702433080331 -11.67623328650734 0 -11.67623328650734 -130.0533469389411 0 0 0 0 -2.2052593688935929 1.836817811513356 0 1.836817811513356 -138.0283136752696 0 0 0 0 -8.9124044709200483 -13.957234669120226 0 -13.957234669120226 -95.53478198654193 0 0 0 0 1.2466539030532715 -13.219801034778357 0 -13.219801034778357 -125.16193553735502 0 0 0 0 5.4539026024179975 -9.5190602500042587 0 -9.5190602500042587 -104.92576669045957 0 0 0 0 -2.3995884135758803 -32.745708375287705 0 -32.745708375287705 -18.380216238204156 0 0 0 0 -5.1813825149025803 5.3607774763354428 0 5.3607774763354428 -119.57128169134376 0 0 0 0 -16.045463486983579 9.1476524702575261 0 9.1476524702575261 -143.25346502503089 0 0 0 0 41.791083696350711 -50.034613017993252 0 -50.034613017993252 -224.19898056843522 0 0 0 0 39.81657341673067 -13.470612066717877 0 -13.470612066717877 -256.91289995435363 0 0 0 0 118.36499031346756 83.442106024722307 0 83.442106024722307 -153.6655081433637 0 0 0 0 11.679160063535733 13.870670243602945 0 13.870670243602945 -222.30061867070799 0 0 0 0 -8.3543308136942471 30.299891179207407 0 30.299891179207407 -170.00116623461508 0 0 0 0 -1.361365035517393 -33.713005125165665 0 -33.713005125165665 -11.266060563432291 0 0 0 0 -17.648117161431529 -9.2917555735502901 0 -9.2917555735502901 -108.48070685048151 0 0 0 0 -20.369912672627294 -15.600733874434809 0 -15.600733874434809 -54.133578675042372 0 0 0 0 -24.255353226425314 -32.641999569663312 0 -32.641999569663312 -141.96571667138051 0 0 0 0 2.18730522134328 24.832236724116683 0 24.832236724116683 -71.042808264319319 0 0 0 0 2.148484557787242 27.692948855656141 0 27.692948855656141 -126.98401613469468 0 0 0 0 -8.5450001248683165 -11.907403177545348 0 -11.907403177545348 -104.1213723810215 0 0 0 0 -10.652164763833497 -7.9806216639990453 0 -7.9806216639990453 -45.267417999253666 0 0 0 0 -8.7295674253713855 10.832019318018865 0 10.832019318018865 -83.65931217004254 0 0 0 0 -16.584717741026012 -23.311980841444893 0 -23.311980841444893 -20.321255528404436 0 0 0 0 -4.154576343561132 -20.13518128031501 0 -20.13518128031501 -49.997775295734755 0 0 0 0 -13.464783923461169 -21.802744327174878 0 -21.802744327174878 -55.760278780944645 0 0 0 0 -25.795716380518797 -9.763992612466609 0 -9.763992612466609 -12.966822258007596 0 0 0 0 -1.3937256336447397 -0.072453006073669002 0 -0.072453006073669002 -0.065463687203674681 0 0 0 0 -36.69668797055192 -46.173726133612945 0 -46.173726133612945 -59.17336434518802 0 0 0 0 30.397459469370006 5.7053634413096006 0 5.7053634413096006 -10.695701946657209 0 0 0 0 28.60540609346458 -1.9019190190174413 0 -1.9019190190174413 -16.286615181976231 0 0 0 0 -6.6579708223705154 -2.829194003313205 0 -2.829194003313205 -90.944617438282876 0 0 0 0 35.923477864284678 10.147848140186397 0 10.147848140186397 -11.253172118661041 0 0 0 0 -1.6886086887871274 1.651143495963197 0 1.651143495963197 -3.3592670298248066 0 0 0 0 -26.938114723015701 -24.667124404655624 0 -24.667124404655624 -87.12598062991492 0 0 0 0 -21.298943353681608 -74.069889657524072 0 -74.069889657524072 -197.36710904913343 0 0 0 0 -0.34563340811825327 0.80694980042836306 0 0.80694980042836306 -1.2436367750079285 0 0 0 0 -7.9863286937103339 -84.307815793096779 0 -84.307815793096779 -314.17402791645873 0 0 0 0 -15.54597720697052 75.473474869460915 0 75.473474869460915 12.249839475196495 0 0 0 0 -20.413309460949165 104.82870630070101 0 104.82870630070101 -122.92335162326344 0 0 0 0 -4.139628958154276 27.707722716077114 0 27.707722716077114 -30.654192048299592 0 0 0 0 19.019644800524929 -4.9547869377674942 0 -4.9547869377674942 -1.1174603411564021 0 0 0 0 37.925975296921422 3.5407919186636718 0 3.5407919186636718 -15.945922640312347 0 0 0 0 22.159998559798623 -0.93189959983646986 0 -0.93189959983646986 -21.313875940439175 0 0 0 0 -18.26387522927962 31.05562514774283 0 31.05562514774283 -12.416546600034053 0 0 0 0 -14.194378622333716 31.935991529771854 0 31.935991529771854 -32.063271924357196 0 0 0 0 1.479084357798115 35.266338159352017 0 35.266338159352017 -31.71384968917846 0 0 0 0 -12.497702085058336 2.0148519163412857 0 2.0148519163412857 -29.028781143875904 0 0 0 0 -13.10947297607936 10.970841998618198 0 10.970841998618198 -104.96514819230651 0 0 0 0 18.614279974678198 16.042804980195797 0 16.042804980195797 -149.26591552272293 0 0 0 0 25.326710965747679 96.718285064671363 0 96.718285064671363 -252.10566911932256 0 0 0 0 34.251720686012732 42.126527783140773 0 42.126527783140773 -107.50991794062429 0 0 0 0 -10.341738966441426 48.872165397732715 0 48.872165397732715 -104.17234968069533 0 0 0 0 -84.730434207412827 12.474543019085104 0 12.474543019085104 -34.677261182237999 0 0 0 0 -108.57692914561449 -34.273190778496428 0 -34.273190778496428 -27.214777258166578 0 0 0 0 -22.937290979111822 13.037521865604504 0 13.037521865604504 -40.77872101889443 0 0 0 0 -5.9275068480983206 7.9572012404928643 0 7.9572012404928643 -29.067428117786619 0 0 0 0 5.1206693875152496 13.379517713292444 0 13.379517713292444 -84.62555755583162 0 0 0 0 -3.8236131049397954 -47.947709428641247 0 -47.947709428641247 13.10530497344007 0 0 0 0 -18.141920751460276 -15.678869496888396 0 -15.678869496888396 -10.732021554943671 0 0 0 0 -36.266038618782659 -34.975501661392627 0 -34.975501661392627 -32.702508346777904 0 0 0 0 -236.72259671365282 -131.00132470483732 0 -131.00132470483732 -190.15809630673175 0 0 0 0 -148.28544788768704 117.06036206026329 0 117.06036206026329 -14.37754647411748 0 0 0 0 -35.882919315144591 -94.9942180697617 0 -94.9942180697617 238.60505986705539 0 0 0 0 176.19490337484513 -112.8557345430163 0 -112.8557345430163 -280.98115342960227 0 0 0 0 6.3386589544740426 -12.625739856070311 0 -12.625739856070311 -14.529282892215747 0 0 0 0 112.29482884576191 -260.34675499179866 0 -260.34675499179866 -101.72803506886703 0 0 0 0 65.304252502782219 -99.253115301056823 0 -99.253115301056823 -192.32919528270577 0 0 0 0 0.91271936481144067 -31.633251714563571 0 -31.633251714563571 -12.488835235879012 0 0 0 0 15.290474799016465 -65.524186769729567 0 -65.524186769729567 -36.556703014939558 0 0 0 0 67.298767104115541 -74.935033080546418 0 -74.935033080546418 -57.679645978802 0 0 0 0 -2.073279619437244 -84.165507166515454 0 -84.165507166515454 -56.410207223147154 0 0 0 0 -0.3266464327302856 -74.41308846395259 0 -74.41308846395259 -48.781725092238048 0 0 0 0 30.731605108582052 -61.145721058784375 0 -61.145721058784375 -83.1358309132047 0 0 0 0 30.965266949233538 -55.451017227353304 0 -55.451017227353304 -65.435198882274562 0 0 0 0 51.428966129818946 -32.923629369484843 0 -32.923629369484843 -41.573627900987049 0 0 0 0 73.280714030116087 -49.17742000711587 0 -49.17742000711587 -95.394107061394607 0 0 0 0 0.37271903436120235 -0.69949802647735027 0 -0.69949802647735027 -0.96163410061578247 0 0 0 0 91.573819822208748 -4.7796505545484251 0 -4.7796505545484251 -61.36815829432453 0 0 0 0 -233.79394576555524 -147.31608185032383 0 -147.31608185032383 -99.319117538194405 0 0 0 0 32.051677692207477 -25.183291940689742 0 -25.183291940689742 -127.33235370406328 0 0 0 0 0.072173986184926875 -33.691964218666968 0 -33.691964218666968 -11.70628983309695 0 0 0 0 67.809489224919162 -51.378429384247283 0 -51.378429384247283 -283.43285881726842 0 0 0 0 14.293669331208775 -33.643242516925966 0 -33.643242516925966 -119.91584568592953 0 0 0 0 2.1398332247331382 -44.863638193906809 0 -44.863638193906809 -58.714454367713188 0 0 0 0 27.150379259764804 -77.305712490364385 0 -77.305712490364385 -69.445234129598248 0 0 0 0 6.1548228281749289 -49.447118945663533 0 -49.447118945663533 -96.014962178011046 0 0 0 0 20.453310743611013 -54.702809930714011 0 -54.702809930714011 -107.81943471049453 0 0 0 0 33.651357999109337 -49.991945638757898 0 -49.991945638757898 -110.39311937468665 0 0 0 0 67.21286782457571 -73.444439502196474 0 -73.444439502196474 -102.72928651440452 0 0 0 0 26.756228810516859 -91.704553783969459 0 -91.704553783969459 -108.33259413678024 0 0 0 0 99.961685047890569 -112.31418647900864 0 -112.31418647900864 -103.14366649522344 0 0 0 0 28.977002568660964 -126.11050193836854 0 -126.11050193836854 -95.776268817742675 0 0 0 0 82.969523913485276 -49.468693678659292 0 -49.468693678659292 -123.91371615748358 0 0 0 0 -48.762153329079524 -78.919029705166395 0 -78.919029705166395 -41.000694993213983 0 0 0 0 0.59229339026431127 -1.0036150987843229 0 -1.0036150987843229 -1.8255898150063672 0 0 0 0 14.782830293721418 -35.497126606664096 0 -35.497126606664096 -11.875676210536767 0 0 0 0 30.31390582943402 -102.96530460752729 0 -102.96530460752729 -72.926127342885593 0 0 0 0 17.960561753710635 -87.015681295772083 0 -87.015681295772083 -79.247635336498206 0 0 0 0 30.920096623997551 -133.42650724254418 0 -133.42650724254418 -73.812638438008435 0 0 0 0 -23.887186228846986 -122.8458758385641 0 -122.8458758385641 -71.954371789186553 0 0 0 0 -46.711802139467181 -74.444153036827629 0 -74.444153036827629 -45.777370425897971 0 0 0 0 -108.15831891409084 -97.661700881177239 0 -97.661700881177239 -51.101892752340063 0 0 0 0 -99.464012843079672 -144.51502438613534 0 -144.51502438613534 -47.961205236762908 0 0 0 0 -117.64590296948529 -89.553334683785579 0 -89.553334683785579 -19.533124369918369 0 0 0 0 -4.4347326394134825 -149.15884817274946 0 -149.15884817274946 -76.273552175349323 0 0 0 0 -174.56980203080775 -50.556241295656946 0 -50.556241295656946 -90.602945950318826 0 0 0 0 119.51843545525594 -100.77573018556541 0 -100.77573018556541 -114.19007657079783 0 0 0 0 173.63125248068633 -55.696180071257913 0 -55.696180071257913 -126.0562038320495 0 0 0 0 151.38634276302719 -155.79419777570729 0 -155.79419777570729 -95.784110464424884 0 0 0 0 148.15575728172871 -198.37352836185164 0 -198.37352836185164 -43.141594197593804 0 0 0 0 -2.4794512443888834 -156.75690297207711 0 -156.75690297207711 -47.625061357350205 0 0 0 0 157.07131998321438 -218.43926321061372 0 -218.43926321061372 -1.8493162296508672 0 0 0 0 248.96521071644844 31.348037492805815 0 31.348037492805815 -98.478723158114008 0 0 0 0 345.51338922007449 -113.71514927218959 0 -113.71514927218959 -113.56305001878354 0 0 0 0 146.99856531212868 -7.8936859373825428 0 -7.8936859373825428 -83.443858510254358 0 0 0 0 2.5895791701899498 13.272277027441305 0 13.272277027441305 -37.857516196672805 0 0 0 0 114.96037906974152 33.915801386996463 0 33.915801386996463 -57.957073539866542 0 0 0 0 12.767150638604107 2.8286506710473986 0 2.8286506710473986 -40.316657455725363 0 0 0 0 104.07552698415429 -36.736729912958253 0 -36.736729912958253 -24.713394638147292 0 0 0 0 115.17073223872467 -18.621012551418971 0 -18.621012551418971 -78.443608146462793 0 0 0 0 -0.98553054794231287 0.33619456491079802 0 0.33619456491079802 1.9259021577178146 0 0 0 0 10.133505196813203 9.1830144520245085 0 9.1830144520245085 -130.19503067221376 0 0 0 0 -20.112602928837134 62.963386045514198 0 62.963386045514198 -138.18211596822948 0 0 0 0 23.2594385978663 -1.7846675936398242 0 -1.7846675936398242 -121.04796813273424 0 0 0 0 44.014917496589362 -36.601236335312933 0 -36.601236335312933 -118.78655621327925 0 0 0 0 19.457061556634187 24.697986032231711 0 24.697986032231711 -81.297022478582221 0 0 0 0 3.31043296216329 5.7161338939804409 0 5.7161338939804409 -109.98884744518364 0 0 0 0 6.0988165843876345 -1.5045025786639599 0 -1.5045025786639599 -91.616489181855286 0 0 0 0 -0.31049389181896625 15.336265070788265 0 15.336265070788265 -73.958391089656345 0 0 0 0 13.100859720614608 39.542138741104282 0 39.542138741104282 -71.638217011028246 0 0 0 0 1.4887133212785768 12.921279430619855 0 12.921279430619855 -79.645902989000064 0 0 0 0 48.728049145270234 -0.79977353537651652 0 -0.79977353537651652 -118.63545208375581 0 0 0 0 -9.8687861266390655 -11.069699143704383 0 -11.069699143704383 -88.254113787937968 0 0 0 0 10.103705710001812 13.53159749810402 0 13.53159749810402 -65.77471066966973 0 0 0 0 0.79568736489807412 3.345434518768684 0 3.345434518768684 -14.625339076350656 0 0 0 0 8.518679449544095 28.583960983605721 0 28.583960983605721 -96.945851444586879 0 0 0 0 8.6224471042897655 5.9461666255622703 0 5.9461666255622703 -44.315052344092123 0 0 0 0 -17.206556625775846 -3.3428686900624598 0 -3.3428686900624598 -51.7329727245924 0 0 0 0 9.3904330719592508 4.7488866748171858 0 4.7488866748171858 -40.336817762887222 0 0 0 0 7.606477303644624 -14.906545473353617 0 -14.906545473353617 -65.270301704724261 0 0 0 0 6.5852400967959728 -0.38781578811359907 0 -0.38781578811359907 -20.982950490156469 0 0 0 0 2.6858941275064598 -6.0606054392842026 0 -6.0606054392842026 -45.411832621146516 0 0 0 0 7.7843583137583572 -17.123193058279639 0 -17.123193058279639 -53.347738674136053 0 0 0 0 49.338389612405081 -33.653159768182377 0 -33.653159768182377 -56.209194825614759 0 0 0 0 -6.943210190017238 6.7275065603800499 0 6.7275065603800499 -15.206191716166529 0 0 0 0 13.727313749329369 33.764683722461996 0 33.764683722461996 -52.004355270462838 0 0 0 0 10.766794131304444 -15.484907216523055 0 -15.484907216523055 -26.021012880998683 0 0 0 0 191.98560101542284 -137.90735800394759 0 -137.90735800394759 -40.73007159084591 0 0 0 0 20.733430713182312 -83.421816112195074 0 -83.421816112195074 -3.8351233104185667 0 0 0 0 21.412106444012807 8.4120957554914639 0 8.4120957554914639 -84.436608518182766 0 0 0 0 56.952106231996368 -40.559682462542696 0 -40.559682462542696 -95.443944407612435 0 0 0 0 196.88450583699705 184.716362412546 0 184.716362412546 8.2311259494799742 0 0 0 0 -7.1173382283264335 5.0444925675268024 0 5.0444925675268024 -2.8613494907203005 0 0 0 0 -24.743438021893155 -79.811012363737973 0 -79.811012363737973 -197.32816175953849 0 0 0 0 13.694865223304049 -44.610748132232402 0 -44.610748132232402 -138.5660235328105 0 0 0 0 -1.0110700477036971 -4.1526381839939859 0 -4.1526381839939859 -118.11263305419743 0 0 0 0 -859.98432000729258 524.3972007060438 0 524.3972007060438 38.745074217000365 0 0 0 0 -63.172063641121895 -106.25104609035407 0 -106.25104609035407 -40.60869538121915 0 0 0 0 1.3215958387301623 -1.0884036514223112 0 -1.0884036514223112 1.2845476220328322 0 0 0 0 -140.98517211760515 -67.621193869199487 0 -67.621193869199487 30.677448131638812 0 0 0 0 208.352097408075 -292.42077855993557 0 -292.42077855993557 -574.33827637785271 0 0 0 0 -183.35779234091524 266.52921128908201 0 266.52921128908201 367.75353362467649 0 0 0 0 -96.953235878981047 127.40793531191594 0 127.40793531191594 322.43352206242707 0 0 0 0 211.55628489669317 101.37971027698904 0 101.37971027698904 -163.07672561072104 0 0 0 0 177.89479589396319 331.92533273608569 0 331.92533273608569 -514.12763317265035 0 0 0 0 -142.69137908227802 382.89366025644631 0 382.89366025644631 0.67093545033276314 0 0 0 0 -319.54941391328009 -413.17283307698926 0 -413.17283307698926 -325.39500485806639 0 0 0 0 -133.32607887844608 333.50829178267304 0 333.50829178267304 249.44367450884602 0 0 0 0 421.95564608793757 -218.32773046526199 0 -218.32773046526199 -657.05853974957427 0 0 0 0 -2.1314409915395416 4.2726728523742707 0 4.2726728523742707 -9.5173991840506744 0 0 0 0 -8.3430211572326698 -311.5287901824704 0 -311.5287901824704 -383.5231708131214 0 0 0 0 -213.91790078602889 288.1285428233823 0 288.1285428233823 382.70883688988397 0 0 0 0 -203.08986130458402 284.20664482908614 0 284.20664482908614 384.1275674180215 0 0 0 0 -3.002668451733892 1.8059391393184612 0 1.8059391393184612 -1.1095391407525454 0 0 0 0 -54.217614424992362 -38.629713410904515 0 -38.629713410904515 -198.01466104176507 0 0 0 0 -209.54648427387519 261.70903487819305 0 261.70903487819305 370.53191376489849 0 0 0 0 -16.53977917502948 -33.930704008816974 0 -33.930704008816974 -526.68255357453745 0 0 0 0 -54.693474819070246 88.313173903334246 0 88.313173903334246 -187.90433953432512 0 0 0 0 -117.65788306092878 77.277036777821195 0 77.277036777821195 -92.94699841018155 0 0 0 0 -97.668384023727526 10.459368136158446 0 10.459368136158446 -59.932464691148198 0 0 0 0 328.29397036616211 180.4715515216858 0 180.4715515216858 -121.55473804334906 0 0 0 0 -36.030758418468082 2.2785520211068615 0 2.2785520211068615 27.641083344249637 0 0 0 0 -151.80290892570792 184.05133991297407 0 184.05133991297407 -138.89240715353662 0 0 0 0 -44.737859848388098 40.780650892163976 0 40.780650892163976 -52.633382689404243 0 0 0 0 9.5432631602035656 -23.686257648842002 0 -23.686257648842002 -85.177162326552207 0 0 0 0 83.408355623978537 52.734352418967319 0 52.734352418967319 -114.02043102577136 0 0 0 0 -25.083536265118283 12.456471969446284 0 12.456471969446284 -135.2609800218579 0 0 0 0 28.111555373147894 8.5341129699481826 0 8.5341129699481826 -169.67821325553814 0 0 0 0 -31.024418804068176 46.611727427538426 0 46.611727427538426 -134.83485078793456 0 0 0 0 -30.087961559171212 37.291040148778848 0 37.291040148778848 -55.564784960602992 0 0 0 0 17.96705565536476 22.193622364722614 0 22.193622364722614 -41.529928181953437 0 0 0 0 2.4483850962014313 10.243952751360411 0 10.243952751360411 -73.785359516666063 0 0 0 0 66.708845768157062 68.36157388198626 0 68.36157388198626 -86.141354721716198 0 0 0 0 27.208506992246527 54.667361972860817 0 54.667361972860817 23.162393190679722 0 0 0 0 1.5732284698223618 -1.9294308345410229 0 -1.9294308345410229 -15.501296866397865 0 0 0 0 -125.8571725383251 24.499043163330498 0 24.499043163330498 -50.729892945397296 0 0 0 0 -118.97998424536274 -184.0465600995667 0 -184.0465600995667 -300.42081186570431 0 0 0 0 -0.95365263744246842 -7.7347915613765394 0 -7.7347915613765394 -8.5005116238282028 0 0 0 0 161.98053382822525 -68.035981078683108 0 -68.035981078683108 -361.31917685517692 0 0 0 0 116.73034172320918 67.015248061892635 0 67.015248061892635 -323.25022556265321 0 0 0 0 -39.291129363541216 171.86773574547624 0 171.86773574547624 -156.94771006620431 0 0 0 0 19.953862342137825 132.75175576086622 0 132.75175576086622 -296.83037491695723 0 0 0 0 30.821032478102694 77.927991603432019 0 77.927991603432019 -104.17222718949779 0 0 0 0 -56.347199350054041 61.937714684212551 0 61.937714684212551 -107.10461752937408 0 0 0 0 -57.390492060283009 75.133956828165537 0 75.133956828165537 14.743614502309356 0 0 0 0 36.762935479987931 48.109315470594083 0 48.109315470594083 -77.023659105900151 0 0 0 0 -98.14481013874672 39.509988089019316 0 39.509988089019316 -42.902770719607361 0 0 0 0 -66.399603461053118 51.084116347821691 0 51.084116347821691 -40.916897705660631 0 0 0 0 -55.105151740850772 -1.8577663171263339 0 -1.8577663171263339 -41.231505583600665 0 0 0 0 -70.396939864920228 32.052592419509892 0 32.052592419509892 -89.283816924136772 0 0 0 0 -9.1292016958268505 9.9685868112937897 0 9.9685868112937897 -72.157181908252824 0 0 0 0 44.238697096879605 -47.232946960813933 0 -47.232946960813933 -26.615569833567861 0 0 0 0 -7.544326645233923 -27.238955062253808 0 -27.238955062253808 -69.298893519513967 0 0 0 0 42.706084559960118 -32.252325339930394 0 -32.252325339930394 -128.72554683325143 0 0 0 0 10.180823610706966 -42.900009081149619 0 -42.900009081149619 -157.68557590470391 0 0 0 0 8.2015155245635185 -34.301830544852692 0 -34.301830544852692 -123.67012529404747 0 0 0 0 -47.800529341576635 11.182235401032813 0 11.182235401032813 -88.059228275868691 0 0 0 0 -19.972209478984496 -5.9095095752709312 0 -5.9095095752709312 -241.67240878917801 0 0 0 0 -28.835809852634043 12.246422634078044 0 12.246422634078044 -141.70435837101832 0 0 0 0 152.69699757533996 -31.872727464393392 0 -31.872727464393392 -240.86995053091596 0 0 0 0 -2.1857645136190058 -22.414870632133898 0 -22.414870632133898 -33.111234536467236 0 0 0 0 0.93885876429499149 -21.191101508399697 0 -21.191101508399697 -37.177708140778122 0 0 0 0 -1.9188698906300106 -2.6065119446022749 0 -2.6065119446022749 3.8291694027836627 0 0 0 0 -2.8593925876576938 -18.26372560241218 0 -18.26372560241218 -2.2284042649220428 0 0 0 0 -61.349504190179061 -75.890359481101768 0 -75.890359481101768 -61.817399069368548 0 0 0 0 -2.270009243093682 -25.059490990985068 0 -25.059490990985068 -36.79657740271432 0 0 0 0 -2.3052609463020133 -21.432157694879592 0 -21.432157694879592 -40.972046157832665 0 0 0 0 -8.7379592216716446 -21.075265012554155 0 -21.075265012554155 -40.44274633605346 0 0 0 0 -0.41462358074545591 -15.255071279871117 0 -15.255071279871117 -39.883552466228139 0 0 0 0 0.92326843499859024 -22.488327419581765 0 -22.488327419581765 -42.843897835013195 0 0 0 0 -2.8722249902095167 -14.297938378063268 0 -14.297938378063268 -26.262390992590468 0 0 0 0 1.4856378112582433 -22.948307467277118 0 -22.948307467277118 -31.606950782612785 0 0 0 0 -7.1064894538404246 -18.93024856928605 0 -18.93024856928605 -12.730070736040943 0 0 0 0 14.905099875428732 -9.2485648110778129 0 -9.2485648110778129 -43.042083543972694 0 0 0 0 -274.52940756141345 -1.1357762670049851 0 -1.1357762670049851 -91.875198149882635 0 0 0 0 7.299060462798252 -14.701415626419475 0 -14.701415626419475 -35.270525048603304 0 0 0 0 -7.3420049165833348 -6.7099285713375139 0 -6.7099285713375139 -37.384375411602377 0 0 0 0 1.7498137810615098 -1.026499016764987 0 -1.026499016764987 -4.2117394113988453 0 0 0 0 17.734895767383961 -18.449633683492266 0 -18.449633683492266 -40.696594143257244 0 0 0 0 -44.844988569551788 -8.3009464827737247 0 -8.3009464827737247 -60.312287743978231 0 0 0 0 -50.306577905690574 -3.5204270629164967 0 -3.5204270629164967 -58.941235961515304 0 0 0 0 -25.85595070602152 -0.34487667594417815 0 -0.34487667594417815 -18.422826691211881 0 0 0 0 -44.208174188145335 -22.101622544238353 0 -22.101622544238353 -42.589963427919429 0 0 0 0 -18.40322370222998 -12.425751161546632 0 -12.425751161546632 -29.476948329060185 0 0 0 0 -20.429627362298788 -10.610059300755893 0 -10.610059300755893 -54.398259959179995 0 0 0 0 -8.3932140441870615 1.99271554975725 0 1.99271554975725 -33.776206333837649 0 0 0 0 -17.998793180290136 -5.0953003541453654 0 -5.0953003541453654 -43.911122600826957 0 0 0 0 -21.581038436612232 0.36824173155901008 0 0.36824173155901008 -62.593709337368637 0 0 0 0 -6.9262058894448728 -9.1025581490393961 0 -9.1025581490393961 -49.471081004913685 0 0 0 0 -27.289760624903465 -12.136792674329627 0 -12.136792674329627 -49.581075533997137 0 0 0 0 -6.1281560939878545 -24.600570047734436 0 -24.600570047734436 -41.626115680632211 0 0 0 0 -7.4097418161500173 -15.024676009852556 0 -15.024676009852556 -54.279184848172008 0 0 0 0 -2.9272299305577683 -18.532329125180873 0 -18.532329125180873 3.3557189255663644 0 0 0 0 -9.0715687219276333 -21.972227712361928 0 -21.972227712361928 -31.286854231500911 0 0 0 0 41.768284028217067 -37.000000018771971 0 -37.000000018771971 -148.26111491387383 0 0 0 0 51.794393728578825 15.666893445308233 0 15.666893445308233 -110.99871712855384 0 0 0 0 -2.6645225970566413 -15.249682764263305 0 -15.249682764263305 -7.0246046087386862 0 0 0 0 -22.429673441034311 -6.1101127395204458 0 -6.1101127395204458 -34.796635875372885 0 0 0 0 -10.557200348982496 20.106637923423435 0 20.106637923423435 -49.500509496043819 0 0 0 0 -38.441800386539398 7.1825913988777756 0 7.1825913988777756 -66.03334652070771 0 0 0 0 -3.9549958751561007 -40.967544544997509 0 -40.967544544997509 -90.027271752333036 0 0 0 0 21.292383394111539 7.8958512834615249 0 7.8958512834615249 -46.517331118629954 0 0 0 0 -6.5212006974326737 16.93686166244316 0 16.93686166244316 -37.939057505557798 0 0 0 0 161.29874738954686 46.505081948416773 0 46.505081948416773 -65.001055613853168 0 0 0 0 -49.332330516679576 -9.2526060518794111 0 -9.2526060518794111 -59.978468242308736 0 0 0 0 -44.958700275553952 -15.088802964135539 0 -15.088802964135539 -90.56445609367438 0 0 0 0 -42.657468073349719 -11.100681021609489 0 -11.100681021609489 -106.72951222186384 0 0 0 0 -48.229333992732336 -15.885593565493764 0 -15.885593565493764 -86.979203142152983 0 0 0 0 -41.004980345308354 -2.943609180604426 0 -2.943609180604426 -64.022051186086173 0 0 0 0 -52.316297168135861 -2.9720065263027209 0 -2.9720065263027209 -62.73522539150872 0 0 0 0 -53.114495632438775 0.58545751395104162 0 0.58545751395104162 -60.981811546123936 0 0 0 0 -47.502360292060075 -6.3889888146168232 0 -6.3889888146168232 -85.813217829290807 0 0 0 0 -49.987668517709608 -9.3798609822079015 0 -9.3798609822079015 -85.289492212868026 0 0 0 0 -52.600189902300372 -14.435086116260209 0 -14.435086116260209 -105.36323714242826 0 0 0 0 -2.5086527579125502 30.393700487435908 0 30.393700487435908 -62.055344114849248 0 0 0 0 -48.954563149787646 -28.815151005845792 0 -28.815151005845792 -120.45636237226427 0 0 0 0 -32.289932154688358 -131.63428991551109 0 -131.63428991551109 -356.36172512661778 0 0 0 0 -6.1923393366780992 36.1596598946497 0 36.1596598946497 -59.099904863147231 0 0 0 0 -33.718706535374622 -21.361742366607359 0 -21.361742366607359 -125.56957129697003 0 0 0 0 -180.69429839908457 -282.98198739181078 0 -282.98198739181078 -256.64674914826901 0 0 0 0 -76.155619543370449 -109.84637766159767 0 -109.84637766159767 -339.86775362228582 0 0 0 0 -4.1411260067186921 11.192599660559914 0 11.192599660559914 -26.354420962085882 0 0 0 0 -47.511953541330968 -34.75574343707558 0 -34.75574343707558 -89.522739578340293 0 0 0 0 -33.75706757502212 -24.29064772187121 0 -24.29064772187121 -146.56633478947333 0 0 0 0 -76.817263827944544 -87.840489177215204 0 -87.840489177215204 -166.03561909862037 0 0 0 0 -77.255019724349268 -73.795912623558252 0 -73.795912623558252 -133.23962785027106 0 0 0 0 -112.20481116324754 -43.963478758076235 0 -43.963478758076235 -145.65845863420873 0 0 0 0 -80.485377164105785 19.192986301883138 0 19.192986301883138 -66.956731728329032 0 0 0 0 -11.794927771030871 -99.744532548693314 0 -99.744532548693314 -211.10663959512021 0 0 0 0 44.176744758248788 -26.11004440004217 0 -26.11004440004217 -193.35425806465355 0 0 0 0 -1785.6913747267281 645.95647341751646 0 645.95647341751646 -451.47437456149896 0 0 0 0 -10.143792401829529 39.030350911093485 0 39.030350911093485 -61.879754707197165 0 0 0 0 27.829085131590887 28.605050740692604 0 28.605050740692604 -105.47222608589072 0 0 0 0 -36.522909520588655 -246.98131912642157 0 -246.98131912642157 -845.2938909245895 0 0 0 0 -6.4921552762108821 -7.0371569883531322 0 -7.0371569883531322 -8.1431471989399995 0 0 0 0 -118.46163361457275 369.94806368349691 0 369.94806368349691 -756.70086536696544 0 0 0 0 -1104.3071265923445 -277.05831718955687 0 -277.05831718955687 147.60503426266132 0 0 0 0 -799.26395202448884 -1881.5461655005768 0 -1881.5461655005768 148.31361100350114 0 0 0 0 68.586884354389554 218.30471969011523 0 218.30471969011523 -122.16030736683024 0 0 0 0 -4.8342561710330578 35.550741251237525 0 35.550741251237525 -58.885946324418398 0 0 0 0 296.54324826911215 -379.75301032743664 0 -379.75301032743664 -215.83250675873455 0 0 0 0 2.6073979095041437 0.58592459025378929 0 0.58592459025378929 -0.015065152929184755 0 0 0 0 -87.172741971584855 -170.72083201917508 0 -170.72083201917508 -146.66807745754704 0 0 0 0 -40.03867792771598 -215.39350956897033 0 -215.39350956897033 -136.83374588585775 0 0 0 0 88.212962529411925 -260.11919011439113 0 -260.11919011439113 -263.50475035152431 0 0 0 0 73.659341536002103 147.78778674397381 0 147.78778674397381 -575.3724214573067 0 0 0 0 -63.020540136662021 205.23561088086194 0 205.23561088086194 -324.74261490821482 0 0 0 0 76.738199306084425 126.67823348289994 0 126.67823348289994 -437.00656823475583 0 0 0 0 -270.7150255421252 -76.370749804141951 0 -76.370749804141951 149.49068176286528 0 0 0 0 145.00770392324193 2.2984602421647651 0 2.2984602421647651 -440.17309058794763 0 0 0 0 53.345532085125342 -10.360155732663316 0 -10.360155732663316 -137.44373302424356 0 0 0 0 25.603624849962216 -140.26298007147761 0 -140.26298007147761 -223.6258930425156 0 0 0 0 -134.36593652323427 -9.0659726258395494 0 -9.0659726258395494 131.5486238801077 0 0 0 0 11.150178305765003 3.0514186956481666 0 3.0514186956481666 2.4797944620023085 0 0 0 0 72.569024856563601 -52.01316564282979 0 -52.01316564282979 -97.022172976190632 0 0 0 0 96.260076735987241 71.423916012582595 0 71.423916012582595 -21.486803552232686 0 0 0 0 134.81108133911403 90.953294308994373 0 90.953294308994373 -39.039860045561909 0 0 0 0 23.18213518094953 9.6845350007097704 0 9.6845350007097704 -9.5672886374067954 0 0 0 0 60.820232020276308 68.021266400204695 0 68.021266400204695 -15.019418203934492 0 0 0 0 89.858908198606514 121.54233929172028 0 121.54233929172028 -25.520011937049276 0 0 0 0 194.00478934077728 108.24987835939874 0 108.24987835939874 -140.84087548519983 0 0 0 0 248.11722712817209 -41.272299996031961 0 -41.272299996031961 25.423703134498055 0 0 0 0 -69.179464265469505 145.86746814508797 0 145.86746814508797 16.479710619384605 0 0 0 0 -45.128968525023993 17.575933826132314 0 17.575933826132314 -13.156921295393659 0 0 0 0 -452.19649468784155 -79.925994600969034 0 -79.925994600969034 13.03420059640581 0 0 0 0 -230.92800402231478 424.69394128917907 0 424.69394128917907 -329.25563598310328 0 0 0 0 -0.68694781194608368 77.445279868408761 0 77.445279868408761 -18.284594899230797 0 0 0 0 616.94400434920135 137.70848758357624 0 137.70848758357624 -259.89385355150807 0 0 0 0 0.038652315439155593 -3.2852229826384622 0 -3.2852229826384622 -68.141114036472374 0 0 0 0 292.81854897255471 399.13718034173303 0 399.13718034173303 -197.41971150444533 0 0 0 0 85.770410902721778 -350.9450576543112 0 -350.9450576543112 4.3521769389643339 0 0 0 0 37.402943065591899 -107.07338919937399 0 -107.07338919937399 -119.02686916706853 0 0 0 0 -372.1609220989958 -573.67232190546304 0 -573.67232190546304 -552.88960738140509 0 0 0 0 26.4911142560195 -43.987933072075066 0 -43.987933072075066 -583.39429680199783 0 0 0 0 -7.0922102587874534 -1.6686044532738009 0 -1.6686044532738009 -8.4748130095160086 0 0 0 0 -77.316478980104876 133.88484375003554 0 133.88484375003554 -393.08869141728337 0 0 0 0 69.667400396439916 -41.772830445365116 0 -41.772830445365116 -378.20158675782659 0 0 0 0 -126.53494649012282 -109.39662866080835 0 -109.39662866080835 -336.93467016468639 0 0 0 0 14.891277015807646 -97.247098168999401 0 -97.247098168999401 -296.90150684184891 0 0 0 0 -7.7985508414749702 6.2505305158112332 0 6.2505305158112332 16.917868194835926 0 0 0 0 -33.007127991482776 -102.00076379734492 0 -102.00076379734492 -412.99931940074021 0 0 0 0 -15.725969081198855 -171.60235812627889 0 -171.60235812627889 -367.83236822656363 0 0 0 0 -69.419356739930663 -157.1571318046158 0 -157.1571318046158 -223.70078904137699 0 0 0 0 -58.233429594886729 -130.94872227240648 0 -130.94872227240648 -216.9633022531616 0 0 0 0 -145.16192677984145 -288.08245401618274 0 -288.08245401618274 -486.59037039570012 0 0 0 0 37.043529319333174 63.192449708840286 0 63.192449708840286 -176.7310556421221 0 0 0 0 48.458793949749861 -12.080198834410567 0 -12.080198834410567 -164.92072477589318 0 0 0 0 43.786937731001672 41.861744557954808 0 41.861744557954808 -97.734952157664338 0 0 0 0 173.64747790773527 -58.287134924014026 0 -58.287134924014026 -125.38808598226024 0 0 0 0 77.438914590251443 -79.844589655615891 0 -79.844589655615891 -15.3264148163762 0 0 0 0 53.012020399362882 13.245732038390997 0 13.245732038390997 -117.37184224282282 0 0 0 0 97.176816868915012 -40.008810502785309 0 -40.008810502785309 -98.939652030639991 0 0 0 0 49.815040398349083 29.678982089353667 0 29.678982089353667 -111.58041138508906 0 0 0 0 75.697933982581162 -34.958813998835467 0 -34.958813998835467 -58.75583269528579 0 0 0 0 78.890697825916504 6.4659748527174088 0 6.4659748527174088 -96.873240919376258 0 0 0 0 71.44905651877707 -5.2423643780020939 0 -5.2423643780020939 -31.511605513882387 0 0 0 0 106.39098347716936 -31.198211136550526 0 -31.198211136550526 -57.940186849948077 0 0 0 0 84.861051284668065 -48.93588336645189 0 -48.93588336645189 -39.449833713311818 0 0 0 0 79.886186711077244 -59.010668628454368 0 -59.010668628454368 -61.219964778971189 0 0 0 0 84.014647831781986 -50.641010511757486 0 -50.641010511757486 -44.252411078232399 0 0 0 0 91.713611207196664 3.5677703937471961 0 3.5677703937471961 -15.221026730598624 0 0 0 0 87.719338240640354 -32.789021854077873 0 -32.789021854077873 -41.793034346097556 0 0 0 0 5.5305562054335216 -2.7039049381334337 0 -2.7039049381334337 -67.412550233000019 0 0 0 0 64.266712101940357 -47.265156826248131 0 -47.265156826248131 -36.571340177459206 0 0 0 0 6.0522220583893125 -4.9590586951520343 0 -4.9590586951520343 -37.551574705898865 0 0 0 0 38.181738176732324 -23.816116057636464 0 -23.816116057636464 -27.197773887746735 0 0 0 0 124.14903770964293 -49.084342144218795 0 -49.084342144218795 -157.65555933989526 0 0 0 0 82.307612536998931 -46.521896585280047 0 -46.521896585280047 -51.42085480321839 0 0 0 0 71.753913414024282 -18.350804484383843 0 -18.350804484383843 -41.084087764633296 0 0 0 0 109.76392539833614 -18.768631868253578 0 -18.768631868253578 -42.755992608530505 0 0 0 0 49.540536973512644 -38.198587195782238 0 -38.198587195782238 -37.454947579826694 0 0 0 0 72.971562716996459 5.0989511815007518 0 5.0989511815007518 -36.662868230836466 0 0 0 0 -206.62137762496786 -87.448513073130925 0 -87.448513073130925 451.03285187382062 0 0 0 0 -0.44735582431173704 1.5885518213275063 0 1.5885518213275063 -22.079543263865645 0 0 0 0 161.30669517102797 0.77698101887654047 0 0.77698101887654047 -50.1704822088941 0 0 0 0 135.54733390417823 14.378577923671401 0 14.378577923671401 -38.947240476471052 0 0 0 0 94.08779810355918 12.163072958224802 0 12.163072958224802 -34.429659224741044 0 0 0 0 113.00118918744556 -14.097639753999829 0 -14.097639753999829 -37.839855601705494 0 0 0 0 128.25719832205505 -20.351835307221336 0 -20.351835307221336 -45.509177138621453 0 0 0 0 106.67711856626556 -33.743081780685316 0 -33.743081780685316 -46.563747871914529 0 0 0 0 105.66048076156949 -34.540164209829527 0 -34.540164209829527 -39.880254818373942 0 0 0 0 128.13770160380227 -23.507297138101421 0 -23.507297138101421 -33.582339331267576 0 0 0 0 131.75632891095302 -31.230460961298377 0 -31.230460961298377 -45.262543658624054 0 0 0 0 154.58162765316956 -24.386963528348133 0 -24.386963528348133 -40.228529954256373 0 0 0 0 133.20100786358671 -14.069449417373107 0 -14.069449417373107 -39.315009966296202 0 0 0 0 155.55037845781771 -17.530367194842256 0 -17.530367194842256 -29.69154357885418 0 0 0 0 144.56102484570874 -36.977280758615962 0 -36.977280758615962 -28.653796623519156 0 0 0 0 143.70187544666987 -28.121109874431568 0 -28.121109874431568 -19.36584529758693 0 0 0 0 172.58915876195533 -25.829036568960873 0 -25.829036568960873 -33.85490802465938 0 0 0 0 110.43080618976455 -43.621849119792387 0 -43.621849119792387 -20.172677366485004 0 0 0 0 136.92852195400337 -46.005740942811826 0 -46.005740942811826 -24.42661680051242 0 0 0 0 93.349677002617682 -8.1091537244610663 0 -8.1091537244610663 -5.3209257875532785 0 0 0 0 161.1330880932328 -13.523153071735578 0 -13.523153071735578 -7.1150405171065358 0 0 0 0 161.55849209839653 -40.142587354042917 0 -40.142587354042917 -12.114837588131195 0 0 0 0 132.80496340834361 -26.556656230211956 0 -26.556656230211956 31.303975364520738 0 0 0 0 191.31569125730311 -38.075857354604523 0 -38.075857354604523 -14.256599988257221 0 0 0 0 182.99538965513784 4.7520231717244314 0 4.7520231717244314 6.5554669178382028 0 0 0 0 167.91647066958103 -11.213541561426609 0 -11.213541561426609 -38.529553091721027 0 0 0 0 -0.96318426127982093 151.24288911958502 0 151.24288911958502 -204.82430473682325 0 0 0 0 80.701372672601792 98.60760318676148 0 98.60760318676148 -130.72815720953804 0 0 0 0 272.88006179716263 -38.058615764889851 0 -38.058615764889851 -387.72333064989652 0 0 0 0 -0.28392198028919191 0.59451526952949862 0 0.59451526952949862 -6.3104764779848779 0 0 0 0 0.053122686926677432 -0.29652897722159821 0 -0.29652897722159821 -14.78682029651813 0 0 0 0 370.23059033788195 -40.482274873655115 0 -40.482274873655115 -12.57928774060565 0 0 0 0 315.72196057977999 -100.35303621869389 0 -100.35303621869389 77.602354813250713 0 0 0 0 312.84063475187577 15.308905253623379 0 15.308905253623379 -0.3145246068124834 0 0 0 0 192.5945872109296 -52.709938541869633 0 -52.709938541869633 31.510771114917588 0 0 0 0 120.32718237071094 -23.311976861099538 0 -23.311976861099538 79.202454353522626 0 0 0 0 158.80751759115083 -19.27190191099362 0 -19.27190191099362 39.60310858853336 0 0 0 0 315.72196057977271 -100.35303621871572 0 -100.35303621871572 77.602354813308921 0 0 0 0 95.511583581614104 29.38446827489679 0 29.38446827489679 -0.23955301581008825 0 0 0 0 131.79172291013037 -38.081798121506381 0 -38.081798121506381 14.746006875298917 0 0 0 0 91.122210821437648 79.952889804391248 0 79.952889804391248 -67.52244192676153 0 0 0 0 93.062845990563801 43.293471033190144 0 43.293471033190144 14.706757599691628 0 0 0 0 115.16531597961148 14.878432995101321 0 14.878432995101321 94.108882801418076 0 0 0 0 111.70021895131504 -39.439605232619215 0 -39.439605232619215 156.89516795009695 0 0 0 0 315.72196057986002 -100.35303621867206 0 -100.35303621867206 77.602354813308921 0 0 0 0 150.45072227911442 3.3532018981786678 0 3.3532018981786678 34.382335622467508 0 0 0 0 82.61916357598966 75.004133742462727 0 75.004133742462727 31.995829350111308 0 0 0 0 69.050036202970659 53.159131861102651 0 53.159131861102651 60.751830014298321 0 0 0 0 86.689488541858736 110.57593337626895 0 110.57593337626895 -57.791147204628942 0 0 0 0 84.351411010487936 66.347889893790125 0 66.347889893790125 14.678534749968094 0 0 0 0 100.14283665865514 62.642929191250005 0 62.642929191250005 -37.056376011052635 0 0 0 0 99.839245514300273 83.466565249858832 0 83.466565249858832 -140.55344110088481 0 0 0 0 78.56768762815409 109.85003085270364 0 109.85003085270364 -149.55270910589024 0 0 0 0 -502.08634758784137 -531.46865803923629 0 -531.46865803923629 628.07218895077312 0 0 0 0 473.39173097397907 347.90099304429168 0 347.90099304429168 -722.04401239115032 0 0 0 0 27.237233998115698 -84.156718780905067 0 -84.156718780905067 -422.21108989791628 0 0 0 0 119.4751441237604 119.69624645072145 0 119.69624645072145 -313.90555885129652 0 0 0 0 93.0645732879766 125.70317049507412 0 125.70317049507412 -251.96571393385238 0 0 0 0 83.865280524871196 101.8475055468225 0 101.8475055468225 -238.51255380827115 0 0 0 0 94.832320726418402 82.406684663081251 0 82.406684663081251 -262.19730388375683 0 0 0 0 68.65186371915479 98.133385394745346 0 98.133385394745346 -171.53497707925999 0 0 0 0 66.383742171283302 6.424319910262966 0 6.424319910262966 -212.64230251123081 0 0 0 0 45.427727390961081 40.060200533371244 0 40.060200533371244 -257.40532076307863 0 0 0 0 60.016093477714094 63.875042921380555 0 63.875042921380555 -222.64138219076995 0 0 0 0 65.335095482158067 71.024245060470548 0 71.024245060470548 -176.96343334025005 0 0 0 0 60.645017554327296 94.810442586124736 0 94.810442586124736 -179.55875150008796 0 0 0 0 60.833857948469813 101.02693312018164 0 101.02693312018164 -128.53770243085819 0 0 0 0 85.298510358519707 86.847792443291837 0 86.847792443291837 -169.55372026949499 0 0 0 0 70.35055937918878 88.888718893853365 0 88.888718893853365 -60.549299395999697 0 0 0 0 74.379733220281196 42.82561887621705 0 42.82561887621705 -98.125472870433441 0 0 0 0 81.2174149512648 19.506718821867253 0 19.506718821867253 -3.4202628169950913 0 0 0 0 59.700654645614122 55.219965281792611 0 55.219965281792611 -46.08930276674073 0 0 0 0 92.942931348849925 -12.993966078614903 0 -12.993966078614903 -37.771698071876017 0 0 0 0 51.60168668928236 64.21842853383896 0 64.21842853383896 -103.13616139709484 0 0 0 0 45.934162122568523 73.471886955845548 0 73.471886955845548 -172.01746612695752 0 0 0 0 64.063428251447476 18.617173085940522 0 18.617173085940522 -142.70207673735058 0 0 0 0 45.331440113888675 63.530971993281128 0 63.530971993281128 -187.0146535996937 0 0 0 0 61.230938068438263 52.740693940724668 0 52.740693940724668 -158.63280951185516 0 0 0 0 56.253634789758507 74.161937258677426 0 74.161937258677426 -213.18458350040601 0 0 0 0 36.724859932484833 78.919332618866974 0 78.919332618866974 -214.13888229685926 0 0 0 0 43.470258581991402 88.15425673964728 0 88.15425673964728 -217.67896245522206 0 0 0 0 35.037302826878658 88.858697531761209 0 88.858697531761209 -213.70453572906263 0 0 0 0 50.483407180224731 92.608501088452613 0 92.608501088452613 -213.86108849233642 0 0 0 0 -11.486952436584033 127.5944293746652 0 127.5944293746652 -208.46763958139491 0 0 0 0 36.018069102934987 97.738201183778415 0 97.738201183778415 -240.29755944257704 0 0 0 0 10.683166782037006 83.276531221343248 0 83.276531221343248 -215.54366188750464 0 0 0 0 38.690030993230039 86.128557981742688 0 86.128557981742688 -221.35583933020825 0 0 0 0 7.8350184932860429 47.165398049806754 0 47.165398049806754 -184.76511281753483 0 0 0 0 -50.849903087849498 100.77841093330278 0 100.77841093330278 -123.32212657065975 0 0 0 0 -11.313075622145334 95.053607495955475 0 95.053607495955475 -184.16523867463002 0 0 0 0 5.7026563498457108 101.05785089635992 0 101.05785089635992 -182.75127881665685 0 0 0 0 4.8560543752337253 96.075951661629006 0 96.075951661629006 -212.06570608994298 0 0 0 0 21.484306809770715 77.219212054162199 0 77.219212054162199 -190.80025505383674 0 0 0 0 -15.851884372721543 69.607488043087869 0 69.607488043087869 -189.09553262855661 0 0 0 0 -8.6318436108790593 86.600557522205008 0 86.600557522205008 -161.25584683013403 0 0 0 0 -13.62758715138807 38.803550323494164 0 38.803550323494164 -153.75919477250147 0 0 0 0 -48.241334927106436 67.182747565298996 0 67.182747565298996 -167.96692346034706 0 0 0 0 -13.967358828844226 59.428027263897093 0 59.428027263897093 -171.11507602709753 0 0 0 0 -11.866271393668285 45.588528005882836 0 45.588528005882836 -187.01451470177017 0 0 0 0 2.4993729966608953 51.093338400010907 0 51.093338400010907 -224.70385149004869 0 0 0 0 -60.407728136407968 -23.842131972911375 0 -23.842131972911375 -219.69895385239579 0 0 0 0 -77.470344658400791 -32.564415503491546 0 -32.564415503491546 -22.831353859952287 0 0 0 0 -43.415903961518779 -93.038308997527565 0 -93.038308997527565 -142.39504825474614 0 0 0 0 -48.333575414697407 68.153709348017401 0 68.153709348017401 -177.66806475553676 0 0 0 0 -125.6667839074853 152.8373573441595 0 152.8373573441595 -137.65208683437049 0 0 0 0 -163.05761715776134 111.21913213058542 0 111.21913213058542 -25.286324388653156 0 0 0 0 1083.7579864542095 1195.2775591822783 0 1195.2775591822783 -774.09638684377205 0 0 0 0 -64.044651178704953 151.02156437892791 0 151.02156437892791 -472.78730598821676 0 0 0 0 -64.152926267089242 110.38570218921041 0 110.38570218921041 -228.06300412156997 0 0 0 0 -86.955556546581647 -82.507487873632272 0 -82.507487873632272 -193.6138893502939 0 0 0 0 -4.5713429009791717 -5.0019457897338597 0 -5.0019457897338597 3.58206575071533 0 0 0 0 -55.220009965323698 -104.13828869011468 0 -104.13828869011468 -401.2866066850861 0 0 0 0 -53.89133333128288 13.823028980652051 0 13.823028980652051 -14.143822849706734 0 0 0 0 -64.578688486236842 -9.6526624682287547 0 -9.6526624682287547 -49.224966058422069 0 0 0 0 -55.367617483928598 -3.8662174205146584 0 -3.8662174205146584 -83.682499723874571 0 0 0 0 -64.205499009754021 -8.0947460474417312 0 -8.0947460474417312 -61.052916213040589 0 0 0 0 -79.5112455369906 5.1683868128602626 0 5.1683868128602626 -82.811949781357725 0 0 0 0 -62.836512983305965 -10.510262378713378 0 -10.510262378713378 -106.39795386530022 0 0 0 0 -65.558295211711993 -23.364617999654001 0 -23.364617999654001 -59.4931961399908 0 0 0 0 -37.048343072091029 -7.4973548087527888 0 -7.4973548087527888 -59.049911526111828 0 0 0 0 -96.560869418452086 -35.555753625277021 0 -35.555753625277021 -63.368122974552534 0 0 0 0 -56.923481716614333 12.245599245745325 0 12.245599245745325 5.2660371304941691 0 0 0 0 0.59568228711978577 4.2141029441747211 0 4.2141029441747211 -0.57111311616041216 0 0 0 0 -14.069380682323775 10.745282224870827 0 10.745282224870827 -14.792982582017522 0 0 0 0 -29.186428836692357 5.538721569030713 0 5.538721569030713 -30.698585651494795 0 0 0 0 -45.10795380198941 13.215025261743335 0 13.215025261743335 -7.0815253978157582 0 0 0 0 -110.50670617193106 58.162747889930415 0 58.162747889930415 -14.218725132635882 0 0 0 0 -42.366336907060195 76.488600612388581 0 76.488600612388581 -27.63945799981957 0 0 0 0 -5.6000433950181927 10.015972526101317 0 10.015972526101317 -1.9962182359646192 0 0 0 0 -54.63394569689396 -38.197688192018632 0 -38.197688192018632 -76.871912400439442 0 0 0 0 -32.993540814615244 -17.915093495051224 0 -17.915093495051224 -146.42518809120156 0 0 0 0 -19.353863441558588 -1.8830717873070171 0 -1.8830717873070171 -139.85325552029826 0 0 0 0 -14.111910038340284 49.003669249486848 0 49.003669249486848 -212.23097222657725 0 0 0 0 -17.990740273820848 4.3624165269229707 0 4.3624165269229707 -225.23092316980728 0 0 0 0 -58.738420502835652 -87.600633489304528 0 -87.600633489304528 -165.49327792269469 0 0 0 0 -74.092120466397319 -32.159106929741029 0 -32.159106929741029 3.4061253189622676 0 0 0 0 -10.356509716122673 -17.163518009801919 0 -17.163518009801919 -389.89259292394672 0 0 0 0 -16.592478348128679 50.260454329732056 0 50.260454329732056 -128.79775507429349 0 0 0 0 -22.539586952665335 -8.0887770957721834 0 -8.0887770957721834 -7.0428168651922123 0 0 0 0 37.71076072035271 -75.074693691249422 0 -75.074693691249422 -107.83131360427433 0 0 0 0 59.975311638531821 -30.199475238930972 0 -30.199475238930972 -20.264691838543968 0 0 0 0 -45.516325440190485 -1.3994428499759124 0 -1.3994428499759124 -95.466429844528648 0 0 0 0 -1.991018779449405 -19.80047237697363 0 -19.80047237697363 -8.5842819078534376 0 0 0 0 -121.31695322901805 -77.692537184519551 0 -77.692537184519551 124.61397386764111 0 0 0 0 -17.555120881232142 33.582264092001424 0 33.582264092001424 -105.96093447462522 0 0 0 0 -38.102003723762209 39.000963426489761 0 39.000963426489761 -65.132038111961265 0 0 0 0 -15.301444791549521 -9.4392802508070588 0 -9.4392802508070588 -3.2592249099599755 0 0 0 0 -6.3189859562113959 11.924791894068392 0 11.924791894068392 -42.245907161565462 0 0 0 0 -29.105469258079893 -6.5619862209005078 0 -6.5619862209005078 -54.527885545849131 0 0 0 0 -2.1709981846579467 44.505329144839379 0 44.505329144839379 -241.79506997125827 0 0 0 0 -1.3215199177198436 -0.4385836179787912 0 -0.4385836179787912 -14.714267620814582 0 0 0 0 -36.034178203975898 -1.8807571912930143 0 -1.8807571912930143 -95.672252796099201 0 0 0 0 -12.86202756132468 -18.955305249593501 0 -18.955305249593501 -51.990411601249562 0 0 0 0 -51.256423073488804 -10.817861376004657 0 -10.817861376004657 -97.299103471930721 0 0 0 0 -39.975544390198593 -8.675411623880791 0 -8.675411623880791 -118.6486305376784 0 0 0 0 3.2499411919565659 15.413086365926816 0 15.413086365926816 -47.204744543435375 0 0 0 0 -7.7533142587338872 4.0339069042373712 0 4.0339069042373712 -25.585706043945951 0 0 0 0 -296.76342250805465 -43.839586065225376 0 -43.839586065225376 -55.46221597053443 0 0 0 0 -12.924943460704526 -10.829322755274916 0 -10.829322755274916 -29.754046874018968 0 0 0 0 -78.945595159122604 147.30688611137884 0 147.30688611137884 -101.24815470386829 0 0 0 0 -44.773156701916378 -62.241279877813213 0 -62.241279877813213 -67.043094789788938 0 0 0 0 -572.62228256395974 8.222330604214676 0 8.222330604214676 10.708619840836718 0 0 0 0 -8.2300482846136074 28.80202824156115 0 28.80202824156115 -82.116899886229561 0 0 0 0 -226.89170822458982 -44.154019229137248 0 -44.154019229137248 -57.881876955441157 0 0 0 0 -119.63365117629291 -340.46567240569584 0 -340.46567240569584 -192.3930826165863 0 0 0 0 -407.13560366272577 -173.13334487538151 0 -173.13334487538151 -33.826104870216795 0 0 0 0 0.75084433377990489 -2.6810184269223711 0 -2.6810184269223711 -51.582680983866204 0 0 0 0 165.19481050113882 -35.638558310980216 0 -35.638558310980216 -66.193774826618892 0 0 0 0 529.42404526407699 -200.973495129024 0 -200.973495129024 -251.93994942659106 0 0 0 0 -0.58970532948307275 -1.5606860142746761 0 -1.5606860142746761 -18.436362581958132 0 0 0 0 -140.14809695160875 -196.57869155365006 0 -196.57869155365006 -13.122642354892605 0 0 0 0 -128.27590900836367 -256.79289906916347 0 -256.79289906916347 -80.622116385433401 0 0 0 0 -207.43424654614864 -181.23312520015725 0 -181.23312520015725 -34.014528617699852 0 0 0 0 -107.37323530106187 -188.84339436795267 0 -188.84339436795267 -160.63901816532052 0 0 0 0 -122.73527876396838 -287.85594656503645 0 -287.85594656503645 -169.42328265463277 0 0 0 0 2.0149713041371662 1.2372027987809417 0 1.2372027987809417 -3.772599455153884 0 0 0 0 -68.355015920986489 -235.17387908482988 0 -235.17387908482988 177.94532937610984 0 0 0 0 -40.950893636329148 9.0390986017181696 0 9.0390986017181696 -12.950742960273757 0 0 0 0 757.66941061351827 247.85742035883686 0 247.85742035883686 -444.81817054111616 0 0 0 0 -33.1966197104598 -1.2733678785457414 0 -1.2733678785457414 -74.390607797523444 0 0 0 0 -22.456703610032683 25.941995670305808 0 25.941995670305808 -42.256514018320473 0 0 0 0 -1535.7600726361125 2.6182224409749324 0 2.6182224409749324 33.485397841873692 0 0 0 0 -346.84761760172387 640.21064640601116 0 640.21064640601116 392.68476837181151 0 0 0 0 -520.25689985538702 -661.99629411445949 0 -661.99629411445949 -252.82358516360546 0 0 0 0 722.55618750995382 -886.95434186075067 0 -886.95434186075067 -599.5987224849523 0 0 0 0 -24.921847381806735 26.542587525063404 0 26.542587525063404 -43.169177337463339 0 0 0 0 -54.928404319058018 0.59587578544551434 0 0.59587578544551434 -58.113044015190553 0 0 0 0 -55.384602302682197 42.830183417459693 0 42.830183417459693 -18.240929834420967 0 0 0 0 -59.089929374817075 30.154739797734692 0 30.154739797734692 -36.9742540875759 0 0 0 0 -56.57412170023872 25.770345803091914 0 25.770345803091914 -43.276932410517475 0 0 0 0 -72.89519054133234 7.382842509287002 0 7.382842509287002 -40.601296547280526 0 0 0 0 -33.18576464790749 9.9706804776778881 0 9.9706804776778881 -40.510871524119239 0 0 0 0 -42.665785519056953 -1.5081764577380454 0 -1.5081764577380454 -55.157428682065984 0 0 0 0 -36.857089571448398 2.1471585940261591 0 2.1471585940261591 -6.5230590636442178 0 0 0 0 -29.873208180518077 -4.2153534729836792 0 -4.2153534729836792 -65.472651224341462 0 0 0 0 -19.610104948517908 -20.696152562738781 0 -20.696152562738781 -37.089458350862344 0 0 0 0 -49.055924345580024 -6.4465344847694723 0 -6.4465344847694723 -39.63432253441897 0 0 0 0 -55.227425961463268 -9.2017081194690036 0 -9.2017081194690036 -31.05119102360004 0 0 0 0 -66.461412565186038 -10.494317395219696 0 -10.494317395219696 -49.257115077528397 0 0 0 0 -64.891652118047205 -15.947438692759533 0 -15.947438692759533 -44.993143445486567 0 0 0 0 -73.515834493055991 -17.957852733086838 0 -17.957852733086838 -57.025871682097204 0 0 0 0 -123.76943401264907 -5.61567714433113 0 -5.61567714433113 -59.494399781749962 0 0 0 0 -83.855528079016949 -65.236484304112764 0 -65.236484304112764 -66.717610063100437 0 0 0 0 -76.263163012776658 15.586297699389434 0 15.586297699389434 -59.2756624001413 0 0 0 0 -91.668605148035567 0.18880514127113202 0 0.18880514127113202 -44.81127558411572 0 0 0 0 -59.187492369797837 3.7065533641027741 0 3.7065533641027741 -44.430376839662131 0 0 0 0 -82.707919833132109 10.291361202529515 0 10.291361202529515 -38.652770043107921 0 0 0 0 -63.56977601581093 26.088643807377139 0 26.088643807377139 -30.813438739538469 0 0 0 0 -54.382041436174404 16.900165820718939 0 16.900165820718939 -17.565536211390281 0 0 0 0 -69.075864925865062 31.833385124749839 0 31.833385124749839 -32.706750910681876 0 0 0 0 0.5603765179093898 35.085801402358811 0 35.085801402358811 -40.685959422336964 0 0 0 0 -84.369470061043103 22.527566526861847 0 22.527566526861847 -66.503659459689516 0 0 0 0 -61.981968669018443 6.9138023058276303 0 6.9138023058276303 -59.145137603194598 0 0 0 0 -73.726321707275019 44.536462870971945 0 44.536462870971945 -28.748364186645631 0 0 0 0 -104.00065881348746 -0.34339790066042042 0 -0.34339790066042042 -66.205909268333016 0 0 0 0 -82.987381923650446 27.638028274393491 0 27.638028274393491 -91.268601788320666 0 0 0 0 -69.946945821444388 52.681111796980986 0 52.681111796980986 -70.652232556964009 0 0 0 0 -73.590385152204362 1.0045243853610373 0 1.0045243853610373 -118.14859551027075 0 0 0 0 -70.044152989497093 56.267908225592862 0 56.267908225592862 -159.83955101906759 0 0 0 0 0.28499711583664933 -0.0082673645455244582 0 -0.0082673645455244582 -0.1984196837371428 0 0 0 0 -81.432315733096061 59.673769359735445 0 59.673769359735445 -65.804692469320798 0 0 0 0 -67.816008675428748 108.21462412885376 0 108.21462412885376 -99.084423866686848 0 0 0 0 -14.957607849351916 38.312065393911325 0 38.312065393911325 -39.081514815634364 0 0 0 0 -85.544107040407823 104.93914749923056 0 104.93914749923056 -74.124292885811883 0 0 0 0 -163.18014515313644 77.644575218140744 0 77.644575218140744 -72.902808882943646 0 0 0 0 -139.61166615463844 -31.17769868105006 0 -31.17769868105006 -7.6718107478554884 0 0 0 0 -174.43899548171089 0.78810583365896036 0 0.78810583365896036 -36.557881374961653 0 0 0 0 -88.543180365737044 5.3614275500385702 0 5.3614275500385702 -17.563929108244338 0 0 0 0 -4.0324387185874606 -0.3392182112737423 0 -0.3392182112737423 -1.7785116781732526 0 0 0 0 -131.38579078055864 -27.42045222049228 0 -27.42045222049228 -17.421537418305888 0 0 0 0 1.0217192449370103 0.072899130545465596 0 0.072899130545465596 -2.9926232496656553 0 0 0 0 -96.442152266270568 -9.2373278293307521 0 -9.2373278293307521 -56.078013737162109 0 0 0 0 -103.05197421419052 -28.481923592726616 0 -28.481923592726616 -100.03574123232465 0 0 0 0 -169.08276780410205 -339.36239518170385 0 -339.36239518170385 23.891927130211116 0 0 0 0 -223.58926262478184 32.194483732162496 0 32.194483732162496 -177.15714613161799 0 0 0 0 127.64720877062928 88.732848085660407 0 88.732848085660407 -487.75510852153093 0 0 0 0 105.04056192073256 198.1434872152218 0 198.1434872152218 17.032366406001529 0 0 0 0 -216.93359675123295 -153.81979814009401 0 -153.81979814009401 -81.425695391280897 0 0 0 0 -5.8903208915037322 8.1502054252339118 0 8.1502054252339118 -9.4663893610278116 0 0 0 0 -10.241190744759308 11.688557560275967 0 11.688557560275967 -181.21591422816346 0 0 0 0 -43.203054135295815 -13.09807932381409 0 -13.09807932381409 -166.76241120202985 0 0 0 0 -47.259636109284656 -42.719021394778792 0 -42.719021394778792 -190.47270486981324 0 0 0 0 -48.301004308116433 -52.307110258751436 0 -52.307110258751436 -108.79819068345842 0 0 0 0 27.180497251875636 85.883070940865252 0 85.883070940865252 -105.79792939313484 0 0 0 0 -15.166944785877263 20.651171439025802 0 20.651171439025802 -92.138398555089339 0 0 0 0 23.960855535181508 85.6588983434076 0 85.6588983434076 -82.877512951617973 0 0 0 0 -18.257301905965988 34.560616685502822 0 34.560616685502822 -54.399542908602186 0 0 0 0 -58.683826068981972 -15.107336421333002 0 -15.107336421333002 -67.95161709225431 0 0 0 0 -53.802514434548954 -21.610821141524411 0 -21.610821141524411 -100.30028825225281 0 0 0 0 -47.792592981011282 -39.338154299473217 0 -39.338154299473217 -63.331761611645561 0 0 0 0 -55.713238935795999 -22.173828186090986 0 -22.173828186090986 -71.039671143857049 0 0 0 0 -84.662188406831092 -12.055222688857612 0 -12.055222688857612 -74.377934382680905 0 0 0 0 -17.624691362596483 32.44260810902972 0 32.44260810902972 -49.526773565696544 0 0 0 0 -63.622126622500673 -8.7663843388065743 0 -8.7663843388065743 -76.295345181477387 0 0 0 0 -7.9672803224475501 97.279933985559182 0 97.279933985559182 -12.864188669624127 0 0 0 0 -68.00365485057614 -5.4770743064368617 0 -5.4770743064368617 -77.154973933920701 0 0 0 0 30.066109482300817 18.251754029139192 0 18.251754029139192 -121.30213016540438 0 0 0 0 -61.402070475029177 42.044360301928464 0 42.044360301928464 6.7413852173144733 0 0 0 0 -114.68822561113848 57.333546386942544 0 57.333546386942544 -89.40062763206879 0 0 0 0 -34.56969231653602 30.295322913650125 0 30.295322913650125 -80.276274204796209 0 0 0 0 -0.73401741679182564 -0.11582796454521826 0 -0.11582796454521826 -3.8100279518955276 0 0 0 0 7.437288525103213 10.400525493505484 0 10.400525493505484 -247.234369939717 0 0 0 0 -41.535219179035039 -0.32309740193113612 0 -0.32309740193113612 -16.316396892625562 0 0 0 0 -1.9779519609942326 64.351485406754364 0 64.351485406754364 -234.23259842850894 0 0 0 0 -7.601115001089056 65.67827125381973 0 65.67827125381973 -175.41138113188208 0 0 0 0 0.86789940048465297 1.2074237483020269 0 1.2074237483020269 -4.3906401339565022 0 0 0 0 -2.0065527041588211 24.036681605204649 0 24.036681605204649 -65.215086826425249 0 0 0 0 -15.393875183301134 34.96048824987156 0 34.96048824987156 -64.811630535768927 0 0 0 0 10.217834921029862 24.222167096075282 0 24.222167096075282 -70.419217212971489 0 0 0 0 2.6977287807876564 25.968635138358877 0 25.968635138358877 -65.660382690559345 0 0 0 0 0.53887730854694382 22.781455828404432 0 22.781455828404432 -70.290910973184509 0 0 0 0 -6.6203799733266351 20.023979181307368 0 20.023979181307368 -64.006832859487986 0 0 0 0 -5.4149361731415411 14.448606982555248 0 14.448606982555248 -62.190394188564824 0 0 0 0 -1.082662451070739 7.9246606771793076 0 7.9246606771793076 -21.053372734696207 0 0 0 0 -6.1913651784780086 18.353473851830131 0 18.353473851830131 -57.923842529286048 0 0 0 0 2.3829860665646265 19.471853838524112 0 19.471853838524112 -64.832874302328491 0 0 0 0 -2.671905401361073 13.336353003141994 0 13.336353003141994 -69.739006733783754 0 0 0 0 9.1470739564501855 15.154589853291327 0 15.154589853291327 -71.216717736358987 0 0 0 0 -9.0507401431195831 7.8764916974587322 0 7.8764916974587322 -71.5144630053328 0 0 0 0 5.4192159456053126 8.0194076790815814 0 8.0194076790815814 -32.869237626055323 0 0 0 0 -0.67154353651439536 14.485106688555254 0 14.485106688555254 -40.567292196278473 0 0 0 0 -3.213574735606926 10.755414660987299 0 10.755414660987299 -44.584227467491473 0 0 0 0 -0.89774806962850562 15.141200209668114 0 15.141200209668114 -46.623016442032167 0 0 0 0 6.568263564229941 -0.78797536930085421 0 -0.78797536930085421 -33.964750158739136 0 0 0 0 0.023365975687459795 7.5448671854291334 0 7.5448671854291334 -26.884109467600901 0 0 0 0 -7.3357477366353123 -8.0428603226209816 0 -8.0428603226209816 -178.15400358127954 0 0 0 0 -0.25063177669815317 -0.37786786080488532 0 -0.37786786080488532 -19.492016500923356 0 0 0 0 -8.6517917147539265 0.11956714140978875 0 0.11956714140978875 -30.435958389951338 0 0 0 0 3.1132534284952271 -1.013649666630954 0 -1.013649666630954 -20.019329561586346 0 0 0 0 5.075865614831045 -4.4738072892436378 0 -4.4738072892436378 -8.5071041927377706 0 0 0 0 12.113848952007174 -15.852100088717634 0 -15.852100088717634 -197.21729834827056 0 0 0 0 16.090308056158847 10.355454320820172 0 10.355454320820172 -44.08444280828553 0 0 0 0 -1.4217589092699567 6.3926945513714983 0 6.3926945513714983 -13.274538446700776 0 0 0 0 69.321600406447033 -79.370723697087669 0 -79.370723697087669 -30.132970950349772 0 0 0 0 -10.115696450241103 41.132802425035152 0 41.132802425035152 4.85920558576845 0 0 0 0 89.034060548614434 104.06706319852674 0 104.06706319852674 -34.002322232880033 0 0 0 0 179.32111226028792 -26.042708919057532 0 -26.042708919057532 -57.93119537721941 0 0 0 0 0.51580997053376487 4.7408971024072368 0 4.7408971024072368 -5.2376803317301839 0 0 0 0 -3.4831310921208569 12.161840699271579 0 12.161840699271579 -40.87596257671612 0 0 0 0 -0.68023166375928668 13.511051462768901 0 13.511051462768901 -40.16142836908115 0 0 0 0 0.57774364483335594 3.7363282338164487 0 3.7363282338164487 -29.718567261681827 0 0 0 0 8.6418415457919764 11.843033099070453 0 11.843033099070453 -29.559763017536625 0 0 0 0 0.25726742790629942 13.009261742299714 0 13.009261742299714 -43.121063723818907 0 0 0 0 5.4856694824266015 7.9215287786437329 0 7.9215287786437329 -42.02235987512455 0 0 0 0 -10.065497960057389 13.150756424766003 0 13.150756424766003 -36.590681866238441 0 0 0 0 -31.359268093827779 -8.8356003952649189 0 -8.8356003952649189 -48.911641221958234 0 0 0 0 13.284508822929865 -26.515031562320928 0 -26.515031562320928 7.8036760495469935 0 0 0 0 4.1631160892278674 -2.1815057952691239 0 -2.1815057952691239 -6.9858709181326191 0 0 0 0 36.912768707736859 -23.846526871656351 0 -23.846526871656351 -98.552271458783252 0 0 0 0 -4.7954038754112505 3.0626193295022475 0 3.0626193295022475 -7.2784652665087846 0 0 0 0 -44.035828397427622 113.84470286844135 0 113.84470286844135 -2.1106311822859425 0 0 0 0 63.098250323781031 62.404316581537387 0 62.404316581537387 -35.227457324075658 0 0 0 0 2.2967613316591269 82.817931287088868 0 82.817931287088868 18.540911838114027 0 0 0 0 -64.404908781410541 102.12272394901447 0 102.12272394901447 -15.225062158214541 0 0 0 0 -35.637836733759286 103.15764392000665 0 103.15764392000665 -15.269829526319882 0 0 0 0 17.856783719174018 -87.095299197173517 0 -87.095299197173517 -445.0934776917511 0 0 0 0 -31.938189505160153 158.41872516181002 0 158.41872516181002 -130.70148510766012 0 0 0 0 -55.153906214505696 -347.7897487629034 0 -347.7897487629034 -486.82275828074489 0 0 0 0 24.959870759209934 -32.699547278221871 0 -32.699547278221871 -199.08443005954041 0 0 0 0 103.08819393342424 52.000121320479593 0 52.000121320479593 -118.15744047696899 0 0 0 0 16.051314735855158 -52.247369451190025 0 -52.247369451190025 -80.198301691290908 0 0 0 0 -6.6358138353925824 -182.14963977429761 0 -182.14963977429761 -147.26072842378198 0 0 0 0 38.100210695053875 -19.459487127259308 0 -19.459487127259308 -236.01820913755546 0 0 0 0 -47.240971763984362 -280.22006042646899 0 -280.22006042646899 -337.26721764992544 0 0 0 0 23.585602656218811 -120.2172537840525 0 -120.2172537840525 -344.51846848306377 0 0 0 0 131.50168030900554 62.055246528758232 0 62.055246528758232 -36.54659829915272 0 0 0 0 -3.2884645992391857 7.9656153610323761 0 7.9656153610323761 -15.78324983687644 0 0 0 0 -26.711657343692877 -32.379877514164946 0 -32.379877514164946 -62.43963653697665 0 0 0 0 102.81974833564271 -52.294854438697712 0 -52.294854438697712 -34.466361700264315 0 0 0 0 -10.402136955926977 -67.006838173820142 0 -67.006838173820142 -56.285920878313846 0 0 0 0 27.892247386024394 20.5212742977792 0 20.5212742977792 -86.667367327313514 0 0 0 0 25.584929652759456 -8.8243693372751295 0 -8.8243693372751295 -12.970375929433658 0 0 0 0 -3.9764350914978501 9.1652946279266292 0 9.1652946279266292 -29.628034756293626 0 0 0 0 -9.9787663782899472 -4.96661299261973 0 -4.96661299261973 -44.748998967236901 0 0 0 0 33.377935220330414 9.9991389356428044 0 9.9991389356428044 -74.318346966923855 0 0 0 0 -25.290267274231155 -26.053907063165752 0 -26.053907063165752 -68.59329516636808 0 0 0 0 -12.219021440126198 -7.293907284535095 0 -7.293907284535095 -44.411788919542971 0 0 0 0 32.328438186325002 -5.5380998547716445 0 -5.5380998547716445 -60.601671658811028 0 0 0 0 1.0674454661410167 -11.808110220732075 0 -11.808110220732075 -51.735013002866687 0 0 0 0 -5.6505797023182822 -4.8981928165168256 0 -4.8981928165168256 -82.232549791629935 0 0 0 0 -8.4925874507043773 18.658353061162416 0 18.658353061162416 -68.094649711182683 0 0 0 0 -3.134550603598818 -2.1575457677609489 0 -2.1575457677609489 -42.872882278747056 0 0 0 0 -6.7172810614169975 10.963192693424844 0 10.963192693424844 -63.733743984470493 0 0 0 0 21.874185380072959 -4.029655109914529 0 -4.029655109914529 -59.021232348168269 0 0 0 0 30.293120417612954 27.86873876543541 0 27.86873876543541 -74.147283167039859 0 0 0 0 34.635812729471581 26.396687194388051 0 26.396687194388051 -76.563971568757552 0 0 0 0 12.03373533902959 25.752352918056204 0 25.752352918056204 -74.50772515967401 0 0 0 0 17.666383545223653 41.335601372746169 0 41.335601372746169 -63.700318200246329 0 0 0 0 -5.8379475903147977 59.500051755007007 0 59.500051755007007 -77.243027250857267 0 0 0 0 40.586130316380604 50.069275961574476 0 50.069275961574476 -81.871210875564429 0 0 0 0 51.103599191773355 31.027785720668362 0 31.027785720668362 -45.567518428411859 0 0 0 0 65.774962433911242 52.99995135955669 0 52.99995135955669 -81.797514080841211 0 0 0 0 78.425434440301615 29.44189090949294 0 29.44189090949294 -74.667701747256615 0 0 0 0 43.338393189753333 -47.459986886001388 0 -47.459986886001388 -59.886091243941337 0 0 0 0 127.51982523112747 35.061618711848496 0 35.061618711848496 41.314630178636435 0 0 0 0 6.9066878596368255 -5.228189544830304 0 -5.228189544830304 -11.494840339665529 0 0 0 0 115.4983896850681 -5.914805065447581 0 -5.914805065447581 -47.744502115305295 0 0 0 0 81.793179548618355 47.638092771918309 0 47.638092771918309 -70.017438415103243 0 0 0 0 105.09103032464918 -13.608585096180832 0 -13.608585096180832 -28.60505479935091 0 0 0 0 1.4190309083978399 6.1689949354478308 0 6.1689949354478308 -3.713777012248535 0 0 0 0 217.19936904342103 -85.431884109923885 0 -85.431884109923885 -49.757924067851491 0 0 0 0 -15.253215793987692 62.042842446126997 0 62.042842446126997 -80.003151061013341 0 0 0 0 245.77370632641941 -6.0673128417911357 0 -6.0673128417911357 -130.39753674707754 0 0 0 0 -17.058830619205764 65.911861173008219 0 65.911861173008219 -123.70518842179445 0 0 0 0 -38.95508845310178 41.855077780241118 0 41.855077780241118 -96.27258884634648 0 0 0 0 -19.861060516111138 86.963982269781127 0 86.963982269781127 -156.50085539192514 0 0 0 0 205.43007709878202 90.884012739984428 0 90.884012739984428 -121.73323024348065 0 0 0 0 167.54754296732972 -86.526495846003854 0 -86.526495846003854 28.754706674160843 0 0 0 0 -82.376589188821526 78.25597230810672 0 78.25597230810672 -73.901733958573459 0 0 0 0 337.75648557973727 98.482522606721432 0 98.482522606721432 -238.61783850687789 0 0 0 0 108.07831396079382 111.03381794054803 0 111.03381794054803 -207.93833669260493 0 0 0 0 149.56639640130015 78.945268662790113 0 78.945268662790113 -194.90891214815201 0 0 0 0 75.304735492332838 24.79699360138693 0 24.79699360138693 -90.589190113892982 0 0 0 0 -34.593814591717091 116.02547647646861 0 116.02547647646861 -165.7123170347113 0 0 0 0 -68.445432945282846 113.61144316714399 0 113.61144316714399 -144.04851400438929 0 0 0 0 56.291492397336697 -25.618464767801925 0 -25.618464767801925 -209.12798644092618 0 0 0 0 16.982466428734369 35.633392978855227 0 35.633392978855227 -22.679993601426759 0 0 0 0 -0.38591278251154648 1.1579384734923721 0 1.1579384734923721 -9.1517439175931621 0 0 0 0 51.521112742662808 29.122255714144558 0 29.122255714144558 -219.26245715713776 0 0 0 0 42.96639784848594 -27.871475239157007 0 -27.871475239157007 -157.73776127968631 0 0 0 0 1.1303609845776919 94.799789481949119 0 94.799789481949119 -67.364946339639573 0 0 0 0 3.7747053937037016 16.824771281430898 0 16.824771281430898 -62.739478658644195 0 0 0 0 15.526089229214449 -4.6447182482966127 0 -4.6447182482966127 -82.334024278579932 0 0 0 0 -15.036752806239747 44.109712237283929 0 44.109712237283929 -40.95916650709114 0 0 0 0 10.752120033975871 -18.857848038781867 0 -18.857848038781867 -95.862582361857676 0 0 0 0 23.634357763639358 -51.265393337337784 0 -51.265393337337784 -183.92353436640406 0 0 0 0 25.752636727002937 -1.4173232575167276 0 -1.4173232575167276 -78.531685639930402 0 0 0 0 3.569240710282676 25.619076010605653 0 25.619076010605653 -65.234457378773271 0 0 0 0 104.82119069583132 63.607795881964194 0 63.607795881964194 -104.04227228465288 0 0 0 0 43.828368853577587 -1.7313175992645711 0 -1.7313175992645711 -147.28753669453727 0 0 0 0 -100.97435236294041 -49.969754990012007 0 -49.969754990012007 -64.327588799293153 0 0 0 0 0.66021630708429768 7.9224807394387629 0 7.9224807394387629 -63.442742436534154 0 0 0 0 -10.716957269996783 -22.265999606265268 0 -22.265999606265268 -126.93945811863341 0 0 0 0 31.525142301780761 -25.475213511759648 0 -25.475213511759648 -56.443171120212355 0 0 0 0 3.0796935942962591 9.330595603929396 0 9.330595603929396 -27.436671156698139 0 0 0 0 -0.11377859516029609 19.468757645910834 0 19.468757645910834 -41.792520095255369 0 0 0 0 -6.2324267300649119 24.223515815331723 0 24.223515815331723 -31.858020163016118 0 0 0 0 58.890565893803796 19.63423745712862 0 19.63423745712862 -142.384917850075 0 0 0 0 87.141019379878117 -11.416299845405092 0 -11.416299845405092 -110.49210138880881 0 0 0 0 32.712130482379507 82.76019702562553 0 82.76019702562553 -110.64632571341463 0 0 0 0 13.147551314024764 11.692444590172409 0 11.692444590172409 -10.252955194631303 0 0 0 0 -135.30999346057069 38.805136817398306 0 38.805136817398306 41.001607748232345 0 0 0 0 12.244547396549024 72.152029048767872 0 72.152029048767872 -67.123789763406648 0 0 0 0 -67.017705554902022 59.642366766070154 0 59.642366766070154 -144.55233273596969 0 0 0 0 -29.464473402942986 5.297601631172256 0 5.297601631172256 -66.216868653638812 0 0 0 0 46.746532425009264 106.15548189367655 0 106.15548189367655 -86.609989999958998 0 0 0 0 12.012936972766965 87.695521045943678 0 87.695521045943678 -90.868770828779816 0 0 0 0 -324.40854362157188 218.07073038978706 0 218.07073038978706 126.99768815186326 0 0 0 0 -91.188453157049025 28.243522782074706 0 28.243522782074706 -78.931424832710036 0 0 0 0 -99.073563556243244 87.355178338550104 0 87.355178338550104 -132.22519321053915 0 0 0 0 -121.70362438852089 167.04405885418146 0 167.04405885418146 -409.21963771756236 0 0 0 0 -93.330056131636411 -166.84857735758851 0 -166.84857735758851 -439.06514555318063 0 0 0 0 0.21851343805521295 2.1762077960911896 0 2.1762077960911896 -7.1300176285774217 0 0 0 0 -19.289481245294155 27.445650639471751 0 27.445650639471751 -339.90985633780292 0 0 0 0 -18.445582222025223 -26.000269561155619 0 -26.000269561155619 -152.13612013623856 0 0 0 0 0.63498227251420758 8.280622577511167 0 8.280622577511167 -130.47465542106693 0 0 0 0 -74.23263368504513 -68.559750680772595 0 -68.559750680772595 -77.957694790901769 0 0 0 0 -113.77660417968855 -152.23583438037144 0 -152.23583438037144 -211.92861228059883 0 0 0 0 -228.9377796824574 63.017511299995022 0 63.017511299995022 -69.833015497129963 0 0 0 0 -286.68480269712745 74.989779795135291 0 74.989779795135291 -65.64773666428664 0 0 0 0 -187.07028967162796 71.314770339994539 0 71.314770339994539 -106.45586942820773 0 0 0 0 -86.523188226485217 191.11882936486541 0 191.11882936486541 -52.659350940848526 0 0 0 0 -32.252342877049159 7.0043286488689773 0 7.0043286488689773 -86.586770720692584 0 0 0 0 -1.3904248781706663 0.57882331333054182 0 0.57882331333054182 0.26822398315226792 0 0 0 0 -375.31247669208278 -23.146934738912023 0 -23.146934738912023 -6.8620061861664681 0 0 0 0 -167.63907808612112 84.146339926957808 0 84.146339926957808 -167.2561739743378 0 0 0 0 -169.16864754584094 90.222117527089722 0 90.222117527089722 -57.955697992310888 0 0 0 0 -80.909777209075401 49.235168855031588 0 49.235168855031588 -67.376642506650342 0 0 0 0 -17.628634584980318 54.012257718313776 0 54.012257718313776 -43.853063859737631 0 0 0 0 -74.634876913161293 90.370457892644254 0 90.370457892644254 -61.24074445223232 0 0 0 0 8.2360618523562152 70.806693708887906 0 70.806693708887906 -90.438931166538168 0 0 0 0 7.4316743465460604 56.585721822117193 0 56.585721822117193 -72.940959893599938 0 0 0 0 41.373208328444889 38.985006225582765 0 38.985006225582765 -56.895542468144413 0 0 0 0 29.373543859823258 76.936186590437501 0 76.936186590437501 -88.984682067166432 0 0 0 0 -30.799036150787288 55.595222126921726 0 55.595222126921726 -72.093760718622434 0 0 0 0 -70.600376293625231 89.606928339593651 0 89.606928339593651 -68.871834239744203 0 0 0 0 -5.887592833081726 61.829916426391719 0 61.829916426391719 -107.2361666714387 0 0 0 0 -3.4073916619763622 46.44984306465085 0 46.44984306465085 -59.053255137105225 0 0 0 0 -181.05108077020122 40.590379134893738 0 40.590379134893738 -71.214305963811057 0 0 0 0 -79.944481099661061 54.405548006618119 0 54.405548006618119 -119.86179413575519 0 0 0 0 -192.28469599896061 70.332390519608907 0 70.332390519608907 -137.23363078318653 0 0 0 0 -96.001933579096658 89.536113839612881 0 89.536113839612881 -118.42077942924516 0 0 0 0 -56.66596595404917 49.448803383689665 0 49.448803383689665 -147.85328275681968 0 0 0 0 -163.6783437035574 17.742154635649058 0 17.742154635649058 -107.54323840496909 0 0 0 0 -151.58111142581765 -7.8138624382268063 0 -7.8138624382268063 -266.49285356114342 0 0 0 0 88.385413702111691 7.688485417078482 0 7.688485417078482 -82.221960110532564 0 0 0 0 70.103861665937075 63.986175941889996 0 63.986175941889996 -103.19143507174158 0 0 0 0 -37.368722728344437 19.568243237803472 0 19.568243237803472 -104.96538952374794 0 0 0 0 -88.054816286228743 65.376055216984241 0 65.376055216984241 -75.281131175626797 0 0 0 0 7.9399064538929451 85.171746347189583 0 85.171746347189583 -93.552167255729728 0 0 0 0 82.851686393169075 28.577553066850669 0 28.577553066850669 -116.98643210050977 0 0 0 0 72.020879416490061 107.01536282726011 0 107.01536282726011 -16.830992371273169 0 0 0 0 92.246233053570904 40.839307785325218 0 40.839307785325218 -178.17175990928126 0 0 0 0 -45.844642167434358 1.2889642226728029 0 1.2889642226728029 -44.637392392258334 0 0 0 0 -39.114273205858808 24.942972497929986 0 24.942972497929986 -205.50321263933074 0 0 0 0 -153.10010064845756 -106.78725859038877 0 -106.78725859038877 -196.19371896438315 0 0 0 0 -6.847408371898382 39.156995547570659 0 39.156995547570659 -218.24529597312721 0 0 0 0 87.287379947483714 -36.792780129962921 0 -36.792780129962921 -168.11206575249571 0 0 0 0 -168.95065466186679 -2.0959416836485616 0 -2.0959416836485616 -268.28046737545264 0 0 0 0 -116.49252776433423 -55.545903662337878 0 -55.545903662337878 -361.09721262985795 0 0 0 0 -146.51355140634132 -132.1773778423908 0 -132.1773778423908 -442.9725815228885 0 0 0 0 -157.60979080289144 4.7692563095006335 0 4.7692563095006335 -467.15342487478665 0 0 0 0 -177.10527028010802 -50.59603347988741 0 -50.59603347988741 -381.12242093823261 0 0 0 0 -193.84495250537475 55.304409656740972 0 55.304409656740972 -281.82580145915563 0 0 0 0 -208.77788968995083 17.891134356867951 0 17.891134356867951 -135.79518743017616 0 0 0 0 -167.90950784901997 76.283029289698788 0 76.283029289698788 -207.48509774644845 0 0 0 0 -233.87071045128869 -4.848979580950072 0 -4.848979580950072 -244.71596188592594 0 0 0 0 -212.83292085383346 77.732079406412595 0 77.732079406412595 -386.22034436176 0 0 0 0 -156.79578604090966 -40.896163372179217 0 -40.896163372179217 -637.95506029929311 0 0 0 0 -190.46437530095693 -63.730886157243049 0 -63.730886157243049 -477.57034386306259 0 0 0 0 -139.93524928219813 53.610116735155316 0 53.610116735155316 -285.91366740134254 0 0 0 0 2.2342339418401025 61.191268768313421 0 61.191268768313421 -524.02928908957256 0 0 0 0 -83.203242966229482 -62.85421539996787 0 -62.85421539996787 -407.71554272461162 0 0 0 0 -7.6162322544669223 51.27268080311751 0 51.27268080311751 -291.4515256675495 0 0 0 0 -69.568395058500755 -1.8571809087852671 0 -1.8571809087852671 -271.63693640933229 0 0 0 0 -113.27880357549157 -28.384030177750446 0 -28.384030177750446 -99.832694996066493 0 0 0 0 9.4134807537766392 11.559646218588568 0 11.559646218588568 -87.23305755308138 0 0 0 0 -74.498214120319972 -39.599025932471704 0 -39.599025932471704 64.290568936723503 0 0 0 0 -85.5554943813504 21.544596175393053 0 21.544596175393053 58.310413921859436 0 0 0 0 -31.892419131322285 -36.379770164096243 0 -36.379770164096243 62.338213220617035 0 0 0 0 -33.90141203379244 5.7261120532584755 0 5.7261120532584755 8.3559187164580564 0 0 0 0 -7.6560522568222105 -6.1857252941040315 0 -6.1857252941040315 -4.8774347842674786 0 0 0 0 26.392840176857135 79.847275072406774 0 79.847275072406774 -123.89902312066988 0 0 0 0 -17.11349255468474 -106.42099896656521 0 -106.42099896656521 49.092110112529554 0 0 0 0 -2.2398084796061699 -2.1920353434990272 0 -2.1920353434990272 -2.3489363581994809 0 0 0 0 -110.22077704606909 108.45642171968939 0 108.45642171968939 1.768039326518192 0 0 0 0 50.255000953243325 10.610078124076608 0 10.610078124076608 -45.252507715958018 0 0 0 0 -55.991980738029042 -44.050953824278622 0 -44.050953824278622 -237.44369837683189 0 0 0 0 55.077554304877424 -57.692007151229404 0 -57.692007151229404 -237.69579314453222 0 0 0 0 -17.48726395972551 -30.639043674210598 0 -30.639043674210598 -244.69804578514595 0 0 0 0 36.650255328348976 30.642937573635209 0 30.642937573635209 -387.36790827974073 0 0 0 0 -30.561534013564597 39.3377782176849 0 39.3377782176849 -383.96460579984159 0 0 0 0 -13.446757970204203 75.970540925218074 0 75.970540925218074 -325.67617628292282 0 0 0 0 -145.95415173195033 112.30399449350261 0 112.30399449350261 -109.13913735719689 0 0 0 0 -151.31107285381404 47.339427852134577 0 47.339427852134577 -325.06344717698357 0 0 0 0 25.990221293318427 108.57744801573062 0 108.57744801573062 -285.56841578658123 0 0 0 0 -71.350032183692292 10.470353320782124 0 10.470353320782124 72.172680032814242 0 0 0 0 -3.0884671226246101 -17.818349356055471 0 -17.818349356055471 -44.104898857217194 0 0 0 0 66.783287543125198 -130.98434689028727 0 -130.98434689028727 -15.287648076358892 0 0 0 0 294.57371137996125 -210.74473104875756 0 -210.74473104875756 -110.93848248895665 0 0 0 0 236.38773770049892 158.85186015728334 0 158.85186015728334 -348.19161190594241 0 0 0 0 -32.140164943234822 -61.171244486375144 0 -61.171244486375144 26.538776590918587 0 0 0 0 27.77839267241086 -23.61038737779927 0 -23.61038737779927 -77.493945426878781 0 0 0 0 11.87994005916849 -43.697893713237136 0 -43.697893713237136 -96.014175104330207 0 0 0 0 -92.367611966510367 77.731808769571217 0 77.731808769571217 -167.14420510504897 0 0 0 0 -0.95825879937967784 -61.913154068463882 0 -61.913154068463882 -163.27912239783473 0 0 0 0 -32.37075679920622 101.25639289517494 0 101.25639289517494 -164.98925171272023 0 0 0 0 23.631585131898774 29.56262793845346 0 29.56262793845346 -73.40799652368878 0 0 0 0 -27.879992490787572 -59.418534735981666 0 -59.418534735981666 -116.06414300218967 0 0 0 0 -0.84522944503313813 0.79797023161440706 0 0.79797023161440706 -0.92224720098253954 0 0 0 0 31.366338935118506 80.193057106195738 0 80.193057106195738 -220.13477689501451 0 0 0 0 -70.354195060698657 -66.645954283922038 0 -66.645954283922038 -72.398025610193145 0 0 0 0 -76.292976785046335 41.982392763642565 0 41.982392763642565 -15.506261588343477 0 0 0 0 -358.97115655408288 -217.65072964433602 0 -217.65072964433602 203.97287763926943 0 0 0 0 -4.533503422132334 -19.045582414005466 0 -19.045582414005466 -44.358524041203772 0 0 0 0 125.17722030954701 -269.59031962594054 0 -269.59031962594054 67.794892302308654 0 0 0 0 105.05405893208581 -63.5956798531206 0 -63.5956798531206 -87.928105530405446 0 0 0 0 40.679275719861153 1.428258776295479 0 1.428258776295479 -68.818104952964859 0 0 0 0 23.55085763261809 19.656065238472365 0 19.656065238472365 -68.454727391304914 0 0 0 0 17.835435964097769 16.711561570424237 0 16.711561570424237 -66.842218312682235 0 0 0 0 22.113690152022173 5.1860880624499259 0 5.1860880624499259 -54.640314666150516 0 0 0 0 12.766269496579525 16.642013790828059 0 16.642013790828059 -65.589903892670918 0 0 0 0 15.426830903970767 21.492438332106758 0 21.492438332106758 -67.286402240737516 0 0 0 0 10.079656512863721 28.215418861240323 0 28.215418861240323 -55.160411778957496 0 0 0 0 0.72881927899970833 -12.659851746677305 0 -12.659851746677305 -38.977294874130507 0 0 0 0 9.4613332375342907 23.451354448585334 0 23.451354448585334 -53.173996407593222 0 0 0 0 -0.47410701732905647 -0.69763609789493586 0 -0.69763609789493586 -0.56992940135481263 0 0 0 0 -4.2223279655660235 11.196839316117803 0 11.196839316117803 -54.426199271649239 0 0 0 0 5.0533588809282719 -1.8949427420302527 0 -1.8949427420302527 2.5647510535491165 0 0 0 0 11.356592293123924 -2.5398501438794483 0 -2.5398501438794483 -4.6824531921301968 0 0 0 0 9.9055710522211484 -5.7793967264879029 0 -5.7793967264879029 -5.4779555610839452 0 0 0 0 13.639870923440185 6.2501623446587473 0 6.2501623446587473 5.3801980856223963 0 0 0 0 16.803220942313601 16.638122484931955 0 16.638122484931955 19.823292944391142 0 0 0 0 10.496141028699128 5.7978277987158435 0 5.7978277987158435 13.173354880622355 0 0 0 0 -1.9115405370593597 2.1946597289793246 0 2.1946597289793246 -1.66024926571896 0 0 0 0 -26.110738724136354 -27.456962714386464 0 -27.456962714386464 -33.607740523744724 0 0 0 0 -40.09296943657916 -14.563808744957328 0 -14.563808744957328 -14.835922802216373 0 0 0 0 -40.142977142469135 -19.992779469925154 0 -19.992779469925154 -18.137674409379542 0 0 0 0 -56.368537950415202 13.88188383414672 0 13.88188383414672 -8.1637117662994569 0 0 0 0 -0.72102982835113272 -0.42572656395643804 0 -0.42572656395643804 -0.69639867733420857 0 0 0 0 -7.6023640236417123 -7.105047668215775 0 -7.105047668215775 6.8922196599378367 0 0 0 0 4.7427279508074207 39.076903441906325 0 39.076903441906325 -71.474887012969702 0 0 0 0 -19.681564227424587 -3.0680586161324754 0 -3.0680586161324754 9.2952694899104245 0 0 0 0 4.289110515704337 37.312803851253875 0 37.312803851253875 -43.210525733069517 0 0 0 0 6.1608140955249837 -1.5479854246514151 0 -1.5479854246514151 -83.95677647827506 0 0 0 0 6.5663050055409258 -19.61464044686727 0 -19.61464044686727 -86.410216454713918 0 0 0 0 -13.502413814695728 -17.147265607163718 0 -17.147265607163718 -47.28670470158977 0 0 0 0 -5.4338619603306597 1.7644147730352415 0 1.7644147730352415 -30.77755237074598 0 0 0 0 -4.6597868016568782 6.9033103874680819 0 6.9033103874680819 -32.406454242074687 0 0 0 0 -22.668650854016278 13.603109664807562 0 13.603109664807562 4.2299671936780214 0 0 0 0 1.0293770156522442 -4.2136374109541066 0 -4.2136374109541066 -14.002340084713069 0 0 0 0 -1.0334561150700665 3.1801754415100731 0 3.1801754415100731 -12.428960850476869 0 0 0 0 -9.3364562380261304 -2.5756630801406573 0 -2.5756630801406573 -13.965590539271034 0 0 0 0 -10.194416679604274 -4.570951725487248 0 -4.570951725487248 -26.558218072445015 0 0 0 0 0.4383795649446256 4.0370559358780156 0 4.0370559358780156 -26.876034230896039 0 0 0 0 -4.2654617570788105 -4.6998254193822504 0 -4.6998254193822504 -28.284588151691423 0 0 0 0 2.5490245307624946 3.0851714119926328 0 3.0851714119926328 -26.349625254879356 0 0 0 0 3.6230516816058298 -2.6870247694023419 0 -2.6870247694023419 -17.755851115929545 0 0 0 0 1.051117381144195 -5.9789411516794644 0 -5.9789411516794644 -25.58385205047216 0 0 0 0 -4.3767910742574259 -4.5426422954406007 0 -4.5426422954406007 -25.827162251560367 0 0 0 0 0.84614539146005829 -1.0717311910395182 0 -1.0717311910395182 -16.731523643551114 0 0 0 0 -7.3599975925162653 -13.566917326257681 0 -13.566917326257681 -19.230121502114343 0 0 0 0 -0.3506274221986132 -4.6011165374002303 0 -4.6011165374002303 -26.1458553049888 0 0 0 0 -5.1417621852842785 -5.0147455451224232 0 -5.0147455451224232 -22.108328721835278 0 0 0 0 -3.2166792371947395 -2.3829680309281684 0 -2.3829680309281684 -34.967868441468454 0 0 0 0 -5.6622180049005806 -17.363865300491852 0 -17.363865300491852 -35.033766359978472 0 0 0 0 -0.45056429853586666 -1.4134691316224135 0 -1.4134691316224135 -2.7511700462772382 0 0 0 0 -4.5357588965571267 -11.359020788178896 0 -11.359020788178896 -43.392301062835031 0 0 0 0 2.3766387862006013 -4.98650016216925 0 -4.98650016216925 -26.598550527251064 0 0 0 0 -1.0862301605718527 -1.0675585034492627 0 -1.0675585034492627 -3.3170054049209909 0 0 0 0 -4.7781034383249334 -6.815089344379885 0 -6.815089344379885 -42.838000402625767 0 0 0 0 2.2571963861510085 -5.1961488631714019 0 -5.1961488631714019 -27.233933619757181 0 0 0 0 2.4257690917247601 -4.7425613911545952 0 -4.7425613911545952 -27.208503767612456 0 0 0 0 1.3250185909072343 -6.040740210639342 0 -6.040740210639342 -24.318829333351459 0 0 0 0 -0.38849523322302471 -0.2080176117863104 0 -0.2080176117863104 -0.018956298960759455 0 0 0 0 -2.7999442571649524 5.063064991380088 0 5.063064991380088 -13.59736987717406 0 0 0 0 1.8313782527959575 -1.8334818738658214 0 -1.8334818738658214 -27.55209329290301 0 0 0 0 3.1051770554119003 -9.2194855184388871 0 -9.2194855184388871 -33.222415156713396 0 0 0 0 2.1374389899988273 -10.446159124825499 0 -10.446159124825499 -29.496912763962428 0 0 0 0 3.6434411192863081 -4.4459302636932989 0 -4.4459302636932989 -33.089741637319094 0 0 0 0 2.3420284086420331 -33.645655179656274 0 -33.645655179656274 -18.442180268568336 0 0 0 0 3.113170754264047 -8.8461752793773485 0 -8.8461752793773485 -28.420055880931614 0 0 0 0 -1.9504411480308592 -10.238501755352171 0 -10.238501755352171 -25.329173251026717 0 0 0 0 0.58720180480986528 7.056007029099419 0 7.056007029099419 -38.278323575435934 0 0 0 0 1.7290015595438035 10.443487266402371 0 10.443487266402371 -66.186208110055304 0 0 0 0 0.84047030804049427 4.5025390123137186 0 4.5025390123137186 -45.464666014147952 0 0 0 0 -1.5657845306050149 8.2525098134501604 0 8.2525098134501604 -38.921717688480001 0 0 0 0 -3.4800906033289039 9.7551296348574397 0 9.7551296348574397 -32.697100893485185 0 0 0 0 1.868576883547064 -2.1844674641192796 0 -2.1844674641192796 -33.597220642244793 0 0 0 0 1.5910566238881074 -14.587811892995887 0 -14.587811892995887 -45.968901923544763 0 0 0 0 -0.48221834900743943 -17.271719656401729 0 -17.271719656401729 -58.029552161882748 0 0 0 0 -7.3109911993760761 -17.199939301845006 0 -17.199939301845006 -55.165115079862517 0 0 0 0 -19.218477701735083 -19.703976833814522 0 -19.703976833814522 -55.79497745853223 0 0 0 0 -16.017094903391126 -10.165071914537293 0 -10.165071914537293 -63.344591993976792 0 0 0 0 -12.637486079640212 -8.464599422775791 0 -8.464599422775791 -84.327789535163902 0 0 0 0 -16.140644050256924 -12.95508853589854 0 -12.95508853589854 -69.024843412775226 0 0 0 0 -5.909261495169801 -12.625373329637114 0 -12.625373329637114 -71.036193031315634 0 0 0 0 -2.1730472324338734 -0.45151908546176855 0 -0.45151908546176855 -101.49208377626928 0 0 0 0 1.7309872450744024 6.90256838282221 0 6.90256838282221 -90.406544180077617 0 0 0 0 0.0021360569359458736 -0.40537443472823753 0 -0.40537443472823753 -0.48341880781080704 0 0 0 0 -36.864339822821421 -16.892548637442815 0 -16.892548637442815 -86.26520225177228 0 0 0 0 -27.444537305895665 -12.442664938180314 0 -12.442664938180314 -54.280702489818395 0 0 0 0 -43.646840443043857 11.231469207064947 0 11.231469207064947 -112.2900750004701 0 0 0 0 -31.267890451981657 36.807797331406618 0 36.807797331406618 -71.166314796395454 0 0 0 0 3.2706447249004267 -5.4037412348552323 0 -5.4037412348552323 -16.268341168037111 0 0 0 0 -30.672945758672469 -0.27955559552725617 0 -0.27955559552725617 -62.483633027171891 0 0 0 0 -29.586386851005955 -14.921752893918892 0 -14.921752893918892 -77.826357989346434 0 0 0 0 -38.070609039359624 -18.043628747174807 0 -18.043628747174807 -66.117270826121967 0 0 0 0 -3.3170327665184232 -33.683162180624095 0 -33.683162180624095 -67.905599001584051 0 0 0 0 -4.4600175190338849 -20.443043790110131 0 -20.443043790110131 -53.263696862240643 0 0 0 0 -8.5691633313881539 -10.133121128700623 0 -10.133121128700623 -88.60014875993329 0 0 0 0 -3.2744466781841766 -34.199112144007813 0 -34.199112144007813 -97.0512703717759 0 0 0 0 -57.662489815588742 -33.860953365046271 0 -33.860953365046271 -79.354516638330097 0 0 0 0 -33.242757547166548 -5.4705107602221688 0 -5.4705107602221688 -46.742244822703469 0 0 0 0 -1.0026006558684735 -8.3284815582811351 0 -8.3284815582811351 -9.2823614907556617 0 0 0 0 -32.943613788413131 -44.907189265384659 0 -44.907189265384659 -74.474437854178177 0 0 0 0 -38.301372124848513 -29.608415536281882 0 -29.608415536281882 -59.316407164431439 0 0 0 0 1.6012316537353399 -32.324356343702675 0 -32.324356343702675 -74.694584094393576 0 0 0 0 10.371690940887675 0.054352507939256611 0 0.054352507939256611 -54.286544533453707 0 0 0 0 5.4652430994585526 -1.8700918230728476 0 -1.8700918230728476 -23.084662961471292 0 0 0 0 -13.241324261292448 -20.075813681984982 0 -20.075813681984982 -14.358107754949742 0 0 0 0 2.5436067468040164 -19.964386305490734 0 -19.964386305490734 -33.039850315004514 0 0 0 0 -4.8241835842209184 12.275862580029752 0 12.275862580029752 -22.630188132360672 0 0 0 0 -4.8961879607222727 -26.433648349175201 0 -26.433648349175201 -102.10979412129382 0 0 0 0 5.8322094156427333 -0.23302753134601062 0 -0.23302753134601062 -10.128592048225443 0 0 0 0 -3.8919053802974304 19.5427909416685 0 19.5427909416685 52.685566280606963 0 0 0 0 -21.799340499263053 -49.689405316546981 0 -49.689405316546981 63.721305266486695 0 0 0 0 -10.542169611901885 -9.6496749375049795 0 -9.6496749375049795 -8.3198726974825803 0 0 0 0 -9.0256748341598723 -17.82395442849338 0 -17.82395442849338 -14.325712876025136 0 0 0 0 -7.1751394070629431 -24.83349873694533 0 -24.83349873694533 8.22819052099819 0 0 0 0 15.278875128856725 -27.267538778451126 0 -27.267538778451126 -20.066115913992689 0 0 0 0 19.576473669392726 -73.078830914981154 0 -73.078830914981154 32.932118381052533 0 0 0 0 -4.1709486477189337 -17.252762449943944 0 -17.252762449943944 -40.407287330630531 0 0 0 0 -21.652300254698957 4.583131723016777 0 4.583131723016777 -36.885783525462102 0 0 0 0 -2.2249266716849299 -13.431344155929926 0 -13.431344155929926 -38.226607744491972 0 0 0 0 2.9188143028370064 -22.587697848293715 0 -22.587697848293715 -20.101526976290188 0 0 0 0 
</DataArray>
<DataArray type="Float64" Name="cross_section_updated" format="ascii">
1 1 0.0097812649696226005 1 1 1 1 0.0095408082199229197 1 1 1 0.010000305266472085 0.0099836216544470294 0.0085694212543296205 1 1 1 0.0087111799340220952 1 1 1 1 1 0.0095356065365703596 1 1 1 1 1 1 1 1 1 1 0.0096552070195802982 1 0.01038675549371545 1 1 1 1 0.0090468361134708065 1 1 1 1 1 1 0.0095475283306119835 1 1 1 1 1 1 1 1 1 1 0.0088002997267780329 1 1 1 1 1 1 1 1 1 1 1 1 1 1 1 1 1 1 1 1 1 0.009919702680911649 1 1 1 1 0.0098687470568290074 1 0.0072831993580759879 1 1 0.00688551254564242 1 0.010710442756570139 1 1 0.010217075500110471 1 1 1 1 1 1 1 1 1 1 1 1 0.0073715708858273048 1 1 1 1 1 1 1 0.0081575224847685989 1 1 1 1 1 1 1 1 1 1 1 1 1 0.0093776211072489069 1 1 1 1 1 1 0.0098429635416570106 1 1 0.010411932820117049 0.010688105048184141 1 1 1 1 1 0.0099661569728950808 1 1 1 1 0.010319507289085541 1 1 1 1 1 1 1 1 1 1 1 1 1 1 1 1 1 1 0.010069832956213842 1 1 1 1 1 1 1 1 0.0098309282888467946 1 1 1 1 1 1 1 1 1 1 1 1 1 1 1 1 1 1 1 1 1 1 1 1 1 1 1 1 1 1 1 1 1 1 1 1 1 1 1 1 1 1 1 1 1 1 1 1 1 0.0096884100820744789 1 1 1 1 1 1 1 1 1 1 1 1 1 1 1 1 1 1 1 1 1 1 0.010018992634957233 1 1 1 0.0084159672334780094 1 1 1 0.009645569047841385 1 0.0070916389140667987 1 0.0092452143632133013 1 0.0096086933502364594 1 1 1 0.0097952650805932275 1 1 0.0078450168250172869 0.0078047125658713638 1 1 0.0085920841822123457 1 0.0099967730446117453 1 1 0.0094662924699761165 0.0077046527902678488 0.0094540456179264334 1 0.0088433707135521008 1 0.0099756098689437397 1 1 0.009998759146428159 1 1 1 1 1 1 1 1 0.0097707459678671327 1 1 1 0.0083256273164126725 1 0.0079095285883295282 1 1 0.0088765247991679681 0.0063086220997960012 1 0.010376089867391981 0.0085216613668188841 1 1 1 0.0069596057065805898 1 1 0.010004400338423973 1 1 0.0083463969610469528 1 0.0099278199077474528 0.0096450244670802758 1 1 1 0.010113601453152939 1 1 1 0.010878188020434195 1 1 1 1 0.0096340744332320139 1 0.0090883726531394149 0.0094877388379958107 1 1 1 1 1 1 1 0.010278046553636584 1 1 1 1 1 0.0096985342336117705 1 1 1 1 1 1 0.0099112707506243541 1 1 1 1 1 0.009953025413236536 1 1 1 1 1 1 1 1 1 1 1 1 1 1 1 1 1 1 1 1 1 1 1 1 1 1 1 1 1 0.0088682325768281844 1 1 1 1 0.00951823599231621 1 1 0.0083067859923821284 1 1 1 1 1 1 1 1 1 1 1 1 1 1 1 0.010236813611315133 1 0.010256344810284632 1 1 0.0099010625243661412 1 0.0090404522312393341 1 0.0099995354517642566 1 1 0.0093293939075778133 1 1 1 1 1 1 1 1 1 0.0097683250631255044 1 1 1 1 1 1 1 1 0.0098271358400662361 1 1 1 0.0082283524812992725 0.009626610629884744 1 1 1 1 1 0.0081224138173367905 1 1 1 0.0099954961576737833 1 1 1 0.01024637590550145 0.0097277443864227583 1 0.010004756913189854 1 1 1 1 0.00917086468168298 0.0099021875832633957 1 1 0.0084974109656349977 0.0096012890115662435 1 1 1 0.0087053686592967888 1 1 1 1 0.0099909606209612756 1 0.010018258802251941 1 1 1 1 0.0091707181902935739 1 0.010156197070343036 1 1 0.01037133253772236 1 1 1 1 1 1 0.010191539379417412 1 0.008725952608366205 0.010290624459432631 1 0.0079072725937313522 1 1 1 0.0082206282025241439 1 1 0.0075979651981359399 1 1 1 1 1 1 1 0.01001034565620541 1 1 1 1 1 1 1 1 0.0099208460467710528 1 0.010100570686849757 0.010196804720721835 1 0.010069447758528027 1 1 1 0.010381824191253882 1 1 0.01024705819506817 1 1 1 1 1 1 1 1 1 1 1 1 1 1 1 1 1 1 0.0099914924263909445 1 1 1 1 0.0088532923642521515 1 1 1 1 1 1 1 1 1 1 1 0.0092137419238079287 1 1 1 1 1 1 1 1 0.0084341200039296377 1 1 1 1 1 1 1 0.006059799403862377 1 1 1 0.010052231521139862 1 1 1 1 1 1 1 1 1 1 1 1 1 1 1 1 1 1 1 1 1 1 1 1 1 1 1 1 0.0094308362530748716 1 1 1 1 1 1 1 1 1 1 1 1 1 1 1 1 1 0.008808105900090412 1 1 1 1 1 1 1 0.0095280255820811496 1 1 0.0098605331189965464 1 1 1 1 1 1 0.0098605323013224843 1 1 1 1 1 1 1 1 1 1 1 1 1 0.010032143838172847 1 1 1 1 1 1 1 1 0.010156344697528061 1 1 0.010156863495619187 1 1 1 1 1 1 1 1 1 1 1 1 1 1 1 1 1 1 1 1 1 1 1 1 1 1 0.0097238889698796002 1 1 1 0.010011183208643156 1 1 1 0.0097878012299645861 1 0.0088620748571865068 1 0.0099648501619949894 1 1 1 1 1 1 1 1 1 1 1 1 1 1 1 1 1 1 0.0099117907277948645 1 1 1 1 0.0098042068916280416 1 1 1 0.010557585211944078 0.010222714926963434 1 1 1 1 1 1 1 1 0.010051869750447778 0.0099740545122679117 1 1 1 1 1 1 1 1 0.010182534730961135 1 0.007963778272134155 1 0.0092287053320292238 0.010438116821376676 0.0078330288687536651 0.0080928678565438464 1 1 1 0.010013419166802782 1 0.0069624436216669302 1 1 1 1 1 1 1 1 1 1 1 1 0.0095980077949473636 1 1 1 1 1 1 1 1 1 1 1 1 1 1 1 0.009972272338366308 1 1 1 1 1 1 1 1 1 0.008391520167695142 1 1 1 0.010001217033382489 1 1 1 1 1 1 1 1 0.010012612269764555 1 1 1 1 1 1 1 1 1 0.0089087449253077849 1 1 1 1 1 1 0.0083956190597709417 1 0.010337459807674441 1 1 1 1 1 1 1 1 0.010039051778683802 1 0.0099090517882989976 1 1 1 1 1 1 1 1 1 1 1 1 1 1 1 1 0.0095643124871640488 1 1 1 1 1 1 1 1 1 1 1 1 1 0.0098281675054256428 1 1 1 1 0.0095842865925592925 1 1 1 1 1 1 1 1 1 0.0095057619270376894 1 1 1 1 1 1 0.009769616945299292 1 1 1 1 1 1 1 0.0094958163866189736 1 1 0.0096260409739361442 1 1 0.0091159224531022764 1 1 1 1 1 1 1 1 1 1 1 1 1 1 1 1 1 1 1 1 1 1 1 1 1 1 1 0.0089838599593977542 1 1 0.0094905265077544869 1 1 1 1 1 0.0085921686783459843 1 1 1 1 1 1 1 1 1 1 0.0081352767201742331 1 1 1 1 0.0081781280494865813 1 1 1 1 1 1 1 1 1 1 1 1 1 1 0.0088846209937510027 1 1 1 1 0.0094537847406761348 1 1 1 1 1 1 1 1 1 1 0.009784241712290467 1 1 0.0073078854780814859 1 1 1 1 1 1 1 0.0089804681141325334 1 1 1 1 1 1 0.0095607619880402946 1 1 1 1 1 1 1 1 1 1 1 1 1 1 1 1 1 1 1 1 1 1 1 1 1 1 1 1 1 1 1 1 1 1 1 0.0099352695126936584 1 1 1 1 0.010077853960695828 1 1 1 1 1 1 1 1 1 1 1 1 1 1 1 0.006873681154625385 1 1 1 1 0.0083700233167988344 1 1 1 1 1 1 0.0075841413928617561 1 1 1 1 1 0.0099660071795267327 1 1 1 1 1 1 1 1 1 1 1 1 1 1 1 1 1 1 1 1 1 1 1 1 1 1 1 1 1 1 1 1 0.0054227735092347244 1 1 1 0.0097592513800832236 1 1 0.006806665918143719 1 1 1 1 1 1 0.0089680338017707455 1 1 1 1 1 1 1 1 1 0.009463409028736075 1 1 1 1 1 1 1 0.0088964972723119748 1 1 1 1 1 1 0.0066545335115971022 0.0044904015036062624 1 1 1 1 0.0083335834180222387 1 1 1 1 0.009440420014757929 0.00665938351612517 1 0.010174124835154515 1 1 1 1 1 1 1 0.008905556459014502 1 1 0.010110093854621376 1 1 1 1 1 1 0.0077980737651522185 1 1 1 1 1 0.0089247529445504303 0.0096302336954638985 1 1 1 0.0093168875844414911 1 1 1 1 1 1 1 1 1 1 1 0.0096701648281795824 1 1 1 1 1 1 1 1 1 1 1 1 1 1 1 1 1 1 1 0.010365439535733087 1 1 1 1 1 1 1 1 1 1 1 1 1 1 1 1 1 1 1 1 1 1 1 1 1 1 1 1 1 1 1 1 1 1 1 1 1 1 1 1 1 0.0092662503294061449 1 1 1 1 1 1 0.0083847837398133215 1 1 1 1 1 1 1 1 1 1 1 1 1 1 1 1 1 1 1 1 1 1 1 1 1 1 1 0.0095939816758079804 1 1 1 1 0.0097501416102928774 1 1 1 1 1 1 1 1 1 1 1 1 1 1 1 1 1 0.0094170729243933434 1 1 1 1 1 1 1 1 1 1 0.0086240983236524141 1 0.010050015948034934 1 1 0.0088886932087345744 1 0.0097276648842502811 1 1 0.0098669172788465667 1 1 1 1 0.0097506000798713161 1 1 1 1 1 0.0097287480658396156 1 0.0099671780725726876 0.0087652842391944298 1 1 1 0.0099530036681851931 0.0094435086263925262 1 1 1 1 1 1 1 1 1 1 1 1 1 0.0089683315239881944 1 1 1 1 1 1 1 1 1 1 1 1 1 1 1 1 1 1 1 1 1 1 1 1 1 1 1 1 1 1 1 1 1 1 1 1 1 1 1 1 0.010908984498965494 1 1 1 0.012036440041572942 1 1 1 1 0.0095589638682957306 1 1 1 1 1 1 1 1 1 1 1 1 0.0092130054697408172 1 0.0063853427602063133 1 1 1 1 1 1 0.0080941417130929103 1 1 0.0084250764906270998 1 1 1 1 0.0099816953065836149 1 1 1 1 1 1 1 1 1 1 1 1 1 1 1 1 1 1 1 1 1 1 1 1 0.008714666048023496 1 1 0.0093716723584303836 1 1 1 1 1 1 0.0086272108968774505 1 1 1 1 1 1 1 1 1 1 1 1 1 1 1 1 1 1 1 1 1 0.010245197735532188 1 1 1 1 1 1 1 1 1 0.011055597307151237 1 1 1 1.0535832890368538e-08 1 1 1 0.0099196265010442607 1 1 1 0.010302206729619125 1 1 1 1 -1.2661798727553464e-08 1 0.010894321223850855 1 1 1 1 0.0099705833093511088 0.01143951947352366 1 1 1 1 1 1 1 1 1 1 1 1 1 1 1 0.010765399033281581 0.0099426661152233128 1 1 1 0.011543651302656551 1 1 1 1 1 1 1 1 1 1 1 1 0.0096347953990042114 1 1 1 0.0089698176283801272 0.0039724675342372937 1 1 1 1 1 0.006056037829979901 1 1 1 1 1 1 1 1 1 1 1 1 1 1 1 1 1 1 1 1 0.0033916923234479307 1 1 0.0099670593263846419 0.0095936662876122125 1 1 1 1 1 1 1 0.009263119499590855 0.01091336404228354 0.0078556380558533947 1 1 1 0.0065747739306541682 0.009154453425683759 1 1 1 1 0.0057497690156931014 1 0.0097133448212180559 1 1 1 1 1 1 1 1 1 1 1 1 0.007737562452680603 1 1 1 0.0089305944830574135 1 1 1 1 1 0.00400642617084691 1 1 0.0059701981649353947 1 0.0085152468916235985 1 1 1 1 1 1 1 1 1 1 1 1 1 1 1 1 1 1 1 1 1 1 1 9.5333156533913832e-09 1 0.010312165660953001 1 1 0.013842075321228803 1 1 4.2434897812651529e-05 1 1 1 1 1 1 1 1 1 1 1 1 1 1 1 1 1 1 1 1 1 1 1 1 1 1 1 1 0.0097072497449963661 1 1 1 1 1 1 1 1 1 1 1 1 1 1 1 1 -1.035211623021115e-08 1 1 1 1 1 0.0044840591118468437 1 1 1 1 0.0098677460256410658 1 1 0.0013562385261852803 1 1 1 0.010535796120700545 1 1 1 1 1 1 1 0.0092247318509161569 1 1 1 1 1 1 0.010142241940338505 1 1 0.010493371097006009 1 0.0050617430496129358 0.01291355549663731 1 1 1 1 1 1 1 1 0.0097983795147206995 1 1 0.010951515641028857 1 0.0098574700036493604 1 1 1 0.010594137705516902 1 1 1 0.0037577894519148832 1 1 1 0.0019466755071175677 0.011601152404704766 1 0.009995693403066443 1 0.012544156978172891 1 1 -1.8048747045529279e-10 1 0.0034045053542012919 1 0.0032610463918929643 0.012149721021370425 1 1 1 1 1 0.010731354918462416 1 1 1 1 1 1 1 0.011746916555051331 1 1 1 1 1 1 1 1 1 1 1 1 1 1 1 1 1 1 1 1 1 1 1 1 1 1 1 1 1 1 1 1 1 1 1 1 0.010155876125407845 1 1 1 1 1 1 0.010512698211531302 1 1 1 1 1 1 1 1 1 1 1 1 1 1 1 1 1 1 1 1 0.009910901637723131 1 1 1 1 1 1 1 1 1 1 1 1 1 0.0097115499135133898 1 1 1 1 1 1 1 1 1 1 1 1 1 1 1 1 1 0.0057842516431292779 1 1 0.0044990197558175925 1 1 1 1 1 1 1 1 0.010039559470305619 1 1 1 1 1 1 1 1 1 1 1 1 1 1 1 1 0.0097313713128956199 1 1 1 1 1 0.0094689236520823575 1 0.010144991521645058 1 0.0098739484637020321 1 1 0.0070331171134471997 1 0.0078518446279786398 0.0099326662313725406 1 1 1 0.0087326920022679552 1 1 1 1 1 1 1 1 0.0096084683239381422 1 1 1 1 1 1 1 0.0032161650035746822 1 0.0081361051456070727 1 1 1 1 1 1 1 1 1 1 0.0066493296921618754 0.0099993938136586167 1 1 1 0.011058468172812383 1 1 1 0.0093534643659945894 1 0.010135315728072606 1 1 0.0084536368048166825 1 1 1 1 0.0097266442944334789 1 1 0.005388444636607221 1 1 1 1 1 1 0.010044780626316644 0.010138236757221092 1 1 1 1 1 1 1 1 0.0081590397470093622 1 1 1 1 1 0.0098742968678823886 1 0.0081980265639418088 1 1 1 1 1 1 0.0082914059066850829 1 1 1 1 1 1 0.010285101039891267 1 1 1 1 1 1 0.010146864282670174 1 1 1 1 1 1 0.0076198436322501423 1 0.0078128000269955811 1 1 1 1 1 0.0027007239083118601 1 0.0027144727532535887 1 1 1 1 1 1 1 1 1 0.0098003362107412263 1 1 1 1 1 1 1 1 0.010967332682051727 1 0.0023561725338104716 1 0.0028357980102536326 1 1 0.0076385103491832841 0.0066569653681761154 1 0.0047650351268102124 1 1 1 1 1 0.0082687430021639637 1 0.0021299288911236225 1 1 1 1 1 1 1 1 1 1 1 1 1 1 1 1 1 1 1 1 0.010009161042887056 1 1 0.010001982797163082 1 1 1 1 1 1 1 1 1 1 1 1 1 1 1 1 1 1 1 0.0091619952564508458 1 1 0.0096654118994835714 1 1 1 1 1 1 1 0.010281244283014655 0.0018598373858277686 1 1 0.00053937569111442993 1 0.0088115889323684068 1 1 1 1 0.0101231651089655 0.0088703287992456786 1 0.0094245710653234095 1 1 1 1 1 1 1 0.0055285663975517419 1 1 1 1 1 0.0082244153922489439 0.0095391607088404027 1 0.0088380524377245917 0.0093505666518808889 1 0.0092853631705161737 0.0078033413083874988 1 1 1 1 1 1 1 1 1 1 1 0.0073046344249474574 1 1 1 1 1 0.0058934570446720373 0.0079032526731092241 1 1 1 1 1 1 1 1 1 1 1 0.011282014206105478 1 1 1 1 0.0031986164433807683 1 1 1 1 0.0015876138727372487 1 1 1 1 1 1 1 1 0.0097952919304500202 1 0.0083680170219932997 1 1 1 1 0.0091932051298994118 1 1 1 1 1 1 1 1 1 1 1 1 0.0095868156171091228 1 1 0.0091127316633190462 1 1 1 1 1 1 1 1 1 1 1 1 1 0.0096726520307552164 1 1 1 0.0092494131688694164 1 1 1 1 0.0089289621196418974 0.0097234971226594913 1 1 1 1 1 1 1 1 1 1 1 1 1 0.0091825650390476125 1 1 1 1 1 1 1 1 1 1 1 1 1 1 1 0.0092035014921196846 0.0095100246402992413 1 1 1 1 1 1 1 1 1 1 1 1 1 1 1 1 1 1 1 1 1 1 1 1 0.009732486366585448 1 0.0089873084882592935 1 1 1 1 1 1 1 1 1 1 1 1 1 1 1 1 1 1 1 1 1 1 1 0.010059342068003163 0.010278695842820342 1 0.0073820217402778728 0.0099327753446330561 1 1 1 1 1 0.009758726130518194 1 0.0068571526026487643 1 1 1 1 1 1 1 1 1 1 1 1 1 1 1 1 0.010024404826715311 1 1 0.010485777650408109 1 0.0081360352316020967 1 0.010151332256892366 1 1 1 1 1 1 1 0.0096422883088445495 1 1 1 1 1 1 1 1 1 1 1 1 1 1 1 0.0080740091263101325 1 1 1 0.0095163847122074902 1 1 1 1 0.0098193375407555662 0.0065122044741962488 1 1 0.0091572677127767926 1 1 1 1 1 1 1 1 0.008049358869363251 1 1 0.0078981802460949772 1 0.010392392972587523 1 1 1 0.0086515778834588032 1 1 0.0096718503553377428 1 0.010376234344349962 1 1 0.0086634057080058873 1 1 1 0.0099825319874089057 1 1 1 1 0.010087786165802007 0.0077153754302436966 1 1 1 1 1 1 1 1 1 1 1 1 0.0098206866157974498 1 1 1 1 1 0.0099425414005635468 1 1 1 1 1 1 0.0085991230766016367 1 0.0084852032818640514 1 1 1 1 1 1 1 1 1 1 0.0075831628284514022 1 1 0.010053297194474569 1 1 1 1 1 1 1 1 1 0.0094301701792753895 0.0076779651674313294 1 1 1 1 1 0.0083297434355084736 1 1 1 0.0084622291247392865 1 0.0070383251041184021 1 1 1 1 1 1 0.0076964634853501435 1 1 1 0.0090527740879738777 1 1 1 1 1 1 1 1 1 1 1 1 1 1 1 1 1 1 1 1 1 1 1 1 1 1 1 1 1 0.0080236617600680064 1 1 1 1 1 1 0.0097534606866941081 1 1 1 1 1 1 0.010978535687116051 1 0.0051224834074210038 1 1 0.0079964752348239947 0.0090464672443668487 1 1 0.0083734362333956862 1 1 1 1 1 1 1 1 1 1 1 1 1 1 1 1 1 1 1 1 1 1 1 1 1 1 1 1 0.0066300546789341526 1 1 1 1 1 1 1 1 1 1 1 1 1 1 1 1 1 1 1 1 1 1 1 1 1 1 1 1 1 1 1 1 0.0087140838706872871 1 1 1 0.007670251316316848 1 1 1 1 1 1 0.0089538022002882862 1 1 1 1 1 1 1 1 1 1 1 1 1 1 1 1 1 1 0.0086208823388328696 1 0.0064327538533635233 1 1 1 1 1 1 1 1 1 1 1 1 1 1 1 1 1 1 1 1 1 1 1 1 1 0.0096834191613881567 0.008565432485324433 0.0079986682563611446 0.010005301347573627 0.009605311809632212 0.010073801370638952 1 1 1 1 0.0098010644008205503 1 1 0.010533399551219097 1 1 1 1 1 1 1 1 1 0.0070681750584122597 1 1 1 0.010024974384163245 1 1 0.0097471803700468866 1 0.0097547524703680104 1 0.0081139091160769786 1 0.0098916956254737794 1 0.010366745276373764 1 1 1 1 1 1 0.011170312339674509 1 1 0.0080384407451679542 1 1 1 1 1 0.0092866504585574911 1 1 1 1 1 0.0048691942346617912 1 1 1 1 1 1 0.0048831342600526555 1 1 1 1 1 1 1 0.007793717249234589 1 1 1 0.0059625362792590578 1 1 1 1 1 1 1 1 1 1 1 1 0.0096314331486686174 1 1 0.0099506175082388366 1 1 1 1 0.003323014925379209 1 0.0093502192576923396 1 1 1 0.0043211017894314047 1 1 1 1 1 0.010035745183477674 1 0.0091941515924121413 1 1 1 1 1 1 1 1 1 0.0095638299818483433 1 1 0.0094443624538511541 1 1 0.0092481743968517265 1 1 0.0089550249175310709 0.0094417843376847117 1 1 1 1 1 0.0098290801179284504 0.0066492911231378279 0.0095102927440521446 1 1 1 1 1 1 0.0099536622140205255 1 1 1 1 1 1 1 1 1 1 1 1 1 1 1 1 1 1 1 1 1 1 1 1 1 1 1 1 1 1 1 1 1 1 1 1 1 1 0.0097986283201672107 1 1 1 1 1 0.0089177964149908459 0.010055174657535301 1 1 1 0.0094555183497997998 1 1 1 0.010067630811804056 1 0.0065181629115559411 1 0.0060330503417656556 1 0.010180304861618186 0.010075068696039658 1 0.0077505374347203414 1 1 1 1 0.0078166087377463042 1 1 1 1 1 1 1 1 1 1 1 1 1 1 1 1 1 1 1 1 1 1 1 1 1 1 1 1 1 1 0.0098232972607650848 1 1 1 1 1 1 1 1 1 1 1 1 1 1 1 1 1 0.0095893375161549207 1 1 1 1 1 0.0098381208536707405 1 1 1 1 0.0077301825375443774 1 1 1 1 1 1 1 0.009893313739700059 1 1 1 1 1 1 1 1 1 1 1 1 0.0088353262403798941 1 1 1 1 1 1 1 1 1 1 1 1 0.01005634802714914 1 1 1 1 0.0081083447253487272 0.0080326475482587738 1 0.0097696448622420409 1 1 1 1 0.0095468968118916607 1 1 0.0097956776886665344 1 1 1 1 1 1 1 0.0099465219647096072 1 1 1 1 1 1 1 1 1 1 1 1 0.0094006539205101908 1 1 1 0.0039154990725907947 0.0095596770569296337 1 1 1 0.0082606914233848954 1 1 1 1 1 1 1 0.010002919952263493 1 1 1 0.0030219914998849996 1 1 0.003774431412244116 1 1 1 1 1 1 0.0099202920819336463 1 1 1 1 1 1 1 1 1 1 1 1 1 -1.4542782330803639e-08 1 1 1 1 1.1010082113377395e-08 1 1 1 1 1 1 1 1 1 1 0.00078465964671083424 1 1 1 0.002101575230901008 1 0.0080972322815728148 1 1 1 1 1 1 1 1 1 1 1 1 1 1 1 1 1 1 1 1 1 1 1 1 1 0.0095598047663381265 1 1 1 1 1 1 1 1 1 1 1 1 1 1 0.010008411308196977 1 0.010083182279762879 1 1 0.0098840536938481389 1 1 1 1 1 1 0.010038078613835438 0.0095578513089756983 1 1 1 1 1 0.0099857998084126372 1 1 1 0.008945454309863092 0.010621254014467472 1 0.0099950123991980021 1 1 1 1 0.010955477850233954 1 0.010130153677848315 1 1 0.0099257868311801428 1 1 1 0.0040601966898588648 0.0056250137298685474 1 0.0077874835520981324 1 0.008745001184060441 1 0.0095583860391577988 1 1 1 1 0.0098882763713120884 1 1 1 1 0.0081544306400491168 1 1 1 1 1 1 1 1 1 1 1 1 1 1 1 1 1 1 1 0.0078912457091172492 1 1 1 1 1 0.007783512170524063 1 0.0042176735369127243 1 1 0.0096359543404107278 1 1 1 1 1 1 0.0059564959006317125 1 1 1 0.0079716939727265193 0.0091682166900117663 1 1 1 0.010032302508199949 1 1 1 1 0.0097314420002291204 1 1 1 1 1 1 1 1 1 1 1 1 1 1 1 1 1 1 1 1 1 1 1 1 1 1 1 1 0.0080942134839498726 1 1 1 1 1 1 1 0.0092835343701938248 1 1 1 0.0087548694230274553 1 1 0.0073992566191310484 1 1 0.01010020563250956 1 0.0080239373426749354 1 1 0.0099966194788211459 1 0.010274673066738627 0.01145112411210544 1 0.0078339757174130473 1 0.0054847816773449356 1 1 1 1 1 0.0099565167429829099 1 0.0089327990970891058 1 1 1 0.010036082953005659 1 1 1 1 0.0053926733676759753 1 1 1 1 1 0.0053855788922588018 1 1 1 1 1 1 1 1 1 1 1 1 1 1 1 1 1 1 1 1 1 1 1 1 1 1 1 1 1 1 1 1 1 1 1 1 1 1 1 1 1 1 1 1 1 1 1 0.010012929436833039 1 1 1 1 1 1 1 1 1 1 1 1 1 1 1 1 1 1 1 1 1 1 1 1 0.0093338342756981007 1 1 1 1 1 1 1 1 1 1 1 1 1 1 1 0.0093504191244728023 1 1 1 0.0084662524560587277 1 1 1 1 1 1 1 1 1 1 1 1 1 0.0097750488231353998 1 1 1 1 1 1 1 1 1 1 1 1 1 1 1 1 1 1 1 1 1 1 1 1 1 1 1 1 1 0.0092522840227594379 1 1 1 1 0.0094610039291409161 1 0.010431286341757016 1 1 1 1 0.0083579522549984513 1 1 1 0.0091623204249176651 1 1 1 0.011202135426126905 1 1 1 1 0.0075296950616994245 1 0.011475442890850413 1 1 1 1 1 1 1 0.0096118815118984881 1 1 1 1 0.0089885639098431329 1 1 1 1 1 1 1 1 1 1 1 1 1 1 1 1 1 1 1 1 1 1 1 1 1 1 1 1 1 1 0.010477302623840416 1 1 1 1 1 1 0.0091754851382010935 1 1 0.0094994422830823426 1 1 1 1 0.0092748953544466977 0.0094661338777363279 0.0096590432228261629 1 1 0.0077251882183235242 1 1 1 0.0098501782819858073 0.010046922003029949 1 0.0086735099285191204 1 1 1 0.0087200234992219974 1 1 1 1 1 1 1 1 1 0.0091238333041953334 1 0.010007191133450076 1 1 1 1 1 1 1 1 1 1 0.0091704035787986346 1 1 1 1 1 1 1 1 1 1 1 0.010364791364857177 1 1 1 1 1 1 1 1 1 1 1 1 1 1 1 1 1 1 1 1 1 1 1 1 0.0095423630018611847 1 1 1 1 1 1 1 1 1 0.00883856072070556 1 1 1 1 1 1 1 1 1 1 1 1 1 1 1 1 0.0086691035408584371 0.0097596891187421604 1 0.0092201167077087028 1 0.0093614369268354286 1 1 0.010000479496227897 1 1 1 0.010021889942857444 0.0086425553441601202 0.010024196527169699 1 1 0.0098261036636946575 1 0.0093949743949266126 0.0090025873008569793 1 1 1 1 0.0088926365706193649 1 0.0095600274421172374 0.0086751780074907983 0.0091809851630653 1 1 1 1 1 0.0094301874126709699 1 1 0.0092389724100097638 0.0093726592949070677 1 1 1 1 0.0091922842506532432 1 0.0092796953658390718 1 1 0.0098028863448865917 1 1 1 1 1 1 1 1 1 1 1 1 1 1 1 1 1 1 1 1 1 1 0.0079235536667494784 1 1 1 0.0083453070860560231 1 0.0081565861127693099 0.0095013884345925767 1 1 0.0052234990971538539 1 1 0.0093828152409637169 1 1 1 1 0.0092574656075268234 1 0.0082245477315869894 1 1 1 1 1 1 1 1 1 0.0091745228185544613 1 1 1 1 1 1 1 1 0.0079466599164288755 1 0.0096159069099615285 1 1 1 1 1 1 1 1 1 1 1 1 1 1 0.0083294557125519943 1 1 1 0.007485739793252906 1 0.0081914263503878385 1 1 1 0.010033805091088218 1 1 1 1 1 1 1 1 1 1 1 0.010053605394729426 1 1 1 1 1 1 1 1 1 1 1 1 1 1 1 1 1 1 0.0097977114727324285 1 0.0097161065480817835 1 1 1 0.0099490243989190444 0.0094286110663373817 1 1 1 1 1 1 1 1 1 0.0099754866499619406 1 1 1 1 1 0.0094802151832369327 1 1 1 0.010047547314105296 1 0.0093487345201098346 1 0.010113429805771351 1 0.010176433781924111 1 1 1 1 1 1 1 1 0.0093032070665084871 1 1 1 0.0092055641340801179 0.010020972821944966 1 1 1 1 1 0.0090687209402534937 0.0088018543871607284 1 1 1 0.0086763247992710651 1 0.0093129483843401376 1 1 1 1 1 1 1 1 0.0078545989590183656 0.0099686579057754431 1 1 1 1 0.0099785939907291697 1 1 1 1 0.009971184559435374 1 1 1 1 1 1 1 1 1 1 1 0.0099880683149456591 1 1 1 1 1 1 1 1 1 0.0099751269363839747 1 1 1 1 1 1 1 0.010022613957099301 1 1 0.010032219568238602 1 1 0.0097708284463418286 0.0093995971081203555 0.0090316598237450314 1 1 1 0.0083598495301617174 1 1 1 0.0099985362006440107 1 1 1 1 1 1 1 1 1 1 1 0.0086884817434426907 1 0.0085054298187353019 1 0.0087495705942346805 1 1 0.0098579079646956506 1 1 1 1 1 1 1 1 1 1 0.0099165810350489176 1 1 0.010050585003504376 1 1 0.01000728776974333 1 1 0.0099403671863928997 1 0.0099648805364309714 1 1 1 1 1 1 1 1 1 1 1 1 1 1 0.009588997632951575 1 1 1 1 1 1 1 1 1 1 1 1 1 1 1 1 1 1 0.0091373936033548441 1 1 1 1 1 0.0095568571390414261 1 0.010021297414929641 1 1 1 1 1 1 1 1 1 0.0095452280795387881 1 1 1 1 0.0099965096154938128 1 1 1 1 1 1 1 1 0.0086588838735103049 1 0.0084988919310519575 1 1 1 0.0098160234791418478 1 1 0.0086169835223172831 1 1 0.0099170453933727486 1 1 1 0.0099611312545538708 1 1 1 1 1 1 1 0.0095483959704032728 1 1 1 1 1 1 1 1 1 1 1 1 1 1 1 1 1 1 1 1 1 1 1 1 1 1 1 1 1 1 1 1 0.0099828094209294792 1 1 0.0099222764923550255 1 1 1 0.0098457380351626399 1 0.0084291611357411225 1 1 1 1 1 1 1 1 0.0078835781682447831 1 1 1 1 1 1 1 1 1 1 1 1 1 1 1 1 1 1 1 1 1 1 1 1 1 1 0.0086281554669938153 1 1 0.0087452639652797481 1 1 1 1 1 1 1 1 1 1 1 1 1 1 1 1 1 1 1 1 1 1 0.0068744418517132436 1 1 1 1 1 1 1 1 1 1 1 1 1 0.0064094272076611284 1 1 1 1 1 1 1 1 1 1 1 1 0.0099957851178436655 1 0.0099927292328530499 1 1 0.0099937891326510684 0.009999534362993728 1 1 1 1 1 0.010117746640955964 1 0.0092530556265092 1 1 0.0091961687842811134 1 0.010102579589523403 1 1 0.009668264802326007 0.0095767707080206925 0.00951126619656773 1 1 0.0099994136945693087 1 1 1 0.0099973717342409438 0.0099997671924230511 1 1 1 1 1 1 1 1 1 1 1 1 1 1 0.0099090985971303763 1 1 1 1 0.010007181047327599 1 0.0090361537623098991 0.0097365416232882314 1 1 1 0.009354345158856919 1 0.010145749300611798 1 1 1 0.0091607732352217055 0.0099989788898873101 1 1 1 0.009787119976356673 1 0.010239880748912054 1 0.0090998182390298939 1 0.010216005873621238 1 1 0.0090924633762161592 1 0.0079250333095371977 1 1 0.0099919736083448323 1 1 1 1 1 1 0.0099933875031621138 1 1 1 1 1 1 1 1 1 1 1 1 1 1 1 1 1 1 1 0.010087778409404915 1 1 1 1 1 0.010000119827743811 1 1 1 0.01001673005616769 0.0099524101959931333 1 1 0.008335438532916177 1 1 1 1 0.0081218358235064323 1 1 1 1 1 1 1 1 1 0.0079721612880277876 1 1 1 0.0097375955318143477 0.009988505772478791 1 0.0099205284514223557 1 1 1 1 1 1 1 0.0099963552533656359 1 0.0086385839899846186 1 1 1 1 1 1 1 1 0.010015570735887368 1 1 1 1 1 1 1 1 1 1 1 0.010029378191984458 1 1 1 1 1 1 1 1 1 0.0099998538521077866 1 1 0.01071788007150116 1 1 1 1 1 1 1 1 1 1 1 1 1 1 1 1 1 1 1 1 1 1 1 1 1 1 1 1 1 1 1 1 1 1 1 1 1 1 1 1 1 1 1 1 1 1 1 1 1 1 0.010224705384284464 1 1 1 1 1 1 1 1 1 1 1 1 1 1 1 1 1 1 0.0094720192463062045 1 1 1 1 1 1 1 1 1 1 1 0.010586326363563272 1 1 1 1 1 0.010977006283555467 1 1 1 1 1 1 1 1 1 1 1 1 1 1 1 1 1 0.0099764273718146636 1 1 0.0099825998777541957 1 1 1 1 1 1 1 1 1 1 0.0092731614527987258 1 1 0.0099746086681312112 1 0.0096334576178102056 1 1 1 1 1 1 1 0.0088427143499970884 1 0.0085644612996792404 1 1 0.009765959863193327 1 1 1 1 1 0.010138917371248828 0.0075847500965394322 1 1 1 1 1 1 1 1 1 1 1 1 1 1 0.0099877299480705603 1 0.010488383390061138 1 1 0.010000733245103945 1 1 1 1 1 1 1 1 0.0087227485643464955 1 1 0.0077522560636316476 1 1 1 1 1 0.01015236438448372 1 1 1 0.010782177677457023 0.010014050497475124 1 1 1 0.0076801153254683341 1 0.0086582789663453754 0.010054796446329093 1 1 1 0.010019843044282195 1 1 1 0.0092969801133619273 1 1 0.0074811762609058186 0.0087209982472302109 0.0098478939421328474 1 0.010885082003986656 0.0078182094383126687 1 1 1 1 1 0.010000803239537684 1 0.010183740535722954 1 0.0094364555493198152 1 0.0095652189603340747 1 1 0.01031849914563049 1 0.008106541432783422 1 1 0.0079182168630305 0.010013099276114787 1 1 1 0.0062216520842521029 1 1 0.0093127334228078357 1 1 1 1 1 1 1 1 1 1 1 1 0.010224182762330485 1 1 1 1 1 1 1 1 1 1 1 1 0.0090383732909071375 1 1 1 1 1 1 1 1 1 0.0074905805696351821 1 1 1 0.006901025198108186 1 1 1 1 1 1 0.010177668506676597 1 0.010345087037742503 1 1 1 1 1 1 1 1 1 1 1 1 1 1 1 0.0099050141038043993 1 1 1 1 1 0.0076513731169613229 1 0.0099622105938570946 1 1 0.0065977228286896476 1 1 1 1 1 1 1 1 1 1 1 1 1 1 1 1 1 1 1 1 1 1 1 1 1 1 1 1 1 1 1 1 1 1 1 1 1 1 1 1 1 1 1 1 1 1 1 1 1 1 1 1 1 1 1 1 1 1 1 1 1 1 1 1 1 1 1 1 1 1 1 1 1 1 1 1 0.009525051987491602 1 1 1 1 1 1 1 1 1 1 1 1 1 1 1 1 1 1 1 0.0083521692470963881 1 1 1 1 1 0.010246964312646573 1 1 1 1 1 1 1 1 1 1 1 1 1 1 1 0.0072759351789849248 1 1 1 1 1 0.0091191170512458786 1 1 0.0074858600181844266 1 1 1 1 1 1 1 1 1 1 1 1 1 1 1 1 1 1 1 1 1 1 1 1 1 1 1 1 1 0.0088817750159968321 1 1 1 1 1 1 1 1 1 1 1 1 1 0.0069592202402844819 1 0.010002333166205418 1 0.0089979215939652857 0.0082780931252335963 1 1 1 0.010879276562082509 1 1 1 1 1 1 1 1 1 0.0096631695491003009 1 1 1 1 1 1 1 1 1 1 1 1 1 1 1 1 1 1 1 0.011845158344229192 0.0071563967338680382 1 1 0.0099239120159837265 1 1 1 1 1 1 1 1 1 1 1 1 1 1 1 0.010791176797056325 1 1 0.010114708346859512 1 1 1 1 0.0089519373776002723 1 0.0099456170231883301 1 1 1 1 1 1 1 1 1 1 1 1 1 0.0090977159492870371 1 1 1 1 0.0076990653363337002 1 0.0099792686994894832 1 1 1 1 1 0.0073466133523264025 1 1 1 1 1 1 1 1 1 1 1 1 1 1 0.0099791881295616183 1 1 1 -4.7746698400574772e-09 1 1 1 1 1 1 1 1 0.009700160432853636 1 1 1 1 0.0095999319059798943 0.0093803491516201484 1 1 1 1 1 0.00016092036421537677 1 1 1 1 1 1 1 1 1 1 1 0.0094908732572459437 1 1 1 1 1 1 0.0085883426142059974 1 0.0078384297836350814 1 1 1 1 1 1 1 1 1 1 1 0.0076923761616929272 1 1 1 0.0079858169919946563 1 1 1 0.0097378861439224463 1 0.0089199703332658257 0.0080732537765404455 0.0093842035359555619 1 0.010539092980996128 1 0.0080912417136128033 1 1 1 0.0066234089543481429 0.0099878474632934238 1 1 0.0099994680697760765 1 1 1 0.011730886941658388 1 0.011236476368885006 1 0.0073694699508490575 1 1 0.010005168171972226 0.011710200263505348 0.0070168021128780055 1 0.010441816334431205 1 0.0094382482327077591 0.010746857652418666 1 1 0.0071171990598095378 1 0.0062506480002273278 1 1 1 1 1 0.0084096901514351865 1 0.0078941160474496879 1 0.010929065653857227 1 0.0097224581045421993 0.0095579202629627914 1 0.0074184072144141289 1 1 0.0096913402835045372 1 1 1 0.0068637990788362174 1 1 0.0072242251328716485 1 1 0.0099977163711711635 1 1 1 1 0.0049474120696765891 1 1 0.0088966099452478138 1 0.0081983309975309556 1 1 1 1 1 1 1 1 1 1 1 0.0096901533939029293 1 0.0099434648256116129 1 1 1 1 1 0.00012601288921604108 1 1 1 1 1 1 1 1 1 1 1 1 1 1 1 1 1 1 1 0.0098750795799115824 1 1 1 1 0.0098369422714139655 1 1 1 1 1 1 1 1 1 1 1 1 1 0.0097589462222033019 1 1 1 1 1 1 1 1 1 1 0.0084856609467375815 1 1 0.0099292971206427754 1 1 1 0.0099989861435017934 0.007595910850415907 1 1 1 1 1 0.0084424478387496657 1 1 1 1 1 1 1 1 1 1 1 1 1 1 1 1 1 1 1 1 1 1 1 1 1 0.0095651496498012443 1 1 0.0079655326735771116 1 0.010010451608924744 1 1 0.0098610581111153763 1 1 1 1 1 1 1 1 1 1 1 1 1 1 1 1 1 1 1 1 1 1 1 0.0099807441983050076 0.0098319169315120806 1 1 1 1 0.0097094897820743809 1 1 1 1 1 0.0098838666422917318 1 1 1 1 1 1 1 1 1 1 1 1 1 1 1 1 0.0096346238358094166 1 1 1 1 1 1 1 1 1 1 1 1 1 1 1 1 1 1 1 1 1 1 1 0.0090371950317507006 1 0.009554674483652971 1 1 1 1 1 1 1 1 1 1 1 1 1 1 0.008537154005614625 1 0.0063717576641974631 1 1 1 1 1 1 1 1 1 0.010051321949681663 1 1 0.010218740480747557 1 1 1 1 1 1 1 1 1 1 1 1 1 1 1 1 1 1 1 1 1 1 0.0099428035099473032 0.008684839743161421 1 1 1 1 1 1 1 1 1 1 1 1 1 1 1 1 1 1 1 0.0095904333059527308 1 1 1 1 1 1 0.010357854434916033 1 1 1 1 1 1 1 1 1 0.0086310852392538825 1 1 1 1 1 1 1 1 1 1 1 1 1 1 1 1 1 1 1 1 1 1 1 1 1 1 1 1 1 1 1 1 1 1 1 1 1 1 1 1 1 1 1 1 1 1 1 1 1 1 1 1 1 1 1 1 0.0074516680509316806 0.010331856889881535 1 0.010024706433965006 1 0.0070991614437920948 0.0068374727516944851 1 1 1 1 1 1 1 0.0048092059746064134 1 1 1 1 1 1 1 1 1 0.0099943942674958347 1 1 0.0099728668602686223 1 1 1 1 1 1 1 1 1 1 1 1 1 1 1 1 1 1 1 1 1 1 1 1 1 1 1 1 0.0096149864190423224 1 1 1 1 1 1 1 0.00082872820564321853 1 1 1 1 1 1 1 1 1 1 1 1 1 1 1 0.011155376663586129 1 0.0020448770962052613 1 1 4.1883605958470405e-11 0.010003755397701777 0.0059601198546744231 1 0.0072796886951923623 1 1 1 0.010176215213995629 1 1 1 1 1 1 1 0.0089164772052504754 1 1 1 1 1 0.0094784274737912087 1 1 1 1 1 1 1 1 1 1 1 1 1 1 1 1 1 1 1 1 1 0.0099835561377355081 1 1 1 1 1 1 1 1 1 1 0.009671892441422851 1 1 1 1 1 1 1 1 1 1 1 1 1 0.0099766675693684168 1 1 1 0.0091640018537120557 0.0094907079174842701 1 1 1 0.0096574510332269603 1 1 0.0096760628175152352 1 1 1 0.0097346355370604119 1 1 1 1 0.0089117808788298832 1 1 1 1 1 1 1 1 1 1 1 1 1 1 0.009758783144800413 1 1 1 1 1 0.010353625965978852 1 1 0.011070996159117309 1 1 1 1 1 1 1 1 0.0099776010548936981 1 1 1 1 0.0099940449171581902 1 1 1 1 1 1 0.010021527407227209 1 1 1 1 0.0030312509239621508 1 1 1 1 1 1 0.0018324021912591634 1 1 1 1 1 1 1 1 1 1 1 1 1 1 1 1 1 1 1 1 1 1 1 1 1 1 1 1 1 1 0.0095788250459409603 1 1 1 1 1 1 1 1 1 1 1 1 1 1 1 1 1 1 1 0.0099751793274860667 1 0.010763182029063529 0.009556252807389063 0.0095379935802613544 1 1 1 1 1 1 0.0038292902157300041 0.011205656495325657 1 1 1 1 1 1 1 1 1 1 0.012868159345861503 1 1 1 1 1 1 1 1 1 1 0.010348733988166462 1 1 1 1 1 1 0.011057449667078832 1 1 1 1 0.0098385109155671637 1 1 0.002858766021179078 1 1 1 0.0024963951758187886 0.0096214736972551791 1 1 1 0.0094835264269907613 1 1 1 1 1 1 1 1 0.011798927240343768 1 1 1 1 1 1 0.0011782024766936947 1 1 0.0100025842724629 1 0.0063645688838549243 0.010042135265301143 1 0.012514603983049998 1 1 1 1 0.0077768612304987845 1 1 1 1 1 1 1 1 1 1 1 1 1 1 1 1 1 0.0093753520331028503 1 1 1 1 1 1 1 1 1 1 1 1 1 1 1 1 1 1 1 1 0.0097573842167312311 1 0.0067926675418139423 1 0.008492937384507928 1 0.0093049024115135267 0.010672044953797439 1 1 1 1 1 1 1 1 0.010185851440923826 1 1 1 1 1 1 1 1 1 1 1 1 1 1 1 1 1 1 0.0092577419602091187 1 1 1 1 1 1 1 1 1 0.010343162151090315 1 1 1 1 1 1 1 1 0.0076634220960346451 1 1 1 1 1 1 0.010711199389366589 1 1 1 0.010135349060673206 1 1 0.011468294833096812 1 1 1 1 1 0.0060191107495483741 1 1 1 0.011507115924552261 1 1 1 1 1 1 1 1 0.010157997213780138 1 1 1 1 1 1 0.0099688710876128985 1 1 1 1 1 0.0099434705669004756 1 0.010658388907747566 1 0.0099896854989637487 1 1 0.0074311723352809816 1 1 1 1 1 1 1 1 1 0.0097643864740682568 1 1 1 1 1 0.009909221949702467 1 1 1 1 1 0.0099358039670578244 1 1 1 1 1 1 1 1 1 1 1 1 1 1 1 1 1 1 1 1 1 1 1 1 1 1 1 1 1 1 1 1 1 1 0.0098573649731602334 1 1 0.010296780460729411 1 1 1 1 1 1 1 1 1 1 1 1 1 1 1 1 1 1 1 1 1 1 1 1 1 1 1 1 0.0094350988797882902 1 1 1 1 0.010065957073677401 1 1 1 1 0.0099116272339857675 1 1 1 1 1 1 1 1 1 1 1 1 1 1 1 1 1 1 1 1 1 1 1 1 1 1 1 1 1 0.0087143155472832676 1 1 1 1 1 1 0.008882649525380969 1 1 1 1 1 1 1 1 0.0095549041003796555 1 0.0094719426302600322 1 1 1 1 1 1 1 1 1 1 1 0.0098941951023435067 1 1 1 1 1 0.0096707529617193928 1 1 1 0.0098423316283614386 1 1 1 1 1 1 1 1 1 1 1 1 1 1 1 1 1 1 1 1 1 1 0.0099674484153516197 1 1 1 1 0.0085980841934307703 1 1 1 1 1 1 1 1 1 1 1 1 1 1 1 1 1 1 1 1 1 1 1 1 1 1 1 1 1 1 1 1 1 0.0099999362608145237 1 1 1 1 0.0098991730017432382 1 1 1 1 1 0.0099991779546189635 1 1 1 0.0082314093433162212 1 1 1 1 1 1 1 1 1 1 1 1 0.0099991746928977943 1 1 1 1 1 1 1 1 1 0.009976403613835564 0.010180155089905919 1 1 1 1 1 1 1 1 1 1 1 1 0.0080687839071572759 1 0.0093440526076492402 0.0098327187047048212 1 1 1 1 1 0.0098746212737652779 1 1 1 1 1 1 0.0087923676347682923 1 1 0.0083472903255682115 1 0.0098243260423173436 1 1 1 1 1 1 1 1 1 1 1 1 1 1 1 1 1 1 1 1 1 1 1 1 1 1 1 1 1 1 1 1 1 1 0.0097916785142198193 1 1 0.0070951420815802881 0.0093215480427653302 1 1 1 0.0043810107437075932 1 1 1 1 1 1 1 0.01015557598898194 0.0099972394394185482 0.0065630208629779609 0.0088613163262056677 1 1 0.0079610805418609785 1 1 0.0095829638590404654 1 0.0077327565912200733 1 1 1 1 1 1 1 1 1 1 1 1 1 1 1 1 1 1 1 1 1 1 1 1 1 1 1 1 1 1 1 1 1 1 1 0.0051303652569241309 1 1 1 1 0.0065161070675857271 1 1 1 1 1 1 1 1 1 0.010116362564273149 1 1 1 1 1 0.010287575229091335 1 1 1 1 0.0096588697670838344 1 1 1 1 0.0091749598139591708 1 1 1 1 0.0096534913664335295 1 1 1 1 1 1 1 1 1 1 1 1 1 1 1 1 1 1 1 1 0.0043082985095613553 1 1 0.010029375424631592 1 0.0044905315390334002 1 1 1 1 1 1 1 1 1 1 0.004944654705600922 1 1 1 1 0.010204460174200148 1 1 0.0099024650890779213 0.010704292999425262 1 1 1 1 1 1 1 1 1 1 1 1 1 1 1 0.0056594212290944782 1 1 1 1 1 1 1 1 1 1 1 1 1 1 0.010374568940988068 0.01019360820894716 1 1 0.010304475084928714 1 1 1 1 1 1 1 1 1 1 1 1 1 1 1 1 1 0.0095638428944785445 1 1 1 1 0.0088584211271569378 1 1 1 1 1 1 1 1 1 0.0083924513901940685 1 1 1 1 1 0.0039287723748125461 0.0089337924305442282 1 1 1 0.010053000494926356 1 1 1 1 0.0083252215060593548 1 1 1 1 1 1 0.010028231904541354 1 1 1 1 1 1 1 1 1 1 1 1 0.0053490460395105386 1 0.0057768861371762549 1 1 1 0.0052468057132029778 1 0.0087594780007364814 1 1 1 1 0.0045588097424664499 0.011491939706738907 1 0.0096103449700006074 1 1 1 1 1 1 1 1 1 0.0056962103487138895 1 0.0091249541468387662 1 1 1 0.0036640296110084791 1 1 1 1 1 1 0.010003949342494954 1 1 1 1 1 1 0.0092524598424819377 1 1 1 0.011217934095828417 1 0.01093936454463602 1 0.006915388870062808 1 0.010680986000679914 0.010957993147130541 1 1 0.0043915366514590375 1 1 0.003595223431729232 1 0.010345307150031324 1 1 1 1 1 1 1 1 1 1 1 1 1 0.0020650357722888438 1 1 1 1 0.010660330084496992 1 1 1 1 1 1 1 1 1 1 1 0.0071350573752232346 1 0.0073842721272993819 1 1 0.0099177505906852537 0.006749167252967668 0.0082938940585564822 1 1 1 0.0089808805784659263 1 1 0.0089577338105586209 1 1 1 1 1 1 1 1 1 1 1 0.0098468871891546298 1 1 1 1 1 1 0.0055253219946483616 0.0099764018158548014 1 1 1 1 1 0.0058303091149138481 1 0.0099660818405588863 1 1 1 1 1 1 1 1 1 1 1 1 1 1 1 1 1 1 1 1 1 1 1 1 1 1 1 0.0097566920887237792 1 1 1 1 1 0.0093063070942499514 1 1 1 1 1 1 1 1 1 0.0068599303975912101 0.0092655857737188856 1 1 0.0095486888191759905 1 1 1 0.010324157382315704 1 1 1 1 0.0085876758871797701 0.0088383458097315796 1 0.010025764362861393 1 1 0.0099853027472233732 1 1 1 1 1 1 1 1 1 1 1 1 1 1 1 1 1 1 1 1 1 1 1 1 1 1 1 0.0099847852317267137 0.010480654147057537 1 1 0.010950794146059598 1 1 1 1 1 0.011102458647942412 0.0098315948492830856 1 0.0092296621967471668 1 0.010712039465877371 1 1 1 1 1 1 0.0078413252548960519 1 0.0085409417907404243 1 1 1 1 1 1 1 1 1 1 1 1 1 1 1 0.0099669389780472056 1 1 1 1 1 1 1 1 0.010065919331193239 1 1 1 1 0.0097094551655561682 1 1 1 1 1 1 1 1 1 1 1 1 0.0090977774767824673 1 1 1 1 1 1 1 1 1 1 1 1 1 1 1 1 1 1 1 1 1 1 1 1 1 1 1 1 1 1 1 1 1 1 1 1 1 1 0.0091239768857207647 1 1 1 1 1 1 1 1 1 1 1 1 1 1 1 1 0.010544967914939181 1 1 1 1 0.010194472930410675 1 1 1 1 1 1 1 1 1 1 1 0.009849749628056844 1 1 1 1 1 1 1 1 0.0094602811737807459 1 1 1 1 0.0096486481689436916 1 1 1 0.0097988985408868773 1 1 1 1 1 1 1 1 1 1 1 1 1 1 1 1 0.0097632773801880398 1 1 1 1 1 1 0.010391138794697916 1 1 1 1 1 0.0092963221028299209 1 1 1 1 0.0088367295546186581 0.0069919778491039693 1 0.008208098119283587 0.0070777086392874618 1 1 1 1 1 1 1 1 1 1 1 1 1 1 1 1 1 1 1 1 1 0.0099988438991574363 1 1 1 1 1 0.010819673653487415 1 1 1 1 1 1 1 1 1 1 1 1 1 1 1 1 1 1 1 0.010347431477653541 1 1 1 0.0099954480319911793 1 1 0.010896859877175889 0.010026780137866386 1 1 1 0.009830217961094562 1 0.010112663331988464 1 1 0.0089082510277842027 1 1 1 1 1 1 0.010782090092908475 1 1.6079766884322111e-08 1 1 1 0.0079287508989881357 1 1 0.0099792270822256553 0.009304535838440325 1 0.0061403470286870328 1 1 1 1 1 1 0.006165098462968711 1 1 1 1 1 1 1 0.0099873320515281375 0.0071058312950754449 0.0083811177189175648 1 1 1 0.0079708641215046304 1 1 1 1 0.0043449486449807524 1 1 1 1 0.0077247023080287813 1 0.00062693256216814208 1 1 1 1 1 1 1 1 1 1 1 1 1 1 0.0094767957086183477 1 1 0.0072256298167614943 1 1 1 1 0.0085640332792114218 1 1 1 1 1 1 0.0098058506570814011 1 1 1 1 1 1 1 1 0.011639164051439287 1 1 0.010027131181046438 1 1 1 0.0042696470714810551 0.0065719322155805334 1 1 1 1 1 1 1 0.0093739036737714634 0.0098084142324647017 1 1 0.0069241343170021417 1 1 1 1 1 0.007765828534801027 1 1 1 1 1 1 0.008133176829141036 1 1 0.007733932167266401 1 1 1 0.0099989459191692429 1 1 1 1 1 0.0071580390069242786 1 1 1 1 1 1 1 1 1 1 1 1 1 1 1 1 1 1 1 1 1 1 0.011471663158043125 1 1 1 1 1 0.010523701268144182 0.011346581290179415 1 0.0085217184813559527 1 0.0092088949348909308 0.010021260299850102 1 0.0076622331557048319 1 1 1 1 1 0.0099392847827511639 1 1 1 1 1 0.0018798049058882105 1 0.010002141122178804 1 1 0.012432368271219954 1 1 0.0076433213657497844 0.0073355105095660733 1 1 1 1 0.0064640412276749191 0.0060625408761229328 1 1 1 0.0094163885645819692 1 0.011101779117541118 1 0.0057423060640659686 1 1 0.0074847871654249217 1 1 1 0.0099433691915864746 1 1 1 1 1 1 0.0078576887669407521 1 1 0.0091639942418072894 0.007753674611151444 1 0.008930061991793024 1 1 0.010204199089964975 1 1 1 1 1 1 1 1 0.0099361670739348453 1 1 1 1 1 1 1 1 1 1 1 1 1 0.0099153744664992501 1 1 1 0.0099698440281427297 1 1 1 1 0.0099062142902029103 1 1 1 1 1 1 1 1 1 1 1 1 1 1 1 1 1 1 1 1 1 0.0089842226984038313 1 1 1 1 0.0073985942459700044 1 1 1 1 1 1 1 1 1 1 1 1 1 1 1 1 1 1 1 1 1 1 1 1 1 0.0087987812427188956 1 1 1 1 0.0079798646969743495 1 1 1 1 1 1 1 0.0081818310984335639 1 0.0074485734142521864 1 1 1 1 1 1 1 0.0092391006321847664 1 1 0.0078774464010855846 1 1 1 1 0.0090786651583666875 1 1 1 1 1 1 1 1 0.010429173457318926 1 1 1 0.012135483426020699 1 0.0090516282255406581 1 1 1 1 1 0.0074782777088440999 1 0.0097433798663885338 1 1 1 1 0.0068418341086375345 1 1 0.0079174485356329101 1 1 1 1 1 0.0099901155162786751 1 1 1 1 1 1 1 0.0098693196116453261 1 1 0.009960067085354159 1 1 1 1 1 1 1 1 1 0.0099899659141663832 0.010085824885853852 1 1 0.0098097795526203568 1 1 1 1 1 1 1 0.010596412446917268 0.0097757907174092339 0.0054307332877553353 1 1 0.0089848467531411427 1 1 1 0.0092968177727405683 1 1 1 0.0086879138660690414 1 1 1 1 1 1 1 1 0.009808496088548474 1 0.0096262562942562215 1 1 1 0.0097583219760672153 1 1 1 1 1 1 1 0.009575086829095969 1 1 1 1 1 1 1 1 1 0.0095361835890748776 1 1 1 1 1 1 1 1 1 1 1 1 1 1 1 0.0085709850564097932 1 1 1 1 1 1 0.0072676714278015501 1 1 1 0.0056022331605653317 0.010121973143921135 1 1 1 1 1 1 1 1 1 0.0089227749196130485 1 1 1 1 1 1 0.0096884055653581637 1 1 0.0098439928850591312 1 0.010282352942138062 1 1 1 1 1 1 1 1 1 1 1 1 1 1 1 1 1 1 0.010950178638736164 1 1 1 1 1 0.0093116208937569223 1 0.0088876435118061554 1 1 1 1 1 1 0.0071006722491416046 1 0.010648598139644127 1 1 1 0.010579591440716254 1 1 1 1 0.0088942407826813966 1 1 1 1 1 0.011668770033733636 1 1 1 1 1 1 1 1 1 0.009005671596535321 1 0.0099543096854571873 0.011202469534644103 1 1 1 1 1 0.009678789243217056 1 1 1 1 1 1 1 0.0069148305533566125 1 0.010858691113117623 0.0069772591630734467 0.0062418129229495564 1 1 1 1 1 0.0085767646537887945 1 1 0.008809138528937872 1 1 1 1 1 0.010647339871022763 1 1 0.0073665794570181133 1 1 1 1 1 1 1 1 1 1 1 0.0087426657036322394 0.0099996460787771073 1 1 1 1 0.007008568841903479 1 1 1 1 1 1 1 1 1 1 1 1 1 1 1 1 1 1 1 1 1 0.0091379228393830992 1 1 1 1 1 1 1 0.0099405617703594695 1 1 1 1 1 0.0090754079757362927 0.010006535168913259 0.010004114845357581 1 1 1 1 1 1 0.0078612559689897263 1 0.0077560964308150075 1 1 1 0.00873672584627639 1 1 1 1 1 1 1 1 1 1 1 0.008310012778016412 0.0089480812937412293 1 1 1 1 1 0.0095321462575859005 1 1 1 1 1 1 1 0.0094370795172362323 1 1 1 1 1 1 1 1 1 1 1 1 0.010508304120430412 1 1 1 1 1 1 1 1 1 1 1 1 1 1 0.010126434105637131 1 1 1 1 1 1 1 1 0.009929407363463115 1 1 1 1 1 1 1 1 1 1 1 1 1 1 0.011733137629160751 1 1 1 1 1 1 0.013017032442070111 1 1 1 0.010182339818464227 1 1 0.0099229236008484094 1 1 1 0.0080465431986387597 1 0.011328490949778083 0.0060853629406775328 0.010556850027710146 0.0080249529691688217 1 1 0.0086282153367138043 0.0088679783444349652 1 1 1 0.0079495949023814134 1 1 0.010488201640904322 1 0.0076885306115189993 1 1 1 1 1 1 1 1 0.010010046151934871 0.0087328245116354928 1 1 0.011259854440990685 1 1 0.010012711178928045 1 1 1 1 0.0057376050326945665 1 1 1 1 1 1 0.0063681092077518325 1 1 1 1 1 1 1 0.010174838699922938 1 1 1 1 1 0.0084650149417422795 1 1 0.010187827069026082 0.010091114323222041 1 1 1 1 1 1 1 1 1 1 1 1 1 1 1 1 1 1 0.0083618136581393374 1 1 1 1 1 1 1 1 1 1 1 1 1 1 1 1 1 1 1 1 0.0093741384592968598 1 1 1 1 1 1 1 1 1 1 1 1 1 0.0088699818638876254 1 1 1 1 0.0086690334940885197 1 1 1 1 1 0.008878049587274929 1 1 1 1 1 1 1 1 1 1 1 1 1 1 1 1 1 1 1 1 1 1 1 1 1 1 1 1 1 1 1 1 1 1 1 1 1 1 1 1 1 1 1 1 1 1 1 1 1 0.0086201327960622517 1 1 1 1 1 1 1 1 1 1 1 1 1 1 1 1 1 1 1 1 1 1 1 1 1 1 1 1 1 1 1 0.0094600147623593416 1 1 1 1 1 1 1 1 0.0091264061824072266 1 1 1 1 1 1 0.0095969247797638314 1 1 1 1 1 1 0.010059958816727948 1 1 0.010205569665986815 1 1 1 1 0.009045954537903694 1 1 0.010290094828534465 1 1 1 1 1 1 1 1 1 1 1 1 1 1 1 1 1 1 1 1 0.0097429164452089954 1 1 1 1 1 1 1 1 1 1 1 1 0.0087021989719525718 1 0.0074981823833371796 1 1 1 1 1 1 1 1 1 1 1 1 1 1 1 0.0064841270331629178 1 1 0.010975101602346403 1 1 1 1 1 1 1 1 1 1 1 1 1 1 1 0.010618889026773468 0.0092278983796136149 1 1 1 1 0.010417392623902746 1 0.010144102666192875 1 1 1 0.011239626182978853 1 1 0.0095868517917677819 1 1 1 0.010027117108468467 0.0090563777410026594 1 0.0098799502666006758 1 1 0.012698509433184124 1 1 0.0048160362497554066 1 1 1 1 1 1 1 1 1 1 1 1 1 1 1 1 1 1 1 1 1 1 1 0.010915399605731532 0.010414931547045665 1 1 1 0.011204635046215303 1 1 0.009467935489911334 1 0.012141233496490381 0.010147937344255484 1 0.0093250688299068088 1 0.0098652329225680305 1 0.0081440299677306097 1 0.0099832487561694241 1 0.009235470700716444 1 1 1 0.0066690910349860378 1 1 1 1 1 1 1 1 1 1 0.0099885235296027115 1 1 1 1 1 1 1 1 0.0096737551033298733 1 1 1 1 1 1 1 1 1 1 1 1 1 1 1 1 1 1 1 1 1 1 1 1 1 1 0.010141474384759739 1 1 0.0096476579727791337 1 1 1 1 1 1 1 0.0091335558853669757 1 0.010468967570895578 1 1 1 1 1 1 1 1 1 0.0080354398703930963 1 0.0047378235982066886 0.0093817378583679976 1 1 1 1 1 1 1 1 1 1 1 1 1 1 1 1 1 0.008822435393817803 0.0091796300465259942 1 1 1 1 1 1 1 1 1 1 1 1 1 0.010211680552999834 0.010006749632716191 0.0099461118223831378 1 1 1 1 1 1 1 1 1 1 1 1 0.012246106797047825 1 1 0.0065115028388950079 1 1 1 1 1 1 0.0096432922073218658 1 1 1 0.010050287709026971 1 0.0079943613383262647 1 1 1 1 0.011196677008690301 1 1 1 0.0062327082944552718 1 1 1 1 1 1 1 1 1 1 1 1 1 1 1 1 1 1 1 1 1 1 1 0.0098280604803045561 1 0.0094740169708038193 1 1 1 1 1 1 1 1 1 1 1 0.0091101472438742028 1 1 1 0.01044504048539116 1 1 1 1 1 1 0.012295236851568045 1 0.0099599969721343509 1 1 0.010388372200117601 1 1 1 1 0.0098346752917051923 0.010493618641546418 1 1 1 1 1 0.010151482249897707 1 1 1 1 1 1 1 1 1 0.0083276369454603101 1 1 1 1 1 1 1 1 1 0.009353808729703714 1 1 1 1 1 1 1 1 1 1 1 0.01035630699009607 0.0095686889329172978 1 1 1 1 1 1 1 1 1 0.011461632631705958 1 1 1 1 1 1 1 1 1 1 1 1 1 1 1 1 1 1 0.010037828544099261 1 0.010181937242419867 1 1 1 1 1 1 1 1 0.010009185269929756 1 1 1 1 1 1 1 1 1 1 0.0085550229100276806 1 1 1 0.0060333017030174008 1 1 1 1 1 0.010499480013953085 1 1 1 1 0.0052224080914192918 1 1 1 0.012068034396791305 1 0.0096149085260128376 1 0.0074351402095631566 1 1 0.010358053627984497 1 1 1 1 1 1 0.010587856769790793 1 1 1 1 1 1 1 0.010146711142053105 1 1 1 1 1 1 1 0.010264703200954236 1 1 1 1 1 1 1 1 1 1 1 1 1 1 1 1 0.0098123331173148188 1 1 0.0096121233578915378 1 0.01005345733751762 1 1 1 1 1 1 1 1 0.012056344029762096 1 1 1 0.011292753369127488 1 1 1 1 1 1 1 1 1 0.011060225779204362 0.010041714291388766 1 1 0.010590345362076549 1 1 1 1 0.010281870675878883 1 1 0.010822668223349367 1 1 1 1 1 1 1 1 1 0.0064436482955956415 1 1 0.0097785171562482214 1 1 1 1 0.0077072163768820423 1 0.0091048129606229097 1 1 1 1 1 1 1 1 1 1 1 0.0087171912647736431 1 0.0099938973509458018 1 1 0.0091973224344092577 1 1 1 1 1 0.0040670769804563162 1 0.0099749742200225325 1 1 1 0.0075497047862837889 0.010406237927864988 1 1 1 1 1 1 1 0.010435969822487982 1 1 1 1 0.0058391454724867585 1 1 1 1 1 1 1 0.010712319153624871 1 1 0.010112816253651421 1 1 1 1 0.010556774252807518 1 0.0095709251694195419 0.0098484055645838876 1 1 0.0052082890814449598 1 1 1 1 0.01121933424067386 1 1 1 1 1 1 0.010759866560993212 1 1 1 1 0.0080435053997066127 1 1 1 1 1 1 0.0087577647911525162 1 1 0.00998212521238598 1 1 0.0099832019154841266 1 1 1 1 1 0.010236722989339565 1 1 1 1 1 0.0087535528405572847 1 1 1 1 0.0090451711935618483 1 1 1 1 0.010062112950710923 1 1 1 0.0068530547394861519 1 1 1 1 1 1 1 1 1 1 1 1 1 1 0.010036252209550241 1 1 0.0075200478295048799 1 0.010102049485392157 0.0069396204367124514 1 1 1 1 0.0069716070253829452 1 0.0073460581796676097 1 0.0076563039718951301 1 1 0.0050352134275201028 0.010027808268326076 1 1 1 1 0.0091147590836809927 1 1 1 0.0085217794703397395 1 1 -5.6987291222748704e-09 1 1 1 0.00013511113865107699 1 1 0.0096153223461817802 1 1 1 0.0093668893584203522 1 1 0.0085980673870998756 1 1 1 1 1 1 1 1 1 1 1 1 1 1 1 1 1 0.0089092675490470077 1 1 1 1 1 1 1 1 1 1 1 1 1 1 1 1 1 1 1 1 1 1 1 1 1 1 1 1 1 1 0.0096775570658520181 1 1 1 1 1 1 1 1 1 1 0.011164772657144956 0.0061906937859834248 1 1 1 0.010141473957065645 1 1 0.0084633052966584989 1 1 1 1 1 1 1 1 1 0.010259977433384578 1 1 1 1 1 1 1 1 1 1 1 1 1 1 1 1 1 1 1 0.0087561669923538477 1 1 1 1 0.0091752399571520624 1 1 0.0097109471725512729 1 1 1 1 1 1 1 1 1 1 1 1 1 1 1 1 1 1 0.0073764199689054961 1 1 1 0.0089115152956968924 1 1 1 1 1 0.0066585533533623231 1 1 1 1 1 1 1 1 1 1 1 1 1 1 1 1 1 1 1 1 1 1 1 1 1 1 1 1 1 1 1 1 1 1 1 1 1 1 1 1 1 1 1 1 1 1 1 1 1 -3.7530860363954588e-10 1 1 0.0093861281270231998 1 0.00054175200942989388 1 1 0.010074826632779543 1 1 1 -3.3623165571206037e-09 1 1 1 1 1 1 1 1 1 1 0.0083169241650959767 0.01165250900715253 1 1 0.011618352190206103 1 1 1 1 1 1 1 1 1 1 1 1 1 1 1 0.010145005428973217 0.0099706783679726387 1 1 1 1 1 1 1 1 1 1 1 0.0099716515006858519 1 1 1 1 1 1 1 1 1 0.0090385215824995598 1 1 1 1 1 1 1 1 0.009628866126390901 1 1 0.010127755832920454 1 1 1 1 0.0064712802112533874 1 1 1 1 1 0.0082987796642405107 1 0.010131182734135605 1 1 1 1 0.0070559357628847044 1 1 1 1 0.0098243401624034336 1 1 0.0095740801542694466 1 1 1 1 1 1 1 1 1 1 1 1 1 1 1 1 1 0.0086512876825489207 1 1.0492293136751818e-08 1 0.0094201096538693938 1 1 1 1 1 1 1 1 1 1 1 1 1 1 1 1 1 1 1 1 1 0.009846478998068002 1 1 1 1 1 1 1 1 1 0.0098874440913935303 1 1 1 1 1 1 1 1 1 1 1 1 1 1 1 1 0.0064995150979305395 0.0099885318355729166 1 1 1 1 1 1 1 1 1 1 1 1 1 1 1 0.010062500533431197 1 1 1 1 1 1 1 1 1 1 1 0.0097164399331198924 1 1 0.0095926025611638554 1 1 1 1 1 1 1 1 1 1 1 0.0093201086993799191 1 0.0088050441494698754 1 1 1 0.0097324143364038752 1 1 0.0085657348017066474 1 1 1 1 1 1 1 1 1 1 1 1 0.0087297316667263453 0.0099530873340436705 1 1 1 1 1 1 0.0093005058637502108 1 1 1 1 1 0.0092777242152570199 1 1 1 1 1 1 1 1 1 1 1 1 1 1 1 1 1 1 1 1 1 0.0094447595784567188 0.0082140897784402801 1 1 1 1 1 1 1 1 1 1 0.0095768948701912878 0.010051757812742987 1 1 1 1 0.0092073564172579173 1 0.0098307268571816726 1 0.0099911835966262179 1 0.0099988840485003387 1 1 0.010344663425573355 0.0099841991851864938 1 1 1 0.010145973641498328 0.0088908694157788584 1 0.0089279062261479226 1 1 1 0.0095845814643668419 1 0.0089427892037478966 1 1 0.0088568331051399815 1 1 1 1 1 0.0094644693674715216 1 1 1 1 1 0.0090403068017258954 1 0.010081737471377226 1 1 1 1 1 1 1 1 1 1 1 0.0087846657194184195 1 0.0093985738429141399 0.0099851965582815182 1 0.0099775454137660743 1 1 0.0080778436395114069 1 1 0.010339151804197803 1 0.010626890988948534 1 1 0.010016967683360049 1 1 1 1 1 0.010002441241746242 1 1 1 1 1 1 1 1 0.0099707757074685068 1 1 1 0.0099651761958356403 1 1 1 1 0.010002448632512656 1 0.010062443085920912 1 0.010119503419954167 1 1 0.0072358024860368943 1 1 0.0099923565472670797 0.0052297574371726677 1 0.0064575509681957296 1 1 0.0097073092586598408 0.0099836778769517159 1 1 0.0068806322051025524 1 0.011865449768250328 1 1 0.0078417541804510979 0.0099990296852928411 1 0.0087597412606750854 1 1 0.0095864797869406795 1 1 1 0.0010973425517943058 1 1 0.0027087891677279475 1 1 1 1 1 1 1 1 1 1 1 1 1 1 1 1 0.0099134321250025498 1 1 1 1 1 1 1 1 0.010160377782613614 1 1 1 0.0055341215385672181 0.0099991515368632704 1 1 1 1 0.0084929200984903818 1 1 0.0084198934603525247 0.0065856421352364358 1 1 1 1 1 0.004443675782180934 0.006145672657538296 1 1 0.0099953923178702862 0.0098418588428611578 1 0.0027778108343247572 1 1 0.0093480255930860779 1 1 1 1 1 1 1 1 1 1 1 1 1 1 1 1 1 1 1 0.0099999281665721848 1 1 1 1 1 1 0.0046643239144837853 1 1 0.0082289055459238043 1 0.010424990692784694 1 1 1 1 1 1 0.010044244216408593 1 1 1 0.0098929643612110721 1 1 1 1 1 1 0.0099327592242986831 1 0.010153485259498118 1 1 1 1 1 1 1 1 0.010044606907083847 1 1 1 1 1 1 1 1 1 1 0.0097060348167270858 1 1 0.0098830658224519762 1 1 1 1 1 1 1 0.0099320354617999113 1 1 1 1 1 1 1 1 1 1 1 1 1 1 0.0098700562424194008 1 1 1 1 1 1 0.010007252441481172 1 1 1 1 1 1 1 1 1 1 1 1 1 0.0099458202612207666 1 1 1 1 1 0.0094057868045335554 1 1 1 1 1 1 1 0.0099381646453004756 1 1 1 1 1 1 1 0.010060121419259114 1 1 1 1 0.0078603144267890904 0.011059199481746338 0.0080481647439906902 1 0.0051013021165700039 1 1 1 1 1 1 0.0099940040685596986 1 1 1 1 0.0098138177128825783 1 0.008865358483730483 0.010032664210167045 0.0078550755306787661 0.0098490812713104645 1 0.0092323614831149019 1 0.0093819135816516578 0.0094565589144195387 1 1 1 1 1 1 1 0.010015197422080124 1 0.00979010012905214 1 1 1 1 1 1 1 0.0098866872876950482 1 1 1 1 0.0099440433647938614 1 1 1 1 1 1 0.0097421671022438379 1 1 1 1 1 1 0.0099091898388643379 0.0075351289071904567 1 1 1 1 0.008294262169671043 1 0.0093506171795546822 1 1 1 1 1 1 1 1 1 1 0.010122608728934623 1 1 0.010658453636942095 1 0.0098754298897823969 1 1 0.0092924897575920751 1 0.0094761937406176132 1 0.0095322021831054145 1 1 1 1 1 1 1 1 1 1 0.0096069977036231363 1 1 1 1 1 1 1 1 0.010565404942732292 0.010009355101381181 1 1 1 0.009987800724920514 1 1 1 1 1 1 0.0098870707546494224 1 0.0095462098925410532 1 1 1 1 1 0.009967939265877912 1 1 1 1 1 1 1 1 1 0.0099763062196451188 1 1 0.0099920112752848594 1 1 1 0.0087374510244116414 1 1 1 1 1 1 0.0086157933613462932 1 1 1 1 1 1 1 0.0087047686907314684 1 1 1 1 1 1 1 1 1 1 1 1 0.0099917803487113224 1 1 1 1 1 0.0095981866153834784 1 1 0.0098481714731152442 1 1 1 1 1 1 1 1 1 1 1 1 1 1 1 1 1 1 1 0.0069453720745396522 1 1 0.0076815310002991861 1 1 1 1 1 0.010059155661883356 1 1 0.0089917910544795934 1 1 1 1 1 1 1 1 0.0099590776562875436 1 1 1 0.0088434043463037921 1 1 1 1 1 1 1 1 1 1 1 1 1 0.0099017215791887287 1 1 1 1 1 1 1 1 1 1 1 1 1 1 1 1 1 1 1 1 1 1 1 1 1 0.010001989449014983 1 1 1 1 1 1 1 0.0025522808154924657 1 0.0022502773538759721 1 1 1 0.0099885015209124559 1 0.0058787542586936376 1 1 1 0.0099892599253537367 0.0085639703611766621 1 1 0.0085084732870674522 1 0.0088385133572855996 1 1 1 1 1 0.0089570498814590341 1 1 1 1 1 0.010221275394486324 1 1 1 1 1 1 1 1 1 1 0.0088608523622772106 1 1 1 0.0095905797723230737 1 1 1 1 1 1 1 1 1 1 1 1 1 1 1 1 1 0.0029531911619794498 1 1 0.010043203918518515 1 1 0.0097816536992433138 1 1 1 1 1 1 1 1 1 1 1 1 1 1 1 1 1 1 1 1 1 1 1 1 0.0099417522933482484 0.0099637498617696149 1 1 1 1 1 1 0.0068122060273261911 1 1 1 1 1 1 0.010186206264129517 1 1 1 0.0074225955708720013 1 0.0062477525056003798 1 0.0070643496040448473 1 1 1 1 1 1 0.0099632810407538266 1 1 1 0.0099397421373484656 1 0.0042690408255234256 1 1 1 0.0055148478148162976 1 1 1 1 1 1 1 1 1 1 1 0.0041251518218369289 1 1 0.0034754251678345365 1 1 1 0.0069427665862602812 1 1 1 1 1 1 1 1 1 0.0028467420101119072 1 1 0.0085940167619743442 1 1 1 1 0.0036215438484037189 1 0.010270817349332922 1 1 1 1 1 1 1 1 1 1 1 0.011211617500963892 1 1 1 0.012578520075167516 1 1 1 1 1 1 1 1 1 1 0.003171668766354831 1 1 1 1 1 0.009041112715554956 1 1 1 1 0.0099906276516769539 1 1 1 1 1 1 1 1 1 1 1 1 1 1 1 1 1 1 1 1 1 1 0.0032488599098347351 1 0.0063316718802402545 1 1 1 1 1 1 1 1 0.0077804426056437403 1 1 1 1 1 1 1 1 1 1 1 1 1 1 1 1 1 1 1 1 1 1 1 1 1 1 1 0.0093639042014981872 0.0085335780815611155 1 1 1 1 1 1 1 1 1 1 1 1 1 1 1 1 1 1 1 1 1 1 1 1 1 1 1 1 1 1 1 1 1 1 1 1 1 1 1 1 1 1 1 1 1 1 1 1 1 1 1 1 1 1 1 1 1 1 1 1 1 1 1 1 1 1 1 1 1 1 1 1 1 1 1 1 1 1 1 0.010418307002567625 1 0.0044407271237476573 1 1 1 1 1 1 1 1 1 0.010001477624920029 0.0074882094735904455 1 0.005928368894171589 1 1 0.0099802047281745392 1 1 1 1 1 1 1 1 1 0.007440541399290691 1 1 1 1 1 1 1 0.008070427130005272 0.0061636666928094868 1 1 0.009324780375059398 1 0.0042901948353479529 1 1 0.0059571053996091789 0.0080433534591468608 1 1 1 1 1 0.0068614921839639069 1 1 1 0.0048297699460758837 1 1 0.0081480367710342182 1 1 1 1 1 0.0098252429105412029 1 0.0057945944198516501 1 1 0.0040665689344164153 1 1 1 1 0.0038478151519763908 1 1 1 1 1 1 1 0.0062991782547956628 1 0.0049199082333947642 1 1 1 1 1 1 1 1 1 1 1 1 1 1 1 1 1 1 1 1 1 1 1 0.010018942414754147 1 1 1 1 1 1 1 1 0.0097311052980483259 1 0.0099345159932672927 1 1 1 1 1 1 1 0.0084330870110634927 1 1 1 1 1 1 1 0.0027119646956072271 1 1 1 1 1 0.0032239215151347398 1 1 1 1 1 1 1 0.0098970891958039021 1 1 1 1 0.010083460372151484 1 1 1 1 1 1 1 0.0091353306945329629 1 1 1 1 1 0.0095587226811935898 0.0058428489931879671 1 1 0.0098481242961886272 0.0074497998156184313 1 0.0095907432610248516 1 1 0.0099858213639529986 1 1 0.010135083684092581 1 1 1 1 0.010016807075245734 1 0.0063701921537449285 0.0080669772464530554 1 1 1 0.0080917566224404398 1 1 0.010005471702657842 1 0.0092911873229850409 1 1 1 1 1 1 1 1 1 1 1 1 1 1 1 1 0.0080727717727312933 1 1 1 1 1 0.0069863423636418089 1 1 1 1 1 0.0050769874560573844 1 1 0.0064742457350939839 1 1 1 1 1 1 1 1 1 1 1 1 1 0.010005224303417933 1 1 1 0.01027604426417893 1 1 1 1 1 1 1 1 1 1 1 1 1 1 1 1 1 0.0098103562772027236 1 1 1 0.0044800103626549282 1 1 1 1 1 0.0034699969423515834 1 1 1 0.0098892892450673387 1 1 1 0.0084519887423902436 0.0054062125334619106 1 1 1 0.011784218458355868 1 1 1 1 1 1 1 1 1 1 1 0.009314035169751567 1 1 1 1 1 1 1 1 1 1 0.0098774557717267019 1 1 1 1 1 1 1 1 1 1 1 1 1 1 1 1 1 1 1 1 1 1 1 1 1 1 1 1 1 1 1 1 1 1 1 1 1 1 1 1 1 1 1 1 1 1 1 1 1 1 1 1 1 1 1 1 1 0.0087420171418242966 1 1 0.0095538843859739805 1 1 1 1 1 1 1 1 1 1 1 1 0.0052458604978427494 1 1 1 1 1 1 1 1 1 1 1 0.0098363203536746806 1 1 1 1 0.0050673955066371269 1 1 1 1 1 1 1 1 1 1 1 0.0098992163103692014 1 1 1 1 1 1 1 0.0096230707708014462 1 1 1 1 0.0098965904071052178 1 1 1 1 1 1 1 1 1 1 1 1 1 1 1 1 1 1 1 1 0.0094537227023287849 1 1 1 1 1 0.0099980125615063246 1 1 0.0099338883263351829 1 1 1 1 0.0099788037833259142 1 1 1 1 1 1 1 0.0072892937035622368 1 1 1 1 1 1 1 1 1 1 1 1 1 1 1 1 0.0099621066172385433 1 1 1 1 0.0099920449627083612 1 1 1 1 0.0043356081096760195 1 1 1 1 0.0099842622231738308 1 1 1 1 0.0094578970713103082 1 1 1 1 0.0098938478121474265 1 1 0.0080856549639667409 1 1 1 1 0.0055144417188751748 1 0.0060821301183095148 1 
</DataArray>
</CellData>
</Piece>
</UnstructuredGrid>
</VTKFile>
