<?xml version="1.0"?>
<VTKFile type="UnstructuredGrid" version="0.1" byte_order="LittleEndian">
<UnstructuredGrid>
<Piece NumberOfPoints="31201" NumberOfCells="10970">
<Points>
<DataArray type="Float64" NumberOfComponents="3" format="ascii">
-0.5 -0.5 0 -0.48594492841721121 -0.47918156622522318 0 -0.48039274807335941 -0.500000000000001 0 -0.5 -0.5 0 -0.48594492841721121 -0.47918156622522318 0 -0.49403590438223532 -0.46143847342506161 0 -0.48594492841721121 -0.47918156622522318 0 -0.49403590438223532 -0.46143847342506161 0 -0.48594492841721121 -0.47918156622522318 0 -0.48184521031667649 -0.47113052590544802 0 -0.49403590438223532 -0.46143847342506161 0 -0.48594492841721121 -0.47918156622522318 0 -0.4734796987287464 -0.47535604887102351 0 -0.46805690334455402 -0.48505711588807898 0 -0.48594492841721121 -0.47918156622522318 0 -0.48184521031667649 -0.47113052590544802 0 -0.4734796987287464 -0.47535604887102351 0 -0.48184521031667649 -0.47113052590544802 0 -0.4734796987287464 -0.47535604887102351 0 -0.47256641830566992 -0.46910798373296853 0 -0.48594492841721121 -0.47918156622522318 0 -0.47785395245218842 -0.49692465902538552 0 -0.48594492841721121 -0.47918156622522318 0 -0.47785395245218842 -0.49692465902538552 0 -0.46805690334455402 -0.48505711588807898 0 -0.48594492841721121 -0.47918156622522318 0 -0.47785395245218842 -0.49692465902538552 0 -0.48039274807335941 -0.500000000000001 0 -0.47785395245218842 -0.49692465902538552 0 -0.48039274807335941 -0.500000000000001 0 -0.4764515751896603 -0.49999999999999911 0 -0.47785395245218842 -0.49692465902538552 0 -0.4764515751896603 -0.49999999999999911 0 -0.47785395245218842 -0.49692465902538552 0 -0.48039274807335941 -0.500000000000001 0 -0.47785395245218842 -0.49692465902538552 0 -0.46805690334455402 -0.48505711588807898 0 -0.47785395245218842 -0.49692465902538552 0 -0.4764515751896603 -0.49999999999999911 0 -0.46805690334455402 -0.48505711588807898 0 -0.4764515751896603 -0.49999999999999911 0 -0.46805690334455402 -0.48505711588807898 0 -0.45003705123379872 -0.5 0 -0.45432374989317498 -0.48621036875355939 0 -0.46805690334455402 -0.48505711588807898 0 -0.45003705123379872 -0.5 0 -0.46805690334455402 -0.48505711588807898 0 -0.45825985423691901 -0.473189572750773 0 -0.4734796987287464 -0.47535604887102351 0 -0.46805690334455402 -0.48505711588807898 0 -0.45825985423691901 -0.473189572750773 0 -0.4734796987287464 -0.47535604887102351 0 -0.47256641830566992 -0.46910798373296853 0 -0.45825985423691901 -0.473189572750773 0 -0.45432374989317498 -0.48621036875355939 0 -0.46805690334455402 -0.48505711588807898 0 -0.45825985423691901 -0.473189572750773 0 -0.44470934556457142 -0.47370088391664139 0 -0.44094119075742821 -0.48659478637538578 0 -0.43347681686242129 -0.47035203516950919 0 -0.45825985423691901 -0.473189572750773 0 -0.44470934556457142 -0.47370088391664139 0 -0.44094119075742821 -0.48659478637538578 0 -0.45825985423691901 -0.473189572750773 0 -0.44094119075742821 -0.48659478637538578 0 -0.45432374989317498 -0.48621036875355939 0 -0.45825985423691901 -0.473189572750773 0 -0.44094119075742821 -0.48659478637538578 0 -0.45825985423691901 -0.473189572750773 0 -0.44470934556457142 -0.47370088391664139 0 -0.44904181070851229 -0.46202340138498099 0 -0.44094119075742821 -0.48659478637538578 0 -0.45003705123379872 -0.5 0 -0.42362252727793731 -0.49999999999999839 0 -0.45432374989317498 -0.48621036875355939 0 -0.44094119075742821 -0.48659478637538578 0 -0.45003705123379872 -0.5 0 -0.44125713906480207 -0.44580313054370441 0 -0.45386968818048912 -0.44891929976516531 0 -0.45362577960789141 -0.43003388826833289 0 -0.44125713906480207 -0.44580313054370441 0 -0.44904181070851229 -0.46202340138498099 0 -0.45386968818048912 -0.44891929976516531 0 -0.44125713906480207 -0.44580313054370441 0 -0.44904181070851229 -0.46202340138498099 0 -0.43624783734388928 -0.45721756785154888 0 -0.44904181070851229 -0.46202340138498099 0 -0.43347681686242129 -0.47035203516950919 0 -0.43624783734388928 -0.45721756785154888 0 -0.44470934556457142 -0.47370088391664139 0 -0.44904181070851229 -0.46202340138498099 0 -0.43347681686242129 -0.47035203516950919 0 -0.44904181070851229 -0.46202340138498099 0 -0.46012512809048661 -0.45995757984712649 0 -0.45386968818048912 -0.44891929976516531 0 -0.45825985423691901 -0.473189572750773 0 -0.44904181070851229 -0.46202340138498099 0 -0.45825985423691901 -0.473189572750773 0 -0.44904181070851229 -0.46202340138498099 0 -0.46012512809048661 -0.45995757984712649 0 -0.45825985423691901 -0.473189572750773 0 -0.47227594099239328 -0.46234066184256778 0 -0.47256641830566992 -0.46910798373296853 0 -0.45825985423691901 -0.473189572750773 0 -0.47227594099239328 -0.46234066184256778 0 -0.45825985423691901 -0.473189572750773 0 -0.46012512809048661 -0.45995757984712649 0 -0.47227594099239328 -0.46234066184256778 0 -0.46012512809048661 -0.45995757984712649 0 -0.46529858343075281 -0.44677849878168191 0 -0.47227594099239328 -0.46234066184256778 0 -0.46529858343075281 -0.44677849878168191 0 -0.45386968818048912 -0.44891929976516531 0 -0.45362577960789141 -0.43003388826833289 0 -0.46529858343075281 -0.44677849878168191 0 -0.45362577960789141 -0.43003388826833289 0 -0.46012512809048661 -0.45995757984712649 0 -0.46529858343075281 -0.44677849878168191 0 -0.45386968818048912 -0.44891929976516531 0 -0.46529858343075281 -0.44677849878168191 0 -0.47697138725361449 -0.4635231092950306 0 -0.48489170700021078 -0.44756767576828532 0 -0.5 -0.5 0 -0.49403590438223532 -0.46143847342506161 0 -0.5 -0.43960960594001541 0 -0.46529858343075281 -0.44677849878168191 0 -0.48489170700021078 -0.44756767576828532 0 -0.47556738700340911 -0.43148281500956259 0 -0.47697138725361449 -0.4635231092950306 0 -0.48499657562199322 -0.45921459763594541 0 -0.48489170700021078 -0.44756767576828532 0 -0.46529858343075281 -0.44677849878168191 0 -0.47227594099239328 -0.46234066184256778 0 -0.47697138725361449 -0.4635231092950306 0 -0.46529858343075281 -0.44677849878168191 0 -0.47697138725361449 -0.4635231092950306 0 -0.47256641830566992 -0.46910798373296853 0 -0.47227594099239328 -0.46234066184256778 0 -0.47697138725361449 -0.4635231092950306 0 -0.48184521031667649 -0.47113052590544802 0 -0.47256641830566992 -0.46910798373296853 0 -0.47697138725361449 -0.4635231092950306 0 -0.47697138725361449 -0.4635231092950306 0 -0.48446226939362991 -0.46382667656537141 0 -0.48499657562199322 -0.45921459763594541 0 -0.48184521031667649 -0.47113052590544802 0 -0.47697138725361449 -0.4635231092950306 0 -0.48446226939362991 -0.46382667656537141 0 -0.48446226939362991 -0.46382667656537141 0 -0.48499657562199322 -0.45921459763594541 0 -0.49403590438223532 -0.46143847342506161 0 -0.48184521031667649 -0.47113052590544802 0 -0.48446226939362991 -0.46382667656537141 0 -0.49403590438223532 -0.46143847342506161 0 -0.48499657562199322 -0.45921459763594541 0 -0.49403590438223532 -0.46143847342506161 0 -0.48489170700021078 -0.44756767576828532 0 -0.49403590438223532 -0.46143847342506161 0 -0.48489170700021078 -0.44756767576828532 0 -0.5 -0.43960960594001541 0 -0.48489170700021078 -0.44756767576828532 0 -0.5 -0.43960960594001541 0 -0.49750899439892687 -0.43293174175079258 0 -0.48489170700021078 -0.44756767576828532 0 -0.49750899439892687 -0.43293174175079258 0 -0.47556738700340911 -0.43148281500956259 0 -0.49750899439892687 -0.43293174175079258 0 -0.47556738700340911 -0.43148281500956259 0 -0.49750899439892687 -0.43293174175079258 0 -0.48396688182315478 -0.4193836051022245 0 -0.48739594377842999 -0.40018923498101411 0 -0.49750899439892687 -0.43293174175079258 0 -0.48396688182315478 -0.4193836051022245 0 -0.47556738700340911 -0.43148281500956259 0 -0.5 -0.43960960594001541 0 -0.49750899439892687 -0.43293174175079258 0 -0.49864303034596802 -0.36268297627728929 0 -0.49750899439892687 -0.43293174175079258 0 -0.48739594377842999 -0.40018923498101411 0 -0.49864303034596802 -0.36268297627728929 0 -0.48396688182315478 -0.4193836051022245 0 -0.47532973594779793 -0.41224317531747579 0 -0.48739594377842999 -0.40018923498101411 0 -0.47532973594779793 -0.41224317531747579 0 -0.47556738700340911 -0.43148281500956259 0 -0.46109385203628273 -0.41581452122481272 0 -0.48396688182315478 -0.4193836051022245 0 -0.47532973594779793 -0.41224317531747579 0 -0.47556738700340911 -0.43148281500956259 0 -0.48976947002733012 -0.37768099102207758 0 -0.48739594377842999 -0.40018923498101411 0 -0.49864303034596802 -0.36268297627728929 0 -0.48976947002733012 -0.37768099102207758 0 -0.48739594377842999 -0.40018923498101411 0 -0.47983836113260192 -0.39093953363667261 0 -0.47532973594779793 -0.41224317531747579 0 -0.48739594377842999 -0.40018923498101411 0 -0.47544134773819202 -0.39959779392359379 0 -0.47532973594779793 -0.41224317531747579 0 -0.47544134773819202 -0.39959779392359379 0 -0.46590345811957989 -0.40254498354772611 0 -0.47544134773819202 -0.39959779392359379 0 -0.4687392397125506 -0.39207204213508062 0 -0.46590345811957989 -0.40254498354772611 0 -0.47544134773819202 -0.39959779392359379 0 -0.47983836113260192 -0.39093953363667261 0 -0.4687392397125506 -0.39207204213508062 0 -0.48739594377842999 -0.40018923498101411 0 -0.47544134773819202 -0.39959779392359379 0 -0.47983836113260192 -0.39093953363667261 0 -0.48976947002733012 -0.37768099102207758 0 -0.47983836113260192 -0.39093953363667261 0 -0.47493098173239751 -0.38229208726651409 0 -0.47983836113260192 -0.39093953363667261 0 -0.47493098173239751 -0.38229208726651409 0 -0.4687392397125506 -0.39207204213508062 0 -0.47493098173239751 -0.38229208726651409 0 -0.46184805260929829 -0.37952147175475431 0 -0.47445978518020632 -0.37124639778398588 0 -0.48976947002733012 -0.37768099102207758 0 -0.47493098173239751 -0.38229208726651409 0 -0.47445978518020632 -0.37124639778398588 0 -0.46184805260929829 -0.37952147175475431 0 -0.4687392397125506 -0.39207204213508062 0 -0.44676011096564971 -0.3910334213313631 0 -0.47493098173239751 -0.38229208726651409 0 -0.46184805260929829 -0.37952147175475431 0 -0.4687392397125506 -0.39207204213508062 0 -0.46590345811957989 -0.40254498354772611 0 -0.44676011096564971 -0.3910334213313631 0 -0.46109385203628273 -0.41581452122481272 0 -0.44676011096564971 -0.3910334213313631 0 -0.46109385203628273 -0.41581452122481272 0 -0.4687392397125506 -0.39207204213508062 0 -0.46590345811957989 -0.40254498354772611 0 -0.44676011096564971 -0.3910334213313631 0 -0.44676011096564971 -0.3910334213313631 0 -0.46109385203628273 -0.41581452122481272 0 -0.43908573126845152 -0.40917622202259901 0 -0.46184805260929829 -0.37952147175475431 0 -0.44676011096564971 -0.3910334213313631 0 -0.44897190725203517 -0.37522383123874731 0 -0.44676011096564971 -0.3910334213313631 0 -0.44897190725203517 -0.37522383123874731 0 -0.43242636989501521 -0.36625232143791447 0 -0.44676011096564971 -0.3910334213313631 0 -0.43242636989501521 -0.36625232143791447 0 -0.46529858343075281 -0.44677849878168191 0 -0.47556738700340911 -0.43148281500956259 0 -0.45362577960789141 -0.43003388826833289 0 -0.47556738700340911 -0.43148281500956259 0 -0.45362577960789141 -0.43003388826833289 0 -0.47556738700340911 -0.43148281500956259 0 -0.45362577960789141 -0.43003388826833289 0 -0.46109385203628273 -0.41581452122481272 0 -0.47532973594779793 -0.41224317531747579 0 -0.46590345811957989 -0.40254498354772611 0 -0.46109385203628273 -0.41581452122481272 0 -0.45362577960789141 -0.43003388826833289 0 -0.43908573126845152 -0.40917622202259901 0 -0.45362577960789141 -0.43003388826833289 0 -0.46109385203628273 -0.41581452122481272 0 -0.43908573126845152 -0.40917622202259901 0 -0.45362577960789141 -0.43003388826833289 0 -0.43640774273827643 -0.42889688524015129 0 -0.44125713906480207 -0.44580313054370441 0 -0.45362577960789141 -0.43003388826833289 0 -0.43640774273827643 -0.42889688524015129 0 -0.45362577960789141 -0.43003388826833289 0 -0.43908573126845152 -0.40917622202259901 0 -0.43640774273827643 -0.42889688524015129 0 -0.43640774273827643 -0.42889688524015129 0 -0.4191897058686615 -0.42775988221196998 0 -0.43640774273827643 -0.42889688524015129 0 -0.4191897058686615 -0.42775988221196998 0 -0.42705101124896649 -0.43943471757807201 0 -0.43640774273827643 -0.42889688524015129 0 -0.42849527696393153 -0.41778024173153439 0 -0.4191897058686615 -0.42775988221196998 0 -0.43908573126845152 -0.40917622202259901 0 -0.43640774273827643 -0.42889688524015129 0 -0.42849527696393153 -0.41778024173153439 0 -0.43908573126845152 -0.40917622202259901 0 -0.42849527696393153 -0.41778024173153439 0 -0.41903784938472521 -0.40765493716746432 0 -0.41903784938472521 -0.40765493716746432 0 -0.4098130297921766 -0.41778897722511882 0 -0.39820908339038957 -0.40138788281096532 0 -0.42849527696393153 -0.41778024173153439 0 -0.4098130297921766 -0.41778897722511882 0 -0.4191897058686615 -0.42775988221196998 0 -0.42849527696393153 -0.41778024173153439 0 -0.41903784938472521 -0.40765493716746432 0 -0.4098130297921766 -0.41778897722511882 0 -0.4098130297921766 -0.41778897722511882 0 -0.40729931937060398 -0.42857243912946869 0 -0.4191897058686615 -0.42775988221196998 0 -0.40729931937060398 -0.42857243912946869 0 -0.4032251412089316 -0.43824363541862671 0 -0.41283751151800779 -0.44237041658653042 0 -0.40729931937060398 -0.42857243912946869 0 -0.4191897058686615 -0.42775988221196998 0 -0.41283751151800779 -0.44237041658653042 0 -0.4191897058686615 -0.42775988221196998 0 -0.42705101124896649 -0.43943471757807201 0 -0.41283751151800779 -0.44237041658653042 0 -0.44676011096564971 -0.3910334213313631 0 -0.42454568292901179 -0.38831855577686469 0 -0.43242636989501521 -0.36625232143791447 0 -0.43908573126845152 -0.40917622202259901 0 -0.42454568292901179 -0.38831855577686469 0 -0.44676011096564971 -0.3910334213313631 0 -0.43908573126845152 -0.40917622202259901 0 -0.42454568292901179 -0.38831855577686469 0 -0.43908573126845152 -0.40917622202259901 0 -0.41903784938472521 -0.40765493716746432 0 -0.42454568292901179 -0.38831855577686469 0 -0.41903784938472521 -0.40765493716746432 0 -0.41191307697827001 -0.39538760421322439 0 -0.39820908339038957 -0.40138788281096532 0 -0.41903784938472521 -0.40765493716746432 0 -0.42454568292901179 -0.38831855577686469 0 -0.41191307697827001 -0.39538760421322439 0 -0.42454568292901179 -0.38831855577686469 0 -0.41191307697827001 -0.39538760421322439 0 -0.40385748857429671 -0.38396230100315609 0 -0.42454568292901179 -0.38831855577686469 0 -0.42515147811251452 -0.37041230148769272 0 -0.41000563458957362 -0.36746088953112938 0 -0.42454568292901179 -0.38831855577686469 0 -0.40385748857429671 -0.38396230100315609 0 -0.41000563458957362 -0.36746088953112938 0 -0.42454568292901179 -0.38831855577686469 0 -0.41000563458957362 -0.36746088953112938 0 -0.39198978820438429 -0.3782286394375895 0 -0.40385748857429671 -0.38396230100315609 0 -0.3983026804046228 -0.36809172597924589 0 -0.39198978820438429 -0.3782286394375895 0 -0.40385748857429671 -0.38396230100315609 0 -0.39138660384138962 -0.38838826549050148 0 -0.41191307697827001 -0.39538760421322439 0 -0.40385748857429671 -0.38396230100315609 0 -0.39820908339038957 -0.40138788281096532 0 -0.40385748857429671 -0.38396230100315609 0 -0.39138660384138962 -0.38838826549050148 0 -0.39820908339038957 -0.40138788281096532 0 -0.39820908339038957 -0.40138788281096532 0 -0.38227481028778471 -0.39668980434892143 0 -0.38621286796008791 -0.41032547407724401 0 -0.39138660384138962 -0.38838826549050148 0 -0.39820908339038957 -0.40138788281096532 0 -0.38227481028778471 -0.39668980434892143 0 -0.38227481028778471 -0.39668980434892143 0 -0.38621286796008791 -0.41032547407724401 0 -0.37055771869930237 -0.40335547125939297 0 -0.38227481028778471 -0.39668980434892143 0 -0.37228741197365028 -0.38826728888172068 0 -0.37055771869930237 -0.40335547125939297 0 -0.39138660384138962 -0.38838826549050148 0 -0.38227481028778471 -0.39668980434892143 0 -0.38060184875009262 -0.38167269985187552 0 -0.38227481028778471 -0.39668980434892143 0 -0.38060184875009262 -0.38167269985187552 0 -0.37228741197365028 -0.38826728888172068 0 -0.38060184875009262 -0.38167269985187552 0 -0.37612254132508599 -0.37004492812090112 0 -0.37001583187281317 -0.377892963090108 0 -0.39198978820438429 -0.3782286394375895 0 -0.38060184875009262 -0.38167269985187552 0 -0.38599081191499779 -0.36814457376239201 0 -0.39198978820438429 -0.3782286394375895 0 -0.39138660384138962 -0.38838826549050148 0 -0.38060184875009262 -0.38167269985187552 0 -0.39692420488425278 -0.42460520887136322 0 -0.39563932637811677 -0.44782253493176127 0 -0.39692420488425278 -0.42460520887136322 0 -0.38309852253871002 -0.42558900309557701 0 -0.39563932637811677 -0.44782253493176127 0 -0.39692420488425278 -0.42460520887136322 0 -0.39563932637811677 -0.44782253493176127 0 -0.4032251412089316 -0.43824363541862671 0 -0.40729931937060398 -0.42857243912946869 0 -0.39692420488425278 -0.42460520887136322 0 -0.4032251412089316 -0.43824363541862671 0 -0.4098130297921766 -0.41778897722511882 0 -0.40729931937060398 -0.42857243912946869 0 -0.39692420488425278 -0.42460520887136322 0 -0.39820908339038957 -0.40138788281096532 0 -0.39692420488425278 -0.42460520887136322 0 -0.38621286796008791 -0.41032547407724401 0 -0.4098130297921766 -0.41778897722511882 0 -0.39820908339038957 -0.40138788281096532 0 -0.39692420488425278 -0.42460520887136322 0 -0.39820908339038957 -0.40138788281096532 0 -0.39692420488425278 -0.42460520887136322 0 -0.39692420488425278 -0.42460520887136322 0 -0.38621286796008791 -0.41032547407724401 0 -0.38309852253871002 -0.42558900309557701 0 -0.38621286796008791 -0.41032547407724401 0 -0.38309852253871002 -0.42558900309557701 0 -0.37055771869930237 -0.40335547125939297 0 -0.38309852253871002 -0.42558900309557701 0 -0.37055771869930237 -0.40335547125939297 0 -0.38309852253871002 -0.42558900309557701 0 -0.39563932637811677 -0.44782253493176127 0 -0.38309852253871002 -0.42558900309557701 0 -0.38111389347561608 -0.44136201189070101 0 -0.37058296678970931 -0.43151443823635371 0 -0.38309852253871002 -0.42558900309557701 0 -0.38111389347561608 -0.44136201189070101 0 -0.39563932637811677 -0.44782253493176127 0 -0.38111389347561608 -0.44136201189070101 0 -0.38581548456909981 -0.45021418165404742 0 -0.37756530610104899 -0.45685827229810932 0 -0.38111389347561608 -0.44136201189070101 0 -0.38581548456909981 -0.45021418165404742 0 -0.39563932637811677 -0.44782253493176127 0 -0.38581548456909981 -0.45021418165404742 0 -0.39563932637811677 -0.44782253493176127 0 -0.38775458256958822 -0.45726861399725638 0 -0.39563932637811677 -0.44782253493176127 0 -0.40049925677973652 -0.45643868256390002 0 -0.39563932637811677 -0.44782253493176127 0 -0.40471272904552652 -0.44852513549473672 0 -0.40049925677973652 -0.45643868256390002 0 -0.39563932637811677 -0.44782253493176127 0 -0.40471272904552652 -0.44852513549473672 0 -0.4032251412089316 -0.43824363541862671 0 -0.39563932637811677 -0.44782253493176127 0 -0.39458661263643918 -0.46684472113227399 0 -0.38775458256958822 -0.45726861399725638 0 -0.39563932637811677 -0.44782253493176127 0 -0.40049925677973652 -0.45643868256390002 0 -0.39458661263643918 -0.46684472113227399 0 -0.39563932637811677 -0.44782253493176127 0 -0.39458661263643918 -0.46684472113227399 0 -0.40553363859723962 -0.46590156207340971 0 -0.40049925677973652 -0.45643868256390002 0 -0.39458661263643918 -0.46684472113227399 0 -0.40471272904552652 -0.44852513549473672 0 -0.40049925677973652 -0.45643868256390002 0 -0.41267731808254621 -0.45729223834040528 0 -0.40553363859723962 -0.46590156207340971 0 -0.40049925677973652 -0.45643868256390002 0 -0.41267731808254621 -0.45729223834040528 0 -0.39458661263643918 -0.46684472113227399 0 -0.38442316456821762 -0.46613755153361441 0 -0.38775458256958822 -0.45726861399725638 0 -0.38442316456821762 -0.46613755153361441 0 -0.38775458256958822 -0.45726861399725638 0 -0.37756530610104899 -0.45685827229810932 0 -0.38581548456909981 -0.45021418165404742 0 -0.38775458256958822 -0.45726861399725638 0 -0.37756530610104899 -0.45685827229810932 0 -0.38442316456821762 -0.46613755153361441 0 -0.37756530610104899 -0.45685827229810932 0 -0.37594339666883508 -0.46912028010584561 0 -0.38068681907865431 -0.47561570999711827 0 -0.37578582006703293 -0.4890918617918481 0 -0.39353389889476242 -0.48586690733278692 0 -0.38442316456821762 -0.46613755153361441 0 -0.37594339666883508 -0.46912028010584561 0 -0.38068681907865431 -0.47561570999711827 0 -0.37594339666883508 -0.46912028010584561 0 -0.38068681907865431 -0.47561570999711827 0 -0.37427790409048928 -0.47641171988590741 0 -0.38068681907865431 -0.47561570999711827 0 -0.37578582006703293 -0.4890918617918481 0 -0.37427790409048928 -0.47641171988590741 0 -0.38068681907865431 -0.47561570999711827 0 -0.38830762379451839 -0.47361622249894841 0 -0.39353389889476242 -0.48586690733278692 0 -0.38442316456821762 -0.46613755153361441 0 -0.38068681907865431 -0.47561570999711827 0 -0.38830762379451839 -0.47361622249894841 0 -0.39458661263643918 -0.46684472113227399 0 -0.38442316456821762 -0.46613755153361441 0 -0.38830762379451839 -0.47361622249894841 0 -0.37578582006703293 -0.4890918617918481 0 -0.39505017057465641 -0.5 0 -0.36647781387137562 -0.49999999999999728 0 -0.37578582006703293 -0.4890918617918481 0 -0.39505017057465641 -0.5 0 -0.39353389889476242 -0.48586690733278692 0 -0.39505017057465641 -0.5 0 -0.39353389889476242 -0.48586690733278692 0 -0.40961377038000613 -0.48651189866886291 0 -0.39458661263643918 -0.46684472113227399 0 -0.38830762379451839 -0.47361622249894841 0 -0.39353389889476242 -0.48586690733278692 0 -0.39458661263643918 -0.46684472113227399 0 -0.39353389889476242 -0.48586690733278692 0 -0.39458661263643918 -0.46684472113227399 0 -0.39353389889476242 -0.48586690733278692 0 -0.4034345848576999 -0.47687460239653151 0 -0.39353389889476242 -0.48586690733278692 0 -0.4034345848576999 -0.47687460239653151 0 -0.40961377038000613 -0.48651189866886291 0 -0.40553363859723962 -0.46590156207340971 0 -0.39458661263643918 -0.46684472113227399 0 -0.4034345848576999 -0.47687460239653151 0 -0.40553363859723962 -0.46590156207340971 0 -0.4034345848576999 -0.47687460239653151 0 -0.41647042062977607 -0.47205756593393738 0 -0.4034345848576999 -0.47687460239653151 0 -0.41647042062977607 -0.47205756593393738 0 -0.40961377038000613 -0.48651189866886291 0 -0.41647042062977607 -0.47205756593393738 0 -0.40961377038000613 -0.48651189866886291 0 -0.42482494518151359 -0.48310325722953862 0 -0.39505017057465641 -0.5 0 -0.40961377038000613 -0.48651189866886291 0 -0.42362252727793731 -0.49999999999999839 0 -0.40961377038000613 -0.48651189866886291 0 -0.42362252727793731 -0.49999999999999839 0 -0.42482494518151359 -0.48310325722953862 0 -0.44094119075742821 -0.48659478637538578 0 -0.42362252727793731 -0.49999999999999839 0 -0.44094119075742821 -0.48659478637538578 0 -0.42362252727793731 -0.49999999999999839 0 -0.42482494518151359 -0.48310325722953862 0 -0.44094119075742821 -0.48659478637538578 0 -0.42482494518151359 -0.48310325722953862 0 -0.43347681686242129 -0.47035203516950919 0 -0.41647042062977607 -0.47205756593393738 0 -0.42482494518151359 -0.48310325722953862 0 -0.43347681686242129 -0.47035203516950919 0 -0.41647042062977607 -0.47205756593393738 0 -0.43347681686242129 -0.47035203516950919 0 -0.42398198874808751 -0.46243605762799472 0 -0.43347681686242129 -0.47035203516950919 0 -0.42398198874808751 -0.46243605762799472 0 -0.43624783734388928 -0.45721756785154888 0 -0.42398198874808751 -0.46243605762799472 0 -0.43624783734388928 -0.45721756785154888 0 -0.42556295705508451 -0.45234327330800361 0 -0.44125713906480207 -0.44580313054370441 0 -0.42705101124896649 -0.43943471757807201 0 -0.42556295705508451 -0.45234327330800361 0 -0.44125713906480207 -0.44580313054370441 0 -0.43640774273827643 -0.42889688524015129 0 -0.42705101124896649 -0.43943471757807201 0 -0.44125713906480207 -0.44580313054370441 0 -0.43624783734388928 -0.45721756785154888 0 -0.42556295705508451 -0.45234327330800361 0 -0.42556295705508451 -0.45234327330800361 0 -0.41283751151800779 -0.44237041658653042 0 -0.41267731808254621 -0.45729223834040528 0 -0.42705101124896649 -0.43943471757807201 0 -0.42556295705508451 -0.45234327330800361 0 -0.41283751151800779 -0.44237041658653042 0 -0.40471272904552652 -0.44852513549473672 0 -0.4032251412089316 -0.43824363541862671 0 -0.41283751151800779 -0.44237041658653042 0 -0.40471272904552652 -0.44852513549473672 0 -0.41283751151800779 -0.44237041658653042 0 -0.41267731808254621 -0.45729223834040528 0 -0.40553363859723962 -0.46590156207340971 0 -0.41647042062977607 -0.47205756593393738 0 -0.41267731808254621 -0.45729223834040528 0 -0.41647042062977607 -0.47205756593393738 0 -0.42398198874808751 -0.46243605762799472 0 -0.41267731808254621 -0.45729223834040528 0 -0.42398198874808751 -0.46243605762799472 0 -0.42556295705508451 -0.45234327330800361 0 -0.41267731808254621 -0.45729223834040528 0 -0.44448301460570361 -0.25866310934972042 0 -0.44763376539751609 -0.26915999543055152 0 -0.45598941450222641 -0.2636029943683178 0 -0.44448301460570361 -0.25866310934972042 0 -0.45598941450222641 -0.2636029943683178 0 -0.45388261704758309 -0.25188450484146541 0 -0.44448301460570361 -0.25866310934972042 0 -0.45388261704758309 -0.25188450484146541 0 -0.44092962542926251 -0.24420782110838621 0 -0.44448301460570361 -0.25866310934972042 0 -0.43192748323268432 -0.25712770411644359 0 -0.44092962542926251 -0.24420782110838621 0 -0.44448301460570361 -0.25866310934972042 0 -0.43787874977499203 -0.2653125389199632 0 -0.44763376539751609 -0.26915999543055152 0 -0.44448301460570361 -0.25866310934972042 0 -0.43787874977499203 -0.2653125389199632 0 -0.43192748323268432 -0.25712770411644359 0 -0.43787874977499203 -0.2653125389199632 0 -0.44763376539751609 -0.26915999543055152 0 -0.44195758091034842 -0.2817970973456223 0 -0.44763376539751609 -0.26915999543055152 0 -0.45603529743964549 -0.27521805151496709 0 -0.44195758091034842 -0.2817970973456223 0 -0.45603529743964549 -0.27521805151496709 0 -0.46725934018253501 -0.27204589964257031 0 -0.45598941450222641 -0.2636029943683178 0 -0.44763376539751609 -0.26915999543055152 0 -0.45603529743964549 -0.27521805151496709 0 -0.45598941450222641 -0.2636029943683178 0 -0.45603529743964549 -0.27521805151496709 0 -0.46725934018253501 -0.27204589964257031 0 -0.46368684669627219 -0.28707189947944078 0 -0.46725934018253501 -0.27204589964257031 0 -0.45598941450222641 -0.2636029943683178 0 -0.46507903620523072 -0.25647139281908282 0 -0.45598941450222641 -0.2636029943683178 0 -0.45388261704758309 -0.25188450484146541 0 -0.46507903620523072 -0.25647139281908282 0 -0.45388261704758309 -0.25188450484146541 0 -0.46507903620523072 -0.25647139281908282 0 -0.46280675988418207 -0.24924293530940511 0 -0.46507903620523072 -0.25647139281908282 0 -0.46703257367587808 -0.25037202600514408 0 -0.46280675988418207 -0.24924293530940511 0 -0.46507903620523072 -0.25647139281908282 0 -0.4760503822597833 -0.25136953932998712 0 -0.48008489752347783 -0.26512425974678783 0 -0.46507903620523072 -0.25647139281908282 0 -0.46703257367587808 -0.25037202600514408 0 -0.4760503822597833 -0.25136953932998712 0 -0.46725934018253501 -0.27204589964257031 0 -0.46507903620523072 -0.25647139281908282 0 -0.48008489752347783 -0.26512425974678783 0 -0.4760503822597833 -0.25136953932998712 0 -0.48008489752347783 -0.26512425974678783 0 -0.48849233615110238 -0.25564364008010299 0 -0.48008489752347783 -0.26512425974678783 0 -0.48849233615110238 -0.25564364008010299 0 -0.5 -0.27452052515480951 0 -0.48849233615110238 -0.25564364008010299 0 -0.5 -0.27452052515480951 0 -0.5 -0.24497161889054131 0 -0.48008489752347783 -0.26512425974678783 0 -0.5 -0.27452052515480951 0 -0.48085577897369253 -0.28358061427265918 0 -0.46725934018253501 -0.27204589964257031 0 -0.48008489752347783 -0.26512425974678783 0 -0.48085577897369253 -0.28358061427265918 0 -0.46725934018253501 -0.27204589964257031 0 -0.48085577897369253 -0.28358061427265918 0 -0.46368684669627219 -0.28707189947944078 0 -0.48085577897369253 -0.28358061427265918 0 -0.47500324010879391 -0.30293823269313802 0 -0.46368684669627219 -0.28707189947944078 0 -0.5 -0.27452052515480951 0 -0.48085577897369253 -0.28358061427265918 0 -0.5 -0.3040694314190775 0 -0.48085577897369253 -0.28358061427265918 0 -0.5 -0.3040694314190775 0 -0.47500324010879391 -0.30293823269313802 0 -0.5 -0.3040694314190775 0 -0.47500324010879391 -0.30293823269313802 0 -0.48378198615055329 -0.32134242544521102 0 -0.47500324010879391 -0.30293823269313802 0 -0.45457004421992381 -0.3034270732682719 0 -0.46368684669627219 -0.28707189947944078 0 -0.47500324010879391 -0.30293823269313802 0 -0.45457004421992381 -0.3034270732682719 0 -0.46512252942685361 -0.31798692126662997 0 -0.45457004421992381 -0.3034270732682719 0 -0.46368684669627219 -0.28707189947944078 0 -0.44214087396748031 -0.29493308497296938 0 -0.45603529743964549 -0.27521805151496709 0 -0.46368684669627219 -0.28707189947944078 0 -0.44195758091034842 -0.2817970973456223 0 -0.46368684669627219 -0.28707189947944078 0 -0.44195758091034842 -0.2817970973456223 0 -0.44214087396748031 -0.29493308497296938 0 -0.46368684669627219 -0.28707189947944078 0 -0.44195758091034842 -0.2817970973456223 0 -0.44195758091034842 -0.2817970973456223 0 -0.44214087396748031 -0.29493308497296938 0 -0.42867181636148338 -0.28685490791262119 0 -0.45457004421992381 -0.3034270732682719 0 -0.44934295240770961 -0.31653464827241767 0 -0.43563017987508712 -0.30634354638896422 0 -0.45457004421992381 -0.3034270732682719 0 -0.44214087396748031 -0.29493308497296938 0 -0.43563017987508712 -0.30634354638896422 0 -0.44934295240770961 -0.31653464827241767 0 -0.43758014774501391 -0.32443658140205112 0 -0.43563017987508712 -0.30634354638896422 0 -0.44934295240770961 -0.31653464827241767 0 -0.43758014774501391 -0.32443658140205112 0 -0.45381186077166941 -0.33047911903617122 0 -0.43830734466966809 -0.3411507173554359 0 -0.45381186077166941 -0.33047911903617122 0 -0.45841923989510153 -0.34832813699605358 0 -0.43758014774501391 -0.32443658140205112 0 -0.43830734466966809 -0.3411507173554359 0 -0.45381186077166941 -0.33047911903617122 0 -0.45381186077166941 -0.33047911903617122 0 -0.47264552382973102 -0.33497316501370161 0 -0.45841923989510153 -0.34832813699605358 0 -0.45457004421992381 -0.3034270732682719 0 -0.44934295240770961 -0.31653464827241767 0 -0.46512252942685361 -0.31798692126662997 0 -0.44934295240770961 -0.31653464827241767 0 -0.45381186077166941 -0.33047911903617122 0 -0.46512252942685361 -0.31798692126662997 0 -0.45381186077166941 -0.33047911903617122 0 -0.46512252942685361 -0.31798692126662997 0 -0.47264552382973102 -0.33497316501370161 0 -0.46512252942685361 -0.31798692126662997 0 -0.48378198615055329 -0.32134242544521102 0 -0.47264552382973102 -0.33497316501370161 0 -0.47500324010879391 -0.30293823269313802 0 -0.46512252942685361 -0.31798692126662997 0 -0.48378198615055329 -0.32134242544521102 0 -0.5 -0.3040694314190775 0 -0.48378198615055329 -0.32134242544521102 0 -0.5 -0.33361833768334559 0 -0.48378198615055329 -0.32134242544521102 0 -0.5 -0.33361833768334559 0 -0.48631654644155142 -0.34049530838874997 0 -0.5 -0.33361833768334559 0 -0.48631654644155142 -0.34049530838874997 0 -0.4901946939703119 -0.35458956833677879 0 -0.48378198615055329 -0.32134242544521102 0 -0.48631654644155142 -0.34049530838874997 0 -0.47264552382973102 -0.33497316501370161 0 -0.47264552382973102 -0.33497316501370161 0 -0.47778586185135402 -0.34528038590523152 0 -0.45841923989510153 -0.34832813699605358 0 -0.48631654644155142 -0.34049530838874997 0 -0.47264552382973102 -0.33497316501370161 0 -0.47778586185135402 -0.34528038590523152 0 -0.47853113512053469 -0.35550555663667138 0 -0.47778586185135402 -0.34528038590523152 0 -0.45841923989510153 -0.34832813699605358 0 -0.47853113512053469 -0.35550555663667138 0 -0.47778586185135402 -0.34528038590523152 0 -0.4901946939703119 -0.35458956833677879 0 -0.47853113512053469 -0.35550555663667138 0 -0.4901946939703119 -0.35458956833677879 0 -0.49864303034596802 -0.36268297627728929 0 -0.47853113512053469 -0.35550555663667138 0 -0.49864303034596802 -0.36268297627728929 0 -0.5 -0.33361833768334559 0 -0.4901946939703119 -0.35458956833677879 0 -0.49864303034596802 -0.36268297627728929 0 -0.48631654644155142 -0.34049530838874997 0 -0.47778586185135402 -0.34528038590523152 0 -0.4901946939703119 -0.35458956833677879 0 -0.48976947002733012 -0.37768099102207758 0 -0.49864303034596802 -0.36268297627728929 0 -0.47889656533952552 -0.36374739041159071 0 -0.49864303034596802 -0.36268297627728929 0 -0.47889656533952552 -0.36374739041159071 0 -0.47853113512053469 -0.35550555663667138 0 -0.49864303034596802 -0.36268297627728929 0 -0.47889656533952552 -0.36374739041159071 0 -0.48976947002733012 -0.37768099102207758 0 -0.47889656533952552 -0.36374739041159071 0 -0.47445978518020632 -0.37124639778398588 0 -0.47853113512053469 -0.35550555663667138 0 -0.47889656533952552 -0.36374739041159071 0 -0.45915010033308312 -0.3648118045458929 0 -0.48976947002733012 -0.37768099102207758 0 -0.47445978518020632 -0.37124639778398588 0 -0.47889656533952552 -0.36374739041159071 0 -0.47445978518020632 -0.37124639778398588 0 -0.45915010033308312 -0.3648118045458929 0 -0.47889656533952552 -0.36374739041159071 0 -0.45915010033308312 -0.3648118045458929 0 -0.46184805260929829 -0.37952147175475431 0 -0.47445978518020632 -0.37124639778398588 0 -0.45915010033308312 -0.3648118045458929 0 -0.47445978518020632 -0.37124639778398588 0 -0.45915010033308312 -0.3648118045458929 0 -0.46184805260929829 -0.37952147175475431 0 -0.44897190725203517 -0.37522383123874731 0 -0.45915010033308312 -0.3648118045458929 0 -0.47853113512053469 -0.35550555663667138 0 -0.45841923989510153 -0.34832813699605358 0 -0.47853113512053469 -0.35550555663667138 0 -0.45915010033308312 -0.3648118045458929 0 -0.45841923989510153 -0.34832813699605358 0 -0.45915010033308312 -0.3648118045458929 0 -0.45841923989510153 -0.34832813699605358 0 -0.44094615886498478 -0.35716076797349561 0 -0.43830734466966809 -0.3411507173554359 0 -0.45841923989510153 -0.34832813699605358 0 -0.44094615886498478 -0.35716076797349561 0 -0.43830734466966809 -0.3411507173554359 0 -0.45841923989510153 -0.34832813699605358 0 -0.44897190725203517 -0.37522383123874731 0 -0.45915010033308312 -0.3648118045458929 0 -0.43242636989501521 -0.36625232143791447 0 -0.45915010033308312 -0.3648118045458929 0 -0.44094615886498478 -0.35716076797349561 0 -0.43242636989501521 -0.36625232143791447 0 -0.45915010033308312 -0.3648118045458929 0 -0.44094615886498478 -0.35716076797349561 0 -0.45915010033308312 -0.3648118045458929 0 -0.43242636989501521 -0.36625232143791447 0 -0.42356872020681863 -0.36672978449379551 0 -0.43242636989501521 -0.36625232143791447 0 -0.42274221739688761 -0.34950973140109581 0 -0.42454568292901179 -0.38831855577686469 0 -0.42515147811251452 -0.37041230148769272 0 -0.43242636989501521 -0.36625232143791447 0 -0.42356872020681863 -0.36672978449379551 0 -0.43242636989501521 -0.36625232143791447 0 -0.42356872020681863 -0.36672978449379551 0 -0.42515147811251452 -0.37041230148769272 0 -0.43242636989501521 -0.36625232143791447 0 -0.42356872020681863 -0.36672978449379551 0 -0.42515147811251452 -0.37041230148769272 0 -0.44094615886498478 -0.35716076797349561 0 -0.43242636989501521 -0.36625232143791447 0 -0.42274221739688761 -0.34950973140109581 0 -0.43830734466966809 -0.3411507173554359 0 -0.44094615886498478 -0.35716076797349561 0 -0.42274221739688761 -0.34950973140109581 0 -0.43242636989501521 -0.36625232143791447 0 -0.42274221739688761 -0.34950973140109581 0 -0.44094615886498478 -0.35716076797349561 0 -0.42274221739688761 -0.34950973140109581 0 -0.42356872020681863 -0.36672978449379551 0 -0.41471794459797551 -0.34613716481934881 0 -0.42356872020681863 -0.36672978449379551 0 -0.42274221739688761 -0.34950973140109581 0 -0.41471794459797551 -0.34613716481934881 0 -0.42274221739688761 -0.34950973140109581 0 -0.41471794459797551 -0.34613716481934881 0 -0.42356872020681863 -0.36672978449379551 0 -0.41471794459797551 -0.34613716481934881 0 -0.41000563458957362 -0.36746088953112938 0 -0.42356872020681863 -0.36672978449379551 0 -0.41000563458957362 -0.36746088953112938 0 -0.42356872020681863 -0.36672978449379551 0 -0.42515147811251452 -0.37041230148769272 0 -0.41000563458957362 -0.36746088953112938 0 -0.40385748857429671 -0.38396230100315609 0 -0.41000563458957362 -0.36746088953112938 0 -0.3983026804046228 -0.36809172597924589 0 -0.41000563458957362 -0.36746088953112938 0 -0.3983026804046228 -0.36809172597924589 0 -0.41000563458957362 -0.36746088953112938 0 -0.3983026804046228 -0.36809172597924589 0 -0.39296575050608368 -0.35923920552736621 0 -0.3983026804046228 -0.36809172597924589 0 -0.38599081191499779 -0.36814457376239201 0 -0.39296575050608368 -0.35923920552736621 0 -0.39198978820438429 -0.3782286394375895 0 -0.3983026804046228 -0.36809172597924589 0 -0.38599081191499779 -0.36814457376239201 0 -0.38599081191499779 -0.36814457376239201 0 -0.37901138746526941 -0.35520790336737601 0 -0.39296575050608368 -0.35923920552736621 0 -0.38599081191499779 -0.36814457376239201 0 -0.37612254132508599 -0.37004492812090112 0 -0.37901138746526941 -0.35520790336737601 0 -0.38060184875009262 -0.38167269985187552 0 -0.38599081191499779 -0.36814457376239201 0 -0.37612254132508599 -0.37004492812090112 0 -0.37901138746526941 -0.35520790336737601 0 -0.39296575050608368 -0.35923920552736621 0 -0.39302994830828147 -0.34310930620199809 0 -0.3790750482196874 -0.34437424490918439 0 -0.37901138746526941 -0.35520790336737601 0 -0.36978010004777728 -0.34588423666751678 0 -0.37901138746526941 -0.35520790336737601 0 -0.39302994830828147 -0.34310930620199809 0 -0.3790750482196874 -0.34437424490918439 0 -0.37901138746526941 -0.35520790336737601 0 -0.39302994830828147 -0.34310930620199809 0 -0.41471794459797551 -0.34613716481934881 0 -0.41000563458957362 -0.36746088953112938 0 -0.39302994830828147 -0.34310930620199809 0 -0.41000563458957362 -0.36746088953112938 0 -0.39296575050608368 -0.35923920552736621 0 -0.39302994830828147 -0.34310930620199809 0 -0.41000563458957362 -0.36746088953112938 0 -0.39302994830828147 -0.34310930620199809 0 -0.41471794459797551 -0.34613716481934881 0 -0.39777345003187398 -0.33901546824318712 0 -0.39302994830828147 -0.34310930620199809 0 -0.41471794459797551 -0.34613716481934881 0 -0.39777345003187398 -0.33901546824318712 0 -0.39777345003187398 -0.33901546824318712 0 -0.39217253746658542 -0.32301673046030632 0 -0.40790050614014439 -0.33027540043614051 0 -0.39777345003187398 -0.33901546824318712 0 -0.38702768232877072 -0.33449906931721668 0 -0.39217253746658542 -0.32301673046030632 0 -0.39777345003187398 -0.33901546824318712 0 -0.40790050614014439 -0.33027540043614051 0 -0.39777345003187398 -0.33901546824318712 0 -0.38702768232877072 -0.33449906931721668 0 -0.39777345003187398 -0.33901546824318712 0 -0.39302994830828147 -0.34310930620199809 0 -0.38702768232877072 -0.33449906931721668 0 -0.39777345003187398 -0.33901546824318712 0 -0.39302994830828147 -0.34310930620199809 0 -0.39302994830828147 -0.34310930620199809 0 -0.38702768232877072 -0.33449906931721668 0 -0.3790750482196874 -0.34437424490918439 0 -0.39302994830828147 -0.34310930620199809 0 -0.38134015603205151 -0.33609540557659878 0 -0.39302994830828147 -0.34310930620199809 0 -0.38702768232877072 -0.33449906931721668 0 -0.38134015603205151 -0.33609540557659878 0 -0.38702768232877072 -0.33449906931721668 0 -0.37992975112049571 -0.33151584003370649 0 -0.37595800937222618 -0.31861964865870751 0 -0.38702768232877072 -0.33449906931721668 0 -0.37992975112049571 -0.33151584003370649 0 -0.38702768232877072 -0.33449906931721668 0 -0.37992975112049571 -0.33151584003370649 0 -0.38134015603205151 -0.33609540557659878 0 -0.37992975112049571 -0.33151584003370649 0 -0.38134015603205151 -0.33609540557659878 0 -0.37122354459229701 -0.33596593369906907 0 -0.37992975112049571 -0.33151584003370649 0 -0.38134015603205151 -0.33609540557659878 0 -0.3790750482196874 -0.34437424490918439 0 -0.38134015603205151 -0.33609540557659878 0 -0.37122354459229701 -0.33596593369906907 0 -0.38702768232877072 -0.33449906931721668 0 -0.37595800937222618 -0.31861964865870751 0 -0.39217253746658542 -0.32301673046030632 0 -0.38702768232877072 -0.33449906931721668 0 -0.37595800937222618 -0.31861964865870751 0 -0.37595800937222618 -0.31861964865870751 0 -0.39217253746658542 -0.32301673046030632 0 -0.38722312163378481 -0.31042230276248511 0 -0.37992975112049571 -0.33151584003370649 0 -0.37595800937222618 -0.31861964865870751 0 -0.41037936937406633 -0.32813603905438821 0 -0.39715245529271231 -0.30526849334410061 0 -0.40790050614014439 -0.33027540043614051 0 -0.41037936937406633 -0.32813603905438821 0 -0.39715245529271231 -0.30526849334410061 0 -0.40895270599785011 -0.31950223664657879 0 -0.41037936937406633 -0.32813603905438821 0 -0.39715245529271231 -0.30526849334410061 0 -0.39217253746658542 -0.32301673046030632 0 -0.40790050614014439 -0.33027540043614051 0 -0.39715245529271231 -0.30526849334410061 0 -0.40790050614014439 -0.33027540043614051 0 -0.39715245529271231 -0.30526849334410061 0 -0.39217253746658542 -0.32301673046030632 0 -0.39715245529271231 -0.30526849334410061 0 -0.38722312163378481 -0.31042230276248511 0 -0.41037936937406633 -0.32813603905438821 0 -0.42640277076204292 -0.33209457238692919 0 -0.4230047746245767 -0.31723979272167607 0 -0.40895270599785011 -0.31950223664657879 0 -0.4230047746245767 -0.31723979272167607 0 -0.41668271438536769 -0.30755592441287338 0 -0.41037936937406633 -0.32813603905438821 0 -0.4230047746245767 -0.31723979272167607 0 -0.40895270599785011 -0.31950223664657879 0 -0.41037936937406633 -0.32813603905438821 0 -0.4230047746245767 -0.31723979272167607 0 -0.41471794459797551 -0.34613716481934881 0 -0.39777345003187398 -0.33901546824318712 0 -0.40790050614014439 -0.33027540043614051 0 -0.42274221739688761 -0.34950973140109581 0 -0.41471794459797551 -0.34613716481934881 0 -0.41037936937406633 -0.32813603905438821 0 -0.41471794459797551 -0.34613716481934881 0 -0.40790050614014439 -0.33027540043614051 0 -0.41037936937406633 -0.32813603905438821 0 -0.41471794459797551 -0.34613716481934881 0 -0.40790050614014439 -0.33027540043614051 0 -0.42274221739688761 -0.34950973140109581 0 -0.41037936937406633 -0.32813603905438821 0 -0.42640277076204292 -0.33209457238692919 0 -0.42274221739688761 -0.34950973140109581 0 -0.41037936937406633 -0.32813603905438821 0 -0.40790050614014439 -0.33027540043614051 0 -0.41037936937406633 -0.32813603905438821 0 -0.43758014774501391 -0.32443658140205112 0 -0.43830734466966809 -0.3411507173554359 0 -0.42640277076204292 -0.33209457238692919 0 -0.43830734466966809 -0.3411507173554359 0 -0.42274221739688761 -0.34950973140109581 0 -0.42640277076204292 -0.33209457238692919 0 -0.43758014774501391 -0.32443658140205112 0 -0.4230047746245767 -0.31723979272167607 0 -0.43563017987508712 -0.30634354638896422 0 -0.43758014774501391 -0.32443658140205112 0 -0.42640277076204292 -0.33209457238692919 0 -0.4230047746245767 -0.31723979272167607 0 -0.44214087396748031 -0.29493308497296938 0 -0.42354516819009858 -0.29693799690279921 0 -0.43563017987508712 -0.30634354638896422 0 -0.42354516819009858 -0.29693799690279921 0 -0.42471570926878249 -0.30701931510657821 0 -0.43563017987508712 -0.30634354638896422 0 -0.4230047746245767 -0.31723979272167607 0 -0.42471570926878249 -0.30701931510657821 0 -0.43563017987508712 -0.30634354638896422 0 -0.4230047746245767 -0.31723979272167607 0 -0.43563017987508712 -0.30634354638896422 0 -0.44214087396748031 -0.29493308497296938 0 -0.42354516819009858 -0.29693799690279921 0 -0.42867181636148338 -0.28685490791262119 0 -0.44195758091034842 -0.2817970973456223 0 -0.42867181636148338 -0.28685490791262119 0 -0.42022831512442471 -0.27652229521180299 0 -0.42867181636148338 -0.28685490791262119 0 -0.42227847779946859 -0.28869701682167032 0 -0.42050534183852889 -0.28192895548386432 0 -0.42867181636148338 -0.28685490791262119 0 -0.42050534183852889 -0.28192895548386432 0 -0.42022831512442471 -0.27652229521180299 0 -0.42354516819009858 -0.29693799690279921 0 -0.42867181636148338 -0.28685490791262119 0 -0.42227847779946859 -0.28869701682167032 0 -0.40823853095913049 -0.29647031619703168 0 -0.40752435592041181 -0.27343839574748457 0 -0.42354516819009858 -0.29693799690279921 0 -0.42227847779946859 -0.28869701682167032 0 -0.41639158480776378 -0.28906620698739638 0 -0.42354516819009858 -0.29693799690279921 0 -0.41639158480776378 -0.28906620698739638 0 -0.40823853095913049 -0.29647031619703168 0 -0.41639158480776378 -0.28906620698739638 0 -0.42050534183852889 -0.28192895548386432 0 -0.40752435592041181 -0.27343839574748457 0 -0.41639158480776378 -0.28906620698739638 0 -0.40823853095913049 -0.29647031619703168 0 -0.40752435592041181 -0.27343839574748457 0 -0.42227847779946859 -0.28869701682167032 0 -0.41639158480776378 -0.28906620698739638 0 -0.42050534183852889 -0.28192895548386432 0 -0.40895270599785011 -0.31950223664657879 0 -0.40823853095913049 -0.29647031619703168 0 -0.41668271438536769 -0.30755592441287338 0 -0.40895270599785011 -0.31950223664657879 0 -0.40823853095913049 -0.29647031619703168 0 -0.42354516819009858 -0.29693799690279921 0 -0.40823853095913049 -0.29647031619703168 0 -0.41668271438536769 -0.30755592441287338 0 -0.42354516819009858 -0.29693799690279921 0 -0.42471570926878249 -0.30701931510657821 0 -0.41668271438536769 -0.30755592441287338 0 -0.4230047746245767 -0.31723979272167607 0 -0.42471570926878249 -0.30701931510657821 0 -0.41668271438536769 -0.30755592441287338 0 -0.40895270599785011 -0.31950223664657879 0 -0.40823853095913049 -0.29647031619703168 0 -0.39715245529271231 -0.30526849334410061 0 -0.40823853095913049 -0.29647031619703168 0 -0.39715245529271231 -0.30526849334410061 0 -0.39821212874389023 -0.29343796338865852 0 -0.39371898029673907 -0.29728001325167053 0 -0.39715245529271231 -0.30526849334410061 0 -0.39371898029673907 -0.29728001325167053 0 -0.39715245529271231 -0.30526849334410061 0 -0.39821212874389023 -0.29343796338865852 0 -0.39371898029673907 -0.29728001325167053 0 -0.39715245529271231 -0.30526849334410061 0 -0.38875588400241212 -0.30343353500989623 0 -0.39715245529271231 -0.30526849334410061 0 -0.38722312163378481 -0.31042230276248511 0 -0.38875588400241212 -0.30343353500989623 0 -0.37595800937222618 -0.31861964865870751 0 -0.38722312163378481 -0.31042230276248511 0 -0.38078592709073239 -0.30128195795161739 0 -0.37595800937222618 -0.31861964865870751 0 -0.38078592709073239 -0.30128195795161739 0 -0.36853581232338523 -0.29451987590623768 0 -0.38722312163378481 -0.31042230276248511 0 -0.38875588400241212 -0.30343353500989623 0 -0.38078592709073239 -0.30128195795161739 0 -0.39371898029673907 -0.29728001325167053 0 -0.38875588400241212 -0.30343353500989623 0 -0.3869556512085755 -0.2955367813193388 0 -0.38875588400241212 -0.30343353500989623 0 -0.38078592709073239 -0.30128195795161739 0 -0.3869556512085755 -0.2955367813193388 0 -0.37820167961627338 -0.2884179115180292 0 -0.38489158479391339 -0.28869948905610399 0 -0.38325984827466869 -0.28331377244016381 0 -0.37566018977046323 -0.28187046198094712 0 -0.37820167961627338 -0.2884179115180292 0 -0.38325984827466869 -0.28331377244016381 0 -0.37566018977046323 -0.28187046198094712 0 -0.37820167961627338 -0.2884179115180292 0 -0.37242813600476132 -0.28711279977369553 0 -0.38078592709073239 -0.30128195795161739 0 -0.37631713988394022 -0.29376566820567412 0 -0.38186238474124268 -0.29212500427003141 0 -0.37820167961627338 -0.2884179115180292 0 -0.37631713988394022 -0.29376566820567412 0 -0.3721998956480676 -0.29248359138245489 0 -0.38078592709073239 -0.30128195795161739 0 -0.37631713988394022 -0.29376566820567412 0 -0.36853581232338523 -0.29451987590623768 0 -0.37820167961627338 -0.2884179115180292 0 -0.37631713988394022 -0.29376566820567412 0 -0.38186238474124268 -0.29212500427003141 0 -0.37820167961627338 -0.2884179115180292 0 -0.38186238474124268 -0.29212500427003141 0 -0.38489158479391339 -0.28869948905610399 0 -0.38186238474124268 -0.29212500427003141 0 -0.3869556512085755 -0.2955367813193388 0 -0.38489158479391339 -0.28869948905610399 0 -0.38078592709073239 -0.30128195795161739 0 -0.38186238474124268 -0.29212500427003141 0 -0.3869556512085755 -0.2955367813193388 0 -0.3869556512085755 -0.2955367813193388 0 -0.38489158479391339 -0.28869948905610399 0 -0.39171914632641353 -0.29040068837671351 0 -0.38928525784559947 -0.28560024899905068 0 -0.38489158479391339 -0.28869948905610399 0 -0.39171914632641353 -0.29040068837671351 0 -0.38928525784559947 -0.28560024899905068 0 -0.38489158479391339 -0.28869948905610399 0 -0.38325984827466869 -0.28331377244016381 0 -0.38928525784559947 -0.28560024899905068 0 -0.38325984827466869 -0.28331377244016381 0 -0.38938483540843222 -0.28079791094391549 0 -0.38928525784559947 -0.28560024899905068 0 -0.39717087442456989 -0.28478938417835697 0 -0.39171914632641353 -0.29040068837671351 0 -0.40823853095913049 -0.29647031619703168 0 -0.39717087442456989 -0.28478938417835697 0 -0.40752435592041181 -0.27343839574748457 0 -0.38928525784559947 -0.28560024899905068 0 -0.39717087442456989 -0.28478938417835697 0 -0.38938483540843222 -0.28079791094391549 0 -0.39717087442456989 -0.28478938417835697 0 -0.39171914632641353 -0.29040068837671351 0 -0.39821212874389023 -0.29343796338865852 0 -0.39371898029673907 -0.29728001325167053 0 -0.3869556512085755 -0.2955367813193388 0 -0.39171914632641353 -0.29040068837671351 0 -0.39371898029673907 -0.29728001325167053 0 -0.39171914632641353 -0.29040068837671351 0 -0.39821212874389023 -0.29343796338865852 0 -0.40823853095913049 -0.29647031619703168 0 -0.39717087442456989 -0.28478938417835697 0 -0.39821212874389023 -0.29343796338865852 0 -0.40134163203468781 -0.27193753301854889 0 -0.38217022443024218 -0.27472121207517269 0 -0.39076873500087411 -0.26329940226581139 0 -0.39772809278443599 -0.26136585107294152 0 -0.40752435592041181 -0.27343839574748457 0 -0.40134163203468781 -0.27193753301854889 0 -0.39076873500087411 -0.26329940226581139 0 -0.40752435592041181 -0.27343839574748457 0 -0.40134163203468781 -0.27193753301854889 0 -0.38348705559938878 -0.26760331580167662 0 -0.39076873500087411 -0.26329940226581139 0 -0.39717087442456989 -0.28478938417835697 0 -0.39619529719243352 -0.27765002560473873 0 -0.40752435592041181 -0.27343839574748457 0 -0.40134163203468781 -0.27193753301854889 0 -0.38348705559938878 -0.26760331580167662 0 -0.40134163203468781 -0.27193753301854889 0 -0.39619529719243352 -0.27765002560473873 0 -0.38217022443024218 -0.27472121207517269 0 -0.40134163203468781 -0.27193753301854889 0 -0.39619529719243352 -0.27765002560473873 0 -0.40752435592041181 -0.27343839574748457 0 -0.40134163203468781 -0.27193753301854889 0 -0.40752435592041181 -0.27343839574748457 0 -0.39717087442456989 -0.28478938417835697 0 -0.39619529719243352 -0.27765002560473873 0 -0.38938483540843222 -0.28079791094391549 0 -0.38325984827466869 -0.28331377244016381 0 -0.38938483540843222 -0.28079791094391549 0 -0.38217022443024218 -0.27472121207517269 0 -0.39619529719243352 -0.27765002560473873 0 -0.38938483540843222 -0.28079791094391549 0 -0.38217022443024218 -0.27472121207517269 0 -0.40134163203468781 -0.27193753301854889 0 -0.38348705559938878 -0.26760331580167662 0 -0.38217022443024218 -0.27472121207517269 0 -0.38348705559938878 -0.26760331580167662 0 -0.38217022443024218 -0.27472121207517269 0 -0.37205916421363922 -0.27026470295014138 0 -0.37566018977046323 -0.28187046198094712 0 -0.38325984827466869 -0.28331377244016381 0 -0.38217022443024218 -0.27472121207517269 0 -0.38751535390280561 -0.25554780474423161 0 -0.39411142420351142 -0.24624524213269491 0 -0.37764468782704042 -0.24899062017314161 0 -0.37758881679732798 -0.25854164396272328 0 -0.38751535390280561 -0.25554780474423161 0 -0.37764468782704042 -0.24899062017314161 0 -0.37758881679732798 -0.25854164396272328 0 -0.38751535390280561 -0.25554780474423161 0 -0.39076873500087411 -0.26329940226581139 0 -0.38348705559938878 -0.26760331580167662 0 -0.37758881679732798 -0.25854164396272328 0 -0.39076873500087411 -0.26329940226581139 0 -0.40016623746553048 -0.25365426733689111 0 -0.40752435592041181 -0.27343839574748457 0 -0.40666421041337558 -0.24569897359037501 0 -0.39772809278443599 -0.26136585107294152 0 -0.40016623746553048 -0.25365426733689111 0 -0.40752435592041181 -0.27343839574748457 0 -0.38751535390280561 -0.25554780474423161 0 -0.40016623746553048 -0.25365426733689111 0 -0.39411142420351142 -0.24624524213269491 0 -0.38751535390280561 -0.25554780474423161 0 -0.39772809278443599 -0.26136585107294152 0 -0.40016623746553048 -0.25365426733689111 0 -0.38751535390280561 -0.25554780474423161 0 -0.39076873500087411 -0.26329940226581139 0 -0.39772809278443599 -0.26136585107294152 0 -0.40752435592041181 -0.27343839574748457 0 -0.40666421041337558 -0.24569897359037501 0 -0.41305905268443521 -0.25629159816691388 0 -0.41942531984279369 -0.26085043951386627 0 -0.41862232456115961 -0.2451785838159298 0 -0.41942531984279369 -0.26085043951386627 0 -0.41862232456115961 -0.2451785838159298 0 -0.41305905268443521 -0.25629159816691388 0 -0.40752435592041181 -0.27343839574748457 0 -0.40666421041337558 -0.24569897359037501 0 -0.41305905268443521 -0.25629159816691388 0 -0.41942531984279369 -0.26085043951386627 0 -0.40752435592041181 -0.27343839574748457 0 -0.41942531984279369 -0.26085043951386627 0 -0.42022831512442471 -0.27652229521180299 0 -0.41942531984279369 -0.26085043951386627 0 -0.40752435592041181 -0.27343839574748457 0 -0.42022831512442471 -0.27652229521180299 0 -0.40752435592041181 -0.27343839574748457 0 -0.42022831512442471 -0.27652229521180299 0 -0.42050534183852889 -0.28192895548386432 0 -0.40752435592041181 -0.27343839574748457 0 -0.42022831512442471 -0.27652229521180299 0 -0.42050534183852889 -0.28192895548386432 0 -0.42022831512442471 -0.27652229521180299 0 -0.43787874977499203 -0.2653125389199632 0 -0.44195758091034842 -0.2817970973456223 0 -0.42824400038274879 -0.26798143984673922 0 -0.41942531984279369 -0.26085043951386627 0 -0.42022831512442471 -0.27652229521180299 0 -0.42824400038274879 -0.26798143984673922 0 -0.44195758091034842 -0.2817970973456223 0 -0.42022831512442471 -0.27652229521180299 0 -0.44195758091034842 -0.2817970973456223 0 -0.42022831512442471 -0.27652229521180299 0 -0.42824400038274879 -0.26798143984673922 0 -0.41942531984279369 -0.26085043951386627 0 -0.43192748323268432 -0.25712770411644359 0 -0.41862232456115961 -0.2451785838159298 0 -0.43787874977499203 -0.2653125389199632 0 -0.42824400038274879 -0.26798143984673922 0 -0.43192748323268432 -0.25712770411644359 0 -0.41942531984279369 -0.26085043951386627 0 -0.42824400038274879 -0.26798143984673922 0 -0.43192748323268432 -0.25712770411644359 0 -0.33361653275719072 -0.25803995610263991 0 -0.31722060212611358 -0.24934470963434141 0 -0.32735349430960708 -0.24262562400034121 0 -0.32198076444521551 -0.26738502071963288 0 -0.33361653275719072 -0.25803995610263991 0 -0.31722060212611358 -0.24934470963434141 0 -0.32198076444521551 -0.26738502071963288 0 -0.30847369976589017 -0.26668749321815682 0 -0.31722060212611358 -0.24934470963434141 0 -0.32198076444521551 -0.26738502071963288 0 -0.33341321138096652 -0.2804695330950942 0 -0.31717977619591659 -0.28238341154793239 0 -0.32198076444521551 -0.26738502071963288 0 -0.31717977619591659 -0.28238341154793239 0 -0.30847369976589017 -0.26668749321815682 0 -0.33341321138096652 -0.2804695330950942 0 -0.33361653275719072 -0.25803995610263991 0 -0.32198076444521551 -0.26738502071963288 0 -0.33341321138096652 -0.2804695330950942 0 -0.33361653275719072 -0.25803995610263991 0 -0.33341321138096652 -0.2804695330950942 0 -0.33361653275719072 -0.25803995610263991 0 -0.34595542429398468 -0.26530634715793128 0 -0.33361653275719072 -0.25803995610263991 0 -0.34595542429398468 -0.26530634715793128 0 -0.34239593143502273 -0.2469038302415234 0 -0.34595542429398468 -0.26530634715793128 0 -0.35668027886030312 -0.25602512018371798 0 -0.34239593143502273 -0.2469038302415234 0 -0.38348705559938878 -0.26760331580167662 0 -0.37758881679732798 -0.25854164396272328 0 -0.35944975527836581 -0.26176823585586911 0 -0.35668027886030312 -0.25602512018371798 0 -0.36757427284176208 -0.25455807078907677 0 -0.36574197782918022 -0.24588091879952639 0 -0.35668027886030312 -0.25602512018371798 0 -0.35944975527836581 -0.26176823585586911 0 -0.36312962154655998 -0.27696604806784703 0 -0.35668027886030312 -0.25602512018371798 0 -0.35944975527836581 -0.26176823585586911 0 -0.36757427284176208 -0.25455807078907677 0 -0.38348705559938878 -0.26760331580167662 0 -0.35944975527836581 -0.26176823585586911 0 -0.37758881679732798 -0.25854164396272328 0 -0.35944975527836581 -0.26176823585586911 0 -0.36757427284176208 -0.25455807078907677 0 -0.37758881679732798 -0.25854164396272328 0 -0.36757427284176208 -0.25455807078907677 0 -0.37764468782704042 -0.24899062017314161 0 -0.38348705559938878 -0.26760331580167662 0 -0.35944975527836581 -0.26176823585586911 0 -0.37205916421363922 -0.27026470295014138 0 -0.38217022443024218 -0.27472121207517269 0 -0.36312962154655998 -0.27696604806784703 0 -0.35668027886030312 -0.25602512018371798 0 -0.36312962154655998 -0.27696604806784703 0 -0.38217022443024218 -0.27472121207517269 0 -0.37205916421363922 -0.27026470295014138 0 -0.36312962154655998 -0.27696604806784703 0 -0.37566018977046323 -0.28187046198094712 0 -0.38217022443024218 -0.27472121207517269 0 -0.36312962154655998 -0.27696604806784703 0 -0.35944975527836581 -0.26176823585586911 0 -0.37205916421363922 -0.27026470295014138 0 -0.36312962154655998 -0.27696604806784703 0 -0.34595542429398468 -0.26530634715793128 0 -0.35668027886030312 -0.25602512018371798 0 -0.36312962154655998 -0.27696604806784703 0 -0.33341321138096652 -0.2804695330950942 0 -0.34595542429398468 -0.26530634715793128 0 -0.36312962154655998 -0.27696604806784703 0 -0.33341321138096652 -0.2804695330950942 0 -0.36312962154655998 -0.27696604806784703 0 -0.33341321138096652 -0.2804695330950942 0 -0.36312962154655998 -0.27696604806784703 0 -0.35258848165876461 -0.28509611434928839 0 -0.34499092004637838 -0.29620165199787363 0 -0.35258848165876461 -0.28509611434928839 0 -0.36177650152787599 -0.29827630793703869 0 -0.34499092004637838 -0.29620165199787363 0 -0.35258848165876461 -0.28509611434928839 0 -0.34106590358732791 -0.28948121678478228 0 -0.35258848165876461 -0.28509611434928839 0 -0.36177650152787599 -0.29827630793703869 0 -0.36312962154655998 -0.27696604806784703 0 -0.35258848165876461 -0.28509611434928839 0 -0.36853581232338523 -0.29451987590623768 0 -0.35258848165876461 -0.28509611434928839 0 -0.36853581232338523 -0.29451987590623768 0 -0.36177650152787599 -0.29827630793703869 0 -0.36312962154655998 -0.27696604806784703 0 -0.36853581232338523 -0.29451987590623768 0 -0.37242813600476132 -0.28711279977369553 0 -0.36312962154655998 -0.27696604806784703 0 -0.36853581232338523 -0.29451987590623768 0 -0.36853581232338523 -0.29451987590623768 0 -0.36177650152787599 -0.29827630793703869 0 -0.36853581232338523 -0.29451987590623768 0 -0.3721998956480676 -0.29248359138245489 0 -0.37242813600476132 -0.28711279977369553 0 -0.36853581232338523 -0.29451987590623768 0 -0.3721998956480676 -0.29248359138245489 0 -0.37631713988394022 -0.29376566820567412 0 -0.36853581232338523 -0.29451987590623768 0 -0.3721998956480676 -0.29248359138245489 0 -0.37820167961627338 -0.2884179115180292 0 -0.3721998956480676 -0.29248359138245489 0 -0.37242813600476132 -0.28711279977369553 0 -0.37566018977046323 -0.28187046198094712 0 -0.36312962154655998 -0.27696604806784703 0 -0.37242813600476132 -0.28711279977369553 0 -0.37595800937222618 -0.31861964865870751 0 -0.36853581232338523 -0.29451987590623768 0 -0.36177650152787599 -0.29827630793703869 0 -0.37595800937222618 -0.31861964865870751 0 -0.36177650152787599 -0.29827630793703869 0 -0.37595800937222618 -0.31861964865870751 0 -0.36853581232338523 -0.29451987590623768 0 -0.36177650152787599 -0.29827630793703869 0 -0.33553795869987108 -0.31285816483080142 0 -0.35773385491018328 -0.32218700243225429 0 -0.34499092004637838 -0.29620165199787363 0 -0.36177650152787599 -0.29827630793703869 0 -0.33553795869987108 -0.31285816483080142 0 -0.36177650152787599 -0.29827630793703869 0 -0.33553795869987108 -0.31285816483080142 0 -0.33312879114543842 -0.31184560229865183 0 -0.33327100126320242 -0.29615756769687301 0 -0.34499092004637838 -0.29620165199787363 0 -0.33327100126320242 -0.29615756769687301 0 -0.33553795869987108 -0.31285816483080142 0 -0.33312879114543842 -0.31184560229865183 0 -0.33327100126320242 -0.29615756769687301 0 -0.33553795869987108 -0.31285816483080142 0 -0.33312879114543842 -0.31184560229865183 0 -0.33327100126320242 -0.29615756769687301 0 -0.32584019490081162 -0.3015414341136341 0 -0.33312879114543842 -0.31184560229865183 0 -0.33553795869987108 -0.31285816483080142 0 -0.33341321138096652 -0.2804695330950942 0 -0.33327100126320242 -0.29615756769687301 0 -0.32149715398273759 -0.29374146832262987 0 -0.33341321138096652 -0.2804695330950942 0 -0.34106590358732791 -0.28948121678478228 0 -0.33327100126320242 -0.29615756769687301 0 -0.34499092004637838 -0.29620165199787363 0 -0.34106590358732791 -0.28948121678478228 0 -0.33327100126320242 -0.29615756769687301 0 -0.33341321138096652 -0.2804695330950942 0 -0.35258848165876461 -0.28509611434928839 0 -0.34106590358732791 -0.28948121678478228 0 -0.33341321138096652 -0.2804695330950942 0 -0.33327100126320242 -0.29615756769687301 0 -0.33341321138096652 -0.2804695330950942 0 -0.32149715398273759 -0.29374146832262987 0 -0.31717977619591659 -0.28238341154793239 0 -0.33341321138096652 -0.2804695330950942 0 -0.31717977619591659 -0.28238341154793239 0 -0.32149715398273759 -0.29374146832262987 0 -0.31717977619591659 -0.28238341154793239 0 -0.30911446578735041 -0.29442301866462228 0 -0.32149715398273759 -0.29374146832262987 0 -0.31492523074182138 -0.30472489638013528 0 -0.30911446578735041 -0.29442301866462228 0 -0.33312879114543842 -0.31184560229865183 0 -0.31492523074182138 -0.30472489638013528 0 -0.32584019490081162 -0.3015414341136341 0 -0.31492523074182138 -0.30472489638013528 0 -0.32333728605693551 -0.31963858947759199 0 -0.30608314329765079 -0.31210168917786868 0 -0.33312879114543842 -0.31184560229865183 0 -0.31492523074182138 -0.30472489638013528 0 -0.33312879114543842 -0.31184560229865183 0 -0.31492523074182138 -0.30472489638013528 0 -0.32333728605693551 -0.31963858947759199 0 -0.31492523074182138 -0.30472489638013528 0 -0.32333728605693551 -0.31963858947759199 0 -0.32149715398273759 -0.29374146832262987 0 -0.31492523074182138 -0.30472489638013528 0 -0.32584019490081162 -0.3015414341136341 0 -0.33327100126320242 -0.29615756769687301 0 -0.32149715398273759 -0.29374146832262987 0 -0.32584019490081162 -0.3015414341136341 0 -0.32333728605693551 -0.31963858947759199 0 -0.33290439490506157 -0.33660007152283761 0 -0.32333728605693551 -0.31963858947759199 0 -0.31787674772730012 -0.33374662552332018 0 -0.29895296916946063 -0.33318997537719069 0 -0.32333728605693551 -0.31963858947759199 0 -0.31787674772730012 -0.33374662552332018 0 -0.33290439490506157 -0.33660007152283761 0 -0.31787674772730012 -0.33374662552332018 0 -0.33290439490506157 -0.33660007152283761 0 -0.3163123407777424 -0.34555786571566072 0 -0.33290439490506157 -0.33660007152283761 0 -0.34152660310720118 -0.32424881873517353 0 -0.34850868564350213 -0.33272041770390459 0 -0.33290439490506157 -0.33660007152283761 0 -0.34152660310720118 -0.32424881873517353 0 -0.33310736772332972 -0.31420894600868787 0 -0.32333728605693551 -0.31963858947759199 0 -0.33290439490506157 -0.33660007152283761 0 -0.33310736772332972 -0.31420894600868787 0 -0.33290439490506157 -0.33660007152283761 0 -0.33310736772332972 -0.31420894600868787 0 -0.33312879114543842 -0.31184560229865183 0 -0.32333728605693551 -0.31963858947759199 0 -0.33310736772332972 -0.31420894600868787 0 -0.32333728605693551 -0.31963858947759199 0 -0.33310736772332972 -0.31420894600868787 0 -0.33312879114543842 -0.31184560229865183 0 -0.33310736772332972 -0.31420894600868787 0 -0.33312879114543842 -0.31184560229865183 0 -0.33310736772332972 -0.31420894600868787 0 -0.33553795869987108 -0.31285816483080142 0 -0.33310736772332972 -0.31420894600868787 0 -0.33553795869987108 -0.31285816483080142 0 -0.34152660310720118 -0.32424881873517353 0 -0.33310736772332972 -0.31420894600868787 0 -0.33553795869987108 -0.31285816483080142 0 -0.34152660310720118 -0.32424881873517353 0 -0.33553795869987108 -0.31285816483080142 0 -0.35773385491018328 -0.32218700243225429 0 -0.34152660310720118 -0.32424881873517353 0 -0.35773385491018328 -0.32218700243225429 0 -0.34850868564350213 -0.33272041770390459 0 -0.33553795869987108 -0.31285816483080142 0 -0.35773385491018328 -0.32218700243225429 0 -0.37595800937222618 -0.31861964865870751 0 -0.36177650152787599 -0.29827630793703869 0 -0.35773385491018328 -0.32218700243225429 0 -0.37992975112049571 -0.33151584003370649 0 -0.37595800937222618 -0.31861964865870751 0 -0.35773385491018328 -0.32218700243225429 0 -0.37992975112049571 -0.33151584003370649 0 -0.35773385491018328 -0.32218700243225429 0 -0.37992975112049571 -0.33151584003370649 0 -0.35773385491018328 -0.32218700243225429 0 -0.37122354459229701 -0.33596593369906907 0 -0.3790750482196874 -0.34437424490918439 0 -0.37122354459229701 -0.33596593369906907 0 -0.36978010004777728 -0.34588423666751678 0 -0.35773385491018328 -0.32218700243225429 0 -0.37122354459229701 -0.33596593369906907 0 -0.35927608542092948 -0.33457044777653472 0 -0.37122354459229701 -0.33596593369906907 0 -0.35927608542092948 -0.33457044777653472 0 -0.36978010004777728 -0.34588423666751678 0 -0.35927608542092948 -0.33457044777653472 0 -0.34850868564350213 -0.33272041770390459 0 -0.35110248987413473 -0.34599574805272332 0 -0.33290439490506157 -0.33660007152283761 0 -0.34850868564350213 -0.33272041770390459 0 -0.35110248987413473 -0.34599574805272332 0 -0.35773385491018328 -0.32218700243225429 0 -0.35927608542092948 -0.33457044777653472 0 -0.34850868564350213 -0.33272041770390459 0 -0.35927608542092948 -0.33457044777653472 0 -0.35864650014041322 -0.35784619359987158 0 -0.35927608542092948 -0.33457044777653472 0 -0.35110248987413473 -0.34599574805272332 0 -0.35864650014041322 -0.35784619359987158 0 -0.35110248987413473 -0.34599574805272332 0 -0.34546065488247829 -0.35886100547302308 0 -0.35864650014041322 -0.35784619359987158 0 -0.37901138746526941 -0.35520790336737601 0 -0.35864650014041322 -0.35784619359987158 0 -0.36978010004777728 -0.34588423666751678 0 -0.35927608542092948 -0.33457044777653472 0 -0.35864650014041322 -0.35784619359987158 0 -0.36978010004777728 -0.34588423666751678 0 -0.35864650014041322 -0.35784619359987158 0 -0.36499282662225718 -0.36730650053275382 0 -0.35801691485989567 -0.38112193942320849 0 -0.37901138746526941 -0.35520790336737601 0 -0.35864650014041322 -0.35784619359987158 0 -0.36499282662225718 -0.36730650053275382 0 -0.37612254132508599 -0.37004492812090112 0 -0.36499282662225718 -0.36730650053275382 0 -0.37001583187281317 -0.377892963090108 0 -0.37612254132508599 -0.37004492812090112 0 -0.37901138746526941 -0.35520790336737601 0 -0.36499282662225718 -0.36730650053275382 0 -0.37901138746526941 -0.35520790336737601 0 -0.36499282662225718 -0.36730650053275382 0 -0.34546065488247829 -0.35886100547302308 0 -0.35864650014041322 -0.35784619359987158 0 -0.35801691485989567 -0.38112193942320849 0 -0.35864650014041322 -0.35784619359987158 0 -0.35801691485989567 -0.38112193942320849 0 -0.34546065488247829 -0.35886100547302308 0 -0.35801691485989567 -0.38112193942320849 0 -0.34546065488247829 -0.35886100547302308 0 -0.34459208761093241 -0.37928767122533091 0 -0.35801691485989567 -0.38112193942320849 0 -0.33257416318950639 -0.37302987456139908 0 -0.33273927904728368 -0.35481497304211829 0 -0.33257416318950639 -0.37302987456139908 0 -0.33273927904728368 -0.35481497304211829 0 -0.31971889672997589 -0.36357472665957019 0 -0.34546065488247829 -0.35886100547302308 0 -0.33257416318950639 -0.37302987456139908 0 -0.34459208761093241 -0.37928767122533091 0 -0.34546065488247829 -0.35886100547302308 0 -0.33257416318950639 -0.37302987456139908 0 -0.33273927904728368 -0.35481497304211829 0 -0.33290439490506157 -0.33660007152283761 0 -0.34546065488247829 -0.35886100547302308 0 -0.33290439490506157 -0.33660007152283761 0 -0.35110248987413473 -0.34599574805272332 0 -0.34546065488247829 -0.35886100547302308 0 -0.33290439490506157 -0.33660007152283761 0 -0.34546065488247829 -0.35886100547302308 0 -0.33273927904728368 -0.35481497304211829 0 -0.33290439490506157 -0.33660007152283761 0 -0.33273927904728368 -0.35481497304211829 0 -0.33290439490506157 -0.33660007152283761 0 -0.33273927904728368 -0.35481497304211829 0 -0.3163123407777424 -0.34555786571566072 0 -0.33273927904728368 -0.35481497304211829 0 -0.3163123407777424 -0.34555786571566072 0 -0.31971889672997589 -0.36357472665957019 0 -0.3163123407777424 -0.34555786571566072 0 -0.31971889672997589 -0.36357472665957019 0 -0.30577197850087462 -0.36119241399942248 0 -0.31971889672997589 -0.36357472665957019 0 -0.31079379255441242 -0.3703067332421891 0 -0.31947774053566952 -0.37538637463218327 0 -0.33257416318950639 -0.37302987456139908 0 -0.31971889672997589 -0.36357472665957019 0 -0.31947774053566952 -0.37538637463218327 0 -0.30577197850087462 -0.36119241399942248 0 -0.29588770224460631 -0.35631437123445181 0 -0.29110329015123371 -0.36555989706129538 0 -0.3008358669182804 -0.37411695625553998 0 -0.30577197850087462 -0.36119241399942248 0 -0.29110329015123371 -0.36555989706129538 0 -0.3008358669182804 -0.37411695625553998 0 -0.31079379255441242 -0.3703067332421891 0 -0.30577197850087462 -0.36119241399942248 0 -0.31971889672997589 -0.36357472665957019 0 -0.31079379255441242 -0.3703067332421891 0 -0.30577197850087462 -0.36119241399942248 0 -0.3163123407777424 -0.34555786571566072 0 -0.30577197850087462 -0.36119241399942248 0 -0.30220565230201568 -0.34875955049288349 0 -0.30577197850087462 -0.36119241399942248 0 -0.30220565230201568 -0.34875955049288349 0 -0.29588770224460631 -0.35631437123445181 0 -0.2905221312714561 -0.3467337754993538 0 -0.28271890438708119 -0.35196018628107378 0 -0.2745686522819844 -0.34674136127678662 0 -0.29588770224460631 -0.35631437123445181 0 -0.28791255630026769 -0.35587283676041959 0 -0.29110329015123371 -0.36555989706129538 0 -0.29588770224460631 -0.35631437123445181 0 -0.2905221312714561 -0.3467337754993538 0 -0.28791255630026769 -0.35587283676041959 0 -0.30220565230201568 -0.34875955049288349 0 -0.29588770224460631 -0.35631437123445181 0 -0.2905221312714561 -0.3467337754993538 0 -0.2905221312714561 -0.3467337754993538 0 -0.28271890438708119 -0.35196018628107378 0 -0.28791255630026769 -0.35587283676041959 0 -0.28271890438708119 -0.35196018628107378 0 -0.28791255630026769 -0.35587283676041959 0 -0.27836930209837002 -0.35706926254648058 0 -0.29110329015123371 -0.36555989706129538 0 -0.27836930209837002 -0.35706926254648058 0 -0.28508750879396572 -0.37963312344532629 0 -0.27836930209837002 -0.35706926254648058 0 -0.28508750879396572 -0.37963312344532629 0 -0.3008358669182804 -0.37411695625553998 0 -0.29110329015123371 -0.36555989706129538 0 -0.28508750879396572 -0.37963312344532629 0 -0.28791255630026769 -0.35587283676041959 0 -0.29110329015123371 -0.36555989706129538 0 -0.27836930209837002 -0.35706926254648058 0 -0.273149839104051 -0.37197452274136827 0 -0.26307851446279301 -0.36086665316249639 0 -0.27260457468078508 -0.34797568144674118 0 -0.273149839104051 -0.37197452274136827 0 -0.27836930209837002 -0.35706926254648058 0 -0.28508750879396572 -0.37963312344532629 0 -0.273149839104051 -0.37197452274136827 0 -0.27260457468078508 -0.34797568144674118 0 -0.25893338925728893 -0.3739307342629028 0 -0.25168234128731259 -0.36273293774725718 0 -0.2421752620654718 -0.37978914002859171 0 -0.273149839104051 -0.37197452274136827 0 -0.25893338925728893 -0.3739307342629028 0 -0.26307851446279301 -0.36086665316249639 0 -0.25893338925728893 -0.3739307342629028 0 -0.26307851446279301 -0.36086665316249639 0 -0.25168234128731259 -0.36273293774725718 0 -0.26307851446279301 -0.36086665316249639 0 -0.25168234128731259 -0.36273293774725718 0 -0.25902242798452701 -0.34771938961421228 0 -0.26307851446279301 -0.36086665316249639 0 -0.25902242798452701 -0.34771938961421228 0 -0.27260457468078508 -0.34797568144674118 0 -0.273149839104051 -0.37197452274136827 0 -0.27260457468078508 -0.34797568144674118 0 -0.27836930209837002 -0.35706926254648058 0 -0.28271890438708119 -0.35196018628107378 0 -0.27836930209837002 -0.35706926254648058 0 -0.2745686522819844 -0.34674136127678662 0 -0.27260457468078508 -0.34797568144674118 0 -0.27836930209837002 -0.35706926254648058 0 -0.2745686522819844 -0.34674136127678662 0 -0.2745686522819844 -0.34674136127678662 0 -0.27205931025751923 -0.32397684015211409 0 -0.28367821347906491 -0.32862907740765568 0 -0.27260457468078508 -0.34797568144674118 0 -0.2745686522819844 -0.34674136127678662 0 -0.27205931025751923 -0.32397684015211409 0 -0.27260457468078508 -0.34797568144674118 0 -0.26105723004971348 -0.33491635554623772 0 -0.27205931025751923 -0.32397684015211409 0 -0.27260457468078508 -0.34797568144674118 0 -0.27205931025751923 -0.32397684015211409 0 -0.25902242798452701 -0.34771938961421228 0 -0.27260457468078508 -0.34797568144674118 0 -0.26105723004971348 -0.33491635554623772 0 -0.26105723004971348 -0.33491635554623772 0 -0.25600005574897378 -0.31992000368868567 0 -0.24549884347453171 -0.33403115256602178 0 -0.25902242798452701 -0.34771938961421228 0 -0.26105723004971348 -0.33491635554623772 0 -0.24549884347453171 -0.33403115256602178 0 -0.26105723004971348 -0.33491635554623772 0 -0.25600005574897378 -0.31992000368868567 0 -0.27205931025751923 -0.32397684015211409 0 -0.25600005574897378 -0.31992000368868567 0 -0.27205931025751923 -0.32397684015211409 0 -0.2696304677330712 -0.30596867079211659 0 -0.27205931025751923 -0.32397684015211409 0 -0.28913192220729539 -0.31060813282453142 0 -0.2696304677330712 -0.30596867079211659 0 -0.28367821347906491 -0.32862907740765568 0 -0.29895296916946063 -0.33318997537719069 0 -0.28913192220729539 -0.31060813282453142 0 -0.27205931025751923 -0.32397684015211409 0 -0.28367821347906491 -0.32862907740765568 0 -0.28913192220729539 -0.31060813282453142 0 -0.2745686522819844 -0.34674136127678662 0 -0.29895296916946063 -0.33318997537719069 0 -0.2745686522819844 -0.34674136127678662 0 -0.28367821347906491 -0.32862907740765568 0 -0.29895296916946063 -0.33318997537719069 0 -0.2905221312714561 -0.3467337754993538 0 -0.2745686522819844 -0.34674136127678662 0 -0.29895296916946063 -0.33318997537719069 0 -0.31787674772730012 -0.33374662552332018 0 -0.3163123407777424 -0.34555786571566072 0 -0.29895296916946063 -0.33318997537719069 0 -0.3163123407777424 -0.34555786571566072 0 -0.30220565230201568 -0.34875955049288349 0 -0.29895296916946063 -0.33318997537719069 0 -0.30220565230201568 -0.34875955049288349 0 -0.2905221312714561 -0.3467337754993538 0 -0.29895296916946063 -0.33318997537719069 0 -0.29895296916946063 -0.33318997537719069 0 -0.30608314329765079 -0.31210168917786868 0 -0.28913192220729539 -0.31060813282453142 0 -0.32333728605693551 -0.31963858947759199 0 -0.29895296916946063 -0.33318997537719069 0 -0.30608314329765079 -0.31210168917786868 0 -0.32333728605693551 -0.31963858947759199 0 -0.29895296916946063 -0.33318997537719069 0 -0.31492523074182138 -0.30472489638013528 0 -0.30608314329765079 -0.31210168917786868 0 -0.30911446578735041 -0.29442301866462228 0 -0.30608314329765079 -0.31210168917786868 0 -0.29957160904977492 -0.30234326221262492 0 -0.28913192220729539 -0.31060813282453142 0 -0.30608314329765079 -0.31210168917786868 0 -0.29957160904977492 -0.30234326221262492 0 -0.30911446578735041 -0.29442301866462228 0 -0.31492523074182138 -0.30472489638013528 0 -0.30911446578735041 -0.29442301866462228 0 -0.29957160904977492 -0.30234326221262492 0 -0.30911446578735041 -0.29442301866462228 0 -0.29288369035148559 -0.29212493386957128 0 -0.30448275470430591 -0.28241485047084919 0 -0.29288369035148559 -0.29212493386957128 0 -0.29432749259128171 -0.27579598105357389 0 -0.30911446578735041 -0.29442301866462228 0 -0.30448275470430591 -0.28241485047084919 0 -0.29288369035148559 -0.29212493386957128 0 -0.31717977619591659 -0.28238341154793239 0 -0.30911446578735041 -0.29442301866462228 0 -0.30448275470430591 -0.28241485047084919 0 -0.29288369035148559 -0.29212493386957128 0 -0.27501366883440831 -0.2896739246459481 0 -0.28231140837305441 -0.28062612565801881 0 -0.29288369035148559 -0.29212493386957128 0 -0.29432749259128171 -0.27579598105357389 0 -0.28231140837305441 -0.28062612565801881 0 -0.29288369035148559 -0.29212493386957128 0 -0.28166493728156522 -0.29959391553304182 0 -0.27501366883440831 -0.2896739246459481 0 -0.29288369035148559 -0.29212493386957128 0 -0.28913192220729539 -0.31060813282453142 0 -0.28166493728156522 -0.29959391553304182 0 -0.29957160904977492 -0.30234326221262492 0 -0.29288369035148559 -0.29212493386957128 0 -0.28913192220729539 -0.31060813282453142 0 -0.28913192220729539 -0.31060813282453142 0 -0.28166493728156522 -0.29959391553304182 0 -0.2696304677330712 -0.30596867079211659 0 -0.28166493728156522 -0.29959391553304182 0 -0.2696304677330712 -0.30596867079211659 0 -0.27501366883440831 -0.2896739246459481 0 -0.2696304677330712 -0.30596867079211659 0 -0.25120068256207578 -0.30478828704230881 0 -0.26102637213815238 -0.29092281776801943 0 -0.25600005574897378 -0.31992000368868567 0 -0.2696304677330712 -0.30596867079211659 0 -0.25120068256207578 -0.30478828704230881 0 -0.25120068256207578 -0.30478828704230881 0 -0.26102637213815238 -0.29092281776801943 0 -0.24553050315752581 -0.28890034277410809 0 -0.26102637213815238 -0.29092281776801943 0 -0.2553209964375982 -0.27648340776592129 0 -0.24553050315752581 -0.28890034277410809 0 -0.26102637213815238 -0.29092281776801943 0 -0.26886591220927708 -0.27960105076459818 0 -0.2553209964375982 -0.27648340776592129 0 -0.2696304677330712 -0.30596867079211659 0 -0.26102637213815238 -0.29092281776801943 0 -0.27501366883440831 -0.2896739246459481 0 -0.26102637213815238 -0.29092281776801943 0 -0.27501366883440831 -0.2896739246459481 0 -0.26886591220927708 -0.27960105076459818 0 -0.27501366883440831 -0.2896739246459481 0 -0.26886591220927708 -0.27960105076459818 0 -0.28231140837305441 -0.28062612565801881 0 -0.2756128680983867 -0.27012940622020187 0 -0.26391015937406292 -0.26977062252948031 0 -0.25962203517416249 -0.25887593997011621 0 -0.2756128680983867 -0.27012940622020187 0 -0.26886591220927708 -0.27960105076459818 0 -0.28231140837305441 -0.28062612565801881 0 -0.2756128680983867 -0.27012940622020187 0 -0.26886591220927708 -0.27960105076459818 0 -0.26391015937406292 -0.26977062252948031 0 -0.26391015937406292 -0.26977062252948031 0 -0.2553209964375982 -0.27648340776592129 0 -0.25962203517416249 -0.25887593997011621 0 -0.26886591220927708 -0.27960105076459818 0 -0.26391015937406292 -0.26977062252948031 0 -0.2553209964375982 -0.27648340776592129 0 -0.2553209964375982 -0.27648340776592129 0 -0.25962203517416249 -0.25887593997011621 0 -0.23570313163309281 -0.26733871708396628 0 -0.25962203517416249 -0.25887593997011621 0 -0.24175845980168911 -0.25428478927776899 0 -0.25534024554036799 -0.24953009406698781 0 -0.25962203517416249 -0.25887593997011621 0 -0.26956626606988687 -0.24595824657802251 0 -0.25534024554036799 -0.24953009406698781 0 -0.25962203517416249 -0.25887593997011621 0 -0.2835409387152325 -0.25041316285626603 0 -0.26956626606988687 -0.24595824657802251 0 -0.25962203517416249 -0.25887593997011621 0 -0.2835409387152325 -0.25041316285626603 0 -0.2756128680983867 -0.27012940622020187 0 -0.25962203517416249 -0.25887593997011621 0 -0.2835409387152325 -0.25041316285626603 0 -0.29266149634668731 -0.26262725870794817 0 -0.2835409387152325 -0.25041316285626603 0 -0.30135248256264541 -0.25011025019154232 0 -0.2756128680983867 -0.27012940622020187 0 -0.29266149634668731 -0.26262725870794817 0 -0.2835409387152325 -0.25041316285626603 0 -0.2756128680983867 -0.27012940622020187 0 -0.29266149634668731 -0.26262725870794817 0 -0.29432749259128171 -0.27579598105357389 0 -0.2756128680983867 -0.27012940622020187 0 -0.29432749259128171 -0.27579598105357389 0 -0.28231140837305441 -0.28062612565801881 0 -0.31717977619591659 -0.28238341154793239 0 -0.30448275470430591 -0.28241485047084919 0 -0.30847369976589017 -0.26668749321815682 0 -0.29266149634668731 -0.26262725870794817 0 -0.29432749259128171 -0.27579598105357389 0 -0.30847369976589017 -0.26668749321815682 0 -0.30448275470430591 -0.28241485047084919 0 -0.29432749259128171 -0.27579598105357389 0 -0.30847369976589017 -0.26668749321815682 0 -0.30847369976589017 -0.26668749321815682 0 -0.30135248256264541 -0.25011025019154232 0 -0.31722060212611358 -0.24934470963434141 0 -0.29266149634668731 -0.26262725870794817 0 -0.30847369976589017 -0.26668749321815682 0 -0.30135248256264541 -0.25011025019154232 0 -0.32909918341516242 -0.45505287509964609 0 -0.33698723589921342 -0.47460594224636549 0 -0.34937580788814843 -0.45864104481830947 0 -0.32909918341516242 -0.45505287509964609 0 -0.3418094568495923 -0.44118766326014303 0 -0.32153024003028069 -0.43397756838178081 0 -0.32909918341516242 -0.45505287509964609 0 -0.3418094568495923 -0.44118766326014303 0 -0.34937580788814843 -0.45864104481830947 0 -0.31344301271412212 -0.45170460271570112 0 -0.32153024003028069 -0.43397756838178081 0 -0.30326813707780759 -0.44258036584071092 0 -0.32909918341516242 -0.45505287509964609 0 -0.31344301271412212 -0.45170460271570112 0 -0.32153024003028069 -0.43397756838178081 0 -0.32909918341516242 -0.45505287509964609 0 -0.31344301271412212 -0.45170460271570112 0 -0.31162526440622812 -0.47239755722952698 0 -0.32909918341516242 -0.45505287509964609 0 -0.33698723589921342 -0.47460594224636549 0 -0.31162526440622812 -0.47239755722952698 0 -0.33698723589921342 -0.47460594224636549 0 -0.31162526440622812 -0.47239755722952698 0 -0.32424435611906871 -0.48675087486897312 0 -0.33698723589921342 -0.47460594224636549 0 -0.31162526440622812 -0.47239755722952698 0 -0.32424435611906871 -0.48675087486897312 0 -0.31008401149009712 -0.5 0 -0.31162526440622812 -0.47239755722952698 0 -0.32424435611906871 -0.48675087486897312 0 -0.33828091268073629 -0.5 0 -0.31008401149009712 -0.5 0 -0.33828091268073629 -0.5 0 -0.33698723589921342 -0.47460594224636549 0 -0.351023792460881 -0.48785506737739243 0 -0.32424435611906871 -0.48675087486897312 0 -0.33828091268073629 -0.5 0 -0.33698723589921342 -0.47460594224636549 0 -0.33698723589921342 -0.47460594224636549 0 -0.35333543071403872 -0.46953169578085902 0 -0.36234920739219878 -0.47681432726320389 0 -0.33698723589921342 -0.47460594224636549 0 -0.351023792460881 -0.48785506737739243 0 -0.36234920739219878 -0.47681432726320389 0 -0.33698723589921342 -0.47460594224636549 0 -0.36234920739219878 -0.47681432726320389 0 -0.33828091268073629 -0.5 0 -0.351023792460881 -0.48785506737739243 0 -0.36647781387137562 -0.49999999999999728 0 -0.351023792460881 -0.48785506737739243 0 -0.36647781387137562 -0.49999999999999728 0 -0.36234920739219878 -0.47681432726320389 0 -0.36647781387137562 -0.49999999999999728 0 -0.36469558054743489 -0.47181902764881778 0 -0.37578582006703293 -0.4890918617918481 0 -0.36647781387137562 -0.49999999999999728 0 -0.36469558054743489 -0.47181902764881778 0 -0.37578582006703293 -0.4890918617918481 0 -0.36469558054743489 -0.47181902764881778 0 -0.37427790409048928 -0.47641171988590741 0 -0.36647781387137562 -0.49999999999999728 0 -0.36469558054743489 -0.47181902764881778 0 -0.36234920739219878 -0.47681432726320389 0 -0.35333543071403872 -0.46953169578085902 0 -0.36469558054743489 -0.47181902764881778 0 -0.36234920739219878 -0.47681432726320389 0 -0.37594339666883508 -0.46912028010584561 0 -0.36469558054743489 -0.47181902764881778 0 -0.37427790409048928 -0.47641171988590741 0 -0.37756530610104899 -0.45685827229810932 0 -0.37594339666883508 -0.46912028010584561 0 -0.36469558054743489 -0.47181902764881778 0 -0.36469558054743489 -0.47181902764881778 0 -0.362913347223494 -0.44363805529763822 0 -0.37756530610104899 -0.45685827229810932 0 -0.36469558054743489 -0.47181902764881778 0 -0.362913347223494 -0.44363805529763822 0 -0.35333543071403872 -0.46953169578085902 0 -0.36469558054743489 -0.47181902764881778 0 -0.34937580788814843 -0.45864104481830947 0 -0.36469558054743489 -0.47181902764881778 0 -0.34937580788814843 -0.45864104481830947 0 -0.362913347223494 -0.44363805529763822 0 -0.33698723589921342 -0.47460594224636549 0 -0.35333543071403872 -0.46953169578085902 0 -0.34937580788814843 -0.45864104481830947 0 -0.3418094568495923 -0.44118766326014303 0 -0.34937580788814843 -0.45864104481830947 0 -0.362913347223494 -0.44363805529763822 0 -0.38111389347561608 -0.44136201189070101 0 -0.362913347223494 -0.44363805529763822 0 -0.37058296678970931 -0.43151443823635371 0 -0.38111389347561608 -0.44136201189070101 0 -0.37756530610104899 -0.45685827229810932 0 -0.362913347223494 -0.44363805529763822 0 -0.362913347223494 -0.44363805529763822 0 -0.37058296678970931 -0.43151443823635371 0 -0.35676793213049501 -0.42729678729045789 0 -0.37058296678970931 -0.43151443823635371 0 -0.36780184235336882 -0.41851058728042029 0 -0.35676793213049501 -0.42729678729045789 0 -0.38309852253871002 -0.42558900309557701 0 -0.37058296678970931 -0.43151443823635371 0 -0.36780184235336882 -0.41851058728042029 0 -0.36780184235336882 -0.41851058728042029 0 -0.35676793213049501 -0.42729678729045789 0 -0.35739242349519601 -0.40420936335683327 0 -0.38309852253871002 -0.42558900309557701 0 -0.36780184235336882 -0.41851058728042029 0 -0.37055771869930237 -0.40335547125939297 0 -0.36780184235336882 -0.41851058728042029 0 -0.37055771869930237 -0.40335547125939297 0 -0.35739242349519601 -0.40420936335683327 0 -0.35676793213049501 -0.42729678729045789 0 -0.35739242349519601 -0.40420936335683327 0 -0.35676793213049501 -0.42729678729045789 0 -0.35739242349519601 -0.40420936335683327 0 -0.34186078077668969 -0.41400554026108988 0 -0.35739242349519601 -0.40420936335683327 0 -0.34427765482102018 -0.40195423652145801 0 -0.34186078077668969 -0.41400554026108988 0 -0.3418094568495923 -0.44118766326014303 0 -0.35676793213049501 -0.42729678729045789 0 -0.33626193347335731 -0.42742437099393732 0 -0.35676793213049501 -0.42729678729045789 0 -0.33626193347335731 -0.42742437099393732 0 -0.34186078077668969 -0.41400554026108988 0 -0.3418094568495923 -0.44118766326014303 0 -0.362913347223494 -0.44363805529763822 0 -0.35676793213049501 -0.42729678729045789 0 -0.36499282662225718 -0.36730650053275382 0 -0.37001583187281317 -0.377892963090108 0 -0.35801691485989567 -0.38112193942320849 0 -0.37001583187281317 -0.377892963090108 0 -0.37228741197365028 -0.38826728888172068 0 -0.35801691485989567 -0.38112193942320849 0 -0.38060184875009262 -0.38167269985187552 0 -0.37001583187281317 -0.377892963090108 0 -0.37228741197365028 -0.38826728888172068 0 -0.37055771869930237 -0.40335547125939297 0 -0.35801691485989567 -0.38112193942320849 0 -0.37055771869930237 -0.40335547125939297 0 -0.35739242349519601 -0.40420936335683327 0 -0.35801691485989567 -0.38112193942320849 0 -0.37228741197365028 -0.38826728888172068 0 -0.37055771869930237 -0.40335547125939297 0 -0.35801691485989567 -0.38112193942320849 0 -0.35739242349519601 -0.40420936335683327 0 -0.35801691485989567 -0.38112193942320849 0 -0.35739242349519601 -0.40420936335683327 0 -0.34850684149691352 -0.3913488832686654 0 -0.35801691485989567 -0.38112193942320849 0 -0.35739242349519601 -0.40420936335683327 0 -0.34427765482102018 -0.40195423652145801 0 -0.34850684149691352 -0.3913488832686654 0 -0.34850684149691352 -0.3913488832686654 0 -0.34459208761093241 -0.37928767122533091 0 -0.35801691485989567 -0.38112193942320849 0 -0.34850684149691352 -0.3913488832686654 0 -0.34459208761093241 -0.37928767122533091 0 -0.338255126697523 -0.39017120581649661 0 -0.33257416318950639 -0.37302987456139908 0 -0.338255126697523 -0.39017120581649661 0 -0.32435450414313188 -0.38654670956871667 0 -0.33257416318950639 -0.37302987456139908 0 -0.34459208761093241 -0.37928767122533091 0 -0.338255126697523 -0.39017120581649661 0 -0.338255126697523 -0.39017120581649661 0 -0.32937919625159789 -0.40172202319436862 0 -0.32435450414313188 -0.38654670956871667 0 -0.34427765482102018 -0.40195423652145801 0 -0.34850684149691352 -0.3913488832686654 0 -0.338255126697523 -0.39017120581649661 0 -0.34427765482102018 -0.40195423652145801 0 -0.338255126697523 -0.39017120581649661 0 -0.32937919625159789 -0.40172202319436862 0 -0.34427765482102018 -0.40195423652145801 0 -0.32937919625159789 -0.40172202319436862 0 -0.34186078077668969 -0.41400554026108988 0 -0.32937919625159789 -0.40172202319436862 0 -0.31693461721274291 -0.39545578203750792 0 -0.31585573903263009 -0.40746441456168969 0 -0.31693461721274291 -0.39545578203750792 0 -0.31585573903263009 -0.40746441456168969 0 -0.30500131677929881 -0.39760171610313472 0 -0.32937919625159789 -0.40172202319436862 0 -0.31693461721274291 -0.39545578203750792 0 -0.32435450414313188 -0.38654670956871667 0 -0.31693461721274291 -0.39545578203750792 0 -0.32435450414313188 -0.38654670956871667 0 -0.31008232985705553 -0.38394404675962968 0 -0.32435450414313188 -0.38654670956871667 0 -0.31947774053566952 -0.37538637463218327 0 -0.31008232985705553 -0.38394404675962968 0 -0.31079379255441242 -0.3703067332421891 0 -0.31947774053566952 -0.37538637463218327 0 -0.31008232985705553 -0.38394404675962968 0 -0.33257416318950639 -0.37302987456139908 0 -0.32435450414313188 -0.38654670956871667 0 -0.31947774053566952 -0.37538637463218327 0 -0.3418094568495923 -0.44118766326014303 0 -0.33626193347335731 -0.42742437099393732 0 -0.32153024003028069 -0.43397756838178081 0 -0.32937919625159789 -0.40172202319436862 0 -0.34186078077668969 -0.41400554026108988 0 -0.32611720302783398 -0.41738447956338148 0 -0.33626193347335731 -0.42742437099393732 0 -0.34186078077668969 -0.41400554026108988 0 -0.32611720302783398 -0.41738447956338148 0 -0.32937919625159789 -0.40172202319436862 0 -0.32611720302783398 -0.41738447956338148 0 -0.31585573903263009 -0.40746441456168969 0 -0.32611720302783398 -0.41738447956338148 0 -0.31585573903263009 -0.40746441456168969 0 -0.313226983904137 -0.41903174827641598 0 -0.32611720302783398 -0.41738447956338148 0 -0.313226983904137 -0.41903174827641598 0 -0.32153024003028069 -0.43397756838178081 0 -0.33626193347335731 -0.42742437099393732 0 -0.32611720302783398 -0.41738447956338148 0 -0.32153024003028069 -0.43397756838178081 0 -0.313226983904137 -0.41903174827641598 0 -0.32153024003028069 -0.43397756838178081 0 -0.29852392218515678 -0.42476084524301799 0 -0.32153024003028069 -0.43397756838178081 0 -0.30041761858093202 -0.43112103985967409 0 -0.29852392218515678 -0.42476084524301799 0 -0.32153024003028069 -0.43397756838178081 0 -0.29852392218515678 -0.42476084524301799 0 -0.32153024003028069 -0.43397756838178081 0 -0.30041761858093202 -0.43112103985967409 0 -0.30326813707780759 -0.44258036584071092 0 -0.30041761858093202 -0.43112103985967409 0 -0.29156265946919963 -0.43795106079038482 0 -0.30326813707780759 -0.44258036584071092 0 -0.30041761858093202 -0.43112103985967409 0 -0.29852392218515678 -0.42476084524301799 0 -0.29233064655965868 -0.43147653740417508 0 -0.30041761858093202 -0.43112103985967409 0 -0.29852392218515678 -0.42476084524301799 0 -0.313226983904137 -0.41903174827641598 0 -0.29852392218515678 -0.42476084524301799 0 -0.3045760825414548 -0.41067678730688928 0 -0.29852392218515678 -0.42476084524301799 0 -0.3045760825414548 -0.41067678730688928 0 -0.29180571548956141 -0.40219698434417223 0 -0.31585573903263009 -0.40746441456168969 0 -0.313226983904137 -0.41903174827641598 0 -0.3045760825414548 -0.41067678730688928 0 -0.29852392218515678 -0.42476084524301799 0 -0.29180571548956141 -0.40219698434417223 0 -0.29852392218515678 -0.42476084524301799 0 -0.2949269353648864 -0.41610852367658308 0 -0.29180571548956141 -0.40219698434417223 0 -0.29852392218515678 -0.42476084524301799 0 -0.2770914112775853 -0.41617461599358169 0 -0.2949269353648864 -0.41610852367658308 0 -0.2770914112775853 -0.41617461599358169 0 -0.27662062595813242 -0.41340209219586488 0 -0.2949269353648864 -0.41610852367658308 0 -0.27662062595813242 -0.41340209219586488 0 -0.2949269353648864 -0.41610852367658308 0 -0.28629097946201909 -0.40838187051740421 0 -0.27662062595813242 -0.41340209219586488 0 -0.29852392218515678 -0.42476084524301799 0 -0.2949269353648864 -0.41610852367658308 0 -0.2770914112775853 -0.41617461599358169 0 -0.2949269353648864 -0.41610852367658308 0 -0.28629097946201909 -0.40838187051740421 0 -0.29180571548956141 -0.40219698434417223 0 -0.28629097946201909 -0.40838187051740421 0 -0.28181064103549502 -0.40181988185299677 0 -0.27662062595813242 -0.41340209219586488 0 -0.28541349591214771 -0.43264702461217069 0 -0.2770914112775853 -0.41617461599358169 0 -0.28167735209541578 -0.44318189410313458 0 -0.28706566314283688 -0.42735441826167769 0 -0.28541349591214771 -0.43264702461217069 0 -0.2770914112775853 -0.41617461599358169 0 -0.29852392218515678 -0.42476084524301799 0 -0.28706566314283688 -0.42735441826167769 0 -0.2770914112775853 -0.41617461599358169 0 -0.28706566314283688 -0.42735441826167769 0 -0.28541349591214771 -0.43264702461217069 0 -0.29233064655965868 -0.43147653740417508 0 -0.30041761858093202 -0.43112103985967409 0 -0.29233064655965868 -0.43147653740417508 0 -0.29156265946919963 -0.43795106079038482 0 -0.28541349591214771 -0.43264702461217069 0 -0.29233064655965868 -0.43147653740417508 0 -0.29156265946919963 -0.43795106079038482 0 -0.29852392218515678 -0.42476084524301799 0 -0.28706566314283688 -0.42735441826167769 0 -0.29233064655965868 -0.43147653740417508 0 -0.3008358669182804 -0.37411695625553998 0 -0.31008232985705553 -0.38394404675962968 0 -0.29856254756763229 -0.38749856538156058 0 -0.3008358669182804 -0.37411695625553998 0 -0.31079379255441242 -0.3703067332421891 0 -0.31008232985705553 -0.38394404675962968 0 -0.31008232985705553 -0.38394404675962968 0 -0.29856254756763229 -0.38749856538156058 0 -0.30500131677929881 -0.39760171610313472 0 -0.29856254756763229 -0.38749856538156058 0 -0.30500131677929881 -0.39760171610313472 0 -0.29180571548956141 -0.40219698434417223 0 -0.31693461721274291 -0.39545578203750792 0 -0.31008232985705553 -0.38394404675962968 0 -0.30500131677929881 -0.39760171610313472 0 -0.31585573903263009 -0.40746441456168969 0 -0.3045760825414548 -0.41067678730688928 0 -0.30500131677929881 -0.39760171610313472 0 -0.3045760825414548 -0.41067678730688928 0 -0.30500131677929881 -0.39760171610313472 0 -0.29180571548956141 -0.40219698434417223 0 -0.29180571548956141 -0.40219698434417223 0 -0.28508750879396572 -0.37963312344532629 0 -0.29180571548956141 -0.40219698434417223 0 -0.28181064103549502 -0.40181988185299677 0 -0.28508750879396572 -0.37963312344532629 0 -0.28629097946201909 -0.40838187051740421 0 -0.29180571548956141 -0.40219698434417223 0 -0.28181064103549502 -0.40181988185299677 0 -0.3008358669182804 -0.37411695625553998 0 -0.29856254756763229 -0.38749856538156058 0 -0.28508750879396572 -0.37963312344532629 0 -0.29856254756763229 -0.38749856538156058 0 -0.29180571548956141 -0.40219698434417223 0 -0.28508750879396572 -0.37963312344532629 0 -0.273149839104051 -0.37197452274136827 0 -0.27366129061072553 -0.39597413228060518 0 -0.273149839104051 -0.37197452274136827 0 -0.27366129061072553 -0.39597413228060518 0 -0.25871987841311378 -0.38809613781256092 0 -0.273149839104051 -0.37197452274136827 0 -0.28508750879396572 -0.37963312344532629 0 -0.27366129061072553 -0.39597413228060518 0 -0.28181064103549502 -0.40181988185299677 0 -0.27366129061072553 -0.39597413228060518 0 -0.27662062595813242 -0.41340209219586488 0 -0.27366129061072553 -0.39597413228060518 0 -0.27408256663484692 -0.41302686180399129 0 -0.27366129061072553 -0.39597413228060518 0 -0.27662062595813242 -0.41340209219586488 0 -0.27366129061072553 -0.39597413228060518 0 -0.26276416806828129 -0.40059370643938819 0 -0.26639843963969262 -0.41189082926245407 0 -0.28181064103549502 -0.40181988185299677 0 -0.28508750879396572 -0.37963312344532629 0 -0.27366129061072553 -0.39597413228060518 0 -0.26276416806828129 -0.40059370643938819 0 -0.25170061786742493 -0.40488681380903457 0 -0.25871987841311378 -0.38809613781256092 0 -0.25170061786742493 -0.40488681380903457 0 -0.25871987841311378 -0.38809613781256092 0 -0.2421752620654718 -0.37978914002859171 0 -0.26276416806828129 -0.40059370643938819 0 -0.25170061786742493 -0.40488681380903457 0 -0.26639843963969262 -0.41189082926245407 0 -0.27366129061072553 -0.39597413228060518 0 -0.26276416806828129 -0.40059370643938819 0 -0.25871987841311378 -0.38809613781256092 0 -0.25893338925728893 -0.3739307342629028 0 -0.25871987841311378 -0.38809613781256092 0 -0.2421752620654718 -0.37978914002859171 0 -0.273149839104051 -0.37197452274136827 0 -0.25893338925728893 -0.3739307342629028 0 -0.25871987841311378 -0.38809613781256092 0 -0.27453137985688342 -0.43278057546473891 0 -0.27412710329949419 -0.41498706368226052 0 -0.2770914112775853 -0.41617461599358169 0 -0.28167735209541578 -0.44318189410313458 0 -0.27453137985688342 -0.43278057546473891 0 -0.27412710329949419 -0.41498706368226052 0 -0.26820486896303419 -0.42049486071486381 0 -0.27453137985688342 -0.43278057546473891 0 -0.2770914112775853 -0.41617461599358169 0 -0.28167735209541578 -0.44318189410313458 0 -0.27453137985688342 -0.43278057546473891 0 -0.26820486896303419 -0.42049486071486381 0 -0.26475984481290249 -0.42581632691031379 0 -0.27453137985688342 -0.43278057546473891 0 -0.26184028491793498 -0.43588472662827699 0 -0.27116838156131251 -0.44296700671050199 0 -0.27453137985688342 -0.43278057546473891 0 -0.26475984481290249 -0.42581632691031379 0 -0.26184028491793498 -0.43588472662827699 0 -0.27366129061072553 -0.39597413228060518 0 -0.27408256663484692 -0.41302686180399129 0 -0.26639843963969262 -0.41189082926245407 0 -0.27453137985688342 -0.43278057546473891 0 -0.2770914112775853 -0.41617461599358169 0 -0.27412710329949419 -0.41498706368226052 0 -0.27366129061072553 -0.39597413228060518 0 -0.27662062595813242 -0.41340209219586488 0 -0.27408256663484692 -0.41302686180399129 0 -0.2770914112775853 -0.41617461599358169 0 -0.27662062595813242 -0.41340209219586488 0 -0.2770914112775853 -0.41617461599358169 0 -0.27412710329949419 -0.41498706368226052 0 -0.27662062595813242 -0.41340209219586488 0 -0.2770914112775853 -0.41617461599358169 0 -0.27412710329949419 -0.41498706368226052 0 -0.27412710329949419 -0.41498706368226052 0 -0.27662062595813242 -0.41340209219586488 0 -0.27408256663484692 -0.41302686180399129 0 -0.27662062595813242 -0.41340209219586488 0 -0.27408256663484692 -0.41302686180399129 0 -0.27412710329949419 -0.41498706368226052 0 -0.27408256663484692 -0.41302686180399129 0 -0.27412710329949419 -0.41498706368226052 0 -0.26639843963969262 -0.41189082926245407 0 -0.27408256663484692 -0.41302686180399129 0 -0.26639843963969262 -0.41189082926245407 0 -0.27412710329949419 -0.41498706368226052 0 -0.27408256663484692 -0.41302686180399129 0 -0.26639843963969262 -0.41189082926245407 0 -0.26639843963969262 -0.41189082926245407 0 -0.26820486896303419 -0.42049486071486381 0 -0.26228966035254769 -0.42000572704306749 0 -0.27412710329949419 -0.41498706368226052 0 -0.26639843963969262 -0.41189082926245407 0 -0.26820486896303419 -0.42049486071486381 0 -0.26639843963969262 -0.41189082926245407 0 -0.24359468078704399 -0.4027552547092883 0 -0.26228966035254769 -0.42000572704306749 0 -0.25394794329103021 -0.41758377639979932 0 -0.25858618344808382 -0.42576657847269161 0 -0.26639843963969262 -0.41189082926245407 0 -0.23862456106131849 -0.40778469854784832 0 -0.25170061786742493 -0.40488681380903457 0 -0.26639843963969262 -0.41189082926245407 0 -0.24359468078704399 -0.4027552547092883 0 -0.26639843963969262 -0.41189082926245407 0 -0.23862456106131849 -0.40778469854784832 0 -0.24831099594139669 -0.41436232413454721 0 -0.26639843963969262 -0.41189082926245407 0 -0.25394794329103021 -0.41758377639979932 0 -0.24831099594139669 -0.41436232413454721 0 -0.26639843963969262 -0.41189082926245407 0 -0.26228966035254769 -0.42000572704306749 0 -0.25394794329103021 -0.41758377639979932 0 -0.25394794329103021 -0.41758377639979932 0 -0.25009318386600321 -0.42954233538200032 0 -0.25858618344808382 -0.42576657847269161 0 -0.25858618344808382 -0.42576657847269161 0 -0.26475984481290249 -0.42581632691031379 0 -0.26184028491793498 -0.43588472662827699 0 -0.26228966035254769 -0.42000572704306749 0 -0.25858618344808382 -0.42576657847269161 0 -0.26475984481290249 -0.42581632691031379 0 -0.26820486896303419 -0.42049486071486381 0 -0.26228966035254769 -0.42000572704306749 0 -0.26475984481290249 -0.42581632691031379 0 -0.25009318386600321 -0.42954233538200032 0 -0.25858618344808382 -0.42576657847269161 0 -0.26184028491793498 -0.43588472662827699 0 -0.25009318386600321 -0.42954233538200032 0 -0.26184028491793498 -0.43588472662827699 0 -0.24715149831813399 -0.44269078356300301 0 -0.26478611670110019 -0.45094848399790483 0 -0.24715149831813399 -0.44269078356300301 0 -0.24109549740099959 -0.45725136152995932 0 -0.26184028491793498 -0.43588472662827699 0 -0.26478611670110019 -0.45094848399790483 0 -0.24715149831813399 -0.44269078356300301 0 -0.26478611670110019 -0.45094848399790483 0 -0.24109549740099959 -0.45725136152995932 0 -0.26036767163437607 -0.46477077678494189 0 -0.25266863548914398 -0.47707131649393991 0 -0.24109549740099959 -0.45725136152995932 0 -0.26478611670110019 -0.45094848399790483 0 -0.26036767163437607 -0.46477077678494189 0 -0.24109549740099959 -0.45725136152995932 0 -0.26036767163437607 -0.46477077678494189 0 -0.27216902714463592 -0.45574880870276802 0 -0.27420583178698932 -0.46913927289789381 0 -0.26478611670110019 -0.45094848399790483 0 -0.26036767163437607 -0.46477077678494189 0 -0.27216902714463592 -0.45574880870276802 0 -0.27857887598507092 -0.45956478697912101 0 -0.28626329291324248 -0.47018917221268791 0 -0.27420583178698932 -0.46913927289789381 0 -0.27216902714463592 -0.45574880870276802 0 -0.27857887598507092 -0.45956478697912101 0 -0.27420583178698932 -0.46913927289789381 0 -0.27216902714463592 -0.45574880870276802 0 -0.27857887598507092 -0.45956478697912101 0 -0.28167735209541578 -0.44318189410313458 0 -0.26184028491793498 -0.43588472662827699 0 -0.26478611670110019 -0.45094848399790483 0 -0.27116838156131251 -0.44296700671050199 0 -0.26478611670110019 -0.45094848399790483 0 -0.27216902714463592 -0.45574880870276802 0 -0.27116838156131251 -0.44296700671050199 0 -0.27216902714463592 -0.45574880870276802 0 -0.27116838156131251 -0.44296700671050199 0 -0.28167735209541578 -0.44318189410313458 0 -0.27453137985688342 -0.43278057546473891 0 -0.27116838156131251 -0.44296700671050199 0 -0.28167735209541578 -0.44318189410313458 0 -0.28541349591214771 -0.43264702461217069 0 -0.28167735209541578 -0.44318189410313458 0 -0.29156265946919963 -0.43795106079038482 0 -0.28167735209541578 -0.44318189410313458 0 -0.29156265946919963 -0.43795106079038482 0 -0.29378862675025119 -0.44759696368108481 0 -0.29156265946919963 -0.43795106079038482 0 -0.29378862675025119 -0.44759696368108481 0 -0.30326813707780759 -0.44258036584071092 0 -0.28167735209541578 -0.44318189410313458 0 -0.29378862675025119 -0.44759696368108481 0 -0.29291958753584052 -0.45864419564756831 0 -0.28167735209541578 -0.44318189410313458 0 -0.28626329291324248 -0.47018917221268791 0 -0.27857887598507092 -0.45956478697912101 0 -0.28167735209541578 -0.44318189410313458 0 -0.28626329291324248 -0.47018917221268791 0 -0.28167735209541578 -0.44318189410313458 0 -0.29291958753584052 -0.45864419564756831 0 -0.28626329291324248 -0.47018917221268791 0 -0.29378862675025119 -0.44759696368108481 0 -0.29291958753584052 -0.45864419564756831 0 -0.30169223864113182 -0.45451464702684069 0 -0.29291958753584052 -0.45864419564756831 0 -0.31162526440622812 -0.47239755722952698 0 -0.28626329291324248 -0.47018917221268791 0 -0.31344301271412212 -0.45170460271570112 0 -0.30169223864113182 -0.45451464702684069 0 -0.31162526440622812 -0.47239755722952698 0 -0.29291958753584052 -0.45864419564756831 0 -0.30169223864113182 -0.45451464702684069 0 -0.31162526440622812 -0.47239755722952698 0 -0.31344301271412212 -0.45170460271570112 0 -0.30169223864113182 -0.45451464702684069 0 -0.30326813707780759 -0.44258036584071092 0 -0.29378862675025119 -0.44759696368108481 0 -0.30169223864113182 -0.45451464702684069 0 -0.30326813707780759 -0.44258036584071092 0 -0.31008401149009712 -0.5 0 -0.31162526440622812 -0.47239755722952698 0 -0.29125234496372238 -0.48530842576065431 0 -0.31162526440622812 -0.47239755722952698 0 -0.28626329291324248 -0.47018917221268791 0 -0.31162526440622812 -0.47239755722952698 0 -0.28626329291324248 -0.47018917221268791 0 -0.28660790183653151 -0.47221862470671883 0 -0.2821694610258258 -0.47638224027658671 0 -0.29125234496372238 -0.48530842576065431 0 -0.27251793362864318 -0.48505570580497842 0 -0.31162526440622812 -0.47239755722952698 0 -0.28660790183653151 -0.47221862470671883 0 -0.29125234496372238 -0.48530842576065431 0 -0.28626329291324248 -0.47018917221268791 0 -0.28660790183653151 -0.47221862470671883 0 -0.28626329291324248 -0.47018917221268791 0 -0.28660790183653151 -0.47221862470671883 0 -0.2821694610258258 -0.47638224027658671 0 -0.28660790183653151 -0.47221862470671883 0 -0.2821694610258258 -0.47638224027658671 0 -0.29125234496372238 -0.48530842576065431 0 -0.28188711029945779 -0.5 0 -0.29125234496372238 -0.48530842576065431 0 -0.27251793362864318 -0.48505570580497842 0 -0.31008401149009712 -0.5 0 -0.28188711029945779 -0.5 0 -0.29125234496372238 -0.48530842576065431 0 -0.28188711029945779 -0.5 0 -0.27251793362864318 -0.48505570580497842 0 -0.25369020910881862 -0.5 0 -0.2821694610258258 -0.47638224027658671 0 -0.27251793362864318 -0.48505570580497842 0 -0.27420583178698932 -0.46913927289789381 0 -0.27251793362864318 -0.48505570580497842 0 -0.27420583178698932 -0.46913927289789381 0 -0.25266863548914398 -0.47707131649393991 0 -0.28626329291324248 -0.47018917221268791 0 -0.2821694610258258 -0.47638224027658671 0 -0.27420583178698932 -0.46913927289789381 0 -0.28626329291324248 -0.47018917221268791 0 -0.27420583178698932 -0.46913927289789381 0 -0.26036767163437607 -0.46477077678494189 0 -0.27420583178698932 -0.46913927289789381 0 -0.25266863548914398 -0.47707131649393991 0 -0.27251793362864318 -0.48505570580497842 0 -0.25266863548914398 -0.47707131649393991 0 -0.25369020910881862 -0.5 0 -0.25369020910881862 -0.5 0 -0.2314970922228877 -0.47954716097479638 0 -0.2254933079181792 -0.5 0 -0.25266863548914398 -0.47707131649393991 0 -0.25369020910881862 -0.5 0 -0.2314970922228877 -0.47954716097479638 0 -0.25266863548914398 -0.47707131649393991 0 -0.2314970922228877 -0.47954716097479638 0 -0.24109549740099959 -0.45725136152995932 0 -0.2314970922228877 -0.47954716097479638 0 -0.21740487810089901 -0.46355423906201382 0 -0.20747243728407069 -0.47389557594496179 0 -0.2314970922228877 -0.47954716097479638 0 -0.2254933079181792 -0.5 0 -0.20747243728407069 -0.47389557594496179 0 -0.24715149831813399 -0.44269078356300301 0 -0.2228945511509513 -0.44534697275872159 0 -0.236930344997171 -0.43125286603484841 0 -0.24715149831813399 -0.44269078356300301 0 -0.24109549740099959 -0.45725136152995932 0 -0.2228945511509513 -0.44534697275872159 0 -0.24109549740099959 -0.45725136152995932 0 -0.21740487810089901 -0.46355423906201382 0 -0.24109549740099959 -0.45725136152995932 0 -0.2228945511509513 -0.44534697275872159 0 -0.21740487810089901 -0.46355423906201382 0 -0.2314970922228877 -0.47954716097479638 0 -0.24109549740099959 -0.45725136152995932 0 -0.21740487810089901 -0.46355423906201382 0 -0.2228945511509513 -0.44534697275872159 0 -0.2044354765436063 -0.45767227502778529 0 -0.1964070503944215 -0.44493385509627481 0 -0.2228945511509513 -0.44534697275872159 0 -0.1964070503944215 -0.44493385509627481 0 -0.21089803870211279 -0.43103514278072708 0 -0.21740487810089901 -0.46355423906201382 0 -0.2044354765436063 -0.45767227502778529 0 -0.19371425880079779 -0.46985711659406632 0 -0.2228945511509513 -0.44534697275872159 0 -0.21740487810089901 -0.46355423906201382 0 -0.2044354765436063 -0.45767227502778529 0 -0.21740487810089901 -0.46355423906201382 0 -0.19371425880079779 -0.46985711659406632 0 -0.2044354765436063 -0.45767227502778529 0 -0.1964070503944215 -0.44493385509627481 0 -0.19371425880079779 -0.46985711659406632 0 -0.1964070503944215 -0.44493385509627481 0 -0.19371425880079779 -0.46985711659406632 0 -0.18780113760336731 -0.45661114362183852 0 -0.1964070503944215 -0.44493385509627481 0 -0.19371425880079779 -0.46985711659406632 0 -0.18780113760336731 -0.45661114362183852 0 -0.19371425880079779 -0.46985711659406632 0 -0.1892520323309678 -0.47104428973645701 0 -0.2254933079181792 -0.5 0 -0.1972964067275399 -0.5 0 -0.19834089955190529 -0.4855784861259973 0 -0.2254933079181792 -0.5 0 -0.20747243728407069 -0.47389557594496179 0 -0.19834089955190529 -0.4855784861259973 0 -0.21740487810089901 -0.46355423906201382 0 -0.20747243728407069 -0.47389557594496179 0 -0.19371425880079779 -0.46985711659406632 0 -0.19834089955190529 -0.4855784861259973 0 -0.180490553800738 -0.48593857382194711 0 -0.186123518570595 -0.47873458276808101 0 -0.20747243728407069 -0.47389557594496179 0 -0.19316917301030931 -0.47490218422099367 0 -0.19834089955190529 -0.4855784861259973 0 -0.20747243728407069 -0.47389557594496179 0 -0.19371425880079779 -0.46985711659406632 0 -0.19316917301030931 -0.47490218422099367 0 -0.19371425880079779 -0.46985711659406632 0 -0.19316917301030931 -0.47490218422099367 0 -0.19371425880079779 -0.46985711659406632 0 -0.19316917301030931 -0.47490218422099367 0 -0.1892520323309678 -0.47104428973645701 0 -0.19371425880079779 -0.46985711659406632 0 -0.1892520323309678 -0.47104428973645701 0 -0.19316917301030931 -0.47490218422099367 0 -0.1892520323309678 -0.47104428973645701 0 -0.186123518570595 -0.47873458276808101 0 -0.19316917301030931 -0.47490218422099367 0 -0.19834089955190529 -0.4855784861259973 0 -0.186123518570595 -0.47873458276808101 0 -0.1972964067275399 -0.5 0 -0.19834089955190529 -0.4855784861259973 0 -0.180490553800738 -0.48593857382194711 0 -0.180490553800738 -0.48593857382194711 0 -0.16909950553690051 -0.5 0 -0.16774027498376909 -0.47851820619543722 0 -0.1972964067275399 -0.5 0 -0.180490553800738 -0.48593857382194711 0 -0.16909950553690051 -0.5 0 -0.16909950553690051 -0.5 0 -0.16774027498376909 -0.47851820619543722 0 -0.15022473015461629 -0.48511298132523312 0 -0.16774027498376909 -0.47851820619543722 0 -0.1601300393585961 -0.4570458966335138 0 -0.15022473015461629 -0.48511298132523312 0 -0.16774027498376909 -0.47851820619543722 0 -0.18065998339663511 -0.47201497270486242 0 -0.17329914746625169 -0.46647394448181229 0 -0.180490553800738 -0.48593857382194711 0 -0.16774027498376909 -0.47851820619543722 0 -0.18065998339663511 -0.47201497270486242 0 -0.180490553800738 -0.48593857382194711 0 -0.186123518570595 -0.47873458276808101 0 -0.18065998339663511 -0.47201497270486242 0 -0.1892520323309678 -0.47104428973645701 0 -0.186123518570595 -0.47873458276808101 0 -0.18065998339663511 -0.47201497270486242 0 -0.18780113760336731 -0.45661114362183852 0 -0.18065998339663511 -0.47201497270486242 0 -0.17329914746625169 -0.46647394448181229 0 -0.18780113760336731 -0.45661114362183852 0 -0.1892520323309678 -0.47104428973645701 0 -0.18065998339663511 -0.47201497270486242 0 -0.18780113760336731 -0.45661114362183852 0 -0.17329914746625169 -0.46647394448181229 0 -0.1601300393585961 -0.4570458966335138 0 -0.18780113760336731 -0.45661114362183852 0 -0.1601300393585961 -0.4570458966335138 0 -0.17003534856257591 -0.42897881194179438 0 -0.18780113760336731 -0.45661114362183852 0 -0.1964070503944215 -0.44493385509627481 0 -0.17003534856257591 -0.42897881194179438 0 -0.1601300393585961 -0.4570458966335138 0 -0.17003534856257591 -0.42897881194179438 0 -0.1601300393585961 -0.4570458966335138 0 -0.1478197327274226 -0.44451905155746779 0 -0.17003534856257591 -0.42897881194179438 0 -0.16774027498376909 -0.47851820619543722 0 -0.17329914746625169 -0.46647394448181229 0 -0.1601300393585961 -0.4570458966335138 0 -0.1601300393585961 -0.4570458966335138 0 -0.1411072514750471 -0.46269698764504208 0 -0.15022473015461629 -0.48511298132523312 0 -0.1601300393585961 -0.4570458966335138 0 -0.1411072514750471 -0.46269698764504208 0 -0.1478197327274226 -0.44451905155746779 0 -0.1411072514750471 -0.46269698764504208 0 -0.1478197327274226 -0.44451905155746779 0 -0.13265898397729189 -0.45107247986885618 0 -0.13265898397729189 -0.45107247986885618 0 -0.1298672063520207 -0.43713488879251772 0 -0.1168434023055443 -0.44973804543752621 0 -0.1478197327274226 -0.44451905155746779 0 -0.13265898397729189 -0.45107247986885618 0 -0.1298672063520207 -0.43713488879251772 0 -0.1411072514750471 -0.46269698764504208 0 -0.13148064123289049 -0.47547340178674719 0 -0.1236995917965865 -0.46286873524114658 0 -0.1411072514750471 -0.46269698764504208 0 -0.13265898397729189 -0.45107247986885618 0 -0.1236995917965865 -0.46286873524114658 0 -0.13148064123289049 -0.47547340178674719 0 -0.1409026043462612 -0.5 0 -0.11270570315562201 -0.5 0 -0.16909950553690051 -0.5 0 -0.15022473015461629 -0.48511298132523312 0 -0.1409026043462612 -0.5 0 -0.13148064123289049 -0.47547340178674719 0 -0.15022473015461629 -0.48511298132523312 0 -0.1409026043462612 -0.5 0 -0.1411072514750471 -0.46269698764504208 0 -0.13148064123289049 -0.47547340178674719 0 -0.15022473015461629 -0.48511298132523312 0 -0.1601300393585961 -0.4570458966335138 0 -0.15022473015461629 -0.48511298132523312 0 -0.1543920170910994 -0.40166099878486727 0 -0.14055435681904141 -0.38025653733797921 0 -0.1349107447597872 -0.39703696047264919 0 -0.1543920170910994 -0.40166099878486727 0 -0.1349107447597872 -0.39703696047264919 0 -0.13505337107046481 -0.41319224292351059 0 -0.1543920170910994 -0.40166099878486727 0 -0.14055435681904141 -0.38025653733797921 0 -0.15854176236668421 -0.37787723616018881 0 -0.14055435681904141 -0.38025653733797921 0 -0.1349107447597872 -0.39703696047264919 0 -0.1220138554978997 -0.37607861538086401 0 -0.1349107447597872 -0.39703696047264919 0 -0.11925877338091009 -0.4134911786440737 0 -0.1349107447597872 -0.39703696047264919 0 -0.13505337107046481 -0.41319224292351059 0 -0.11925877338091009 -0.4134911786440737 0 -0.13505337107046481 -0.41319224292351059 0 -0.12835957316710381 -0.42528549604131649 0 -0.11925877338091009 -0.4134911786440737 0 -0.1478197327274226 -0.44451905155746779 0 -0.1298672063520207 -0.43713488879251772 0 -0.14238190582576321 -0.42866136046810299 0 -0.13505337107046481 -0.41319224292351059 0 -0.12835957316710381 -0.42528549604131649 0 -0.14238190582576321 -0.42866136046810299 0 -0.1298672063520207 -0.43713488879251772 0 -0.12835957316710381 -0.42528549604131649 0 -0.14238190582576321 -0.42866136046810299 0 -0.1478197327274226 -0.44451905155746779 0 -0.14238190582576321 -0.42866136046810299 0 -0.17003534856257591 -0.42897881194179438 0 -0.1543920170910994 -0.40166099878486727 0 -0.14238190582576321 -0.42866136046810299 0 -0.17003534856257591 -0.42897881194179438 0 -0.1543920170910994 -0.40166099878486727 0 -0.13505337107046481 -0.41319224292351059 0 -0.14238190582576321 -0.42866136046810299 0 -0.1543920170910994 -0.40166099878486727 0 -0.17003534856257591 -0.42897881194179438 0 -0.17994065776655571 -0.40091172725007501 0 -0.17003534856257591 -0.42897881194179438 0 -0.17994065776655571 -0.40091172725007501 0 -0.17003534856257591 -0.42897881194179438 0 -0.17994065776655571 -0.40091172725007501 0 -0.19320335995847651 -0.4067664183769768 0 -0.17003534856257591 -0.42897881194179438 0 -0.19320335995847651 -0.4067664183769768 0 -0.19909984198804581 -0.42001059359848342 0 -0.1543920170910994 -0.40166099878486727 0 -0.17994065776655571 -0.40091172725007501 0 -0.1716464447337212 -0.38495805200464001 0 -0.1543920170910994 -0.40166099878486727 0 -0.15854176236668421 -0.37787723616018881 0 -0.1716464447337212 -0.38495805200464001 0 -0.15854176236668421 -0.37787723616018881 0 -0.1716464447337212 -0.38495805200464001 0 -0.17280675847658719 -0.36933728472521682 0 -0.17994065776655571 -0.40091172725007501 0 -0.1716464447337212 -0.38495805200464001 0 -0.1898459669705356 -0.37284464255835548 0 -0.17994065776655571 -0.40091172725007501 0 -0.1898459669705356 -0.37284464255835548 0 -0.1716464447337212 -0.38495805200464001 0 -0.1898459669705356 -0.37284464255835548 0 -0.17280675847658719 -0.36933728472521682 0 -0.17994065776655571 -0.40091172725007501 0 -0.20179263358167021 -0.39508733210069202 0 -0.1898459669705356 -0.37284464255835548 0 -0.20179263358167021 -0.39508733210069202 0 -0.1898459669705356 -0.37284464255835548 0 -0.20448542517529461 -0.37016407060290057 0 -0.17994065776655571 -0.40091172725007501 0 -0.20179263358167021 -0.39508733210069202 0 -0.19320335995847651 -0.4067664183769768 0 -0.20179263358167021 -0.39508733210069202 0 -0.21085068248294439 -0.40367856783324257 0 -0.21263486139733279 -0.38945025592444799 0 -0.21085068248294439 -0.40367856783324257 0 -0.21263486139733279 -0.38945025592444799 0 -0.2245327122004786 -0.39534609160408568 0 -0.20179263358167021 -0.39508733210069202 0 -0.21263486139733279 -0.38945025592444799 0 -0.20448542517529461 -0.37016407060290057 0 -0.20179263358167021 -0.39508733210069202 0 -0.20448542517529461 -0.37016407060290057 0 -0.21263486139733279 -0.38945025592444799 0 -0.2215128535462762 -0.38297521748131902 0 -0.20448542517529461 -0.37016407060290057 0 -0.1964070503944215 -0.44493385509627481 0 -0.19909984198804581 -0.42001059359848342 0 -0.21089803870211279 -0.43103514278072708 0 -0.1964070503944215 -0.44493385509627481 0 -0.19909984198804581 -0.42001059359848342 0 -0.1964070503944215 -0.44493385509627481 0 -0.17003534856257591 -0.42897881194179438 0 -0.19909984198804581 -0.42001059359848342 0 -0.20179263358167021 -0.39508733210069202 0 -0.19320335995847651 -0.4067664183769768 0 -0.19909984198804581 -0.42001059359848342 0 -0.20179263358167021 -0.39508733210069202 0 -0.19909984198804581 -0.42001059359848342 0 -0.21085068248294439 -0.40367856783324257 0 -0.19909984198804581 -0.42001059359848342 0 -0.2130576776844528 -0.41890144964395792 0 -0.20179263358167021 -0.39508733210069202 0 -0.21085068248294439 -0.40367856783324257 0 -0.19909984198804581 -0.42001059359848342 0 -0.21085068248294439 -0.40367856783324257 0 -0.2130576776844528 -0.41890144964395792 0 -0.2233640758098045 -0.41389678234055521 0 -0.19909984198804581 -0.42001059359848342 0 -0.2130576776844528 -0.41890144964395792 0 -0.21089803870211279 -0.43103514278072708 0 -0.2130576776844528 -0.41890144964395792 0 -0.21089803870211279 -0.43103514278072708 0 -0.22303107229269251 -0.42598284280619808 0 -0.2228945511509513 -0.44534697275872159 0 -0.22303107229269251 -0.42598284280619808 0 -0.236930344997171 -0.43125286603484841 0 -0.2228945511509513 -0.44534697275872159 0 -0.21089803870211279 -0.43103514278072708 0 -0.22303107229269251 -0.42598284280619808 0 -0.22303107229269251 -0.42598284280619808 0 -0.233375785620591 -0.4168123143946777 0 -0.236930344997171 -0.43125286603484841 0 -0.21085068248294439 -0.40367856783324257 0 -0.2233640758098045 -0.41389678234055521 0 -0.23862456106131849 -0.40778469854784832 0 -0.22303107229269251 -0.42598284280619808 0 -0.233375785620591 -0.4168123143946777 0 -0.2233640758098045 -0.41389678234055521 0 -0.2130576776844528 -0.41890144964395792 0 -0.22303107229269251 -0.42598284280619808 0 -0.2233640758098045 -0.41389678234055521 0 -0.233375785620591 -0.4168123143946777 0 -0.2233640758098045 -0.41389678234055521 0 -0.23862456106131849 -0.40778469854784832 0 -0.26639843963969262 -0.41189082926245407 0 -0.23862456106131849 -0.40778469854784832 0 -0.24359468078704399 -0.4027552547092883 0 -0.233375785620591 -0.4168123143946777 0 -0.23862456106131849 -0.40778469854784832 0 -0.24050566046064059 -0.41464116600842271 0 -0.23862456106131849 -0.40778469854784832 0 -0.24831099594139669 -0.41436232413454721 0 -0.24050566046064059 -0.41464116600842271 0 -0.25394794329103021 -0.41758377639979932 0 -0.24831099594139669 -0.41436232413454721 0 -0.24269016864604331 -0.42042085628353543 0 -0.24831099594139669 -0.41436232413454721 0 -0.24269016864604331 -0.42042085628353543 0 -0.24050566046064059 -0.41464116600842271 0 -0.233375785620591 -0.4168123143946777 0 -0.24269016864604331 -0.42042085628353543 0 -0.24050566046064059 -0.41464116600842271 0 -0.233375785620591 -0.4168123143946777 0 -0.24269016864604331 -0.42042085628353543 0 -0.236930344997171 -0.43125286603484841 0 -0.25009318386600321 -0.42954233538200032 0 -0.24269016864604331 -0.42042085628353543 0 -0.236930344997171 -0.43125286603484841 0 -0.25394794329103021 -0.41758377639979932 0 -0.25009318386600321 -0.42954233538200032 0 -0.24269016864604331 -0.42042085628353543 0 -0.25009318386600321 -0.42954233538200032 0 -0.24715149831813399 -0.44269078356300301 0 -0.236930344997171 -0.43125286603484841 0 -0.2215128535462762 -0.38297521748131902 0 -0.2421752620654718 -0.37978914002859171 0 -0.22212211073288121 -0.36799646040096279 0 -0.2215128535462762 -0.38297521748131902 0 -0.23012133324645789 -0.39132209161158071 0 -0.2421752620654718 -0.37978914002859171 0 -0.2215128535462762 -0.38297521748131902 0 -0.2245327122004786 -0.39534609160408568 0 -0.23012133324645789 -0.39132209161158071 0 -0.21263486139733279 -0.38945025592444799 0 -0.2215128535462762 -0.38297521748131902 0 -0.2245327122004786 -0.39534609160408568 0 -0.21085068248294439 -0.40367856783324257 0 -0.23862456106131849 -0.40778469854784832 0 -0.2245327122004786 -0.39534609160408568 0 -0.21085068248294439 -0.40367856783324257 0 -0.23862456106131849 -0.40778469854784832 0 -0.23862456106131849 -0.40778469854784832 0 -0.2245327122004786 -0.39534609160408568 0 -0.23520669818314369 -0.39694244797048223 0 -0.2245327122004786 -0.39534609160408568 0 -0.23012133324645789 -0.39132209161158071 0 -0.23520669818314369 -0.39694244797048223 0 -0.25170061786742493 -0.40488681380903457 0 -0.2421752620654718 -0.37978914002859171 0 -0.25170061786742493 -0.40488681380903457 0 -0.24359468078704399 -0.4027552547092883 0 -0.2421752620654718 -0.37978914002859171 0 -0.23520669818314369 -0.39694244797048223 0 -0.24359468078704399 -0.4027552547092883 0 -0.2421752620654718 -0.37978914002859171 0 -0.23862456106131849 -0.40778469854784832 0 -0.23520669818314369 -0.39694244797048223 0 -0.24359468078704399 -0.4027552547092883 0 -0.23012133324645789 -0.39132209161158071 0 -0.23520669818314369 -0.39694244797048223 0 -0.2421752620654718 -0.37978914002859171 0 -0.25168234128731259 -0.36273293774725718 0 -0.2421752620654718 -0.37978914002859171 0 -0.2326499062635187 -0.35469146624814868 0 -0.2421752620654718 -0.37978914002859171 0 -0.2326499062635187 -0.35469146624814868 0 -0.2421752620654718 -0.37978914002859171 0 -0.22212211073288121 -0.36799646040096279 0 -0.2326499062635187 -0.35469146624814868 0 -0.2326499062635187 -0.35469146624814868 0 -0.2231245504615656 -0.32959379246770582 0 -0.20978710661384459 -0.35236240764385413 0 -0.22212211073288121 -0.36799646040096279 0 -0.2326499062635187 -0.35469146624814868 0 -0.20978710661384459 -0.35236240764385413 0 -0.25902242798452701 -0.34771938961421228 0 -0.2326499062635187 -0.35469146624814868 0 -0.24549884347453171 -0.33403115256602178 0 -0.25168234128731259 -0.36273293774725718 0 -0.25902242798452701 -0.34771938961421228 0 -0.2326499062635187 -0.35469146624814868 0 -0.25600005574897378 -0.31992000368868567 0 -0.25120068256207578 -0.30478828704230881 0 -0.23631154897157811 -0.31353781140112391 0 -0.24549884347453171 -0.33403115256602178 0 -0.23631154897157811 -0.31353781140112391 0 -0.2231245504615656 -0.32959379246770582 0 -0.25600005574897378 -0.31992000368868567 0 -0.24549884347453171 -0.33403115256602178 0 -0.23631154897157811 -0.31353781140112391 0 -0.23631154897157811 -0.31353781140112391 0 -0.2231245504615656 -0.32959379246770582 0 -0.21359919465961241 -0.3044961186872629 0 -0.2326499062635187 -0.35469146624814868 0 -0.24549884347453171 -0.33403115256602178 0 -0.2231245504615656 -0.32959379246770582 0 -0.2326499062635187 -0.35469146624814868 0 -0.2231245504615656 -0.32959379246770582 0 -0.2231245504615656 -0.32959379246770582 0 -0.19908355970800731 -0.333007269773472 0 -0.20978710661384459 -0.35236240764385413 0 -0.2231245504615656 -0.32959379246770582 0 -0.20712085067435451 -0.31995935613301407 0 -0.21359919465961241 -0.3044961186872629 0 -0.2231245504615656 -0.32959379246770582 0 -0.20712085067435451 -0.31995935613301407 0 -0.19908355970800731 -0.333007269773472 0 -0.20712085067435451 -0.31995935613301407 0 -0.19231222615432969 -0.31457414589109173 0 -0.21359919465961241 -0.3044961186872629 0 -0.2231245504615656 -0.32959379246770582 0 -0.21359919465961241 -0.3044961186872629 0 -0.20712085067435451 -0.31995935613301407 0 -0.19231222615432969 -0.31457414589109173 0 -0.19908355970800731 -0.333007269773472 0 -0.19231222615432969 -0.31457414589109173 0 -0.19908355970800731 -0.333007269773472 0 -0.18412638823678079 -0.32921168282118879 0 -0.19908355970800731 -0.333007269773472 0 -0.19232674081992321 -0.34916669874476369 0 -0.1834960292429636 -0.33923537000052328 0 -0.19908355970800731 -0.333007269773472 0 -0.1834960292429636 -0.33923537000052328 0 -0.18412638823678079 -0.32921168282118879 0 -0.19908355970800731 -0.333007269773472 0 -0.19232674081992321 -0.34916669874476369 0 -0.20978710661384459 -0.35236240764385413 0 -0.19232674081992321 -0.34916669874476369 0 -0.19585664729725979 -0.36089416168028993 0 -0.20978710661384459 -0.35236240764385413 0 -0.19232674081992321 -0.34916669874476369 0 -0.19585664729725979 -0.36089416168028993 0 -0.18283799690670099 -0.35993298885157582 0 -0.1898459669705356 -0.37284464255835548 0 -0.19585664729725979 -0.36089416168028993 0 -0.18283799690670099 -0.35993298885157582 0 -0.1898459669705356 -0.37284464255835548 0 -0.19585664729725979 -0.36089416168028993 0 -0.20448542517529461 -0.37016407060290057 0 -0.19585664729725979 -0.36089416168028993 0 -0.20448542517529461 -0.37016407060290057 0 -0.20978710661384459 -0.35236240764385413 0 -0.22212211073288121 -0.36799646040096279 0 -0.20448542517529461 -0.37016407060290057 0 -0.20978710661384459 -0.35236240764385413 0 -0.2215128535462762 -0.38297521748131902 0 -0.22212211073288121 -0.36799646040096279 0 -0.20448542517529461 -0.37016407060290057 0 -0.224254699894156 -0.25597908654454998 0 -0.24175845980168911 -0.25428478927776899 0 -0.23570313163309281 -0.26733871708396628 0 -0.224254699894156 -0.25597908654454998 0 -0.24175845980168911 -0.25428478927776899 0 -0.23361576110838281 -0.24390984221039619 0 -0.25962203517416249 -0.25887593997011621 0 -0.23570313163309281 -0.26733871708396628 0 -0.25962203517416249 -0.25887593997011621 0 -0.24175845980168911 -0.25428478927776899 0 -0.23570313163309281 -0.26733871708396628 0 -0.2553209964375982 -0.27648340776592129 0 -0.23570313163309281 -0.26733871708396628 0 -0.24553050315752581 -0.28890034277410809 0 -0.23570313163309281 -0.26733871708396628 0 -0.22103090721034391 -0.28587663798676238 0 -0.23335173719507291 -0.28836922815107952 0 -0.224254699894156 -0.25597908654454998 0 -0.23570313163309281 -0.26733871708396628 0 -0.2117842280920228 -0.27580149419781652 0 -0.23570313163309281 -0.26733871708396628 0 -0.2117842280920228 -0.27580149419781652 0 -0.23570313163309281 -0.26733871708396628 0 -0.22103090721034391 -0.28587663798676238 0 -0.2117842280920228 -0.27580149419781652 0 -0.22103090721034391 -0.28587663798676238 0 -0.2261027335965155 -0.29857648736357251 0 -0.2171122283688548 -0.29448609062282871 0 -0.22103090721034391 -0.28587663798676238 0 -0.23335173719507291 -0.28836922815107952 0 -0.2261027335965155 -0.29857648736357251 0 -0.23335173719507291 -0.28836922815107952 0 -0.23839141037788639 -0.30115395554698787 0 -0.2261027335965155 -0.29857648736357251 0 -0.23570313163309281 -0.26733871708396628 0 -0.23335173719507291 -0.28836922815107952 0 -0.24553050315752581 -0.28890034277410809 0 -0.23335173719507291 -0.28836922815107952 0 -0.24553050315752581 -0.28890034277410809 0 -0.23839141037788639 -0.30115395554698787 0 -0.25120068256207578 -0.30478828704230881 0 -0.24553050315752581 -0.28890034277410809 0 -0.23839141037788639 -0.30115395554698787 0 -0.25120068256207578 -0.30478828704230881 0 -0.23631154897157811 -0.31353781140112391 0 -0.23839141037788639 -0.30115395554698787 0 -0.23631154897157811 -0.31353781140112391 0 -0.2261027335965155 -0.29857648736357251 0 -0.21359919465961241 -0.3044961186872629 0 -0.23631154897157811 -0.31353781140112391 0 -0.23839141037788639 -0.30115395554698787 0 -0.2261027335965155 -0.29857648736357251 0 -0.2261027335965155 -0.29857648736357251 0 -0.21359919465961241 -0.3044961186872629 0 -0.2261027335965155 -0.29857648736357251 0 -0.21359919465961241 -0.3044961186872629 0 -0.2171122283688548 -0.29448609062282871 0 -0.21359919465961241 -0.3044961186872629 0 -0.1961159522832929 -0.29797238157030148 0 -0.20771607800894751 -0.28899511845371711 0 -0.19231222615432969 -0.31457414589109173 0 -0.21359919465961241 -0.3044961186872629 0 -0.19231222615432969 -0.31457414589109173 0 -0.1961159522832929 -0.29797238157030148 0 -0.18418573876038241 -0.30335825531171928 0 -0.19231222615432969 -0.31457414589109173 0 -0.21359919465961241 -0.3044961186872629 0 -0.1961159522832929 -0.29797238157030148 0 -0.1961159522832929 -0.29797238157030148 0 -0.1824943794536911 -0.29086172764037299 0 -0.18418573876038241 -0.30335825531171928 0 -0.1961159522832929 -0.29797238157030148 0 -0.19619498668751939 -0.28574809927688499 0 -0.20771607800894751 -0.28899511845371711 0 -0.1961159522832929 -0.29797238157030148 0 -0.19619498668751939 -0.28574809927688499 0 -0.1824943794536911 -0.29086172764037299 0 -0.19619498668751939 -0.28574809927688499 0 -0.18925870364341041 -0.27633165015449501 0 -0.1824943794536911 -0.29086172764037299 0 -0.19619498668751939 -0.28574809927688499 0 -0.20771607800894751 -0.28899511845371711 0 -0.20183296135828241 -0.27349411822017122 0 -0.21359919465961241 -0.3044961186872629 0 -0.20771607800894751 -0.28899511845371711 0 -0.21359919465961241 -0.3044961186872629 0 -0.20771607800894751 -0.28899511845371711 0 -0.2171122283688548 -0.29448609062282871 0 -0.22103090721034391 -0.28587663798676238 0 -0.20771607800894751 -0.28899511845371711 0 -0.2171122283688548 -0.29448609062282871 0 -0.22103090721034391 -0.28587663798676238 0 -0.20771607800894751 -0.28899511845371711 0 -0.2117842280920228 -0.27580149419781652 0 -0.2117842280920228 -0.27580149419781652 0 -0.20530091493962341 -0.26842204932325942 0 -0.20996332158049641 -0.26104207887466718 0 -0.2117842280920228 -0.27580149419781652 0 -0.20530091493962341 -0.26842204932325942 0 -0.20183296135828241 -0.27349411822017122 0 -0.20771607800894751 -0.28899511845371711 0 -0.2117842280920228 -0.27580149419781652 0 -0.20183296135828241 -0.27349411822017122 0 -0.20771607800894751 -0.28899511845371711 0 -0.20183296135828241 -0.27349411822017122 0 -0.19619498668751939 -0.28574809927688499 0 -0.20183296135828241 -0.27349411822017122 0 -0.18925870364341041 -0.27633165015449501 0 -0.18925870364341041 -0.27633165015449501 0 -0.19762314872769199 -0.2633505060003829 0 -0.18348376806499861 -0.26463203889129228 0 -0.20183296135828241 -0.27349411822017122 0 -0.18925870364341041 -0.27633165015449501 0 -0.19762314872769199 -0.2633505060003829 0 -0.20530091493962341 -0.26842204932325942 0 -0.20183296135828241 -0.27349411822017122 0 -0.19762314872769199 -0.2633505060003829 0 -0.19762314872769199 -0.2633505060003829 0 -0.20134047018832821 -0.25150160644606268 0 -0.20996332158049641 -0.26104207887466718 0 -0.19762314872769199 -0.2633505060003829 0 -0.18677763921309559 -0.25033346045329108 0 -0.18348376806499861 -0.26463203889129228 0 -0.19762314872769199 -0.2633505060003829 0 -0.20134047018832821 -0.25150160644606268 0 -0.18677763921309559 -0.25033346045329108 0 -0.224254699894156 -0.25597908654454998 0 -0.2117842280920228 -0.27580149419781652 0 -0.20996332158049641 -0.26104207887466718 0 -0.20134047018832821 -0.25150160644606268 0 -0.20996332158049641 -0.26104207887466718 0 -0.21260693995459931 -0.24643932896582799 0 -0.20530091493962341 -0.26842204932325942 0 -0.19762314872769199 -0.2633505060003829 0 -0.20996332158049641 -0.26104207887466718 0 -0.224254699894156 -0.25597908654454998 0 -0.20996332158049641 -0.26104207887466718 0 -0.21260693995459931 -0.24643932896582799 0 -0.1692940198503024 -0.25683541485098532 0 -0.15514173466474779 -0.27136896144783551 0 -0.1555282206182291 -0.24179013257842771 0 -0.1692940198503024 -0.25683541485098532 0 -0.18677763921309559 -0.25033346045329108 0 -0.18348376806499861 -0.26463203889129228 0 -0.1692940198503024 -0.25683541485098532 0 -0.18348376806499861 -0.26463203889129228 0 -0.17432665026161659 -0.2748457480475982 0 -0.18925870364341041 -0.27633165015449501 0 -0.17432665026161659 -0.2748457480475982 0 -0.1824943794536911 -0.29086172764037299 0 -0.18925870364341041 -0.27633165015449501 0 -0.18348376806499861 -0.26463203889129228 0 -0.17432665026161659 -0.2748457480475982 0 -0.17432665026161659 -0.2748457480475982 0 -0.1662872958925497 -0.28904469530060822 0 -0.15514173466474779 -0.27136896144783551 0 -0.1692940198503024 -0.25683541485098532 0 -0.17432665026161659 -0.2748457480475982 0 -0.15514173466474779 -0.27136896144783551 0 -0.1662872958925497 -0.28904469530060822 0 -0.1547552487112665 -0.30094779031724311 0 -0.15514173466474779 -0.27136896144783551 0 -0.17432665026161659 -0.2748457480475982 0 -0.1662872958925497 -0.28904469530060822 0 -0.1824943794536911 -0.29086172764037299 0 -0.1662872958925497 -0.28904469530060822 0 -0.1824943794536911 -0.29086172764037299 0 -0.17106490024437421 -0.30353467662461481 0 -0.1824943794536911 -0.29086172764037299 0 -0.18418573876038241 -0.30335825531171928 0 -0.17106490024437421 -0.30353467662461481 0 -0.19231222615432969 -0.31457414589109173 0 -0.18418573876038241 -0.30335825531171928 0 -0.17619752913751541 -0.31267823515614129 0 -0.18418573876038241 -0.30335825531171928 0 -0.17106490024437421 -0.30353467662461481 0 -0.17619752913751541 -0.31267823515614129 0 -0.1662872958925497 -0.28904469530060822 0 -0.17106490024437421 -0.30353467662461481 0 -0.1547552487112665 -0.30094779031724311 0 -0.17106490024437421 -0.30353467662461481 0 -0.17619752913751541 -0.31267823515614129 0 -0.16220641290416779 -0.31747110069759948 0 -0.17106490024437421 -0.30353467662461481 0 -0.1547552487112665 -0.30094779031724311 0 -0.16220641290416779 -0.31747110069759948 0 -0.1547552487112665 -0.30094779031724311 0 -0.14639426420465571 -0.31150694549994162 0 -0.16220641290416779 -0.31747110069759948 0 -0.1547552487112665 -0.30094779031724311 0 -0.14199683822268799 -0.3011306666175802 0 -0.14639426420465571 -0.31150694549994162 0 -0.14199683822268799 -0.3011306666175802 0 -0.14639426420465571 -0.31150694549994162 0 -0.1363806449627894 -0.31019891956895229 0 -0.1363806449627894 -0.31019891956895229 0 -0.12734635178927989 -0.3107583397359871 0 -0.12873641531802471 -0.29698804782384502 0 -0.14199683822268799 -0.3011306666175802 0 -0.1363806449627894 -0.31019891956895229 0 -0.12873641531802471 -0.29698804782384502 0 -0.14199683822268799 -0.3011306666175802 0 -0.12873641531802471 -0.29698804782384502 0 -0.1437176179167037 -0.28601162987791912 0 -0.12873641531802471 -0.29698804782384502 0 -0.1437176179167037 -0.28601162987791912 0 -0.11323811721208719 -0.27298091051201873 0 -0.1547552487112665 -0.30094779031724311 0 -0.1437176179167037 -0.28601162987791912 0 -0.15514173466474779 -0.27136896144783551 0 -0.1547552487112665 -0.30094779031724311 0 -0.15514173466474779 -0.27136896144783551 0 -0.1547552487112665 -0.30094779031724311 0 -0.14199683822268799 -0.3011306666175802 0 -0.1437176179167037 -0.28601162987791912 0 -0.1437176179167037 -0.28601162987791912 0 -0.15514173466474779 -0.27136896144783551 0 -0.13361502428459901 -0.25892913269697448 0 -0.1437176179167037 -0.28601162987791912 0 -0.13361502428459901 -0.25892913269697448 0 -0.11323811721208719 -0.27298091051201873 0 -0.15514173466474779 -0.27136896144783551 0 -0.13361502428459901 -0.25892913269697448 0 -0.1555282206182291 -0.24179013257842771 0 -0.15514173466474779 -0.27136896144783551 0 -0.1555282206182291 -0.24179013257842771 0 -0.1701994692711859 -0.35247256019751511 0 -0.174799180427571 -0.34278601597473363 0 -0.16457195195503441 -0.33854174814155302 0 -0.1701994692711859 -0.35247256019751511 0 -0.16457195195503441 -0.33854174814155302 0 -0.1552900753968241 -0.34585869770486211 0 -0.1701994692711859 -0.35247256019751511 0 -0.15951851848160159 -0.36141322584850089 0 -0.1552900753968241 -0.34585869770486211 0 -0.1701994692711859 -0.35247256019751511 0 -0.15951851848160159 -0.36141322584850089 0 -0.17280675847658719 -0.36933728472521682 0 -0.15854176236668421 -0.37787723616018881 0 -0.15951851848160159 -0.36141322584850089 0 -0.17280675847658719 -0.36933728472521682 0 -0.1898459669705356 -0.37284464255835548 0 -0.17280675847658719 -0.36933728472521682 0 -0.18283799690670099 -0.35993298885157582 0 -0.1701994692711859 -0.35247256019751511 0 -0.17280675847658719 -0.36933728472521682 0 -0.18283799690670099 -0.35993298885157582 0 -0.19232674081992321 -0.34916669874476369 0 -0.18283799690670099 -0.35993298885157582 0 -0.18101358323911521 -0.34909094618814052 0 -0.1701994692711859 -0.35247256019751511 0 -0.18283799690670099 -0.35993298885157582 0 -0.18101358323911521 -0.34909094618814052 0 -0.1701994692711859 -0.35247256019751511 0 -0.18101358323911521 -0.34909094618814052 0 -0.174799180427571 -0.34278601597473363 0 -0.19232674081992321 -0.34916669874476369 0 -0.18101358323911521 -0.34909094618814052 0 -0.1834960292429636 -0.33923537000052328 0 -0.18101358323911521 -0.34909094618814052 0 -0.1834960292429636 -0.33923537000052328 0 -0.174799180427571 -0.34278601597473363 0 -0.1834960292429636 -0.33923537000052328 0 -0.18412638823678079 -0.32921168282118879 0 -0.17471486842955569 -0.33458945534593548 0 -0.18412638823678079 -0.32921168282118879 0 -0.17471486842955569 -0.33458945534593548 0 -0.17102525764904741 -0.32465217309492139 0 -0.1834960292429636 -0.33923537000052328 0 -0.17471486842955569 -0.33458945534593548 0 -0.174799180427571 -0.34278601597473363 0 -0.19231222615432969 -0.31457414589109173 0 -0.17102525764904741 -0.32465217309492139 0 -0.19231222615432969 -0.31457414589109173 0 -0.17619752913751541 -0.31267823515614129 0 -0.17102525764904741 -0.32465217309492139 0 -0.19231222615432969 -0.31457414589109173 0 -0.18412638823678079 -0.32921168282118879 0 -0.17102525764904741 -0.32465217309492139 0 -0.17102525764904741 -0.32465217309492139 0 -0.16220641290416779 -0.31747110069759948 0 -0.14973828914376519 -0.33473020029875122 0 -0.17619752913751541 -0.31267823515614129 0 -0.17102525764904741 -0.32465217309492139 0 -0.16220641290416779 -0.31747110069759948 0 -0.17102525764904741 -0.32465217309492139 0 -0.14973828914376519 -0.33473020029875122 0 -0.17102525764904741 -0.32465217309492139 0 -0.16457195195503441 -0.33854174814155302 0 -0.14973828914376519 -0.33473020029875122 0 -0.17471486842955569 -0.33458945534593548 0 -0.174799180427571 -0.34278601597473363 0 -0.16457195195503441 -0.33854174814155302 0 -0.17471486842955569 -0.33458945534593548 0 -0.17102525764904741 -0.32465217309492139 0 -0.16457195195503441 -0.33854174814155302 0 -0.16457195195503441 -0.33854174814155302 0 -0.14973828914376519 -0.33473020029875122 0 -0.1552900753968241 -0.34585869770486211 0 -0.14973828914376519 -0.33473020029875122 0 -0.14128207028563591 -0.3446760647268105 0 -0.1552900753968241 -0.34585869770486211 0 -0.14973828914376519 -0.33473020029875122 0 -0.13724871905053851 -0.33225994881190968 0 -0.14128207028563591 -0.3446760647268105 0 -0.16220641290416779 -0.31747110069759948 0 -0.1343362458676795 -0.32270382410173432 0 -0.14639426420465571 -0.31150694549994162 0 -0.16220641290416779 -0.31747110069759948 0 -0.1343362458676795 -0.32270382410173432 0 -0.16220641290416779 -0.31747110069759948 0 -0.14973828914376519 -0.33473020029875122 0 -0.1343362458676795 -0.32270382410173432 0 -0.12734635178927989 -0.3107583397359871 0 -0.1343362458676795 -0.32270382410173432 0 -0.1181100945635721 -0.32106585002800769 0 -0.14639426420465571 -0.31150694549994162 0 -0.1363806449627894 -0.31019891956895229 0 -0.1343362458676795 -0.32270382410173432 0 -0.1363806449627894 -0.31019891956895229 0 -0.12734635178927989 -0.3107583397359871 0 -0.1343362458676795 -0.32270382410173432 0 -0.13724871905053851 -0.33225994881190968 0 -0.1140454071019501 -0.33759285710350162 0 -0.1343362458676795 -0.32270382410173432 0 -0.13724871905053851 -0.33225994881190968 0 -0.1140454071019501 -0.33759285710350162 0 -0.13724871905053851 -0.33225994881190968 0 -0.13020078870312879 -0.34049751047936838 0 -0.1140454071019501 -0.33759285710350162 0 -0.13724871905053851 -0.33225994881190968 0 -0.13020078870312879 -0.34049751047936838 0 -0.14128207028563591 -0.3446760647268105 0 -0.14973828914376519 -0.33473020029875122 0 -0.1343362458676795 -0.32270382410173432 0 -0.13724871905053851 -0.33225994881190968 0 -0.12822695837439091 -0.34746117127525211 0 -0.13776467042778279 -0.35618078667158531 0 -0.12417087852030639 -0.3580191389828431 0 -0.12822695837439091 -0.34746117127525211 0 -0.13776467042778279 -0.35618078667158531 0 -0.14128207028563591 -0.3446760647268105 0 -0.13020078870312879 -0.34049751047936838 0 -0.12822695837439091 -0.34746117127525211 0 -0.14128207028563591 -0.3446760647268105 0 -0.14128207028563591 -0.3446760647268105 0 -0.14871535973288191 -0.35498036323832088 0 -0.1552900753968241 -0.34585869770486211 0 -0.13776467042778279 -0.35618078667158531 0 -0.14128207028563591 -0.3446760647268105 0 -0.14871535973288191 -0.35498036323832088 0 -0.13776467042778279 -0.35618078667158531 0 -0.14871535973288191 -0.35498036323832088 0 -0.14668479189934899 -0.36617181756771389 0 -0.15951851848160159 -0.36141322584850089 0 -0.14871535973288191 -0.35498036323832088 0 -0.1552900753968241 -0.34585869770486211 0 -0.14055435681904141 -0.38025653733797921 0 -0.15854176236668421 -0.37787723616018881 0 -0.14668479189934899 -0.36617181756771389 0 -0.15854176236668421 -0.37787723616018881 0 -0.15951851848160159 -0.36141322584850089 0 -0.14668479189934899 -0.36617181756771389 0 -0.15951851848160159 -0.36141322584850089 0 -0.14871535973288191 -0.35498036323832088 0 -0.14668479189934899 -0.36617181756771389 0 -0.14055435681904141 -0.38025653733797921 0 -0.14668479189934899 -0.36617181756771389 0 -0.13323274057808029 -0.3667131789433784 0 -0.14055435681904141 -0.38025653733797921 0 -0.13323274057808029 -0.3667131789433784 0 -0.1220138554978997 -0.37607861538086401 0 -0.13323274057808029 -0.3667131789433784 0 -0.12417087852030639 -0.3580191389828431 0 -0.1220138554978997 -0.37607861538086401 0 -0.13776467042778279 -0.35618078667158531 0 -0.14668479189934899 -0.36617181756771389 0 -0.13323274057808029 -0.3667131789433784 0 -0.13776467042778279 -0.35618078667158531 0 -0.13323274057808029 -0.3667131789433784 0 -0.12417087852030639 -0.3580191389828431 0 -0.10992218890762639 -0.36084723502449872 0 -0.12417087852030639 -0.3580191389828431 0 -0.1220138554978997 -0.37607861538086401 0 -0.10992218890762639 -0.36084723502449872 0 -0.099373054983912912 -0.37490892933526132 0 -0.1220138554978997 -0.37607861538086401 0 -0.10992218890762639 -0.36084723502449872 0 -0.099373054983912912 -0.37490892933526132 0 -0.097592008049698017 -0.35890134227757109 0 -0.099373054983912912 -0.37490892933526132 0 -0.097592008049698017 -0.35890134227757109 0 -0.084372591566068383 -0.36177454483494181 0 -0.097592008049698017 -0.35890134227757109 0 -0.105769373827198 -0.3500062576978073 0 -0.090842095153361779 -0.34292576539509351 0 -0.10992218890762639 -0.36084723502449872 0 -0.097592008049698017 -0.35890134227757109 0 -0.105769373827198 -0.3500062576978073 0 -0.105769373827198 -0.3500062576978073 0 -0.11653293392990299 -0.35017781417960681 0 -0.1140454071019501 -0.33759285710350162 0 -0.10992218890762639 -0.36084723502449872 0 -0.105769373827198 -0.3500062576978073 0 -0.11653293392990299 -0.35017781417960681 0 -0.10992218890762639 -0.36084723502449872 0 -0.11653293392990299 -0.35017781417960681 0 -0.12417087852030639 -0.3580191389828431 0 -0.12822695837439091 -0.34746117127525211 0 -0.11653293392990299 -0.35017781417960681 0 -0.12417087852030639 -0.3580191389828431 0 -0.12822695837439091 -0.34746117127525211 0 -0.11653293392990299 -0.35017781417960681 0 -0.1140454071019501 -0.33759285710350162 0 -0.1343362458676795 -0.32270382410173432 0 -0.1140454071019501 -0.33759285710350162 0 -0.1064660788311912 -0.32793654750586898 0 -0.13020078870312879 -0.34049751047936838 0 -0.12822695837439091 -0.34746117127525211 0 -0.1140454071019501 -0.33759285710350162 0 -0.1343362458676795 -0.32270382410173432 0 -0.1064660788311912 -0.32793654750586898 0 -0.1343362458676795 -0.32270382410173432 0 -0.1181100945635721 -0.32106585002800769 0 -0.1064660788311912 -0.32793654750586898 0 -0.1064660788311912 -0.32793654750586898 0 -0.084883271079699646 -0.31720186404685641 0 -0.098452186300300337 -0.29879800118845951 0 -0.1181100945635721 -0.32106585002800769 0 -0.1064660788311912 -0.32793654750586898 0 -0.098452186300300337 -0.29879800118845951 0 -0.1140454071019501 -0.33759285710350162 0 -0.090842095153361779 -0.34292576539509351 0 -0.105769373827198 -0.3500062576978073 0 -0.1140454071019501 -0.33759285710350162 0 -0.090842095153361779 -0.34292576539509351 0 -0.1140454071019501 -0.33759285710350162 0 -0.1064660788311912 -0.32793654750586898 0 -0.090842095153361779 -0.34292576539509351 0 -0.1064660788311912 -0.32793654750586898 0 -0.078595911794702905 -0.33316927091000381 0 -0.1064660788311912 -0.32793654750586898 0 -0.090842095153361779 -0.34292576539509351 0 -0.078595911794702905 -0.33316927091000381 0 -0.090842095153361779 -0.34292576539509351 0 -0.078595911794702905 -0.33316927091000381 0 -0.067638783204773401 -0.34825867368668528 0 -0.1064660788311912 -0.32793654750586898 0 -0.078595911794702905 -0.33316927091000381 0 -0.084883271079699646 -0.31720186404685641 0 -0.084883271079699646 -0.31720186404685641 0 -0.067262630993435657 -0.3251200063029811 0 -0.067955962839005818 -0.31298897122298891 0 -0.078595911794702905 -0.33316927091000381 0 -0.084883271079699646 -0.31720186404685641 0 -0.067262630993435657 -0.3251200063029811 0 -0.067262630993435657 -0.3251200063029811 0 -0.067955962839005818 -0.31298897122298891 0 -0.054152264495555338 -0.32383793102091801 0 -0.078595911794702905 -0.33316927091000381 0 -0.050725744758214592 -0.33840199431413848 0 -0.078595911794702905 -0.33316927091000381 0 -0.067638783204773401 -0.34825867368668528 0 -0.050725744758214592 -0.33840199431413848 0 -0.078595911794702905 -0.33316927091000381 0 -0.067262630993435657 -0.3251200063029811 0 -0.050725744758214592 -0.33840199431413848 0 -0.067638783204773401 -0.34825867368668528 0 -0.069739210363178053 -0.36759070987530801 0 -0.084372591566068383 -0.36177454483494181 0 -0.067638783204773401 -0.34825867368668528 0 -0.069739210363178053 -0.36759070987530801 0 -0.056990179308726907 -0.36154487368393379 0 -0.069739210363178053 -0.36759070987530801 0 -0.058506465857790388 -0.3729300509839576 0 -0.068899883543915005 -0.38302293058480719 0 -0.099373054983912912 -0.37490892933526132 0 -0.084372591566068383 -0.36177454483494181 0 -0.082684647052352137 -0.37771376376896448 0 -0.069739210363178053 -0.36759070987530801 0 -0.084372591566068383 -0.36177454483494181 0 -0.082684647052352137 -0.37771376376896448 0 -0.090842095153361779 -0.34292576539509351 0 -0.067638783204773401 -0.34825867368668528 0 -0.084372591566068383 -0.36177454483494181 0 -0.097592008049698017 -0.35890134227757109 0 -0.090842095153361779 -0.34292576539509351 0 -0.084372591566068383 -0.36177454483494181 0 -0.090842095153361779 -0.34292576539509351 0 -0.067638783204773401 -0.34825867368668528 0 -0.11323811721208719 -0.27298091051201873 0 -0.078794278037028542 -0.27653015234891121 0 -0.092778135407556916 -0.25278341398886511 0 -0.11323811721208719 -0.27298091051201873 0 -0.092778135407556916 -0.25278341398886511 0 -0.1165731632203976 -0.24082599565915661 0 -0.13361502428459901 -0.25892913269697448 0 -0.11323811721208719 -0.27298091051201873 0 -0.1165731632203976 -0.24082599565915661 0 -0.11323811721208719 -0.27298091051201873 0 -0.098452186300300337 -0.29879800118845951 0 -0.078794278037028542 -0.27653015234891121 0 -0.12873641531802471 -0.29698804782384502 0 -0.11323811721208719 -0.27298091051201873 0 -0.098452186300300337 -0.29879800118845951 0 -0.12734635178927989 -0.3107583397359871 0 -0.12873641531802471 -0.29698804782384502 0 -0.098452186300300337 -0.29879800118845951 0 -0.12734635178927989 -0.3107583397359871 0 -0.1181100945635721 -0.32106585002800769 0 -0.098452186300300337 -0.29879800118845951 0 -0.1181100945635721 -0.32106585002800769 0 -0.098452186300300337 -0.29879800118845951 0 -0.084883271079699646 -0.31720186404685641 0 -0.098452186300300337 -0.29879800118845951 0 -0.078676397016373051 -0.30050328660853431 0 -0.084883271079699646 -0.31720186404685641 0 -0.067955962839005818 -0.31298897122298891 0 -0.078676397016373051 -0.30050328660853431 0 -0.067955962839005818 -0.31298897122298891 0 -0.078676397016373051 -0.30050328660853431 0 -0.063296286825830952 -0.29699744423545582 0 -0.063296286825830952 -0.29699744423545582 0 -0.078794278037028542 -0.27653015234891121 0 -0.053940084314362063 -0.28548675640176902 0 -0.078676397016373051 -0.30050328660853431 0 -0.063296286825830952 -0.29699744423545582 0 -0.078794278037028542 -0.27653015234891121 0 -0.098452186300300337 -0.29879800118845951 0 -0.078676397016373051 -0.30050328660853431 0 -0.078794278037028542 -0.27653015234891121 0 -0.098452186300300337 -0.29879800118845951 0 -0.078794278037028542 -0.27653015234891121 0 -0.078794278037028542 -0.27653015234891121 0 -0.059136369773753673 -0.25426230350936552 0 -0.078794278037028542 -0.27653015234891121 0 -0.075881532845746655 -0.2518003866666863 0 -0.059136369773753673 -0.25426230350936552 0 -0.078794278037028542 -0.27653015234891121 0 -0.075881532845746655 -0.2518003866666863 0 -0.092778135407556916 -0.25278341398886511 0 -0.038279177000462718 -0.25298892135794571 0 -0.048084329560061201 -0.26969760609834559 0 -0.026855388200113049 -0.26587594312667251 0 -0.038279177000462718 -0.25298892135794571 0 -0.059136369773753673 -0.25426230350936552 0 -0.048084329560061201 -0.26969760609834559 0 -0.059136369773753673 -0.25426230350936552 0 -0.048084329560061201 -0.26969760609834559 0 -0.078794278037028542 -0.27653015234891121 0 -0.059136369773753673 -0.25426230350936552 0 -0.048084329560061201 -0.26969760609834559 0 -0.078794278037028542 -0.27653015234891121 0 -0.048084329560061201 -0.26969760609834559 0 -0.053940084314362063 -0.28548675640176902 0 -0.048084329560061201 -0.26969760609834559 0 -0.037032289346370352 -0.28513290868732682 0 -0.026855388200113049 -0.26587594312667251 0 -0.048084329560061201 -0.26969760609834559 0 -0.037032289346370352 -0.28513290868732682 0 -0.053940084314362063 -0.28548675640176902 0 -0.037032289346370352 -0.28513290868732682 0 -0.026855388200113049 -0.26587594312667251 0 -0.048084329560061201 -0.26969760609834559 0 -0.037032289346370352 -0.28513290868732682 0 -0.037032289346370352 -0.28513290868732682 0 -0.053940084314362063 -0.28548675640176902 0 -0.045429126480150447 -0.30102159633199332 0 -0.037032289346370352 -0.28513290868732682 0 -0.045429126480150447 -0.30102159633199332 0 -0.063296286825830952 -0.29699744423545582 0 -0.053940084314362063 -0.28548675640176902 0 -0.045429126480150447 -0.30102159633199332 0 -0.067955962839005818 -0.31298897122298891 0 -0.063296286825830952 -0.29699744423545582 0 -0.054691307672800872 -0.31022823389988519 0 -0.063296286825830952 -0.29699744423545582 0 -0.054691307672800872 -0.31022823389988519 0 -0.045429126480150447 -0.30102159633199332 0 -0.054691307672800872 -0.31022823389988519 0 -0.045429126480150447 -0.30102159633199332 0 -0.042622897723461742 -0.31629522668806992 0 -0.045429126480150447 -0.30102159633199332 0 -0.033818241483559539 -0.30661477379892749 0 -0.042622897723461742 -0.31629522668806992 0 -0.037032289346370352 -0.28513290868732682 0 -0.045429126480150447 -0.30102159633199332 0 -0.033818241483559539 -0.30661477379892749 0 -0.037032289346370352 -0.28513290868732682 0 -0.033818241483559539 -0.30661477379892749 0 -0.021465151807031679 -0.30687400569005668 0 -0.021465151807031679 -0.30687400569005668 0 -0.011111708647086689 -0.28917869030745319 0 -0.033818241483559539 -0.30661477379892749 0 -0.02445608570673562 -0.31198588179022763 0 -0.021465151807031679 -0.30687400569005668 0 -0.02445608570673562 -0.31198588179022763 0 -0.021465151807031679 -0.30687400569005668 0 -0.0130685673524099 -0.31860069318531792 0 -0.02445608570673562 -0.31198588179022763 0 -0.021465151807031679 -0.30687400569005668 0 -0.021465151807031679 -0.30687400569005668 0 -0.0085910264265026005 -0.30780961868218681 0 -0.0130685673524099 -0.31860069318531792 0 -0.0085910264265026005 -0.30780961868218681 0 -0.00064033772500888425 -0.3207383258129487 0 0.0033306333990243669 -0.30365637841515741 0 -0.0085910264265026005 -0.30780961868218681 0 -0.011111708647086689 -0.28917869030745319 0 0.0033306333990243669 -0.30365637841515741 0 -0.021465151807031679 -0.30687400569005668 0 -0.0085910264265026005 -0.30780961868218681 0 -0.011111708647086689 -0.28917869030745319 0 -0.011111708647086689 -0.28917869030745319 0 -0.0007582654871422026 -0.27148337492484942 0 0.0079978645729627401 -0.28683117843660327 0 -0.021465151807031679 -0.30687400569005668 0 -0.011111708647086689 -0.28917869030745319 0 -0.027739333253950081 -0.28216498948508129 0 -0.037032289346370352 -0.28513290868732682 0 -0.021465151807031679 -0.30687400569005668 0 -0.037032289346370352 -0.28513290868732682 0 -0.021465151807031679 -0.30687400569005668 0 -0.027739333253950081 -0.28216498948508129 0 -0.037032289346370352 -0.28513290868732682 0 -0.027739333253950081 -0.28216498948508129 0 -0.026855388200113049 -0.26587594312667251 0 -0.027739333253950081 -0.28216498948508129 0 -0.026855388200113049 -0.26587594312667251 0 -0.0136647060947924 -0.26255007279879122 0 -0.011111708647086689 -0.28917869030745319 0 -0.027739333253950081 -0.28216498948508129 0 -0.0007582654871422026 -0.27148337492484942 0 -0.027739333253950081 -0.28216498948508129 0 -0.0007582654871422026 -0.27148337492484942 0 -0.0136647060947924 -0.26255007279879122 0 -0.011111708647086689 -0.28917869030745319 0 -0.0007582654871422026 -0.27148337492484942 0 -0.027739333253950081 -0.28216498948508129 0 -0.0007582654871422026 -0.27148337492484942 0 -0.0007582654871422026 -0.27148337492484942 0 -0.0136647060947924 -0.26255007279879122 0 -0.004144784243036481 -0.25526440730861449 0 -0.0136647060947924 -0.26255007279879122 0 -0.004144784243036481 -0.25526440730861449 0 -0.016678487053853618 -0.2466189775660193 0 -0.038279177000462718 -0.25298892135794571 0 -0.026855388200113049 -0.26587594312667251 0 -0.016678487053853618 -0.2466189775660193 0 -0.026855388200113049 -0.26587594312667251 0 -0.016678487053853618 -0.2466189775660193 0 -0.026855388200113049 -0.26587594312667251 0 -0.0136647060947924 -0.26255007279879122 0 -0.016678487053853618 -0.2466189775660193 0 -0.04443547125618498 -0.35359158197827723 0 -0.033874509258348097 -0.3612137824470848 0 -0.027527216129092581 -0.34962370318429498 0 -0.04443547125618498 -0.35359158197827723 0 -0.038535993347029063 -0.34185167104901049 0 -0.027527216129092581 -0.34962370318429498 0 -0.04443547125618498 -0.35359158197827723 0 -0.050725744758214592 -0.33840199431413848 0 -0.038535993347029063 -0.34185167104901049 0 -0.033874509258348097 -0.3612137824470848 0 -0.044234418044586131 -0.36983912542331532 0 -0.02676660440660647 -0.37222456846551649 0 -0.04443547125618498 -0.35359158197827723 0 -0.033874509258348097 -0.3612137824470848 0 -0.044234418044586131 -0.36983912542331532 0 -0.044234418044586131 -0.36983912542331532 0 -0.02676660440660647 -0.37222456846551649 0 -0.035611693581706051 -0.3823378390697062 0 -0.04443547125618498 -0.35359158197827723 0 -0.044234418044586131 -0.36983912542331532 0 -0.056990179308726907 -0.36154487368393379 0 -0.044234418044586131 -0.36983912542331532 0 -0.058506465857790388 -0.3729300509839576 0 -0.056990179308726907 -0.36154487368393379 0 -0.069739210363178053 -0.36759070987530801 0 -0.058506465857790388 -0.3729300509839576 0 -0.056990179308726907 -0.36154487368393379 0 -0.067638783204773401 -0.34825867368668528 0 -0.04443547125618498 -0.35359158197827723 0 -0.050725744758214592 -0.33840199431413848 0 -0.067638783204773401 -0.34825867368668528 0 -0.04443547125618498 -0.35359158197827723 0 -0.067638783204773401 -0.34825867368668528 0 -0.04443547125618498 -0.35359158197827723 0 -0.056990179308726907 -0.36154487368393379 0 -0.067262630993435657 -0.3251200063029811 0 -0.050725744758214592 -0.33840199431413848 0 -0.054152264495555338 -0.32383793102091801 0 -0.050725744758214592 -0.33840199431413848 0 -0.054152264495555338 -0.32383793102091801 0 -0.041274455008499251 -0.32900288727854488 0 -0.067955962839005818 -0.31298897122298891 0 -0.054691307672800872 -0.31022823389988519 0 -0.054152264495555338 -0.32383793102091801 0 -0.054691307672800872 -0.31022823389988519 0 -0.054152264495555338 -0.32383793102091801 0 -0.042622897723461742 -0.31629522668806992 0 -0.054152264495555338 -0.32383793102091801 0 -0.042622897723461742 -0.31629522668806992 0 -0.041274455008499251 -0.32900288727854488 0 -0.032273814214766119 -0.3203845311595529 0 -0.041274455008499251 -0.32900288727854488 0 -0.0293360155119687 -0.33324596943958001 0 -0.042622897723461742 -0.31629522668806992 0 -0.032273814214766119 -0.3203845311595529 0 -0.041274455008499251 -0.32900288727854488 0 -0.033818241483559539 -0.30661477379892749 0 -0.042622897723461742 -0.31629522668806992 0 -0.032273814214766119 -0.3203845311595529 0 -0.038535993347029063 -0.34185167104901049 0 -0.0293360155119687 -0.33324596943958001 0 -0.027527216129092581 -0.34962370318429498 0 -0.050725744758214592 -0.33840199431413848 0 -0.041274455008499251 -0.32900288727854488 0 -0.038535993347029063 -0.34185167104901049 0 -0.041274455008499251 -0.32900288727854488 0 -0.038535993347029063 -0.34185167104901049 0 -0.0293360155119687 -0.33324596943958001 0 -0.0293360155119687 -0.33324596943958001 0 -0.01406930046854365 -0.33386768575274978 0 -0.027527216129092581 -0.34962370318429498 0 -0.0293360155119687 -0.33324596943958001 0 -0.022837151086164499 -0.32328898556904789 0 -0.01406930046854365 -0.33386768575274978 0 -0.033818241483559539 -0.30661477379892749 0 -0.02445608570673562 -0.31198588179022763 0 -0.032273814214766119 -0.3203845311595529 0 -0.02445608570673562 -0.31198588179022763 0 -0.032273814214766119 -0.3203845311595529 0 -0.022837151086164499 -0.32328898556904789 0 -0.032273814214766119 -0.3203845311595529 0 -0.0293360155119687 -0.33324596943958001 0 -0.022837151086164499 -0.32328898556904789 0 -0.022837151086164499 -0.32328898556904789 0 -0.0130685673524099 -0.31860069318531792 0 -0.01406930046854365 -0.33386768575274978 0 -0.02445608570673562 -0.31198588179022763 0 -0.022837151086164499 -0.32328898556904789 0 -0.0130685673524099 -0.31860069318531792 0 -0.021465151807031679 -0.30687400569005668 0 -0.0130685673524099 -0.31860069318531792 0 -0.0130685673524099 -0.31860069318531792 0 -0.00064033772500888425 -0.3207383258129487 0 -0.01406930046854365 -0.33386768575274978 0 -0.0085910264265026005 -0.30780961868218681 0 -0.0130685673524099 -0.31860069318531792 0 -0.00064033772500888425 -0.3207383258129487 0 -0.01406930046854365 -0.33386768575274978 0 -0.01062982243337058 -0.35234142963879839 0 0.00093598445714682533 -0.33501187277556899 0 -0.00064033772500888425 -0.3207383258129487 0 -0.01406930046854365 -0.33386768575274978 0 0.00093598445714682533 -0.33501187277556899 0 -0.01062982243337058 -0.35234142963879839 0 0.0053148931994630687 -0.34826805892008872 0 0.00093598445714682533 -0.33501187277556899 0 -0.01062982243337058 -0.35234142963879839 0 -0.027527216129092581 -0.34962370318429498 0 -0.020428397209101581 -0.36088657010504482 0 -0.01406930046854365 -0.33386768575274978 0 -0.01062982243337058 -0.35234142963879839 0 -0.027527216129092581 -0.34962370318429498 0 -0.033874509258348097 -0.3612137824470848 0 -0.027527216129092581 -0.34962370318429498 0 -0.020428397209101581 -0.36088657010504482 0 -0.02676660440660647 -0.37222456846551649 0 -0.020428397209101581 -0.36088657010504482 0 -0.0071592383932490072 -0.37172433421641388 0 -0.033874509258348097 -0.3612137824470848 0 -0.02676660440660647 -0.37222456846551649 0 -0.020428397209101581 -0.36088657010504482 0 -0.01062982243337058 -0.35234142963879839 0 -0.0071592383932490072 -0.37172433421641388 0 0.01073991848365162 -0.36351689085440531 0 -0.01062982243337058 -0.35234142963879839 0 -0.020428397209101581 -0.36088657010504482 0 -0.0071592383932490072 -0.37172433421641388 0 -0.0071592383932490072 -0.37172433421641388 0 -0.00072232415062651462 -0.39261026810674549 0 -0.019092912474610022 -0.38865475755236489 0 -0.0071592383932490072 -0.37172433421641388 0 -0.00072232415062651462 -0.39261026810674549 0 0.0058916104488833509 -0.37833181594326631 0 -0.00072232415062651462 -0.39261026810674549 0 -0.008065960077298831 -0.40184134807545829 0 -0.019092912474610022 -0.38865475755236489 0 -0.008065960077298831 -0.40184134807545829 0 -0.0081126324668909892 -0.41123767716410042 0 0.00077620197462267013 -0.40325672237600563 0 -0.00072232415062651462 -0.39261026810674549 0 -0.008065960077298831 -0.40184134807545829 0 0.00077620197462267013 -0.40325672237600563 0 -0.008065960077298831 -0.40184134807545829 0 -0.02027141736645019 -0.40482443330058149 0 -0.0081126324668909892 -0.41123767716410042 0 -0.02027141736645019 -0.40482443330058149 0 -0.034799920510811953 -0.39573710514178589 0 -0.034595559724544013 -0.41552484628283298 0 -0.008065960077298831 -0.40184134807545829 0 -0.02027141736645019 -0.40482443330058149 0 -0.019092912474610022 -0.38865475755236489 0 -0.02027141736645019 -0.40482443330058149 0 -0.019092912474610022 -0.38865475755236489 0 -0.034799920510811953 -0.39573710514178589 0 -0.02676660440660647 -0.37222456846551649 0 -0.0071592383932490072 -0.37172433421641388 0 -0.019092912474610022 -0.38865475755236489 0 -0.019092912474610022 -0.38865475755236489 0 -0.035611693581706051 -0.3823378390697062 0 -0.034799920510811953 -0.39573710514178589 0 -0.02676660440660647 -0.37222456846551649 0 -0.019092912474610022 -0.38865475755236489 0 -0.035611693581706051 -0.3823378390697062 0 -0.044234418044586131 -0.36983912542331532 0 -0.035611693581706051 -0.3823378390697062 0 -0.051949114061413858 -0.3886732876118858 0 -0.035611693581706051 -0.3823378390697062 0 -0.034799920510811953 -0.39573710514178589 0 -0.051949114061413858 -0.3886732876118858 0 -0.034799920510811953 -0.39573710514178589 0 -0.044773932817550169 -0.40554503843954309 0 -0.051949114061413858 -0.3886732876118858 0 -0.034799920510811953 -0.39573710514178589 0 -0.044773932817550169 -0.40554503843954309 0 -0.034595559724544013 -0.41552484628283298 0 -0.044773932817550169 -0.40554503843954309 0 -0.057018153371777403 -0.40215046145673911 0 -0.051949114061413858 -0.3886732876118858 0 -0.057018153371777403 -0.40215046145673911 0 -0.051949114061413858 -0.3886732876118858 0 -0.068955726610223658 -0.39670231924997251 0 -0.044234418044586131 -0.36983912542331532 0 -0.058506465857790388 -0.3729300509839576 0 -0.051949114061413858 -0.3886732876118858 0 -0.058506465857790388 -0.3729300509839576 0 -0.051949114061413858 -0.3886732876118858 0 -0.068899883543915005 -0.38302293058480719 0 -0.051801464461672497 -0.41655477534174451 0 -0.042185885013804943 -0.43590378386609419 0 -0.062579091732656814 -0.42976856887312193 0 -0.042185885013804943 -0.43590378386609419 0 -0.05287886342474598 -0.44619104927310332 0 -0.062579091732656814 -0.42976856887312193 0 -0.051801464461672497 -0.41655477534174451 0 -0.066534539216486957 -0.41216317164843969 0 -0.062579091732656814 -0.42976856887312193 0 -0.057018153371777403 -0.40215046145673911 0 -0.051801464461672497 -0.41655477534174451 0 -0.066534539216486957 -0.41216317164843969 0 -0.044773932817550169 -0.40554503843954309 0 -0.057018153371777403 -0.40215046145673911 0 -0.051801464461672497 -0.41655477534174451 0 -0.044773932817550169 -0.40554503843954309 0 -0.051801464461672497 -0.41655477534174451 0 -0.034595559724544013 -0.41552484628283298 0 -0.051801464461672497 -0.41655477534174451 0 -0.034595559724544013 -0.41552484628283298 0 -0.042185885013804943 -0.43590378386609419 0 -0.034595559724544013 -0.41552484628283298 0 -0.042185885013804943 -0.43590378386609419 0 -0.016012530166438711 -0.42382540295061633 0 -0.042185885013804943 -0.43590378386609419 0 -0.016012530166438711 -0.42382540295061633 0 -0.022972687864810909 -0.43811561493510781 0 -0.042185885013804943 -0.43590378386609419 0 -0.016012530166438711 -0.42382540295061633 0 -0.016012530166438711 -0.42382540295061633 0 -0.013408486879178181 -0.43262675231407322 0 -0.022972687864810909 -0.43811561493510781 0 -0.034595559724544013 -0.41552484628283298 0 -0.016012530166438711 -0.42382540295061633 0 -0.019748034931080981 -0.41385308992453279 0 -0.02027141736645019 -0.40482443330058149 0 -0.034595559724544013 -0.41552484628283298 0 -0.019748034931080981 -0.41385308992453279 0 -0.02027141736645019 -0.40482443330058149 0 -0.019748034931080981 -0.41385308992453279 0 -0.0081126324668909892 -0.41123767716410042 0 -0.0081126324668909892 -0.41123767716410042 0 -0.0053503916519833756 -0.41890507954911932 0 0.01016082468092764 -0.41174702203513819 0 -0.016012530166438711 -0.42382540295061633 0 -0.0081126324668909892 -0.41123767716410042 0 -0.0053503916519833756 -0.41890507954911932 0 -0.016012530166438711 -0.42382540295061633 0 -0.0053503916519833756 -0.41890507954911932 0 -0.016012530166438711 -0.42382540295061633 0 -0.019748034931080981 -0.41385308992453279 0 -0.0081126324668909892 -0.41123767716410042 0 -0.013408486879178181 -0.43262675231407322 0 -0.0052946689989270051 -0.42945332493974081 0 -0.0093540604865360987 -0.43911266643082808 0 -0.013408486879178181 -0.43262675231407322 0 -0.0093540604865360987 -0.43911266643082808 0 -0.022972687864810909 -0.43811561493510781 0 -0.016012530166438711 -0.42382540295061633 0 -0.013408486879178181 -0.43262675231407322 0 -0.0052946689989270051 -0.42945332493974081 0 -0.016012530166438711 -0.42382540295061633 0 -0.0053503916519833756 -0.41890507954911932 0 -0.0052946689989270051 -0.42945332493974081 0 -0.0053503916519833756 -0.41890507954911932 0 -0.0052946689989270051 -0.42945332493974081 0 0.0029814021335089918 -0.42568077098759632 0 -0.0052946689989270051 -0.42945332493974081 0 -0.00072542549580032715 -0.4354249626967972 0 -0.0093540604865360987 -0.43911266643082808 0 -0.0052946689989270051 -0.42945332493974081 0 -0.00072542549580032715 -0.4354249626967972 0 0.0029814021335089918 -0.42568077098759632 0 -0.003664230010532391 -0.44570336902629643 0 -0.0077442852071358884 -0.46305409302634359 0 0.0045823816277680979 -0.44826751347413002 0 -0.01325984613280403 -0.44753234720526353 0 -0.003664230010532391 -0.44570336902629643 0 -0.0077442852071358884 -0.46305409302634359 0 -0.00072542549580032715 -0.4354249626967972 0 -0.0093540604865360987 -0.43911266643082808 0 -0.003664230010532391 -0.44570336902629643 0 -0.00072542549580032715 -0.4354249626967972 0 -0.003664230010532391 -0.44570336902629643 0 0.0037527775864003251 -0.44018732198252952 0 -0.0093540604865360987 -0.43911266643082808 0 -0.01325984613280403 -0.44753234720526353 0 -0.022972687864810909 -0.43811561493510781 0 -0.0093540604865360987 -0.43911266643082808 0 -0.01325984613280403 -0.44753234720526353 0 -0.003664230010532391 -0.44570336902629643 0 -0.01325984613280403 -0.44753234720526353 0 -0.0077442852071358884 -0.46305409302634359 0 -0.02256396709500489 -0.45167599260774188 0 -0.0077442852071358884 -0.46305409302634359 0 -0.030521947544170449 -0.46093594978658831 0 -0.024185626092520181 -0.4747284022158107 0 -0.0077442852071358884 -0.46305409302634359 0 -0.030521947544170449 -0.46093594978658831 0 -0.02256396709500489 -0.45167599260774188 0 -0.030521947544170449 -0.46093594978658831 0 -0.024185626092520181 -0.4747284022158107 0 -0.038633788096154108 -0.46990178336812061 0 -0.030521947544170449 -0.46093594978658831 0 -0.02256396709500489 -0.45167599260774188 0 -0.034222068142809231 -0.44617425872539812 0 -0.022972687864810909 -0.43811561493510781 0 -0.02256396709500489 -0.45167599260774188 0 -0.034222068142809231 -0.44617425872539812 0 -0.01325984613280403 -0.44753234720526353 0 -0.022972687864810909 -0.43811561493510781 0 -0.02256396709500489 -0.45167599260774188 0 -0.0045963692354046293 -0.5 0 -0.006205207030923446 -0.48109721305138509 0 0.0087783883482265655 -0.48831305638716738 0 -0.0045963692354046293 -0.5 0 -0.006205207030923446 -0.48109721305138509 0 -0.019957652241953259 -0.48919036952629019 0 -0.0077442852071358884 -0.46305409302634359 0 -0.006205207030923446 -0.48109721305138509 0 0.0104743022432467 -0.47129735715269849 0 -0.0077442852071358884 -0.46305409302634359 0 -0.006205207030923446 -0.48109721305138509 0 -0.024185626092520181 -0.4747284022158107 0 -0.006205207030923446 -0.48109721305138509 0 -0.024185626092520181 -0.4747284022158107 0 -0.019957652241953259 -0.48919036952629019 0 -0.024185626092520181 -0.4747284022158107 0 -0.019957652241953259 -0.48919036952629019 0 -0.040626966977904508 -0.4864027114052778 0 -0.0077442852071358884 -0.46305409302634359 0 -0.024185626092520181 -0.4747284022158107 0 -0.0045963692354046293 -0.5 0 -0.030454135004874209 -0.5 0 -0.019957652241953259 -0.48919036952629019 0 -0.030454135004874209 -0.5 0 -0.019957652241953259 -0.48919036952629019 0 -0.040626966977904508 -0.4864027114052778 0 -0.030454135004874209 -0.5 0 -0.040626966977904508 -0.4864027114052778 0 -0.056311900774343782 -0.49999999999999989 0 -0.024185626092520181 -0.4747284022158107 0 -0.040626966977904508 -0.4864027114052778 0 -0.038633788096154108 -0.46990178336812061 0 -0.024185626092520181 -0.4747284022158107 0 -0.040626966977904508 -0.4864027114052778 0 -0.040626966977904508 -0.4864027114052778 0 -0.038633788096154108 -0.46990178336812061 0 -0.049585122093446878 -0.47578731975913108 0 -0.038633788096154108 -0.46990178336812061 0 -0.049585122093446878 -0.47578731975913108 0 -0.048438245188373849 -0.46611907490211713 0 -0.059477882460102667 -0.47648382722157212 0 -0.05316920315142841 -0.48575172098827563 0 -0.071510515513048836 -0.48296297385902559 0 -0.049585122093446878 -0.47578731975913108 0 -0.055996654382018209 -0.46914239116635842 0 -0.048438245188373849 -0.46611907490211713 0 -0.055996654382018209 -0.46914239116635842 0 -0.059477882460102667 -0.47648382722157212 0 -0.066365428830543111 -0.46909558846446148 0 -0.049585122093446878 -0.47578731975913108 0 -0.055996654382018209 -0.46914239116635842 0 -0.059477882460102667 -0.47648382722157212 0 -0.040626966977904508 -0.4864027114052778 0 -0.049585122093446878 -0.47578731975913108 0 -0.05316920315142841 -0.48575172098827563 0 -0.049585122093446878 -0.47578731975913108 0 -0.059477882460102667 -0.47648382722157212 0 -0.05316920315142841 -0.48575172098827563 0 -0.056311900774343782 -0.49999999999999989 0 -0.05316920315142841 -0.48575172098827563 0 -0.071510515513048836 -0.48296297385902559 0 -0.040626966977904508 -0.4864027114052778 0 -0.056311900774343782 -0.49999999999999989 0 -0.05316920315142841 -0.48575172098827563 0 -0.034222068142809231 -0.44617425872539812 0 -0.041216154498740491 -0.456224642425201 0 -0.05287886342474598 -0.44619104927310332 0 -0.042185885013804943 -0.43590378386609419 0 -0.022972687864810909 -0.43811561493510781 0 -0.034222068142809231 -0.44617425872539812 0 -0.042185885013804943 -0.43590378386609419 0 -0.034222068142809231 -0.44617425872539812 0 -0.05287886342474598 -0.44619104927310332 0 -0.030521947544170449 -0.46093594978658831 0 -0.034222068142809231 -0.44617425872539812 0 -0.041216154498740491 -0.456224642425201 0 -0.030521947544170449 -0.46093594978658831 0 -0.038633788096154108 -0.46990178336812061 0 -0.041216154498740491 -0.456224642425201 0 -0.038633788096154108 -0.46990178336812061 0 -0.041216154498740491 -0.456224642425201 0 -0.048438245188373849 -0.46611907490211713 0 -0.041216154498740491 -0.456224642425201 0 -0.048438245188373849 -0.46611907490211713 0 -0.056759506871509553 -0.45953923779177452 0 -0.041216154498740491 -0.456224642425201 0 -0.056759506871509553 -0.45953923779177452 0 -0.041216154498740491 -0.456224642425201 0 -0.056759506871509553 -0.45953923779177452 0 -0.05287886342474598 -0.44619104927310332 0 -0.055996654382018209 -0.46914239116635842 0 -0.048438245188373849 -0.46611907490211713 0 -0.056759506871509553 -0.45953923779177452 0 -0.055996654382018209 -0.46914239116635842 0 -0.056759506871509553 -0.45953923779177452 0 -0.066365428830543111 -0.46909558846446148 0 -0.05287886342474598 -0.44619104927310332 0 -0.067533421093166235 -0.44243577140471718 0 -0.065802555759514617 -0.45340334207501243 0 -0.05287886342474598 -0.44619104927310332 0 -0.067533421093166235 -0.44243577140471718 0 -0.062579091732656814 -0.42976856887312193 0 -0.056759506871509553 -0.45953923779177452 0 -0.05287886342474598 -0.44619104927310332 0 -0.065802555759514617 -0.45340334207501243 0 -0.074036101609853619 -0.44780609413073991 0 -0.072302859244278664 -0.46285383315834783 0 -0.087954830623155594 -0.44639961498692288 0 -0.067533421093166235 -0.44243577140471718 0 -0.074036101609853619 -0.44780609413073991 0 -0.076426444275716876 -0.43628454830980279 0 -0.067533421093166235 -0.44243577140471718 0 -0.074036101609853619 -0.44780609413073991 0 -0.065802555759514617 -0.45340334207501243 0 -0.056759506871509553 -0.45953923779177452 0 -0.065802555759514617 -0.45340334207501243 0 -0.072302859244278664 -0.46285383315834783 0 -0.056759506871509553 -0.45953923779177452 0 -0.072302859244278664 -0.46285383315834783 0 -0.056759506871509553 -0.45953923779177452 0 -0.072302859244278664 -0.46285383315834783 0 -0.066365428830543111 -0.46909558846446148 0 -0.072302859244278664 -0.46285383315834783 0 -0.066365428830543111 -0.46909558846446148 0 -0.074036101609853619 -0.44780609413073991 0 -0.065802555759514617 -0.45340334207501243 0 -0.072302859244278664 -0.46285383315834783 0 -0.072302859244278664 -0.46285383315834783 0 -0.086709130251753863 -0.46592594771805118 0 -0.087954830623155594 -0.44639961498692288 0 -0.072302859244278664 -0.46285383315834783 0 -0.087954830623155594 -0.44639961498692288 0 -0.086709130251753863 -0.46592594771805118 0 -0.087954830623155594 -0.44639961498692288 0 -0.100972869729057 -0.44993687854821418 0 -0.072302859244278664 -0.46285383315834783 0 -0.086709130251753863 -0.46592594771805118 0 -0.074036101609853619 -0.44780609413073991 0 -0.087954830623155594 -0.44639961498692288 0 -0.076426444275716876 -0.43628454830980279 0 -0.056311900774343782 -0.49999999999999989 0 -0.071510515513048836 -0.48296297385902559 0 -0.084508801964982838 -0.5 0 -0.056311900774343782 -0.49999999999999989 0 -0.071510515513048836 -0.48296297385902559 0 -0.072302859244278664 -0.46285383315834783 0 -0.071510515513048836 -0.48296297385902559 0 -0.066365428830543111 -0.46909558846446148 0 -0.072302859244278664 -0.46285383315834783 0 -0.086709130251753863 -0.46592594771805118 0 -0.071510515513048836 -0.48296297385902559 0 -0.059477882460102667 -0.47648382722157212 0 -0.071510515513048836 -0.48296297385902559 0 -0.066365428830543111 -0.46909558846446148 0 -0.086709130251753863 -0.46592594771805118 0 -0.071510515513048836 -0.48296297385902559 0 -0.092905807325545944 -0.48391771926589522 0 -0.086709130251753863 -0.46592594771805118 0 -0.071510515513048836 -0.48296297385902559 0 -0.071510515513048836 -0.48296297385902559 0 -0.092905807325545944 -0.48391771926589522 0 -0.084508801964982838 -0.5 0 -0.092905807325545944 -0.48391771926589522 0 -0.084508801964982838 -0.5 0 -0.11270570315562201 -0.5 0 -0.092905807325545944 -0.48391771926589522 0 -0.10909488574232221 -0.47069967475239921 0 -0.11270570315562201 -0.5 0 -0.086709130251753863 -0.46592594771805118 0 -0.092905807325545944 -0.48391771926589522 0 -0.10909488574232221 -0.47069967475239921 0 -0.13148064123289049 -0.47547340178674719 0 -0.10909488574232221 -0.47069967475239921 0 -0.11270570315562201 -0.5 0 -0.13148064123289049 -0.47547340178674719 0 -0.10909488574232221 -0.47069967475239921 0 -0.13148064123289049 -0.47547340178674719 0 -0.10909488574232221 -0.47069967475239921 0 -0.1236995917965865 -0.46286873524114658 0 -0.100972869729057 -0.44993687854821418 0 -0.1152366092063601 -0.43394780937837718 0 -0.087954830623155594 -0.44639961498692288 0 -0.1036068020020329 -0.42994539681549832 0 -0.100972869729057 -0.44993687854821418 0 -0.1152366092063601 -0.43394780937837718 0 -0.1036068020020329 -0.42994539681549832 0 -0.087954830623155594 -0.44639961498692288 0 -0.100972869729057 -0.44993687854821418 0 -0.1036068020020329 -0.42994539681549832 0 -0.10909488574232221 -0.47069967475239921 0 -0.100972869729057 -0.44993687854821418 0 -0.1168434023055443 -0.44973804543752621 0 -0.086709130251753863 -0.46592594771805118 0 -0.100972869729057 -0.44993687854821418 0 -0.086709130251753863 -0.46592594771805118 0 -0.10909488574232221 -0.47069967475239921 0 -0.086709130251753863 -0.46592594771805118 0 -0.10909488574232221 -0.47069967475239921 0 -0.100972869729057 -0.44993687854821418 0 -0.13265898397729189 -0.45107247986885618 0 -0.1236995917965865 -0.46286873524114658 0 -0.1168434023055443 -0.44973804543752621 0 -0.10909488574232221 -0.47069967475239921 0 -0.1236995917965865 -0.46286873524114658 0 -0.1168434023055443 -0.44973804543752621 0 -0.100972869729057 -0.44993687854821418 0 -0.1168434023055443 -0.44973804543752621 0 -0.1152366092063601 -0.43394780937837718 0 -0.1298672063520207 -0.43713488879251772 0 -0.1168434023055443 -0.44973804543752621 0 -0.1152366092063601 -0.43394780937837718 0 -0.12835957316710381 -0.42528549604131649 0 -0.1152366092063601 -0.43394780937837718 0 -0.11925877338091009 -0.4134911786440737 0 -0.1152366092063601 -0.43394780937837718 0 -0.1036068020020329 -0.42994539681549832 0 -0.11925877338091009 -0.4134911786440737 0 -0.1298672063520207 -0.43713488879251772 0 -0.12835957316710381 -0.42528549604131649 0 -0.1152366092063601 -0.43394780937837718 0 -0.1036068020020329 -0.42994539681549832 0 -0.088215246496570476 -0.42981035021578312 0 -0.091715539709488453 -0.41646046434913508 0 -0.1036068020020329 -0.42994539681549832 0 -0.1038971598288588 -0.4112921694984728 0 -0.11925877338091009 -0.4134911786440737 0 -0.1036068020020329 -0.42994539681549832 0 -0.1038971598288588 -0.4112921694984728 0 -0.091715539709488453 -0.41646046434913508 0 -0.1038971598288588 -0.4112921694984728 0 -0.094442410792564213 -0.40189534044287289 0 -0.091715539709488453 -0.41646046434913508 0 -0.1038971598288588 -0.4112921694984728 0 -0.11925877338091009 -0.4134911786440737 0 -0.1104622732592984 -0.39466846724078342 0 -0.1036068020020329 -0.42994539681549832 0 -0.11925877338091009 -0.4134911786440737 0 -0.1349107447597872 -0.39703696047264919 0 -0.11925877338091009 -0.4134911786440737 0 -0.1104622732592984 -0.39466846724078342 0 -0.099373054983912912 -0.37490892933526132 0 -0.1104622732592984 -0.39466846724078342 0 -0.1220138554978997 -0.37607861538086401 0 -0.1349107447597872 -0.39703696047264919 0 -0.1104622732592984 -0.39466846724078342 0 -0.1220138554978997 -0.37607861538086401 0 -0.099373054983912912 -0.37490892933526132 0 -0.1104622732592984 -0.39466846724078342 0 -0.092419745075942833 -0.3886443677840305 0 -0.1104622732592984 -0.39466846724078342 0 -0.094442410792564213 -0.40189534044287289 0 -0.092419745075942833 -0.3886443677840305 0 -0.1038971598288588 -0.4112921694984728 0 -0.1104622732592984 -0.39466846724078342 0 -0.094442410792564213 -0.40189534044287289 0 -0.094442410792564213 -0.40189534044287289 0 -0.081386401708323522 -0.39311662985462231 0 -0.092419745075942833 -0.3886443677840305 0 -0.094442410792564213 -0.40189534044287289 0 -0.081386401708323522 -0.39311662985462231 0 -0.080489431710442941 -0.40733508410316738 0 -0.099373054983912912 -0.37490892933526132 0 -0.092419745075942833 -0.3886443677840305 0 -0.082684647052352137 -0.37771376376896448 0 -0.081386401708323522 -0.39311662985462231 0 -0.092419745075942833 -0.3886443677840305 0 -0.082684647052352137 -0.37771376376896448 0 -0.051949114061413858 -0.3886732876118858 0 -0.068899883543915005 -0.38302293058480719 0 -0.068955726610223658 -0.39670231924997251 0 -0.069739210363178053 -0.36759070987530801 0 -0.082684647052352137 -0.37771376376896448 0 -0.068899883543915005 -0.38302293058480719 0 -0.081386401708323522 -0.39311662985462231 0 -0.082684647052352137 -0.37771376376896448 0 -0.068899883543915005 -0.38302293058480719 0 -0.068955726610223658 -0.39670231924997251 0 -0.066534539216486957 -0.41216317164843969 0 -0.080489431710442941 -0.40733508410316738 0 -0.081386401708323522 -0.39311662985462231 0 -0.068955726610223658 -0.39670231924997251 0 -0.080489431710442941 -0.40733508410316738 0 -0.081386401708323522 -0.39311662985462231 0 -0.068899883543915005 -0.38302293058480719 0 -0.068955726610223658 -0.39670231924997251 0 -0.057018153371777403 -0.40215046145673911 0 -0.068955726610223658 -0.39670231924997251 0 -0.066534539216486957 -0.41216317164843969 0 -0.066534539216486957 -0.41216317164843969 0 -0.062579091732656814 -0.42976856887312193 0 -0.078239974098898532 -0.42148689024753178 0 -0.066534539216486957 -0.41216317164843969 0 -0.080489431710442941 -0.40733508410316738 0 -0.078239974098898532 -0.42148689024753178 0 -0.062579091732656814 -0.42976856887312193 0 -0.076426444275716876 -0.43628454830980279 0 -0.078239974098898532 -0.42148689024753178 0 -0.067533421093166235 -0.44243577140471718 0 -0.062579091732656814 -0.42976856887312193 0 -0.076426444275716876 -0.43628454830980279 0 -0.087954830623155594 -0.44639961498692288 0 -0.076426444275716876 -0.43628454830980279 0 -0.088215246496570476 -0.42981035021578312 0 -0.076426444275716876 -0.43628454830980279 0 -0.088215246496570476 -0.42981035021578312 0 -0.078239974098898532 -0.42148689024753178 0 -0.087954830623155594 -0.44639961498692288 0 -0.1036068020020329 -0.42994539681549832 0 -0.088215246496570476 -0.42981035021578312 0 -0.088215246496570476 -0.42981035021578312 0 -0.091715539709488453 -0.41646046434913508 0 -0.078239974098898532 -0.42148689024753178 0 -0.094442410792564213 -0.40189534044287289 0 -0.091715539709488453 -0.41646046434913508 0 -0.080489431710442941 -0.40733508410316738 0 -0.091715539709488453 -0.41646046434913508 0 -0.080489431710442941 -0.40733508410316738 0 -0.078239974098898532 -0.42148689024753178 0 -0.079377701422888552 -0.081873007498466766 0 -0.086270018718221222 -0.091758421320861552 0 -0.087421124021850413 -0.079330456139143676 0 -0.079377701422888552 -0.081873007498466766 0 -0.086270018718221222 -0.091758421320861552 0 -0.073349975055673269 -0.095516023894501312 0 -0.086270018718221222 -0.091758421320861552 0 -0.087421124021850413 -0.079330456139143676 0 -0.097755271113672784 -0.078788598322702283 0 -0.087421124021850413 -0.079330456139143676 0 -0.091227981749188142 -0.070787977230814911 0 -0.097755271113672784 -0.078788598322702283 0 -0.087421124021850413 -0.079330456139143676 0 -0.091227981749188142 -0.070787977230814911 0 -0.08127294704861561 -0.069754126376363898 0 -0.091227981749188142 -0.070787977230814911 0 -0.08127294704861561 -0.069754126376363898 0 -0.088126851978975809 -0.06122346537340654 0 -0.091227981749188142 -0.070787977230814911 0 -0.098713776908149808 -0.061860942475050452 0 -0.088126851978975809 -0.06122346537340654 0 -0.08127294704861561 -0.069754126376363898 0 -0.081276268772870364 -0.062069346681542709 0 -0.074443832621768707 -0.06128829603515959 0 -0.08127294704861561 -0.069754126376363898 0 -0.081276268772870364 -0.062069346681542709 0 -0.088126851978975809 -0.06122346537340654 0 -0.079377701422888552 -0.081873007498466766 0 -0.087421124021850413 -0.079330456139143676 0 -0.08127294704861561 -0.069754126376363898 0 -0.079377701422888552 -0.081873007498466766 0 -0.08127294704861561 -0.069754126376363898 0 -0.068574442270082248 -0.073006009761463403 0 -0.08127294704861561 -0.069754126376363898 0 -0.068574442270082248 -0.073006009761463403 0 -0.074443832621768707 -0.06128829603515959 0 -0.064846056302926086 -0.062813005469966154 0 -0.068574442270082248 -0.073006009761463403 0 -0.059094274490035459 -0.062423255459486383 0 -0.068574442270082248 -0.073006009761463403 0 -0.073349975055673269 -0.095516023894501312 0 -0.079377701422888552 -0.081873007498466766 0 -0.068574442270082248 -0.073006009761463403 0 -0.073349975055673269 -0.095516023894501312 0 -0.068574442270082248 -0.073006009761463403 0 -0.073349975055673269 -0.095516023894501312 0 -0.0569441987329833 -0.091660394637237602 0 -0.07452539348270662 -0.10822960678669211 0 -0.073349975055673269 -0.095516023894501312 0 -0.078125507841264291 -0.11802603802753921 0 -0.073349975055673269 -0.095516023894501312 0 -0.078125507841264291 -0.11802603802753921 0 -0.064903422561823534 -0.1040758897833549 0 -0.073349975055673269 -0.095516023894501312 0 -0.0569441987329833 -0.091660394637237602 0 -0.064903422561823534 -0.1040758897833549 0 -0.07452539348270662 -0.10822960678669211 0 -0.073349975055673269 -0.095516023894501312 0 -0.064903422561823534 -0.1040758897833549 0 -0.07452539348270662 -0.10822960678669211 0 -0.054794122975932641 -0.1208975338149888 0 -0.07452539348270662 -0.10822960678669211 0 -0.068129236300158907 -0.1211845017952274 0 -0.054794122975932641 -0.1208975338149888 0 -0.07452539348270662 -0.10822960678669211 0 -0.054794122975932641 -0.1208975338149888 0 -0.07452539348270662 -0.10822960678669211 0 -0.068129236300158907 -0.1211845017952274 0 -0.078125507841264291 -0.11802603802753921 0 -0.068129236300158907 -0.1211845017952274 0 -0.078125507841264291 -0.11802603802753921 0 -0.072371832980449705 -0.13100826389537859 0 -0.078125507841264291 -0.11802603802753921 0 -0.093704077788682658 -0.1132063469420521 0 -0.084950044276480258 -0.10436660731773929 0 -0.078125507841264291 -0.11802603802753921 0 -0.093704077788682658 -0.1132063469420521 0 -0.093649347106788516 -0.1264942078087995 0 -0.073349975055673269 -0.095516023894501312 0 -0.078125507841264291 -0.11802603802753921 0 -0.084950044276480258 -0.10436660731773929 0 -0.086270018718221222 -0.091758421320861552 0 -0.073349975055673269 -0.095516023894501312 0 -0.084950044276480258 -0.10436660731773929 0 -0.093704077788682658 -0.1132063469420521 0 -0.084950044276480258 -0.10436660731773929 0 -0.097521713172836227 -0.10010985199488689 0 -0.086270018718221222 -0.091758421320861552 0 -0.084950044276480258 -0.10436660731773929 0 -0.097521713172836227 -0.10010985199488689 0 -0.097521713172836227 -0.10010985199488689 0 -0.114273776546044 -0.1170350295612957 0 -0.1124686865905026 -0.088235856219818193 0 -0.093704077788682658 -0.1132063469420521 0 -0.114273776546044 -0.1170350295612957 0 -0.093649347106788516 -0.1264942078087995 0 -0.093704077788682658 -0.1132063469420521 0 -0.097521713172836227 -0.10010985199488689 0 -0.114273776546044 -0.1170350295612957 0 -0.114273776546044 -0.1170350295612957 0 -0.1293309172992361 -0.13423660300012069 0 -0.1266899655208536 -0.109489682707931 0 -0.1186767810779077 -0.08446318279313568 0 -0.1266899655208536 -0.109489682707931 0 -0.114273776546044 -0.1170350295612957 0 -0.1124686865905026 -0.088235856219818193 0 -0.1266899655208536 -0.109489682707931 0 -0.114273776546044 -0.1170350295612957 0 -0.1124686865905026 -0.088235856219818193 0 -0.1124686865905026 -0.088235856219818193 0 -0.1186767810779077 -0.08446318279313568 0 -0.1266899655208536 -0.109489682707931 0 -0.086270018718221222 -0.091758421320861552 0 -0.097521713172836227 -0.10010985199488689 0 -0.097755271113672784 -0.078788598322702283 0 -0.097521713172836227 -0.10010985199488689 0 -0.1124686865905026 -0.088235856219818193 0 -0.097755271113672784 -0.078788598322702283 0 -0.091227981749188142 -0.070787977230814911 0 -0.097755271113672784 -0.078788598322702283 0 -0.098713776908149808 -0.061860942475050452 0 -0.097755271113672784 -0.078788598322702283 0 -0.1106635966349615 -0.059436682878340419 0 -0.098713776908149808 -0.061860942475050452 0 -0.1124686865905026 -0.088235856219818193 0 -0.097755271113672784 -0.078788598322702283 0 -0.1106635966349615 -0.059436682878340419 0 -0.1124686865905026 -0.088235856219818193 0 -0.1106635966349615 -0.059436682878340419 0 -0.1186767810779077 -0.08446318279313568 0 -0.1182307077072345 -0.062672475954693482 0 -0.1106635966349615 -0.059436682878340419 0 -0.1186767810779077 -0.08446318279313568 0 -0.1182307077072345 -0.062672475954693482 0 -0.1337849317432184 -0.06265033997400779 0 -0.1186767810779077 -0.08446318279313568 0 -0.1106635966349615 -0.059436682878340419 0 -0.1124686865905026 -0.088235856219818193 0 -0.1186767810779077 -0.08446318279313568 0 -0.1106635966349615 -0.059436682878340419 0 -0.1182307077072345 -0.062672475954693482 0 -0.1175382146115669 -0.050144895004305613 0 -0.1337849317432184 -0.06265033997400779 0 -0.1175382146115669 -0.050144895004305613 0 -0.12206180444256889 -0.038246759982370253 0 -0.1337849317432184 -0.06265033997400779 0 -0.1182307077072345 -0.062672475954693482 0 -0.11049001446851819 -0.056667279123677812 0 -0.1175382146115669 -0.050144895004305613 0 -0.11049001446851819 -0.056667279123677812 0 -0.1106635966349615 -0.059436682878340419 0 -0.1182307077072345 -0.062672475954693482 0 -0.11049001446851819 -0.056667279123677812 0 -0.1106635966349615 -0.059436682878340419 0 -0.11049001446851819 -0.056667279123677812 0 -0.1175382146115669 -0.050144895004305613 0 -0.1090935285383962 -0.04992115128254801 0 -0.1175382146115669 -0.050144895004305613 0 -0.12206180444256889 -0.038246759982370253 0 -0.10848936891874029 -0.0396051361995459 0 -0.1175382146115669 -0.050144895004305613 0 -0.10848936891874029 -0.0396051361995459 0 -0.1090935285383962 -0.04992115128254801 0 -0.10848936891874029 -0.0396051361995459 0 -0.097082745662416037 -0.04091750659698002 0 -0.102370282433142 -0.049546416404944241 0 -0.10848936891874029 -0.0396051361995459 0 -0.1090935285383962 -0.04992115128254801 0 -0.102370282433142 -0.049546416404944241 0 -0.10848936891874029 -0.0396051361995459 0 -0.097082745662416037 -0.04091750659698002 0 -0.095723249785003267 -0.026282174022535111 0 -0.097082745662416037 -0.04091750659698002 0 -0.095881380864381111 -0.049492112211839363 0 -0.091286034294632432 -0.044826266512408897 0 -0.097082745662416037 -0.04091750659698002 0 -0.095881380864381111 -0.049492112211839363 0 -0.102370282433142 -0.049546416404944241 0 -0.095881380864381111 -0.049492112211839363 0 -0.098575608433427026 -0.054635421407923879 0 -0.102370282433142 -0.049546416404944241 0 -0.095881380864381111 -0.049492112211839363 0 -0.098575608433427026 -0.054635421407923879 0 -0.093160429961612792 -0.056077695927985421 0 -0.098575608433427026 -0.054635421407923879 0 -0.098713776908149808 -0.061860942475050452 0 -0.093160429961612792 -0.056077695927985421 0 -0.098575608433427026 -0.054635421407923879 0 -0.098713776908149808 -0.061860942475050452 0 -0.1043259197730356 -0.056044363089258038 0 -0.1106635966349615 -0.059436682878340419 0 -0.098713776908149808 -0.061860942475050452 0 -0.1043259197730356 -0.056044363089258038 0 -0.11049001446851819 -0.056667279123677812 0 -0.1106635966349615 -0.059436682878340419 0 -0.1043259197730356 -0.056044363089258038 0 -0.11049001446851819 -0.056667279123677812 0 -0.1043259197730356 -0.056044363089258038 0 -0.1072120439203019 -0.053771551197485369 0 -0.1072120439203019 -0.053771551197485369 0 -0.1090935285383962 -0.04992115128254801 0 -0.102370282433142 -0.049546416404944241 0 -0.11049001446851819 -0.056667279123677812 0 -0.1072120439203019 -0.053771551197485369 0 -0.1090935285383962 -0.04992115128254801 0 -0.098575608433427026 -0.054635421407923879 0 -0.1043259197730356 -0.056044363089258038 0 -0.102370282433142 -0.049546416404944241 0 -0.1043259197730356 -0.056044363089258038 0 -0.1072120439203019 -0.053771551197485369 0 -0.102370282433142 -0.049546416404944241 0 -0.11033867714191931 -0.01384317999073272 0 -0.13462794717459339 0.0001373875200551381 0 -0.11854375220917759 0.012447116600704021 0 -0.11033867714191931 -0.01384317999073272 0 -0.1286437647168831 -0.021076231063149861 0 -0.13462794717459339 0.0001373875200551381 0 -0.12206180444256889 -0.038246759982370253 0 -0.10848936891874029 -0.0396051361995459 0 -0.11033867714191931 -0.01384317999073272 0 -0.12206180444256889 -0.038246759982370253 0 -0.11033867714191931 -0.01384317999073272 0 -0.1286437647168831 -0.021076231063149861 0 -0.12206180444256889 -0.038246759982370253 0 -0.11033867714191931 -0.01384317999073272 0 -0.10848936891874029 -0.0396051361995459 0 -0.11033867714191931 -0.01384317999073272 0 -0.095723249785003267 -0.026282174022535111 0 -0.11033867714191931 -0.01384317999073272 0 -0.095723249785003267 -0.026282174022535111 0 -0.086027716256106931 -0.01022087334676958 0 -0.11033867714191931 -0.01384317999073272 0 -0.098615549841269828 0.010560400000904821 0 -0.11033867714191931 -0.01384317999073272 0 -0.086027716256106931 -0.01022087334676958 0 -0.098615549841269828 0.010560400000904821 0 -0.095723249785003267 -0.026282174022535111 0 -0.086027716256106931 -0.01022087334676958 0 -0.081562455577526533 -0.024259700156362019 0 -0.095723249785003267 -0.026282174022535111 0 -0.081562455577526533 -0.024259700156362019 0 -0.088418830283655006 -0.036206759914979438 0 -0.062690371888160137 -0.013522838913300641 0 -0.074952109674707251 -0.035065854584225301 0 -0.060922623762686451 -0.037561014222313692 0 -0.086027716256106931 -0.01022087334676958 0 -0.081562455577526533 -0.024259700156362019 0 -0.062690371888160137 -0.013522838913300641 0 -0.081562455577526533 -0.024259700156362019 0 -0.062690371888160137 -0.013522838913300641 0 -0.074952109674707251 -0.035065854584225301 0 -0.062690371888160137 -0.013522838913300641 0 -0.064458120013633824 0.0105153363957124 0 -0.086027716256106931 -0.01022087334676958 0 -0.062690371888160137 -0.013522838913300641 0 -0.064458120013633824 0.0105153363957124 0 -0.078568812403378402 -0.048848878851328589 0 -0.087713437146587039 -0.051247687031410291 0 -0.084187844760592032 -0.043239089378870513 0 -0.078568812403378402 -0.048848878851328589 0 -0.08126144344212137 -0.056011498941240821 0 -0.087713437146587039 -0.051247687031410291 0 -0.08126144344212137 -0.056011498941240821 0 -0.088126851978975809 -0.06122346537340654 0 -0.087713437146587039 -0.051247687031410291 0 -0.08126144344212137 -0.056011498941240821 0 -0.081276268772870364 -0.062069346681542709 0 -0.074443832621768707 -0.06128829603515959 0 -0.08126144344212137 -0.056011498941240821 0 -0.081276268772870364 -0.062069346681542709 0 -0.088126851978975809 -0.06122346537340654 0 -0.098713776908149808 -0.061860942475050452 0 -0.088126851978975809 -0.06122346537340654 0 -0.093160429961612792 -0.056077695927985421 0 -0.088126851978975809 -0.06122346537340654 0 -0.093160429961612792 -0.056077695927985421 0 -0.087713437146587039 -0.051247687031410291 0 -0.095881380864381111 -0.049492112211839363 0 -0.093160429961612792 -0.056077695927985421 0 -0.087713437146587039 -0.051247687031410291 0 -0.095881380864381111 -0.049492112211839363 0 -0.087713437146587039 -0.051247687031410291 0 -0.091286034294632432 -0.044826266512408897 0 -0.097082745662416037 -0.04091750659698002 0 -0.091286034294632432 -0.044826266512408897 0 -0.088418830283655006 -0.036206759914979438 0 -0.091286034294632432 -0.044826266512408897 0 -0.088418830283655006 -0.036206759914979438 0 -0.084187844760592032 -0.043239089378870513 0 -0.087713437146587039 -0.051247687031410291 0 -0.091286034294632432 -0.044826266512408897 0 -0.084187844760592032 -0.043239089378870513 0 -0.097082745662416037 -0.04091750659698002 0 -0.095723249785003267 -0.026282174022535111 0 -0.088418830283655006 -0.036206759914979438 0 -0.081562455577526533 -0.024259700156362019 0 -0.088418830283655006 -0.036206759914979438 0 -0.074952109674707251 -0.035065854584225301 0 -0.088418830283655006 -0.036206759914979438 0 -0.084187844760592032 -0.043239089378870513 0 -0.074952109674707251 -0.035065854584225301 0 -0.078568812403378402 -0.048848878851328589 0 -0.084187844760592032 -0.043239089378870513 0 -0.074952109674707251 -0.035065854584225301 0 -0.078568812403378402 -0.048848878851328589 0 -0.070506496352588058 -0.043598423913076202 0 -0.074952109674707251 -0.035065854584225301 0 -0.070506496352588058 -0.043598423913076202 0 -0.074952109674707251 -0.035065854584225301 0 -0.060922623762686451 -0.037561014222313692 0 -0.070506496352588058 -0.043598423913076202 0 -0.063798909484491184 -0.050495995628425369 0 -0.060922623762686451 -0.037561014222313692 0 -0.070506496352588058 -0.043598423913076202 0 -0.063798909484491184 -0.050495995628425369 0 -0.07371589886086953 -0.052048618673846123 0 -0.068574442270082248 -0.073006009761463403 0 -0.063798909484491184 -0.050495995628425369 0 -0.064846056302926086 -0.062813005469966154 0 -0.068574442270082248 -0.073006009761463403 0 -0.063798909484491184 -0.050495995628425369 0 -0.068574442270082248 -0.073006009761463403 0 -0.063798909484491184 -0.050495995628425369 0 -0.074443832621768707 -0.06128829603515959 0 -0.078568812403378402 -0.048848878851328589 0 -0.070506496352588058 -0.043598423913076202 0 -0.07371589886086953 -0.052048618673846123 0 -0.063798909484491184 -0.050495995628425369 0 -0.07371589886086953 -0.052048618673846123 0 -0.074443832621768707 -0.06128829603515959 0 -0.078568812403378402 -0.048848878851328589 0 -0.08126144344212137 -0.056011498941240821 0 -0.07371589886086953 -0.052048618673846123 0 -0.08126144344212137 -0.056011498941240821 0 -0.07371589886086953 -0.052048618673846123 0 -0.074443832621768707 -0.06128829603515959 0 -0.064846056302926086 -0.062813005469966154 0 -0.063798909484491184 -0.050495995628425369 0 -0.059094274490035459 -0.062423255459486383 0 -0.063798909484491184 -0.050495995628425369 0 -0.059094274490035459 -0.062423255459486383 0 -0.060922623762686451 -0.037561014222313692 0 -0.059094274490035459 -0.062423255459486383 0 -0.060922623762686451 -0.037561014222313692 0 -0.04211122673240722 -0.043189259681813252 0 -0.059094274490035459 -0.062423255459486383 0 -0.060922623762686451 -0.037561014222313692 0 -0.060922623762686451 -0.037561014222313692 0 -0.04211122673240722 -0.043189259681813252 0 -0.037601467631754787 -0.025418611129510282 0 -0.04211122673240722 -0.043189259681813252 0 -0.037601467631754787 -0.025418611129510282 0 -0.025856808230252531 -0.043638772081389943 0 -0.059094274490035459 -0.062423255459486383 0 -0.04211122673240722 -0.043189259681813252 0 -0.031799868896170848 -0.060573742523789449 0 -0.059094274490035459 -0.062423255459486383 0 -0.031799868896170848 -0.060573742523789449 0 -0.04211122673240722 -0.043189259681813252 0 -0.031799868896170848 -0.060573742523789449 0 -0.025856808230252531 -0.043638772081389943 0 -0.062690371888160137 -0.013522838913300641 0 -0.037601467631754787 -0.025418611129510282 0 -0.044855184916723648 -0.0020500068189094819 0 -0.062690371888160137 -0.013522838913300641 0 -0.044855184916723648 -0.0020500068189094819 0 -0.064458120013633824 0.0105153363957124 0 -0.062690371888160137 -0.013522838913300641 0 -0.060922623762686451 -0.037561014222313692 0 -0.062690371888160137 -0.013522838913300641 0 -0.060922623762686451 -0.037561014222313692 0 -0.037601467631754787 -0.025418611129510282 0 -0.037601467631754787 -0.025418611129510282 0 -0.044855184916723648 -0.0020500068189094819 0 -0.02145552275097698 -0.0043143944003012219 0 -0.037601467631754787 -0.025418611129510282 0 -0.02145552275097698 -0.0043143944003012219 0 -0.013044298273739881 -0.031314496607603708 0 -0.02145552275097698 -0.0043143944003012219 0 -0.013044298273739881 -0.031314496607603708 0 -0.02145552275097698 -0.0043143944003012219 0 -0.0031752882931124259 -0.01515272796499229 0 -0.013044298273739881 -0.031314496607603708 0 -0.0031752882931124259 -0.01515272796499229 0 -0.013044298273739881 -0.031314496607603708 0 0.001586025533247544 -0.03758510872839553 0 -0.02145552275097698 -0.0043143944003012219 0 -0.0031752882931124259 -0.01515272796499229 0 -0.0079842835926580199 0.01140056467584467 0 -0.031799868896170848 -0.060573742523789449 0 -0.025856808230252531 -0.043638772081389943 0 -0.0045054633023061596 -0.058724229588092328 0 -0.031799868896170848 -0.060573742523789449 0 -0.0045054633023061596 -0.058724229588092328 0 -0.037601467631754787 -0.025418611129510282 0 -0.025856808230252531 -0.043638772081389943 0 -0.013044298273739881 -0.031314496607603708 0 -0.013044298273739881 -0.031314496607603708 0 -0.0045054633023061596 -0.058724229588092328 0 -0.013044298273739881 -0.031314496607603708 0 -0.0045054633023061596 -0.058724229588092328 0 0.001586025533247544 -0.03758510872839553 0 -0.025856808230252531 -0.043638772081389943 0 -0.013044298273739881 -0.031314496607603708 0 -0.0045054633023061596 -0.058724229588092328 0 -0.031799868896170848 -0.060573742523789449 0 -0.01026535175829126 -0.061655729353657963 0 -0.0045054633023061596 -0.058724229588092328 0 -0.01026535175829126 -0.061655729353657963 0 -0.0045054633023061596 -0.058724229588092328 0 -0.0035231408946746041 -0.061877492882667577 0 -0.01026535175829126 -0.061655729353657963 0 -0.0035231408946746041 -0.061877492882667577 0 -0.0045054633023061596 -0.058724229588092328 0 -0.0035231408946746041 -0.061877492882667577 0 -0.0035231408946746041 -0.061877492882667577 0 -0.01000090502107929 -0.076135466778098806 0 0.0044767963405016884 -0.087557359540175544 0 -0.01026535175829126 -0.061655729353657963 0 -0.0035231408946746041 -0.061877492882667577 0 -0.01000090502107929 -0.076135466778098806 0 -0.01026535175829126 -0.061655729353657963 0 -0.01000090502107929 -0.076135466778098806 0 -0.023201322148495209 -0.071921854119629494 0 -0.01000090502107929 -0.076135466778098806 0 -0.01703391523149736 -0.091641803463133067 0 0.0044767963405016884 -0.087557359540175544 0 -0.01703391523149736 -0.091641803463133067 0 -0.022134806560332679 -0.083051475847025477 0 -0.033359726824603343 -0.089828822202919004 0 -0.01000090502107929 -0.076135466778098806 0 -0.01703391523149736 -0.091641803463133067 0 -0.022134806560332679 -0.083051475847025477 0 -0.022134806560332679 -0.083051475847025477 0 -0.023201322148495209 -0.071921854119629494 0 -0.03905536170945377 -0.077189093277718959 0 -0.031799868896170848 -0.060573742523789449 0 -0.01026535175829126 -0.061655729353657963 0 -0.023201322148495209 -0.071921854119629494 0 -0.01000090502107929 -0.076135466778098806 0 -0.022134806560332679 -0.083051475847025477 0 -0.023201322148495209 -0.071921854119629494 0 -0.031799868896170848 -0.060573742523789449 0 -0.023201322148495209 -0.071921854119629494 0 -0.03905536170945377 -0.077189093277718959 0 -0.059094274490035459 -0.062423255459486383 0 -0.031799868896170848 -0.060573742523789449 0 -0.03905536170945377 -0.077189093277718959 0 -0.022134806560332679 -0.083051475847025477 0 -0.03905536170945377 -0.077189093277718959 0 -0.033359726824603343 -0.089828822202919004 0 -0.03905536170945377 -0.077189093277718959 0 -0.033359726824603343 -0.089828822202919004 0 -0.0569441987329833 -0.091660394637237602 0 -0.068574442270082248 -0.073006009761463403 0 -0.059094274490035459 -0.062423255459486383 0 -0.0569441987329833 -0.091660394637237602 0 -0.059094274490035459 -0.062423255459486383 0 -0.03905536170945377 -0.077189093277718959 0 -0.0569441987329833 -0.091660394637237602 0 -0.059094274490035459 -0.062423255459486383 0 -0.0569441987329833 -0.091660394637237602 0 -0.064846056302926086 -0.062813005469966154 0 -0.059094274490035459 -0.062423255459486383 0 -0.068129236300158907 -0.1211845017952274 0 -0.054794122975932641 -0.1208975338149888 0 -0.06082932422044296 -0.1277610664515384 0 -0.0569441987329833 -0.091660394637237602 0 -0.054794122975932641 -0.1208975338149888 0 -0.031630351888749603 -0.1056013437894799 0 -0.064903422561823534 -0.1040758897833549 0 -0.0569441987329833 -0.091660394637237602 0 -0.054794122975932641 -0.1208975338149888 0 -0.0569441987329833 -0.091660394637237602 0 -0.054794122975932641 -0.1208975338149888 0 -0.033359726824603343 -0.089828822202919004 0 -0.0569441987329833 -0.091660394637237602 0 -0.031630351888749603 -0.1056013437894799 0 -0.054794122975932641 -0.1208975338149888 0 -0.031630351888749603 -0.1056013437894799 0 -0.029833871247388559 -0.1206455252749206 0 -0.054794122975932641 -0.1208975338149888 0 -0.029833871247388559 -0.1206455252749206 0 -0.035896899067794141 -0.13302998384772491 0 -0.031630351888749603 -0.1056013437894799 0 -0.018205139852017448 -0.11812771514242119 0 -0.0083572851437748626 -0.1064103685077297 0 -0.031630351888749603 -0.1056013437894799 0 -0.029833871247388559 -0.1206455252749206 0 -0.018205139852017448 -0.11812771514242119 0 -0.029833871247388559 -0.1206455252749206 0 -0.018205139852017448 -0.11812771514242119 0 -0.019033696682656101 -0.1303371073292337 0 -0.01703391523149736 -0.091641803463133067 0 -0.033359726824603343 -0.089828822202919004 0 -0.031630351888749603 -0.1056013437894799 0 -0.01703391523149736 -0.091641803463133067 0 -0.031630351888749603 -0.1056013437894799 0 -0.0083572851437748626 -0.1064103685077297 0 -0.01703391523149736 -0.091641803463133067 0 -0.0083572851437748626 -0.1064103685077297 0 0.0044767963405016884 -0.087557359540175544 0 -0.018205139852017448 -0.11812771514242119 0 -0.0083572851437748626 -0.1064103685077297 0 -0.0021704942975181371 -0.1276442308107418 0 -0.018205139852017448 -0.11812771514242119 0 -0.0021704942975181371 -0.1276442308107418 0 -0.019033696682656101 -0.1303371073292337 0 -0.0021704942975181371 -0.1276442308107418 0 -0.0074560643586685047 -0.13969431437722971 0 -0.019033696682656101 -0.1303371073292337 0 -0.0021704942975181371 -0.1276442308107418 0 -0.019033696682656101 -0.1303371073292337 0 -0.0021704942975181371 -0.1276442308107418 0 -0.0074560643586685047 -0.13969431437722971 0 0.0048852549988201268 -0.14179469452142321 0 -0.0074560643586685047 -0.13969431437722971 0 -0.019033696682656101 -0.1303371073292337 0 -0.018952761626594001 -0.1439085076908245 0 -0.029833871247388559 -0.1206455252749206 0 -0.019033696682656101 -0.1303371073292337 0 -0.035896899067794141 -0.13302998384772491 0 -0.019033696682656101 -0.1303371073292337 0 -0.035896899067794141 -0.13302998384772491 0 -0.018952761626594001 -0.1439085076908245 0 -0.035896899067794141 -0.13302998384772491 0 -0.019033696682656101 -0.1303371073292337 0 -0.018952761626594001 -0.1439085076908245 0 -0.035896899067794141 -0.13302998384772491 0 -0.018952761626594001 -0.1439085076908245 0 -0.035896899067794141 -0.13302998384772491 0 -0.034318158934223353 -0.14922873427193761 0 -0.018952761626594001 -0.1439085076908245 0 -0.0234332735576427 -0.15484774694288239 0 -0.034318158934223353 -0.14922873427193761 0 -0.0074560643586685047 -0.13969431437722971 0 -0.018952761626594001 -0.1439085076908245 0 -0.0020086241853944091 -0.1547870315339249 0 -0.018952761626594001 -0.1439085076908245 0 -0.0234332735576427 -0.15484774694288239 0 -0.0020086241853944091 -0.1547870315339249 0 -0.018952761626594001 -0.1439085076908245 0 -0.0020086241853944091 -0.1547870315339249 0 -0.0074560643586685047 -0.13969431437722971 0 -0.0020086241853944091 -0.1547870315339249 0 0.0048852549988201268 -0.14179469452142321 0 -0.0234332735576427 -0.15484774694288239 0 -0.0020086241853944091 -0.1547870315339249 0 -0.01859949007343208 -0.16566159925180651 0 -0.0020086241853944091 -0.1547870315339249 0 -0.01859949007343208 -0.16566159925180651 0 0.002193658633994617 -0.1668768133420033 0 -0.015075242220331769 -0.18058547884145151 0 -0.01859949007343208 -0.16566159925180651 0 0.002193658633994617 -0.1668768133420033 0 -0.015075242220331769 -0.18058547884145151 0 -0.001786670059977728 -0.18929840057947059 0 0.002193658633994617 -0.1668768133420033 0 -0.015075242220331769 -0.18058547884145151 0 -0.03043411383349361 -0.1756190656738566 0 -0.01859949007343208 -0.16566159925180651 0 -0.015075242220331769 -0.18058547884145151 0 -0.03043411383349361 -0.1756190656738566 0 -0.027706798335800139 -0.1902262747305653 0 -0.03043411383349361 -0.1756190656738566 0 -0.01859949007343208 -0.16566159925180651 0 -0.039408104865193173 -0.1635266795586002 0 -0.0234332735576427 -0.15484774694288239 0 -0.01859949007343208 -0.16566159925180651 0 -0.039408104865193173 -0.1635266795586002 0 -0.03043411383349361 -0.1756190656738566 0 -0.039408104865193173 -0.1635266795586002 0 -0.045408184064018711 -0.18198260427523369 0 -0.03043411383349361 -0.1756190656738566 0 -0.045408184064018711 -0.18198260427523369 0 -0.027706798335800139 -0.1902262747305653 0 -0.039408104865193173 -0.1635266795586002 0 -0.045408184064018711 -0.18198260427523369 0 -0.054528171644611233 -0.17097077036390129 0 -0.045408184064018711 -0.18198260427523369 0 -0.054943427237068687 -0.19450670076856391 0 -0.062529010681322467 -0.1834537095572106 0 -0.045408184064018711 -0.18198260427523369 0 -0.054528171644611233 -0.17097077036390129 0 -0.062529010681322467 -0.1834537095572106 0 -0.039408104865193173 -0.1635266795586002 0 -0.054528171644611233 -0.17097077036390129 0 -0.052407826743223578 -0.1517031079761246 0 -0.054528171644611233 -0.17097077036390129 0 -0.052407826743223578 -0.1517031079761246 0 -0.065501400131689286 -0.16130001303407271 0 -0.052407826743223578 -0.1517031079761246 0 -0.05939896984732488 -0.1367830180041508 0 -0.070766817991037831 -0.15073009492666081 0 -0.054794122975932641 -0.1208975338149888 0 -0.053855518270444422 -0.13366085916163811 0 -0.035896899067794141 -0.13302998384772491 0 -0.052407826743223578 -0.1517031079761246 0 -0.05939896984732488 -0.1367830180041508 0 -0.035896899067794141 -0.13302998384772491 0 -0.05939896984732488 -0.1367830180041508 0 -0.053855518270444422 -0.13366085916163811 0 -0.035896899067794141 -0.13302998384772491 0 -0.05939896984732488 -0.1367830180041508 0 -0.035896899067794141 -0.13302998384772491 0 -0.054794122975932641 -0.1208975338149888 0 -0.06082932422044296 -0.1277610664515384 0 -0.053855518270444422 -0.13366085916163811 0 -0.05939896984732488 -0.1367830180041508 0 -0.06082932422044296 -0.1277610664515384 0 -0.053855518270444422 -0.13366085916163811 0 -0.054794122975932641 -0.1208975338149888 0 -0.053855518270444422 -0.13366085916163811 0 -0.054794122975932641 -0.1208975338149888 0 -0.035896899067794141 -0.13302998384772491 0 -0.052407826743223578 -0.1517031079761246 0 -0.035896899067794141 -0.13302998384772491 0 -0.034318158934223353 -0.14922873427193761 0 -0.0234332735576427 -0.15484774694288239 0 -0.039408104865193173 -0.1635266795586002 0 -0.034318158934223353 -0.14922873427193761 0 -0.039408104865193173 -0.1635266795586002 0 -0.052407826743223578 -0.1517031079761246 0 -0.034318158934223353 -0.14922873427193761 0 -0.038279177000462718 -0.25298892135794571 0 -0.016678487053853618 -0.2466189775660193 0 -0.027688681319516809 -0.23774482673904701 0 -0.016678487053853618 -0.2466189775660193 0 -0.027688681319516809 -0.23774482673904701 0 -0.0065015859075924099 -0.22736201200536699 0 -0.016678487053853618 -0.2466189775660193 0 -0.0065015859075924099 -0.22736201200536699 0 0.0012919838376714949 -0.2410105410862598 0 -0.004144784243036481 -0.25526440730861449 0 -0.016678487053853618 -0.2466189775660193 0 0.0012919838376714949 -0.2410105410862598 0 -0.016678487053853618 -0.2466189775660193 0 -0.0065015859075924099 -0.22736201200536699 0 -0.0065015859075924099 -0.22736201200536699 0 0.002394388801066951 -0.21052884480337411 0 -0.0065015859075924099 -0.22736201200536699 0 0.0012919838376714949 -0.2410105410862598 0 -0.0065015859075924099 -0.22736201200536699 0 -0.017847786861920369 -0.20749191925654009 0 -0.031610647832531938 -0.22308204734081491 0 -0.027688681319516809 -0.23774482673904701 0 -0.0065015859075924099 -0.22736201200536699 0 -0.031610647832531938 -0.22308204734081491 0 -0.017847786861920369 -0.20749191925654009 0 -0.043357962437899848 -0.2145564816812644 0 -0.031610647832531938 -0.22308204734081491 0 -0.017847786861920369 -0.20749191925654009 0 -0.031610647832531938 -0.22308204734081491 0 -0.0065015859075924099 -0.22736201200536699 0 -0.017847786861920369 -0.20749191925654009 0 -0.0065015859075924099 -0.22736201200536699 0 -0.017847786861920369 -0.20749191925654009 0 0.002394388801066951 -0.21052884480337411 0 -0.017847786861920369 -0.20749191925654009 0 0.0020364241398806481 -0.1995724166759115 0 0.002394388801066951 -0.21052884480337411 0 -0.015075242220331769 -0.18058547884145151 0 -0.017847786861920369 -0.20749191925654009 0 -0.001786670059977728 -0.18929840057947059 0 -0.017847786861920369 -0.20749191925654009 0 -0.001786670059977728 -0.18929840057947059 0 0.0020364241398806481 -0.1995724166759115 0 -0.017847786861920369 -0.20749191925654009 0 -0.001786670059977728 -0.18929840057947059 0 -0.015075242220331769 -0.18058547884145151 0 -0.017847786861920369 -0.20749191925654009 0 -0.027706798335800139 -0.1902262747305653 0 -0.017847786861920369 -0.20749191925654009 0 -0.027706798335800139 -0.1902262747305653 0 -0.017847786861920369 -0.20749191925654009 0 -0.027706798335800139 -0.1902262747305653 0 -0.041076068932084112 -0.19967751213005161 0 -0.045408184064018711 -0.18198260427523369 0 -0.027706798335800139 -0.1902262747305653 0 -0.041076068932084112 -0.19967751213005161 0 -0.045408184064018711 -0.18198260427523369 0 -0.041076068932084112 -0.19967751213005161 0 -0.054943427237068687 -0.19450670076856391 0 -0.041076068932084112 -0.19967751213005161 0 -0.054943427237068687 -0.19450670076856391 0 -0.057165256450390209 -0.21059691539411321 0 -0.054943427237068687 -0.19450670076856391 0 -0.06848461964671286 -0.19941440913815359 0 -0.062529010681322467 -0.1834537095572106 0 -0.054943427237068687 -0.19450670076856391 0 -0.057165256450390209 -0.21059691539411321 0 -0.06848461964671286 -0.19941440913815359 0 -0.041076068932084112 -0.19967751213005161 0 -0.057165256450390209 -0.21059691539411321 0 -0.043357962437899848 -0.2145564816812644 0 -0.057165256450390209 -0.21059691539411321 0 -0.057925321497147853 -0.22778202531693709 0 -0.06857843293455422 -0.21779910048823281 0 -0.057165256450390209 -0.21059691539411321 0 -0.043357962437899848 -0.2145564816812644 0 -0.057925321497147853 -0.22778202531693709 0 -0.017847786861920369 -0.20749191925654009 0 -0.041076068932084112 -0.19967751213005161 0 -0.043357962437899848 -0.2145564816812644 0 -0.027688681319516809 -0.23774482673904701 0 -0.031610647832531938 -0.22308204734081491 0 -0.045373508803144301 -0.23867217542508881 0 -0.043357962437899848 -0.2145564816812644 0 -0.031610647832531938 -0.22308204734081491 0 -0.045373508803144301 -0.23867217542508881 0 -0.031610647832531938 -0.22308204734081491 0 -0.045373508803144301 -0.23867217542508881 0 -0.043357962437899848 -0.2145564816812644 0 -0.057925321497147853 -0.22778202531693709 0 -0.045373508803144301 -0.23867217542508881 0 -0.038279177000462718 -0.25298892135794571 0 -0.059136369773753673 -0.25426230350936552 0 -0.045373508803144301 -0.23867217542508881 0 -0.059136369773753673 -0.25426230350936552 0 -0.057925321497147853 -0.22778202531693709 0 -0.045373508803144301 -0.23867217542508881 0 -0.059136369773753673 -0.25426230350936552 0 -0.045373508803144301 -0.23867217542508881 0 -0.038279177000462718 -0.25298892135794571 0 -0.027688681319516809 -0.23774482673904701 0 -0.045373508803144301 -0.23867217542508881 0 -0.075881532845746655 -0.2518003866666863 0 -0.092778135407556916 -0.25278341398886511 0 -0.072817778950757708 -0.23515481870044169 0 -0.092778135407556916 -0.25278341398886511 0 -0.072817778950757708 -0.23515481870044169 0 -0.095171427693100497 -0.23325607132777479 0 -0.059136369773753673 -0.25426230350936552 0 -0.057925321497147853 -0.22778202531693709 0 -0.072817778950757708 -0.23515481870044169 0 -0.075881532845746655 -0.2518003866666863 0 -0.059136369773753673 -0.25426230350936552 0 -0.072817778950757708 -0.23515481870044169 0 -0.059136369773753673 -0.25426230350936552 0 -0.072817778950757708 -0.23515481870044169 0 -0.057925321497147853 -0.22778202531693709 0 -0.072817778950757708 -0.23515481870044169 0 -0.06857843293455422 -0.21779910048823281 0 -0.072817778950757708 -0.23515481870044169 0 -0.0864991881277625 -0.21604733389151851 0 -0.06857843293455422 -0.21779910048823281 0 -0.072817778950757708 -0.23515481870044169 0 -0.0864991881277625 -0.21604733389151851 0 -0.072817778950757708 -0.23515481870044169 0 -0.0864991881277625 -0.21604733389151851 0 -0.095171427693100497 -0.23325607132777479 0 -0.0864991881277625 -0.21604733389151851 0 -0.1001805973047673 -0.19693984908259521 0 -0.0864991881277625 -0.21604733389151851 0 -0.06848461964671286 -0.19941440913815359 0 -0.083858918784761788 -0.1950744326751476 0 -0.057165256450390209 -0.21059691539411321 0 -0.06857843293455422 -0.21779910048823281 0 -0.06848461964671286 -0.19941440913815359 0 -0.0864991881277625 -0.21604733389151851 0 -0.06857843293455422 -0.21779910048823281 0 -0.06848461964671286 -0.19941440913815359 0 -0.06848461964671286 -0.19941440913815359 0 -0.083858918784761788 -0.1950744326751476 0 -0.076760647845170976 -0.1832065383521693 0 -0.06848461964671286 -0.19941440913815359 0 -0.062529010681322467 -0.1834537095572106 0 -0.076760647845170976 -0.1832065383521693 0 -0.083858918784761788 -0.1950744326751476 0 -0.1001805973047673 -0.19693984908259521 0 -0.091392336642178718 -0.1844959829513724 0 -0.0864991881277625 -0.21604733389151851 0 -0.083858918784761788 -0.1950744326751476 0 -0.1001805973047673 -0.19693984908259521 0 -0.083858918784761788 -0.1950744326751476 0 -0.076760647845170976 -0.1832065383521693 0 -0.091392336642178718 -0.1844959829513724 0 -0.1001805973047673 -0.19693984908259521 0 -0.091392336642178718 -0.1844959829513724 0 -0.1062478217144289 -0.1850868604237598 0 -0.1001805973047673 -0.19693984908259521 0 -0.1138835594831757 -0.1951941985818271 0 -0.10933935213197631 -0.20807961362898211 0 -0.1001805973047673 -0.19693984908259521 0 -0.1138835594831757 -0.1951941985818271 0 -0.1062478217144289 -0.1850868604237598 0 -0.1138835594831757 -0.1951941985818271 0 -0.10933935213197631 -0.20807961362898211 0 -0.12560983322401659 -0.20134442528610019 0 -0.1138835594831757 -0.1951941985818271 0 -0.1062478217144289 -0.1850868604237598 0 -0.11770444126217371 -0.18534871505223921 0 -0.1138835594831757 -0.1951941985818271 0 -0.11770444126217371 -0.18534871505223921 0 -0.12588715641700199 -0.18780851979182639 0 -0.1138835594831757 -0.1951941985818271 0 -0.12560983322401659 -0.20134442528610019 0 -0.12588715641700199 -0.18780851979182639 0 -0.12267406189310801 -0.21748308053295989 0 -0.10933935213197631 -0.20807961362898211 0 -0.12560983322401659 -0.20134442528610019 0 -0.12267406189310801 -0.21748308053295989 0 -0.10933935213197631 -0.20807961362898211 0 -0.1071888727590278 -0.22146879439889189 0 -0.0864991881277625 -0.21604733389151851 0 -0.1001805973047673 -0.19693984908259521 0 -0.10933935213197631 -0.20807961362898211 0 -0.0864991881277625 -0.21604733389151851 0 -0.10933935213197631 -0.20807961362898211 0 -0.1071888727590278 -0.22146879439889189 0 -0.095171427693100497 -0.23325607132777479 0 -0.1071888727590278 -0.22146879439889189 0 -0.1165731632203976 -0.24082599565915661 0 -0.0864991881277625 -0.21604733389151851 0 -0.095171427693100497 -0.23325607132777479 0 -0.1071888727590278 -0.22146879439889189 0 -0.12267406189310801 -0.21748308053295989 0 -0.1071888727590278 -0.22146879439889189 0 -0.1165731632203976 -0.24082599565915661 0 -0.092778135407556916 -0.25278341398886511 0 -0.095171427693100497 -0.23325607132777479 0 -0.1165731632203976 -0.24082599565915661 0 -0.082901040626855604 -0.14053605216057691 0 -0.099489953564220218 -0.14318512753167559 0 -0.085328586970733977 -0.1519785665275997 0 -0.082901040626855604 -0.14053605216057691 0 -0.099489953564220218 -0.14318512753167559 0 -0.085328586970733977 -0.1519785665275997 0 -0.082901040626855604 -0.14053605216057691 0 -0.085328586970733977 -0.1519785665275997 0 -0.082901040626855604 -0.14053605216057691 0 -0.070766817991037831 -0.15073009492666081 0 -0.078125507841264291 -0.11802603802753921 0 -0.093649347106788516 -0.1264942078087995 0 -0.082901040626855604 -0.14053605216057691 0 -0.078125507841264291 -0.11802603802753921 0 -0.082901040626855604 -0.14053605216057691 0 -0.093649347106788516 -0.1264942078087995 0 -0.082901040626855604 -0.14053605216057691 0 -0.099489953564220218 -0.14318512753167559 0 -0.05939896984732488 -0.1367830180041508 0 -0.082901040626855604 -0.14053605216057691 0 -0.072371832980449705 -0.13100826389537859 0 -0.05939896984732488 -0.1367830180041508 0 -0.082901040626855604 -0.14053605216057691 0 -0.078125507841264291 -0.11802603802753921 0 -0.082901040626855604 -0.14053605216057691 0 -0.072371832980449705 -0.13100826389537859 0 -0.05939896984732488 -0.1367830180041508 0 -0.06082932422044296 -0.1277610664515384 0 -0.072371832980449705 -0.13100826389537859 0 -0.068129236300158907 -0.1211845017952274 0 -0.06082932422044296 -0.1277610664515384 0 -0.072371832980449705 -0.13100826389537859 0 -0.05939896984732488 -0.1367830180041508 0 -0.082901040626855604 -0.14053605216057691 0 -0.070766817991037831 -0.15073009492666081 0 -0.052407826743223578 -0.1517031079761246 0 -0.070766817991037831 -0.15073009492666081 0 -0.065501400131689286 -0.16130001303407271 0 -0.085328586970733977 -0.1519785665275997 0 -0.070766817991037831 -0.15073009492666081 0 -0.077990558350262529 -0.16232575187809589 0 -0.054528171644611233 -0.17097077036390129 0 -0.065501400131689286 -0.16130001303407271 0 -0.07058756687384099 -0.17261584497073329 0 -0.077990558350262529 -0.16232575187809589 0 -0.07058756687384099 -0.17261584497073329 0 -0.084419145482083208 -0.17343850854882711 0 -0.065501400131689286 -0.16130001303407271 0 -0.077990558350262529 -0.16232575187809589 0 -0.07058756687384099 -0.17261584497073329 0 -0.070766817991037831 -0.15073009492666081 0 -0.065501400131689286 -0.16130001303407271 0 -0.077990558350262529 -0.16232575187809589 0 -0.054528171644611233 -0.17097077036390129 0 -0.062529010681322467 -0.1834537095572106 0 -0.07058756687384099 -0.17261584497073329 0 -0.062529010681322467 -0.1834537095572106 0 -0.07058756687384099 -0.17261584497073329 0 -0.076760647845170976 -0.1832065383521693 0 -0.07058756687384099 -0.17261584497073329 0 -0.076760647845170976 -0.1832065383521693 0 -0.084419145482083208 -0.17343850854882711 0 -0.076760647845170976 -0.1832065383521693 0 -0.084419145482083208 -0.17343850854882711 0 -0.091392336642178718 -0.1844959829513724 0 -0.084419145482083208 -0.17343850854882711 0 -0.091392336642178718 -0.1844959829513724 0 -0.097084191832475783 -0.17397718586375749 0 -0.085328586970733977 -0.1519785665275997 0 -0.077990558350262529 -0.16232575187809589 0 -0.090553375878375378 -0.16303066150674361 0 -0.077990558350262529 -0.16232575187809589 0 -0.084419145482083208 -0.17343850854882711 0 -0.090553375878375378 -0.16303066150674361 0 -0.084419145482083208 -0.17343850854882711 0 -0.090553375878375378 -0.16303066150674361 0 -0.097084191832475783 -0.17397718586375749 0 -0.085328586970733977 -0.1519785665275997 0 -0.090553375878375378 -0.16303066150674361 0 -0.097139504472258872 -0.15459274437535861 0 -0.090553375878375378 -0.16303066150674361 0 -0.1026749023362644 -0.16281168315163841 0 -0.097139504472258872 -0.15459274437535861 0 -0.090553375878375378 -0.16303066150674361 0 -0.1026749023362644 -0.16281168315163841 0 -0.097084191832475783 -0.17397718586375749 0 -0.1089645744755485 -0.17142897721468039 0 -0.1026749023362644 -0.16281168315163841 0 -0.097084191832475783 -0.17397718586375749 0 -0.1089645744755485 -0.17142897721468039 0 -0.1026749023362644 -0.16281168315163841 0 -0.1140167290604851 -0.16196387522270281 0 -0.1026749023362644 -0.16281168315163841 0 -0.1140167290604851 -0.16196387522270281 0 -0.1076507036117005 -0.15195768315913591 0 -0.1026749023362644 -0.16281168315163841 0 -0.1076507036117005 -0.15195768315913591 0 -0.097139504472258872 -0.15459274437535861 0 -0.091392336642178718 -0.1844959829513724 0 -0.097084191832475783 -0.17397718586375749 0 -0.1062478217144289 -0.1850868604237598 0 -0.1089645744755485 -0.17142897721468039 0 -0.097084191832475783 -0.17397718586375749 0 -0.1062478217144289 -0.1850868604237598 0 -0.1062478217144289 -0.1850868604237598 0 -0.12479922743408831 -0.17330528141154361 0 -0.11770444126217371 -0.18534871505223921 0 -0.1062478217144289 -0.1850868604237598 0 -0.12479922743408831 -0.17330528141154361 0 -0.1089645744755485 -0.17142897721468039 0 -0.1062478217144289 -0.1850868604237598 0 -0.12479922743408831 -0.17330528141154361 0 -0.12479922743408831 -0.17330528141154361 0 -0.11770444126217371 -0.18534871505223921 0 -0.12588715641700199 -0.18780851979182639 0 -0.1089645744755485 -0.17142897721468039 0 -0.12479922743408831 -0.17330528141154361 0 -0.1140167290604851 -0.16196387522270281 0 -0.12479922743408831 -0.17330528141154361 0 -0.1140167290604851 -0.16196387522270281 0 -0.1240093008825658 -0.15686093502651219 0 -0.1140167290604851 -0.16196387522270281 0 -0.1240093008825658 -0.15686093502651219 0 -0.117084107706598 -0.153465493282673 0 -0.1240093008825658 -0.15686093502651219 0 -0.1211459765225162 -0.15145768332081569 0 -0.12508970972525871 -0.14857024574996699 0 -0.1211459765225162 -0.15145768332081569 0 -0.1200209075899193 -0.14713856632692279 0 -0.12508970972525871 -0.14857024574996699 0 -0.1200209075899193 -0.14713856632692279 0 -0.116078866501585 -0.1458342029027733 0 -0.117084107706598 -0.153465493282673 0 -0.1211459765225162 -0.15145768332081569 0 -0.1200209075899193 -0.14713856632692279 0 -0.117084107706598 -0.153465493282673 0 -0.1240093008825658 -0.15686093502651219 0 -0.1211459765225162 -0.15145768332081569 0 -0.117084107706598 -0.153465493282673 0 -0.1225235340995908 -0.14404916522227901 0 -0.1214271450840065 -0.13815660808852531 0 -0.12816474465035449 -0.14176172005113899 0 -0.1225235340995908 -0.14404916522227901 0 -0.1200209075899193 -0.14713856632692279 0 -0.12508970972525871 -0.14857024574996699 0 -0.1225235340995908 -0.14404916522227901 0 -0.1200209075899193 -0.14713856632692279 0 -0.116078866501585 -0.1458342029027733 0 -0.1225235340995908 -0.14404916522227901 0 -0.116078866501585 -0.1458342029027733 0 -0.1214271450840065 -0.13815660808852531 0 -0.1140167290604851 -0.16196387522270281 0 -0.117084107706598 -0.153465493282673 0 -0.1076507036117005 -0.15195768315913591 0 -0.116078866501585 -0.1458342029027733 0 -0.117084107706598 -0.153465493282673 0 -0.1076507036117005 -0.15195768315913591 0 -0.116078866501585 -0.1458342029027733 0 -0.099489953564220218 -0.14318512753167559 0 -0.116078866501585 -0.1458342029027733 0 -0.1076507036117005 -0.15195768315913591 0 -0.099489953564220218 -0.14318512753167559 0 -0.1076507036117005 -0.15195768315913591 0 -0.099489953564220218 -0.14318512753167559 0 -0.097139504472258872 -0.15459274437535861 0 -0.085328586970733977 -0.1519785665275997 0 -0.099489953564220218 -0.14318512753167559 0 -0.097139504472258872 -0.15459274437535861 0 -0.114273776546044 -0.1170350295612957 0 -0.093649347106788516 -0.1264942078087995 0 -0.099489953564220218 -0.14318512753167559 0 -0.114273776546044 -0.1170350295612957 0 -0.116078866501585 -0.1458342029027733 0 -0.099489953564220218 -0.14318512753167559 0 -0.114273776546044 -0.1170350295612957 0 -0.116078866501585 -0.1458342029027733 0 -0.114273776546044 -0.1170350295612957 0 -0.1214271450840065 -0.13815660808852531 0 -0.1293309172992361 -0.13423660300012069 0 -0.114273776546044 -0.1170350295612957 0 -0.116078866501585 -0.1458342029027733 0 -0.1214271450840065 -0.13815660808852531 0 -0.1293309172992361 -0.13423660300012069 0 -0.13470314996379951 -0.13451618262272641 0 -0.1266899655208536 -0.109489682707931 0 -0.1214271450840065 -0.13815660808852531 0 -0.1293309172992361 -0.13423660300012069 0 -0.12816474465035449 -0.14176172005113899 0 -0.1293309172992361 -0.13423660300012069 0 -0.13470314996379951 -0.13451618262272641 0 -0.1293309172992361 -0.13423660300012069 0 -0.13470314996379951 -0.13451618262272641 0 -0.12816474465035449 -0.14176172005113899 0 -0.13470314996379951 -0.13451618262272641 0 -0.15691479087430441 -0.13567211211628319 0 -0.14143934886438039 -0.1185632200812223 0 -0.13470314996379951 -0.13451618262272641 0 -0.15691479087430441 -0.13567211211628319 0 -0.13470314996379951 -0.13451618262272641 0 -0.15691479087430441 -0.13567211211628319 0 -0.1566876784786706 -0.15305364597020499 0 -0.13470314996379951 -0.13451618262272641 0 -0.1433506331537476 -0.16152370239932731 0 -0.1566876784786706 -0.15305364597020499 0 -0.13470314996379951 -0.13451618262272641 0 -0.12816474465035449 -0.14176172005113899 0 -0.13182841572614179 -0.15030559309317959 0 -0.13470314996379951 -0.13451618262272641 0 -0.1433506331537476 -0.16152370239932731 0 -0.13470314996379951 -0.13451618262272641 0 -0.13182841572614179 -0.15030559309317959 0 -0.1433506331537476 -0.16152370239932731 0 -0.12816474465035449 -0.14176172005113899 0 -0.13182841572614179 -0.15030559309317959 0 -0.12508970972525871 -0.14857024574996699 0 -0.1225235340995908 -0.14404916522227901 0 -0.12816474465035449 -0.14176172005113899 0 -0.12508970972525871 -0.14857024574996699 0 -0.1240093008825658 -0.15686093502651219 0 -0.13182841572614179 -0.15030559309317959 0 -0.13192448903704079 -0.1600638743744679 0 -0.1240093008825658 -0.15686093502651219 0 -0.13182841572614179 -0.15030559309317959 0 -0.12508970972525871 -0.14857024574996699 0 -0.12479922743408831 -0.17330528141154361 0 -0.1240093008825658 -0.15686093502651219 0 -0.13192448903704079 -0.1600638743744679 0 -0.12479922743408831 -0.17330528141154361 0 -0.13616138036261949 -0.1789076865920346 0 -0.1433506331537476 -0.16152370239932731 0 -0.12479922743408831 -0.17330528141154361 0 -0.1433506331537476 -0.16152370239932731 0 -0.12479922743408831 -0.17330528141154361 0 -0.13192448903704079 -0.1600638743744679 0 -0.1433506331537476 -0.16152370239932731 0 -0.13182841572614179 -0.15030559309317959 0 -0.13192448903704079 -0.1600638743744679 0 -0.1433506331537476 -0.16152370239932731 0 -0.12479922743408831 -0.17330528141154361 0 -0.13616138036261949 -0.1789076865920346 0 -0.12588715641700199 -0.18780851979182639 0 -0.13616138036261949 -0.1789076865920346 0 -0.12588715641700199 -0.18780851979182639 0 -0.1385132620580399 -0.19135574328649371 0 -0.14882653027793671 -0.17862583450270161 0 -0.15630119252519181 -0.18263247483961259 0 -0.15430242740212649 -0.19572796660607561 0 -0.13616138036261949 -0.1789076865920346 0 -0.14882653027793671 -0.17862583450270161 0 -0.1433506331537476 -0.16152370239932731 0 -0.14882653027793671 -0.17862583450270161 0 -0.15430242740212649 -0.19572796660607561 0 -0.13616138036261949 -0.1789076865920346 0 -0.14882653027793671 -0.17862583450270161 0 -0.1385132620580399 -0.19135574328649371 0 -0.14882653027793671 -0.17862583450270161 0 -0.1433506331537476 -0.16152370239932731 0 -0.1566876784786706 -0.15305364597020499 0 -0.14882653027793671 -0.17862583450270161 0 -0.1433506331537476 -0.16152370239932731 0 -0.14882653027793671 -0.17862583450270161 0 -0.15630119252519181 -0.18263247483961259 0 -0.1566876784786706 -0.15305364597020499 0 -0.1433506331537476 -0.16152370239932731 0 -0.1566876784786706 -0.15305364597020499 0 -0.15630119252519181 -0.18263247483961259 0 -0.1566876784786706 -0.15305364597020499 0 -0.16499293692711051 -0.16744504641101221 0 -0.16632624373900459 -0.17846532826234901 0 -0.17879228752812079 -0.16146506028456831 0 -0.16499293692711051 -0.16744504641101221 0 -0.16826808775772031 -0.15898568065347971 0 -0.1566876784786706 -0.15305364597020499 0 -0.16499293692711051 -0.16744504641101221 0 -0.15630119252519181 -0.18263247483961259 0 -0.1566876784786706 -0.15305364597020499 0 -0.16499293692711051 -0.16744504641101221 0 -0.16826808775772031 -0.15898568065347971 0 -0.17879228752812079 -0.16146506028456831 0 -0.15630119252519181 -0.18263247483961259 0 -0.16632624373900459 -0.17846532826234901 0 -0.16722609109787301 -0.1886216267524069 0 -0.16499293692711051 -0.16744504641101221 0 -0.15630119252519181 -0.18263247483961259 0 -0.16632624373900459 -0.17846532826234901 0 -0.16632624373900459 -0.17846532826234901 0 -0.17397691471357721 -0.18616818462053211 0 -0.16722609109787301 -0.1886216267524069 0 -0.17397691471357721 -0.18616818462053211 0 -0.17879228752812079 -0.16146506028456831 0 -0.19457767982992241 -0.18105211390118731 0 -0.17397691471357721 -0.18616818462053211 0 -0.17879228752812079 -0.16146506028456831 0 -0.17397691471357721 -0.18616818462053211 0 -0.18637913543024531 -0.19237041576220221 0 -0.19457767982992241 -0.18105211390118731 0 -0.16632624373900459 -0.17846532826234901 0 -0.17397691471357721 -0.18616818462053211 0 -0.17879228752812079 -0.16146506028456831 0 -0.17879228752812079 -0.16146506028456831 0 -0.19457767982992241 -0.18105211390118731 0 -0.16826808775772031 -0.15898568065347971 0 -0.17879228752812079 -0.16146506028456831 0 -0.1706453491026734 -0.15135606098321219 0 -0.17879228752812079 -0.16146506028456831 0 -0.1706453491026734 -0.15135606098321219 0 -0.17879228752812079 -0.16146506028456831 0 -0.17241519229109231 -0.14306545696464451 0 -0.18200112822937969 -0.13697764543328919 0 -0.17879228752812079 -0.16146506028456831 0 -0.18378665187187779 -0.13584369967251159 0 -0.19396144186942421 -0.15132888745912901 0 -0.17879228752812079 -0.16146506028456831 0 -0.17241519229109231 -0.14306545696464451 0 -0.1706453491026734 -0.15135606098321219 0 -0.17879228752812079 -0.16146506028456831 0 -0.18378665187187779 -0.13584369967251159 0 -0.17879228752812079 -0.16146506028456831 0 -0.18378665187187779 -0.13584369967251159 0 -0.18200112822937969 -0.13697764543328919 0 -0.18378665187187779 -0.13584369967251159 0 -0.18200112822937969 -0.13697764543328919 0 -0.17457184909778631 -0.13659101380626901 0 -0.18378665187187779 -0.13584369967251159 0 -0.17457184909778631 -0.13659101380626901 0 -0.18248147676758389 -0.11238966834508771 0 -0.18378665187187779 -0.13584369967251159 0 -0.18200112822937969 -0.13697764543328919 0 -0.17457184909778631 -0.13659101380626901 0 -0.16916991477121079 -0.1363098884614275 0 -0.17242450892128541 -0.1223856582720856 0 -0.1730285539843138 -0.14131308414244129 0 -0.18200112822937969 -0.13697764543328919 0 -0.17457184909778631 -0.13659101380626901 0 -0.17241519229109231 -0.14306545696464451 0 -0.1730285539843138 -0.14131308414244129 0 -0.18200112822937969 -0.13697764543328919 0 -0.17241519229109231 -0.14306545696464451 0 -0.18200112822937969 -0.13697764543328919 0 -0.18200112822937969 -0.13697764543328919 0 -0.17457184909778631 -0.13659101380626901 0 -0.1730285539843138 -0.14131308414244129 0 -0.17457184909778631 -0.13659101380626901 0 -0.16916991477121079 -0.1363098884614275 0 -0.1730285539843138 -0.14131308414244129 0 -0.17457184909778631 -0.13659101380626901 0 -0.16916991477121079 -0.1363098884614275 0 -0.15691479087430441 -0.13567211211628319 0 -0.15723118634451691 -0.11145749995728341 0 -0.17241519229109231 -0.14306545696464451 0 -0.16916991477121079 -0.1363098884614275 0 -0.17241519229109231 -0.14306545696464451 0 -0.1730285539843138 -0.14131308414244129 0 -0.16916991477121079 -0.1363098884614275 0 -0.17241519229109231 -0.14306545696464451 0 -0.16916991477121079 -0.1363098884614275 0 -0.15691479087430441 -0.13567211211628319 0 -0.17457184909778631 -0.13659101380626901 0 -0.16916991477121079 -0.1363098884614275 0 -0.16916991477121079 -0.1363098884614275 0 -0.17242450892128541 -0.1223856582720856 0 -0.1679059441212736 -0.12074420099468421 0 -0.16916991477121079 -0.1363098884614275 0 -0.15691479087430441 -0.13567211211628319 0 -0.17241519229109231 -0.14306545696464451 0 -0.1566876784786706 -0.15305364597020499 0 -0.1706453491026734 -0.15135606098321219 0 -0.17241519229109231 -0.14306545696464451 0 -0.1566876784786706 -0.15305364597020499 0 -0.15691479087430441 -0.13567211211628319 0 -0.1566876784786706 -0.15305364597020499 0 -0.17241519229109231 -0.14306545696464451 0 -0.15691479087430441 -0.13567211211628319 0 -0.1566876784786706 -0.15305364597020499 0 -0.16826808775772031 -0.15898568065347971 0 -0.1566876784786706 -0.15305364597020499 0 -0.1706453491026734 -0.15135606098321219 0 -0.13361502428459901 -0.25892913269697448 0 -0.1555282206182291 -0.24179013257842771 0 -0.1365483042253714 -0.22700629954182169 0 -0.13361502428459901 -0.25892913269697448 0 -0.1165731632203976 -0.24082599565915661 0 -0.1365483042253714 -0.22700629954182169 0 -0.12267406189310801 -0.21748308053295989 0 -0.1165731632203976 -0.24082599565915661 0 -0.1365483042253714 -0.22700629954182169 0 -0.1555282206182291 -0.24179013257842771 0 -0.15591470657171039 -0.21221130370902019 0 -0.1555282206182291 -0.24179013257842771 0 -0.1365483042253714 -0.22700629954182169 0 -0.15591470657171039 -0.21221130370902019 0 -0.15591470657171039 -0.21221130370902019 0 -0.13917028850853899 -0.20754495785582769 0 -0.15430242740212649 -0.19572796660607561 0 -0.1365483042253714 -0.22700629954182169 0 -0.15591470657171039 -0.21221130370902019 0 -0.13917028850853899 -0.20754495785582769 0 -0.12267406189310801 -0.21748308053295989 0 -0.1365483042253714 -0.22700629954182169 0 -0.13917028850853899 -0.20754495785582769 0 -0.12267406189310801 -0.21748308053295989 0 -0.13917028850853899 -0.20754495785582769 0 -0.12560983322401659 -0.20134442528610019 0 -0.13917028850853899 -0.20754495785582769 0 -0.12560983322401659 -0.20134442528610019 0 -0.1385132620580399 -0.19135574328649371 0 -0.12560983322401659 -0.20134442528610019 0 -0.12588715641700199 -0.18780851979182639 0 -0.1385132620580399 -0.19135574328649371 0 -0.15630119252519181 -0.18263247483961259 0 -0.15591470657171039 -0.21221130370902019 0 -0.14882653027793671 -0.17862583450270161 0 -0.1385132620580399 -0.19135574328649371 0 -0.15430242740212649 -0.19572796660607561 0 -0.13917028850853899 -0.20754495785582769 0 -0.1385132620580399 -0.19135574328649371 0 -0.15430242740212649 -0.19572796660607561 0 -0.15630119252519181 -0.18263247483961259 0 -0.15591470657171039 -0.21221130370902019 0 -0.15430242740212649 -0.19572796660607561 0 -0.15630119252519181 -0.18263247483961259 0 -0.16398367257205301 -0.19829620051630981 0 -0.16722609109787301 -0.1886216267524069 0 -0.15630119252519181 -0.18263247483961259 0 -0.15591470657171039 -0.21221130370902019 0 -0.16398367257205301 -0.19829620051630981 0 -0.16398367257205301 -0.19829620051630981 0 -0.1755424319395385 -0.19754594552323121 0 -0.17490979001253859 -0.2121803140308415 0 -0.16398367257205301 -0.19829620051630981 0 -0.16722609109787301 -0.1886216267524069 0 -0.1755424319395385 -0.19754594552323121 0 -0.17397691471357721 -0.18616818462053211 0 -0.18637913543024531 -0.19237041576220221 0 -0.1755424319395385 -0.19754594552323121 0 -0.17397691471357721 -0.18616818462053211 0 -0.16722609109787301 -0.1886216267524069 0 -0.1755424319395385 -0.19754594552323121 0 -0.18637913543024531 -0.19237041576220221 0 -0.1755424319395385 -0.19754594552323121 0 -0.18833048497577209 -0.20305782048687451 0 -0.17490979001253859 -0.2121803140308415 0 -0.1852641227602897 -0.2240724569631507 0 -0.19074615119009261 -0.21462868022888379 0 -0.17490979001253859 -0.2121803140308415 0 -0.19074615119009261 -0.21462868022888379 0 -0.18833048497577209 -0.20305782048687451 0 -0.1755424319395385 -0.19754594552323121 0 -0.17490979001253859 -0.2121803140308415 0 -0.18833048497577209 -0.20305782048687451 0 -0.15591470657171039 -0.21221130370902019 0 -0.17490979001253859 -0.2121803140308415 0 -0.17275546273782699 -0.22765908699001031 0 -0.15591470657171039 -0.21221130370902019 0 -0.16398367257205301 -0.19829620051630981 0 -0.17490979001253859 -0.2121803140308415 0 -0.1555282206182291 -0.24179013257842771 0 -0.15591470657171039 -0.21221130370902019 0 -0.17275546273782699 -0.22765908699001031 0 -0.17490979001253859 -0.2121803140308415 0 -0.1852641227602897 -0.2240724569631507 0 -0.17275546273782699 -0.22765908699001031 0 -0.1852641227602897 -0.2240724569631507 0 -0.17275546273782699 -0.22765908699001031 0 -0.18610021014797859 -0.2365947910154497 0 -0.1692940198503024 -0.25683541485098532 0 -0.18677763921309559 -0.25033346045329108 0 -0.1744596593823331 -0.24245519554357969 0 -0.17275546273782699 -0.22765908699001031 0 -0.18610021014797859 -0.2365947910154497 0 -0.1744596593823331 -0.24245519554357969 0 -0.18677763921309559 -0.25033346045329108 0 -0.18610021014797859 -0.2365947910154497 0 -0.1744596593823331 -0.24245519554357969 0 -0.1692940198503024 -0.25683541485098532 0 -0.1555282206182291 -0.24179013257842771 0 -0.1744596593823331 -0.24245519554357969 0 -0.1555282206182291 -0.24179013257842771 0 -0.17275546273782699 -0.22765908699001031 0 -0.1744596593823331 -0.24245519554357969 0 -0.21260693995459931 -0.24643932896582799 0 -0.2136360675056691 -0.23216752596664481 0 -0.22280147924623769 -0.24193763770315799 0 -0.21260693995459931 -0.24643932896582799 0 -0.19929171078881039 -0.23935522242917509 0 -0.2136360675056691 -0.23216752596664481 0 -0.20134047018832821 -0.25150160644606268 0 -0.21260693995459931 -0.24643932896582799 0 -0.19929171078881039 -0.23935522242917509 0 -0.20134047018832821 -0.25150160644606268 0 -0.18677763921309559 -0.25033346045329108 0 -0.19929171078881039 -0.23935522242917509 0 -0.18677763921309559 -0.25033346045329108 0 -0.18610021014797859 -0.2365947910154497 0 -0.19929171078881039 -0.23935522242917509 0 -0.18610021014797859 -0.2365947910154497 0 -0.19929171078881039 -0.23935522242917509 0 -0.19755548031467601 -0.22746344532700269 0 -0.1852641227602897 -0.2240724569631507 0 -0.18610021014797859 -0.2365947910154497 0 -0.19755548031467601 -0.22746344532700269 0 -0.1852641227602897 -0.2240724569631507 0 -0.19755548031467601 -0.22746344532700269 0 -0.19074615119009261 -0.21462868022888379 0 -0.19755548031467601 -0.22746344532700269 0 -0.20630172993135659 -0.22006656722292739 0 -0.19074615119009261 -0.21462868022888379 0 -0.19755548031467601 -0.22746344532700269 0 -0.20630172993135659 -0.22006656722292739 0 -0.2136360675056691 -0.23216752596664481 0 -0.20630172993135659 -0.22006656722292739 0 -0.2136360675056691 -0.23216752596664481 0 -0.22614846443352521 -0.2202262211344255 0 -0.19929171078881039 -0.23935522242917509 0 -0.19755548031467601 -0.22746344532700269 0 -0.2136360675056691 -0.23216752596664481 0 -0.21086548589061471 -0.21210810942924149 0 -0.21036307213172381 -0.20063916751780639 0 -0.22614846443352521 -0.2202262211344255 0 -0.21036307213172381 -0.20063916751780639 0 -0.22614846443352521 -0.2202262211344255 0 -0.20630172993135659 -0.22006656722292739 0 -0.21086548589061471 -0.21210810942924149 0 -0.22614846443352521 -0.2202262211344255 0 -0.21086548589061471 -0.21210810942924149 0 -0.20064867706585299 -0.20750048184180661 0 -0.21036307213172381 -0.20063916751780639 0 -0.20630172993135659 -0.22006656722292739 0 -0.21086548589061471 -0.21210810942924149 0 -0.20064867706585299 -0.20750048184180661 0 -0.20630172993135659 -0.22006656722292739 0 -0.19074615119009261 -0.21462868022888379 0 -0.20064867706585299 -0.20750048184180661 0 -0.19074615119009261 -0.21462868022888379 0 -0.20064867706585299 -0.20750048184180661 0 -0.18833048497577209 -0.20305782048687451 0 -0.19636966041449541 -0.19666072848172181 0 -0.21036307213172381 -0.20063916751780639 0 -0.19457767982992241 -0.18105211390118731 0 -0.21036307213172381 -0.20063916751780639 0 -0.19457767982992241 -0.18105211390118731 0 -0.20064867706585299 -0.20750048184180661 0 -0.19636966041449541 -0.19666072848172181 0 -0.21036307213172381 -0.20063916751780639 0 -0.20064867706585299 -0.20750048184180661 0 -0.19636966041449541 -0.19666072848172181 0 -0.18833048497577209 -0.20305782048687451 0 -0.18637913543024531 -0.19237041576220221 0 -0.19636966041449541 -0.19666072848172181 0 -0.18833048497577209 -0.20305782048687451 0 -0.18637913543024531 -0.19237041576220221 0 -0.19636966041449541 -0.19666072848172181 0 -0.19457767982992241 -0.18105211390118731 0 -0.2093277706488911 -0.1942023568417266 0 -0.21036307213172381 -0.20063916751780639 0 -0.19457767982992241 -0.18105211390118731 0 -0.21036307213172381 -0.20063916751780639 0 -0.21775564342292639 -0.1964864516799448 0 -0.22364681297988129 -0.20245768751586141 0 -0.2093277706488911 -0.1942023568417266 0 -0.21036307213172381 -0.20063916751780639 0 -0.21775564342292639 -0.1964864516799448 0 -0.2093277706488911 -0.1942023568417266 0 -0.21775564342292639 -0.1964864516799448 0 -0.22222809446747799 -0.19044718078551501 0 -0.2093277706488911 -0.1942023568417266 0 -0.22222809446747799 -0.19044718078551501 0 -0.2217625574673254 -0.18125169647830119 0 -0.22222809446747799 -0.19044718078551501 0 -0.22242183432146931 -0.19607132967686131 0 -0.22742101515218491 -0.19499251384904731 0 -0.21775564342292639 -0.1964864516799448 0 -0.22222809446747799 -0.19044718078551501 0 -0.22242183432146931 -0.19607132967686131 0 -0.21775564342292639 -0.1964864516799448 0 -0.22242183432146931 -0.19607132967686131 0 -0.22364681297988129 -0.20245768751586141 0 -0.22242183432146931 -0.19607132967686131 0 -0.22364681297988129 -0.20245768751586141 0 -0.22742101515218491 -0.19499251384904731 0 -0.231326599947833 -0.20030023550626311 0 -0.23764233281109001 -0.1995616763346339 0 -0.2340089841235051 -0.2079803286231296 0 -0.22364681297988129 -0.20245768751586141 0 -0.231326599947833 -0.20030023550626311 0 -0.22742101515218491 -0.19499251384904731 0 -0.231326599947833 -0.20030023550626311 0 -0.22742101515218491 -0.19499251384904731 0 -0.23462586893800269 -0.19367311360374681 0 -0.22222809446747799 -0.19044718078551501 0 -0.22742101515218491 -0.19499251384904731 0 -0.2301257022165871 -0.18765900847035749 0 -0.22742101515218491 -0.19499251384904731 0 -0.2301257022165871 -0.18765900847035749 0 -0.23462586893800269 -0.19367311360374681 0 -0.2301257022165871 -0.18765900847035749 0 -0.23462586893800269 -0.19367311360374681 0 -0.23776325307700771 -0.18706645226735949 0 -0.23462586893800269 -0.19367311360374681 0 -0.241919338403112 -0.19337469152527609 0 -0.23776325307700771 -0.18706645226735949 0 -0.2470799838977 -0.20158512588218541 0 -0.24664540831350951 -0.18115561913721051 0 -0.241919338403112 -0.19337469152527609 0 -0.2470799838977 -0.20158512588218541 0 -0.24664540831350951 -0.18115561913721051 0 -0.2488743987547265 -0.1964769315240191 0 -0.2470799838977 -0.20158512588218541 0 -0.24664540831350951 -0.18115561913721051 0 -0.241919338403112 -0.19337469152527609 0 -0.2470799838977 -0.20158512588218541 0 -0.24187348153321619 -0.19998332485005521 0 -0.2470799838977 -0.20158512588218541 0 -0.24187348153321619 -0.19998332485005521 0 -0.24085227102096271 -0.20541180565812511 0 -0.24187348153321619 -0.19998332485005521 0 -0.23764233281109001 -0.1995616763346339 0 -0.24085227102096271 -0.20541180565812511 0 -0.241919338403112 -0.19337469152527609 0 -0.24187348153321619 -0.19998332485005521 0 -0.23764233281109001 -0.1995616763346339 0 -0.23462586893800269 -0.19367311360374681 0 -0.241919338403112 -0.19337469152527609 0 -0.23764233281109001 -0.1995616763346339 0 -0.231326599947833 -0.20030023550626311 0 -0.23462586893800269 -0.19367311360374681 0 -0.23764233281109001 -0.1995616763346339 0 -0.24085227102096271 -0.20541180565812511 0 -0.2340089841235051 -0.2079803286231296 0 -0.24513076192569991 -0.22228630733671209 0 -0.2488743987547265 -0.1964769315240191 0 -0.2470799838977 -0.20158512588218541 0 -0.24513076192569991 -0.22228630733671209 0 -0.2470799838977 -0.20158512588218541 0 -0.24085227102096271 -0.20541180565812511 0 -0.24513076192569991 -0.22228630733671209 0 -0.23764233281109001 -0.1995616763346339 0 -0.24085227102096271 -0.20541180565812511 0 -0.2340089841235051 -0.2079803286231296 0 -0.2340089841235051 -0.2079803286231296 0 -0.22614846443352521 -0.2202262211344255 0 -0.24513076192569991 -0.22228630733671209 0 -0.2488743987547265 -0.1964769315240191 0 -0.24513076192569991 -0.22228630733671209 0 -0.22364681297988129 -0.20245768751586141 0 -0.2340089841235051 -0.2079803286231296 0 -0.22614846443352521 -0.2202262211344255 0 -0.21036307213172381 -0.20063916751780639 0 -0.22364681297988129 -0.20245768751586141 0 -0.22614846443352521 -0.2202262211344255 0 -0.22364681297988129 -0.20245768751586141 0 -0.231326599947833 -0.20030023550626311 0 -0.2340089841235051 -0.2079803286231296 0 -0.22614846443352521 -0.2202262211344255 0 -0.23088623992506979 -0.23308611799329881 0 -0.24513076192569991 -0.22228630733671209 0 -0.2136360675056691 -0.23216752596664481 0 -0.22614846443352521 -0.2202262211344255 0 -0.23088623992506979 -0.23308611799329881 0 -0.23088623992506979 -0.23308611799329881 0 -0.24513076192569991 -0.22228630733671209 0 -0.24398490533090411 -0.23798917360845631 0 -0.24513076192569991 -0.22228630733671209 0 -0.24398490533090411 -0.23798917360845631 0 -0.25571962837200518 -0.22937650551787259 0 -0.23088623992506979 -0.23308611799329881 0 -0.24398490533090411 -0.23798917360845631 0 -0.23361576110838281 -0.24390984221039619 0 -0.24175845980168911 -0.25428478927776899 0 -0.24398490533090411 -0.23798917360845631 0 -0.23361576110838281 -0.24390984221039619 0 -0.24175845980168911 -0.25428478927776899 0 -0.24398490533090411 -0.23798917360845631 0 -0.25534024554036799 -0.24953009406698781 0 -0.224254699894156 -0.25597908654454998 0 -0.23361576110838281 -0.24390984221039619 0 -0.22280147924623769 -0.24193763770315799 0 -0.2136360675056691 -0.23216752596664481 0 -0.23088623992506979 -0.23308611799329881 0 -0.22280147924623769 -0.24193763770315799 0 -0.23088623992506979 -0.23308611799329881 0 -0.23361576110838281 -0.24390984221039619 0 -0.22280147924623769 -0.24193763770315799 0 -0.224254699894156 -0.25597908654454998 0 -0.21260693995459931 -0.24643932896582799 0 -0.22280147924623769 -0.24193763770315799 0 -0.20834804754604 -0.1518914195290304 0 -0.21819985220452209 -0.16676277971837239 0 -0.22707193376015311 -0.13932320259501821 0 -0.20834804754604 -0.1518914195290304 0 -0.20531091723139841 -0.13819072431857199 0 -0.22707193376015311 -0.13932320259501821 0 -0.20531091723139841 -0.13819072431857199 0 -0.22707193376015311 -0.13932320259501821 0 -0.22314006824820889 -0.1266041787708411 0 -0.20531091723139841 -0.13819072431857199 0 -0.22707193376015311 -0.13932320259501821 0 -0.20531091723139841 -0.13819072431857199 0 -0.22314006824820889 -0.1266041787708411 0 -0.21303401546546241 -0.1182985901692655 0 -0.20531091723139841 -0.13819072431857199 0 -0.21303401546546241 -0.1182985901692655 0 -0.20064075354686589 -0.1234072711611833 0 -0.18378665187187779 -0.13584369967251159 0 -0.20531091723139841 -0.13819072431857199 0 -0.18378665187187779 -0.13584369967251159 0 -0.20064075354686589 -0.1234072711611833 0 -0.19414125045560071 -0.11927728604000561 0 -0.18378665187187779 -0.13584369967251159 0 -0.20531091723139841 -0.13819072431857199 0 -0.20064075354686589 -0.1234072711611833 0 -0.18378665187187779 -0.13584369967251159 0 -0.20531091723139841 -0.13819072431857199 0 -0.19396144186942421 -0.15132888745912901 0 -0.20834804754604 -0.1518914195290304 0 -0.20531091723139841 -0.13819072431857199 0 -0.19396144186942421 -0.15132888745912901 0 -0.20834804754604 -0.1518914195290304 0 -0.19396144186942421 -0.15132888745912901 0 -0.19719609266470209 -0.16385150355406011 0 -0.17879228752812079 -0.16146506028456831 0 -0.19396144186942421 -0.15132888745912901 0 -0.19719609266470209 -0.16385150355406011 0 -0.17879228752812079 -0.16146506028456831 0 -0.19719609266470209 -0.16385150355406011 0 -0.19457767982992241 -0.18105211390118731 0 -0.2093277706488911 -0.1942023568417266 0 -0.19457767982992241 -0.18105211390118731 0 -0.21819985220452209 -0.16676277971837239 0 -0.2093277706488911 -0.1942023568417266 0 -0.21819985220452209 -0.16676277971837239 0 -0.2093277706488911 -0.1942023568417266 0 -0.21819985220452209 -0.16676277971837239 0 -0.2217625574673254 -0.18125169647830119 0 -0.20834804754604 -0.1518914195290304 0 -0.19719609266470209 -0.16385150355406011 0 -0.21819985220452209 -0.16676277971837239 0 -0.19719609266470209 -0.16385150355406011 0 -0.19457767982992241 -0.18105211390118731 0 -0.21819985220452209 -0.16676277971837239 0 -0.21819985220452209 -0.16676277971837239 0 -0.23360800010457611 -0.1623544040428076 0 -0.2358559519520389 -0.15072700545942089 0 -0.21819985220452209 -0.16676277971837239 0 -0.2341653635324244 -0.17120171860120131 0 -0.23360800010457611 -0.1623544040428076 0 -0.21819985220452209 -0.16676277971837239 0 -0.2341653635324244 -0.17120171860120131 0 -0.2217625574673254 -0.18125169647830119 0 -0.22222809446747799 -0.19044718078551501 0 -0.2301257022165871 -0.18765900847035749 0 -0.2217625574673254 -0.18125169647830119 0 -0.2341653635324244 -0.17120171860120131 0 -0.2217625574673254 -0.18125169647830119 0 -0.2343070260713295 -0.18050140386600419 0 -0.2301257022165871 -0.18765900847035749 0 -0.2217625574673254 -0.18125169647830119 0 -0.2343070260713295 -0.18050140386600419 0 -0.2301257022165871 -0.18765900847035749 0 -0.2343070260713295 -0.18050140386600419 0 -0.23776325307700771 -0.18706645226735949 0 -0.2488743987547265 -0.1964769315240191 0 -0.24664540831350951 -0.18115561913721051 0 -0.25261803558375312 -0.17066755571132619 0 -0.241919338403112 -0.19337469152527609 0 -0.23776325307700771 -0.18706645226735949 0 -0.24664540831350951 -0.18115561913721051 0 -0.2343070260713295 -0.18050140386600419 0 -0.23776325307700771 -0.18706645226735949 0 -0.24664540831350951 -0.18115561913721051 0 -0.2341653635324244 -0.17120171860120131 0 -0.2343070260713295 -0.18050140386600419 0 -0.24664540831350951 -0.18115561913721051 0 -0.2341653635324244 -0.17120171860120131 0 -0.24664540831350951 -0.18115561913721051 0 -0.2462108327293189 -0.16072611239223561 0 -0.24664540831350951 -0.18115561913721051 0 -0.2462108327293189 -0.16072611239223561 0 -0.25261803558375312 -0.17066755571132619 0 -0.24664540831350951 -0.18115561913721051 0 -0.2462108327293189 -0.16072611239223561 0 -0.23360800010457611 -0.1623544040428076 0 -0.2462108327293189 -0.16072611239223561 0 -0.2358559519520389 -0.15072700545942089 0 -0.2341653635324244 -0.17120171860120131 0 -0.23360800010457611 -0.1623544040428076 0 -0.2462108327293189 -0.16072611239223561 0 -0.2462108327293189 -0.16072611239223561 0 -0.24577625714512799 -0.14029660564726071 0 -0.25636167241277957 -0.1448581798986332 0 -0.2462108327293189 -0.16072611239223561 0 -0.2358559519520389 -0.15072700545942089 0 -0.24577625714512799 -0.14029660564726071 0 -0.2358559519520389 -0.15072700545942089 0 -0.22707193376015311 -0.13932320259501821 0 -0.24577625714512799 -0.14029660564726071 0 -0.2462108327293189 -0.16072611239223561 0 -0.24577625714512799 -0.14029660564726071 0 -0.21819985220452209 -0.16676277971837239 0 -0.2358559519520389 -0.15072700545942089 0 -0.22707193376015311 -0.13932320259501821 0 -0.21819985220452209 -0.16676277971837239 0 -0.22707193376015311 -0.13932320259501821 0 -0.22707193376015311 -0.13932320259501821 0 -0.23762107206430191 -0.1288752200809965 0 -0.2336431314314687 -0.11899980000180981 0 -0.22707193376015311 -0.13932320259501821 0 -0.2336431314314687 -0.11899980000180981 0 -0.22707193376015311 -0.13932320259501821 0 -0.22314006824820889 -0.1266041787708411 0 -0.2336431314314687 -0.11899980000180981 0 -0.23762107206430191 -0.1288752200809965 0 -0.24577625714512799 -0.14029660564726071 0 -0.24519677062478559 -0.11305479960329121 0 -0.22707193376015311 -0.13932320259501821 0 -0.24577625714512799 -0.14029660564726071 0 -0.22707193376015311 -0.13932320259501821 0 -0.23762107206430191 -0.1288752200809965 0 -0.24577625714512799 -0.14029660564726071 0 -0.24577625714512799 -0.14029660564726071 0 -0.24519677062478559 -0.11305479960329121 0 -0.24577625714512799 -0.14029660564726071 0 -0.2511891577251894 -0.14057830169355889 0 -0.23762107206430191 -0.1288752200809965 0 -0.24519677062478559 -0.11305479960329121 0 -0.2336431314314687 -0.11899980000180981 0 -0.24519677062478559 -0.11305479960329121 0 -0.23158335594467169 -0.102117943209814 0 -0.2336431314314687 -0.11899980000180981 0 -0.24519677062478559 -0.11305479960329121 0 -0.23158335594467169 -0.102117943209814 0 -0.24461728410444289 -0.085812993559321732 0 -0.24519677062478559 -0.11305479960329121 0 -0.24461728410444289 -0.085812993559321732 0 -0.24519677062478559 -0.11305479960329121 0 -0.24461728410444289 -0.085812993559321732 0 -0.25849843363262498 -0.10407958980146111 0 -0.23158335594467169 -0.102117943209814 0 -0.2273954041226762 -0.085138900064031242 0 -0.21603975336413961 -0.099255742078068435 0 -0.23158335594467169 -0.102117943209814 0 -0.22427924145176581 -0.1116264991823261 0 -0.21603975336413961 -0.099255742078068435 0 -0.23158335594467169 -0.102117943209814 0 -0.22427924145176581 -0.1116264991823261 0 -0.2336431314314687 -0.11899980000180981 0 -0.22314006824820889 -0.1266041787708411 0 -0.22427924145176581 -0.1116264991823261 0 -0.21303401546546241 -0.1182985901692655 0 -0.22314006824820889 -0.1266041787708411 0 -0.22427924145176581 -0.1116264991823261 0 -0.2336431314314687 -0.11899980000180981 0 -0.24461728410444289 -0.085812993559321732 0 -0.2314384919830059 -0.069024203331896405 0 -0.24403779758410021 -0.058571187515352091 0 -0.24461728410444289 -0.085812993559321732 0 -0.24403779758410021 -0.058571187515352091 0 -0.25634613900226388 -0.071936431436955148 0 -0.24461728410444289 -0.085812993559321732 0 -0.24403779758410021 -0.058571187515352091 0 -0.24461728410444289 -0.085812993559321732 0 -0.2273954041226762 -0.085138900064031242 0 -0.2314384919830059 -0.069024203331896405 0 -0.23158335594467169 -0.102117943209814 0 -0.24461728410444289 -0.085812993559321732 0 -0.2273954041226762 -0.085138900064031242 0 -0.2273954041226762 -0.085138900064031242 0 -0.21404414941324651 -0.069899802653768453 0 -0.21603975336413961 -0.099255742078068435 0 -0.2314384919830059 -0.069024203331896405 0 -0.21404414941324651 -0.069899802653768453 0 -0.2376971943891146 -0.051611282423632741 0 -0.2273954041226762 -0.085138900064031242 0 -0.2314384919830059 -0.069024203331896405 0 -0.21404414941324651 -0.069899802653768453 0 -0.21404414941324651 -0.069899802653768453 0 -0.21603975336413961 -0.099255742078068435 0 -0.20234335788747779 -0.095154190461451751 0 -0.21404414941324651 -0.069899802653768453 0 -0.1903911044373795 -0.08818832288390567 0 -0.20234335788747779 -0.095154190461451751 0 -0.21404414941324651 -0.069899802653768453 0 -0.1903911044373795 -0.08818832288390567 0 -0.21404414941324651 -0.069899802653768453 0 -0.1903911044373795 -0.08818832288390567 0 -0.19869441214389841 -0.062782421789060003 0 -0.1903911044373795 -0.08818832288390567 0 -0.19869441214389841 -0.062782421789060003 0 -0.1903911044373795 -0.08818832288390567 0 -0.19869441214389841 -0.062782421789060003 0 -0.17783880042097699 -0.076500308653624755 0 -0.22427924145176581 -0.1116264991823261 0 -0.21303401546546241 -0.1182985901692655 0 -0.21603975336413961 -0.099255742078068435 0 -0.21303401546546241 -0.1182985901692655 0 -0.2020378452980667 -0.11037435186076321 0 -0.20064075354686589 -0.1234072711611833 0 -0.21303401546546241 -0.1182985901692655 0 -0.21603975336413961 -0.099255742078068435 0 -0.2020378452980667 -0.11037435186076321 0 -0.21603975336413961 -0.099255742078068435 0 -0.20234335788747779 -0.095154190461451751 0 -0.2020378452980667 -0.11037435186076321 0 -0.1903911044373795 -0.08818832288390567 0 -0.20234335788747779 -0.095154190461451751 0 -0.18920393692455531 -0.10805273283075249 0 -0.20234335788747779 -0.095154190461451751 0 -0.18920393692455531 -0.10805273283075249 0 -0.2020378452980667 -0.11037435186076321 0 -0.18378665187187779 -0.13584369967251159 0 -0.18920393692455531 -0.10805273283075249 0 -0.19414125045560071 -0.11927728604000561 0 -0.18920393692455531 -0.10805273283075249 0 -0.2020378452980667 -0.11037435186076321 0 -0.19414125045560071 -0.11927728604000561 0 -0.2020378452980667 -0.11037435186076321 0 -0.20064075354686589 -0.1234072711611833 0 -0.19414125045560071 -0.11927728604000561 0 -0.17457184909778631 -0.13659101380626901 0 -0.18248147676758389 -0.11238966834508771 0 -0.18378665187187779 -0.13584369967251159 0 -0.18920393692455531 -0.10805273283075249 0 -0.17457184909778631 -0.13659101380626901 0 -0.18248147676758389 -0.11238966834508771 0 -0.17242450892128541 -0.1223856582720856 0 -0.18378665187187779 -0.13584369967251159 0 -0.18920393692455531 -0.10805273283075249 0 -0.18248147676758389 -0.11238966834508771 0 -0.18248147676758389 -0.11238966834508771 0 -0.17242450892128541 -0.1223856582720856 0 -0.1707461018914978 -0.112040360610466 0 -0.15691479087430441 -0.13567211211628319 0 -0.15723118634451691 -0.11145749995728341 0 -0.16916991477121079 -0.1363098884614275 0 -0.15723118634451691 -0.11145749995728341 0 -0.15928325090109921 -0.1122408966347585 0 -0.16916991477121079 -0.1363098884614275 0 -0.1679059441212736 -0.12074420099468421 0 -0.15928325090109921 -0.1122408966347585 0 -0.17242450892128541 -0.1223856582720856 0 -0.1679059441212736 -0.12074420099468421 0 -0.1707461018914978 -0.112040360610466 0 -0.16916991477121079 -0.1363098884614275 0 -0.15723118634451691 -0.11145749995728341 0 -0.1679059441212736 -0.12074420099468421 0 -0.1707461018914978 -0.112040360610466 0 -0.15928325090109921 -0.1122408966347585 0 -0.15723118634451691 -0.11145749995728341 0 -0.1575814521498454 -0.084650698257726115 0 -0.15723118634451691 -0.11145749995728341 0 -0.1643548763255932 -0.1027288653905112 0 -0.1575814521498454 -0.084650698257726115 0 -0.15723118634451691 -0.11145749995728341 0 -0.15928325090109921 -0.1122408966347585 0 -0.1643548763255932 -0.1027288653905112 0 -0.15928325090109921 -0.1122408966347585 0 -0.17483717766923881 -0.1002146097593314 0 -0.15928325090109921 -0.1122408966347585 0 -0.1643548763255932 -0.1027288653905112 0 -0.17483717766923881 -0.1002146097593314 0 -0.1707461018914978 -0.112040360610466 0 -0.15928325090109921 -0.1122408966347585 0 -0.17483717766923881 -0.1002146097593314 0 -0.1643548763255932 -0.1027288653905112 0 -0.17483717766923881 -0.1002146097593314 0 -0.16594595786729169 -0.0920673184874779 0 -0.1903911044373795 -0.08818832288390567 0 -0.18920393692455531 -0.10805273283075249 0 -0.18248147676758389 -0.11238966834508771 0 -0.1903911044373795 -0.08818832288390567 0 -0.18248147676758389 -0.11238966834508771 0 -0.1903911044373795 -0.08818832288390567 0 -0.18248147676758389 -0.11238966834508771 0 -0.17483717766923881 -0.1002146097593314 0 -0.18248147676758389 -0.11238966834508771 0 -0.1707461018914978 -0.112040360610466 0 -0.17483717766923881 -0.1002146097593314 0 -0.1903911044373795 -0.08818832288390567 0 -0.17483717766923881 -0.1002146097593314 0 -0.1903911044373795 -0.08818832288390567 0 -0.17483717766923881 -0.1002146097593314 0 -0.17724544248760049 -0.088876243959215229 0 -0.1903911044373795 -0.08818832288390567 0 -0.17724544248760049 -0.088876243959215229 0 -0.17783880042097699 -0.076500308653624755 0 -0.17724544248760049 -0.088876243959215229 0 -0.17783880042097699 -0.076500308653624755 0 -0.16594595786729169 -0.0920673184874779 0 -0.17483717766923881 -0.1002146097593314 0 -0.17724544248760049 -0.088876243959215229 0 -0.16594595786729169 -0.0920673184874779 0 -0.17783880042097699 -0.076500308653624755 0 -0.16486669470826021 -0.062569389835113398 0 -0.1808195144823759 -0.062257597698413422 0 -0.19869441214389841 -0.062782421789060003 0 -0.17783880042097699 -0.076500308653624755 0 -0.1808195144823759 -0.062257597698413422 0 -0.1575814521498454 -0.084650698257726115 0 -0.15793171795517461 -0.05784389655816885 0 -0.16486669470826021 -0.062569389835113398 0 -0.16594595786729169 -0.0920673184874779 0 -0.17783880042097699 -0.076500308653624755 0 -0.16486669470826021 -0.062569389835113398 0 -0.16594595786729169 -0.0920673184874779 0 -0.16486669470826021 -0.062569389835113398 0 -0.1575814521498454 -0.084650698257726115 0 -0.15793171795517461 -0.05784389655816885 0 -0.1643548763255932 -0.1027288653905112 0 -0.1575814521498454 -0.084650698257726115 0 -0.16594595786729169 -0.0920673184874779 0 -0.16486669470826021 -0.062569389835113398 0 -0.1575814521498454 -0.084650698257726115 0 -0.16594595786729169 -0.0920673184874779 0 -0.1575814521498454 -0.084650698257726115 0 -0.14550805904386799 -0.087053919965645418 0 -0.14861383348981419 -0.071127835441729945 0 -0.14550805904386799 -0.087053919965645418 0 -0.14861383348981419 -0.071127835441729945 0 -0.1337849317432184 -0.06265033997400779 0 -0.1575814521498454 -0.084650698257726115 0 -0.14861383348981419 -0.071127835441729945 0 -0.15793171795517461 -0.05784389655816885 0 -0.14861383348981419 -0.071127835441729945 0 -0.1337849317432184 -0.06265033997400779 0 -0.1474196656361294 -0.056534386534467559 0 -0.14550805904386799 -0.087053919965645418 0 -0.1337849317432184 -0.06265033997400779 0 -0.1186767810779077 -0.08446318279313568 0 -0.14550805904386799 -0.087053919965645418 0 -0.1337849317432184 -0.06265033997400779 0 -0.1186767810779077 -0.08446318279313568 0 -0.14550805904386799 -0.087053919965645418 0 -0.1266899655208536 -0.109489682707931 0 -0.15723118634451691 -0.11145749995728341 0 -0.14550805904386799 -0.087053919965645418 0 -0.14143934886438039 -0.1185632200812223 0 -0.14550805904386799 -0.087053919965645418 0 -0.1266899655208536 -0.109489682707931 0 -0.14143934886438039 -0.1185632200812223 0 -0.13470314996379951 -0.13451618262272641 0 -0.1266899655208536 -0.109489682707931 0 -0.14143934886438039 -0.1185632200812223 0 -0.13470314996379951 -0.13451618262272641 0 -0.1266899655208536 -0.109489682707931 0 -0.15691479087430441 -0.13567211211628319 0 -0.15723118634451691 -0.11145749995728341 0 -0.14143934886438039 -0.1185632200812223 0 -0.15723118634451691 -0.11145749995728341 0 -0.14550805904386799 -0.087053919965645418 0 -0.15723118634451691 -0.11145749995728341 0 -0.1575814521498454 -0.084650698257726115 0 -0.14550805904386799 -0.087053919965645418 0 -0.14648438030968169 -0.019686391012341129 0 -0.162708168390197 -0.0035735325303842269 0 -0.13462794717459339 0.0001373875200551381 0 -0.14648438030968169 -0.019686391012341129 0 -0.1286437647168831 -0.021076231063149861 0 -0.13462794717459339 0.0001373875200551381 0 -0.14648438030968169 -0.019686391012341129 0 -0.1286437647168831 -0.021076231063149861 0 -0.143634948227641 -0.041386117953503117 0 -0.12206180444256889 -0.038246759982370253 0 -0.1286437647168831 -0.021076231063149861 0 -0.143634948227641 -0.041386117953503117 0 -0.12206180444256889 -0.038246759982370253 0 -0.1337849317432184 -0.06265033997400779 0 -0.143634948227641 -0.041386117953503117 0 -0.12206180444256889 -0.038246759982370253 0 -0.1337849317432184 -0.06265033997400779 0 -0.1337849317432184 -0.06265033997400779 0 -0.1474196656361294 -0.056534386534467559 0 -0.143634948227641 -0.041386117953503117 0 -0.1474196656361294 -0.056534386534467559 0 -0.1558631288726349 -0.048622066971297687 0 -0.15793171795517461 -0.05784389655816885 0 -0.1474196656361294 -0.056534386534467559 0 -0.1558631288726349 -0.048622066971297687 0 -0.143634948227641 -0.041386117953503117 0 -0.14861383348981419 -0.071127835441729945 0 -0.1474196656361294 -0.056534386534467559 0 -0.15793171795517461 -0.05784389655816885 0 -0.14648438030968169 -0.019686391012341129 0 -0.143634948227641 -0.041386117953503117 0 -0.16378743154922859 -0.033071461182748813 0 -0.1558631288726349 -0.048622066971297687 0 -0.143634948227641 -0.041386117953503117 0 -0.16378743154922859 -0.033071461182748813 0 -0.16486669470826021 -0.062569389835113398 0 -0.16378743154922859 -0.033071461182748813 0 -0.16486669470826021 -0.062569389835113398 0 -0.16378743154922859 -0.033071461182748813 0 -0.18187815065636809 -0.047178270515855533 0 -0.16486669470826021 -0.062569389835113398 0 -0.1558631288726349 -0.048622066971297687 0 -0.16378743154922859 -0.033071461182748813 0 -0.16486669470826021 -0.062569389835113398 0 -0.1558631288726349 -0.048622066971297687 0 -0.15793171795517461 -0.05784389655816885 0 -0.16486669470826021 -0.062569389835113398 0 -0.1808195144823759 -0.062257597698413422 0 -0.18187815065636809 -0.047178270515855533 0 -0.19869441214389841 -0.062782421789060003 0 -0.1808195144823759 -0.062257597698413422 0 -0.18187815065636809 -0.047178270515855533 0 -0.16378743154922859 -0.033071461182748813 0 -0.18187815065636809 -0.047178270515855533 0 -0.18602521526144619 -0.023206763806465532 0 -0.16378743154922859 -0.033071461182748813 0 -0.162708168390197 -0.0035735325303842269 0 -0.14648438030968169 -0.019686391012341129 0 -0.16378743154922859 -0.033071461182748813 0 -0.162708168390197 -0.0035735325303842269 0 -0.16378743154922859 -0.033071461182748813 0 -0.18602521526144619 -0.023206763806465532 0 -0.162708168390197 -0.0035735325303842269 0 -0.18602521526144619 -0.023206763806465532 0 -0.162708168390197 -0.0035735325303842269 0 -0.1903622337904419 0.00073110470842471559 0 -0.18602521526144619 -0.023206763806465532 0 -0.21530102755693351 -0.01197061959936772 0 -0.1903622337904419 0.00073110470842471559 0 -0.18602521526144619 -0.023206763806465532 0 -0.21530102755693351 -0.01197061959936772 0 -0.20699771985041601 -0.037376520694213843 0 -0.21530102755693351 -0.01197061959936772 0 -0.20699771985041601 -0.037376520694213843 0 -0.22944837581621619 -0.031188772436901019 0 -0.21530102755693351 -0.01197061959936772 0 -0.20699771985041601 -0.037376520694213843 0 -0.19869441214389841 -0.062782421789060003 0 -0.18187815065636809 -0.047178270515855533 0 -0.20699771985041601 -0.037376520694213843 0 -0.19869441214389841 -0.062782421789060003 0 -0.20699771985041601 -0.037376520694213843 0 -0.18187815065636809 -0.047178270515855533 0 -0.18602521526144619 -0.023206763806465532 0 -0.20699771985041601 -0.037376520694213843 0 -0.20699771985041601 -0.037376520694213843 0 -0.21782732024284429 -0.050925805691808372 0 -0.22944837581621619 -0.031188772436901019 0 -0.21404414941324651 -0.069899802653768453 0 -0.19869441214389841 -0.062782421789060003 0 -0.21782732024284429 -0.050925805691808372 0 -0.19869441214389841 -0.062782421789060003 0 -0.20699771985041601 -0.037376520694213843 0 -0.21782732024284429 -0.050925805691808372 0 -0.21404414941324651 -0.069899802653768453 0 -0.21782732024284429 -0.050925805691808372 0 -0.2376971943891146 -0.051611282423632741 0 -0.21404414941324651 -0.069899802653768453 0 -0.2376971943891146 -0.051611282423632741 0 -0.21782732024284429 -0.050925805691808372 0 -0.2376971943891146 -0.051611282423632741 0 -0.22944837581621619 -0.031188772436901019 0 -0.2376971943891146 -0.051611282423632741 0 -0.26135023936498353 -0.033322762193498029 0 -0.24143471366480071 -0.035077590019831538 0 -0.2376971943891146 -0.051611282423632741 0 -0.25160532082985682 -0.038750614477696663 0 -0.24143471366480071 -0.035077590019831538 0 -0.2376971943891146 -0.051611282423632741 0 -0.22944837581621619 -0.031188772436901019 0 -0.24143471366480071 -0.035077590019831538 0 -0.24863456144023741 -0.024564238402092368 0 -0.25160532082985682 -0.038750614477696663 0 -0.2376971943891146 -0.051611282423632741 0 -0.2583802444478398 -0.045366989844700487 0 -0.25108015812935758 -0.055127740583737747 0 -0.2314384919830059 -0.069024203331896405 0 -0.2376971943891146 -0.051611282423632741 0 -0.24403779758410021 -0.058571187515352091 0 -0.2376971943891146 -0.051611282423632741 0 -0.24403779758410021 -0.058571187515352091 0 -0.25108015812935758 -0.055127740583737747 0 -0.24403779758410021 -0.058571187515352091 0 -0.2534759031166931 -0.060728745457993963 0 -0.25108015812935758 -0.055127740583737747 0 -0.21530102755693351 -0.01197061959936772 0 -0.23670680225066101 -0.01005326634575009 0 -0.22989434843903819 0.00062340882394032373 0 -0.21530102755693351 -0.01197061959936772 0 -0.22944837581621619 -0.031188772436901019 0 -0.23670680225066101 -0.01005326634575009 0 -0.22944837581621619 -0.031188772436901019 0 -0.23670680225066101 -0.01005326634575009 0 -0.24143471366480071 -0.035077590019831538 0 -0.22944837581621619 -0.031188772436901019 0 -0.24863456144023741 -0.024564238402092368 0 -0.22944837581621619 -0.031188772436901019 0 -0.24863456144023741 -0.024564238402092368 0 -0.23670680225066101 -0.01005326634575009 0 -0.24863456144023741 -0.024564238402092368 0 -0.23670680225066101 -0.01005326634575009 0 -0.25244635663921139 -0.01058035858029167 0 -0.23670680225066101 -0.01005326634575009 0 -0.25244635663921139 -0.01058035858029167 0 -0.24396522868510681 0.011082239745400501 0 -0.25244635663921139 -0.01058035858029167 0 -0.26462835371274279 -0.01715965287176403 0 -0.26333516374386129 0.00051910053004670942 0 -0.26462835371274279 -0.01715965287176403 0 -0.27047280914219668 -0.026265063064951081 0 -0.26135023936498353 -0.033322762193498029 0 -0.24863456144023741 -0.024564238402092368 0 -0.25244635663921139 -0.01058035858029167 0 -0.26135023936498353 -0.033322762193498029 0 -0.25244635663921139 -0.01058035858029167 0 -0.26462835371274279 -0.01715965287176403 0 -0.26135023936498353 -0.033322762193498029 0 -0.25244635663921139 -0.01058035858029167 0 -0.26135023936498353 -0.033322762193498029 0 -0.27047280914219668 -0.026265063064951081 0 -0.27954474629153547 -0.019246535996728379 0 -0.27292365050773942 -0.036369826323027238 0 -0.27047280914219668 -0.026265063064951081 0 -0.26135023936498353 -0.033322762193498029 0 -0.26462835371274279 -0.01715965287176403 0 -0.27047280914219668 -0.026265063064951081 0 -0.27954474629153547 -0.019246535996728379 0 -0.27047280914219668 -0.026265063064951081 0 -0.27954474629153547 -0.019246535996728379 0 -0.27954474629153547 -0.019246535996728379 0 -0.26333516374386129 0.00051910053004670942 0 -0.28141789439927128 0.0039550589139241482 0 -0.26462835371274279 -0.01715965287176403 0 -0.27954474629153547 -0.019246535996728379 0 -0.26333516374386129 0.00051910053004670942 0 -0.27954474629153547 -0.019246535996728379 0 -0.26333516374386129 0.00051910053004670942 0 -0.27954474629153547 -0.019246535996728379 0 -0.29643305124632008 -0.0074570729062871004 0 -0.27954474629153547 -0.019246535996728379 0 -0.29643305124632008 -0.0074570729062871004 0 -0.28141789439927128 0.0039550589139241482 0 -0.27954474629153547 -0.019246535996728379 0 -0.29829193660678399 -0.042106480019324363 0 -0.27954474629153547 -0.019246535996728379 0 -0.29643305124632008 -0.0074570729062871004 0 -0.29620659629837032 -0.023068693338949949 0 -0.27954474629153547 -0.019246535996728379 0 -0.29620659629837032 -0.023068693338949949 0 -0.29829193660678399 -0.042106480019324363 0 -0.29643305124632008 -0.0074570729062871004 0 -0.29620659629837032 -0.023068693338949949 0 -0.30987599943209893 -0.01791619496714596 0 -0.29620659629837032 -0.023068693338949949 0 -0.30490891047651209 -0.02950707556434988 0 -0.30987599943209893 -0.01791619496714596 0 -0.30490891047651209 -0.02950707556434988 0 -0.30987599943209893 -0.01791619496714596 0 -0.31568328481807439 -0.032709364960495681 0 -0.29643305124632008 -0.0074570729062871004 0 -0.31332135620110318 0.0043323901841563778 0 -0.29643305124632008 -0.0074570729062871004 0 -0.30987599943209893 -0.01791619496714596 0 -0.31332135620110318 0.0043323901841563778 0 -0.29829193660678399 -0.042106480019324363 0 -0.31703912692203379 -0.064966424041919185 0 -0.29829193660678399 -0.042106480019324363 0 -0.29657236928244951 -0.066795824978556947 0 -0.31703912692203379 -0.064966424041919185 0 -0.29620659629837032 -0.023068693338949949 0 -0.30490891047651209 -0.02950707556434988 0 -0.29829193660678399 -0.042106480019324363 0 -0.30490891047651209 -0.02950707556434988 0 -0.29829193660678399 -0.042106480019324363 0 -0.31568328481807439 -0.032709364960495681 0 -0.29829193660678399 -0.042106480019324363 0 -0.27977153622425088 -0.047501782629090217 0 -0.27292365050773942 -0.036369826323027238 0 -0.27954474629153547 -0.019246535996728379 0 -0.29829193660678399 -0.042106480019324363 0 -0.27292365050773942 -0.036369826323027238 0 -0.29829193660678399 -0.042106480019324363 0 -0.28603059434134698 -0.057086361219575971 0 -0.27977153622425088 -0.047501782629090217 0 -0.29829193660678399 -0.042106480019324363 0 -0.28603059434134698 -0.057086361219575971 0 -0.29657236928244951 -0.066795824978556947 0 -0.28603059434134698 -0.057086361219575971 0 -0.27458703602791579 -0.055233944653823072 0 -0.27602852234133701 -0.066365442678115824 0 -0.27458703602791579 -0.055233944653823072 0 -0.27977153622425088 -0.047501782629090217 0 -0.26832002276819272 -0.04741368708583308 0 -0.28603059434134698 -0.057086361219575971 0 -0.27458703602791579 -0.055233944653823072 0 -0.27977153622425088 -0.047501782629090217 0 -0.27458703602791579 -0.055233944653823072 0 -0.26832002276819272 -0.04741368708583308 0 -0.26243951775105079 -0.057279622295930879 0 -0.27458703602791579 -0.055233944653823072 0 -0.26243951775105079 -0.057279622295930879 0 -0.27602852234133701 -0.066365442678115824 0 -0.27977153622425088 -0.047501782629090217 0 -0.26832002276819272 -0.04741368708583308 0 -0.27292365050773942 -0.036369826323027238 0 -0.26832002276819272 -0.04741368708583308 0 -0.27292365050773942 -0.036369826323027238 0 -0.26494283983407702 -0.041615828614448958 0 -0.27292365050773942 -0.036369826323027238 0 -0.26252896560662348 -0.03633347883953536 0 -0.26494283983407702 -0.041615828614448958 0 -0.27047280914219668 -0.026265063064951081 0 -0.27292365050773942 -0.036369826323027238 0 -0.26135023936498353 -0.033322762193498029 0 -0.2376971943891146 -0.051611282423632741 0 -0.26135023936498353 -0.033322762193498029 0 -0.25160532082985682 -0.038750614477696663 0 -0.2376971943891146 -0.051611282423632741 0 -0.26135023936498353 -0.033322762193498029 0 -0.2583802444478398 -0.045366989844700487 0 -0.26135023936498353 -0.033322762193498029 0 -0.26252896560662348 -0.03633347883953536 0 -0.2583802444478398 -0.045366989844700487 0 -0.27292365050773942 -0.036369826323027238 0 -0.26135023936498353 -0.033322762193498029 0 -0.26252896560662348 -0.03633347883953536 0 -0.26135023936498353 -0.033322762193498029 0 -0.26252896560662348 -0.03633347883953536 0 -0.26832002276819272 -0.04741368708583308 0 -0.2583802444478398 -0.045366989844700487 0 -0.26494283983407702 -0.041615828614448958 0 -0.26252896560662348 -0.03633347883953536 0 -0.2583802444478398 -0.045366989844700487 0 -0.26494283983407702 -0.041615828614448958 0 -0.26135023936498353 -0.033322762193498029 0 -0.25160532082985682 -0.038750614477696663 0 -0.24863456144023741 -0.024564238402092368 0 -0.26135023936498353 -0.033322762193498029 0 -0.25160532082985682 -0.038750614477696663 0 -0.26832002276819272 -0.04741368708583308 0 -0.2583802444478398 -0.045366989844700487 0 -0.26243951775105079 -0.057279622295930879 0 -0.2583802444478398 -0.045366989844700487 0 -0.26243951775105079 -0.057279622295930879 0 -0.25108015812935758 -0.055127740583737747 0 -0.26243951775105079 -0.057279622295930879 0 -0.2534759031166931 -0.060728745457993963 0 -0.25108015812935758 -0.055127740583737747 0 -0.26243951775105079 -0.057279622295930879 0 -0.25634613900226388 -0.071936431436955148 0 -0.27602852234133701 -0.066365442678115824 0 -0.24403779758410021 -0.058571187515352091 0 -0.2534759031166931 -0.060728745457993963 0 -0.25634613900226388 -0.071936431436955148 0 -0.26243951775105079 -0.057279622295930879 0 -0.2534759031166931 -0.060728745457993963 0 -0.25634613900226388 -0.071936431436955148 0 -0.24461728410444289 -0.085812993559321732 0 -0.25634613900226388 -0.071936431436955148 0 -0.269259183809134 -0.092175551269514253 0 -0.269259183809134 -0.092175551269514253 0 -0.27602852234133701 -0.066365442678115824 0 -0.2864040922875164 -0.08263917988472641 0 -0.25634613900226388 -0.071936431436955148 0 -0.269259183809134 -0.092175551269514253 0 -0.27602852234133701 -0.066365442678115824 0 -0.24577625714512799 -0.14029660564726071 0 -0.24519677062478559 -0.11305479960329121 0 -0.26010530924180619 -0.1190488040859401 0 -0.24519677062478559 -0.11305479960329121 0 -0.26010530924180619 -0.1190488040859401 0 -0.25849843363262498 -0.10407958980146111 0 -0.26010530924180619 -0.1190488040859401 0 -0.25849843363262498 -0.10407958980146111 0 -0.27331362038295609 -0.1103058004892383 0 -0.24461728410444289 -0.085812993559321732 0 -0.269259183809134 -0.092175551269514253 0 -0.25849843363262498 -0.10407958980146111 0 -0.269259183809134 -0.092175551269514253 0 -0.25849843363262498 -0.10407958980146111 0 -0.27331362038295609 -0.1103058004892383 0 -0.269259183809134 -0.092175551269514253 0 -0.27331362038295609 -0.1103058004892383 0 -0.29186607481136512 -0.10657976852832469 0 -0.26010530924180619 -0.1190488040859401 0 -0.27331362038295609 -0.1103058004892383 0 -0.27927954875603039 -0.12738644077152739 0 -0.29186607481136512 -0.10657976852832469 0 -0.30078403940394632 -0.1228575569570648 0 -0.27927954875603039 -0.12738644077152739 0 -0.27331362038295609 -0.1103058004892383 0 -0.29186607481136512 -0.10657976852832469 0 -0.27927954875603039 -0.12738644077152739 0 -0.29186607481136512 -0.10657976852832469 0 -0.27927954875603039 -0.12738644077152739 0 -0.269259183809134 -0.092175551269514253 0 -0.29186607481136512 -0.10657976852832469 0 -0.2864040922875164 -0.08263917988472641 0 -0.29186607481136512 -0.10657976852832469 0 -0.30445260086669967 -0.085773096285122086 0 -0.31383046227746458 -0.1062221848934692 0 -0.29186607481136512 -0.10657976852832469 0 -0.30445260086669967 -0.085773096285122086 0 -0.30078403940394632 -0.1228575569570648 0 -0.31891113185760678 -0.1244156289722799 0 -0.31383046227746458 -0.1062221848934692 0 -0.29186607481136512 -0.10657976852832469 0 -0.30078403940394632 -0.1228575569570648 0 -0.31383046227746458 -0.1062221848934692 0 -0.27602852234133701 -0.066365442678115824 0 -0.29657236928244951 -0.066795824978556947 0 -0.2864040922875164 -0.08263917988472641 0 -0.28603059434134698 -0.057086361219575971 0 -0.27602852234133701 -0.066365442678115824 0 -0.29657236928244951 -0.066795824978556947 0 -0.29186607481136512 -0.10657976852832469 0 -0.2864040922875164 -0.08263917988472641 0 -0.30445260086669967 -0.085773096285122086 0 -0.29657236928244951 -0.066795824978556947 0 -0.2864040922875164 -0.08263917988472641 0 -0.30445260086669967 -0.085773096285122086 0 -0.29657236928244951 -0.066795824978556947 0 -0.30445260086669967 -0.085773096285122086 0 -0.31703912692203379 -0.064966424041919185 0 -0.30445260086669967 -0.085773096285122086 0 -0.31703912692203379 -0.064966424041919185 0 -0.31703912692203379 -0.064966424041919185 0 -0.33516635096027553 -0.087070393747830432 0 -0.30445260086669967 -0.085773096285122086 0 -0.31703912692203379 -0.064966424041919185 0 -0.33516635096027553 -0.087070393747830432 0 -0.30445260086669967 -0.085773096285122086 0 -0.33516635096027553 -0.087070393747830432 0 -0.31383046227746458 -0.1062221848934692 0 -0.33516635096027553 -0.087070393747830432 0 -0.34566249475218042 -0.099869178819208593 0 -0.33516635096027553 -0.087070393747830432 0 -0.35221739011871678 -0.077769047248747072 0 -0.33540594502462512 -0.060639363164647027 0 -0.33516635096027553 -0.087070393747830432 0 -0.33540594502462512 -0.060639363164647027 0 -0.35221739011871678 -0.077769047248747072 0 -0.33540594502462512 -0.060639363164647027 0 -0.34083045390550792 -0.054478799175520259 0 -0.31703912692203379 -0.064966424041919185 0 -0.33516635096027553 -0.087070393747830432 0 -0.33540594502462512 -0.060639363164647027 0 -0.31891113185760678 -0.1244156289722799 0 -0.31383046227746458 -0.1062221848934692 0 -0.33494106078166508 -0.1119234785571304 0 -0.33516635096027553 -0.087070393747830432 0 -0.31383046227746458 -0.1062221848934692 0 -0.33494106078166508 -0.1119234785571304 0 -0.34018913267761353 -0.1183228710928179 0 -0.34566249475218042 -0.099869178819208593 0 -0.33516635096027553 -0.087070393747830432 0 -0.33494106078166508 -0.1119234785571304 0 -0.33516635096027553 -0.087070393747830432 0 -0.33494106078166508 -0.1119234785571304 0 -0.34566249475218042 -0.099869178819208593 0 -0.33494106078166508 -0.1119234785571304 0 -0.33471577060305779 -0.13677656336643049 0 -0.33494106078166508 -0.1119234785571304 0 -0.34018913267761353 -0.1183228710928179 0 -0.34566249475218042 -0.099869178819208593 0 -0.31891113185760678 -0.1244156289722799 0 -0.33494106078166508 -0.1119234785571304 0 -0.33471577060305779 -0.13677656336643049 0 -0.33494106078166508 -0.1119234785571304 0 -0.34018913267761353 -0.1183228710928179 0 -0.33471577060305779 -0.13677656336643049 0 -0.34956542439473298 -0.1191869236496147 0 -0.34566249475218042 -0.099869178819208593 0 -0.35999200860367642 -0.1173422976709896 0 -0.34018913267761353 -0.1183228710928179 0 -0.34956542439473298 -0.1191869236496147 0 -0.34566249475218042 -0.099869178819208593 0 -0.34956542439473298 -0.1191869236496147 0 -0.35999200860367642 -0.1173422976709896 0 -0.35726704382272928 -0.12792677819997469 0 -0.34018913267761353 -0.1183228710928179 0 -0.34956542439473298 -0.1191869236496147 0 -0.34340497599965708 -0.12990771750654989 0 -0.34566249475218042 -0.099869178819208593 0 -0.35999200860367642 -0.1173422976709896 0 -0.34566249475218042 -0.099869178819208593 0 -0.3643619388480101 -0.10260887662403211 0 -0.35999200860367642 -0.1173422976709896 0 -0.3643619388480101 -0.10260887662403211 0 -0.37556586895243421 -0.088280769288691885 0 -0.37730311894933699 -0.1037545088539835 0 -0.3643619388480101 -0.10260887662403211 0 -0.37112524462420932 -0.1164421910796144 0 -0.37730311894933699 -0.1037545088539835 0 -0.37112524462420932 -0.1164421910796144 0 -0.35999200860367642 -0.1173422976709896 0 -0.37650648757731559 -0.1274487059993111 0 -0.3643619388480101 -0.10260887662403211 0 -0.37112524462420932 -0.1164421910796144 0 -0.35999200860367642 -0.1173422976709896 0 -0.3643619388480101 -0.10260887662403211 0 -0.37112524462420932 -0.1164421910796144 0 -0.37112524462420932 -0.1164421910796144 0 -0.37650648757731559 -0.1274487059993111 0 -0.35221739011871678 -0.077769047248747072 0 -0.35059521293857088 -0.057263738132353553 0 -0.34083045390550792 -0.054478799175520259 0 -0.35221739011871678 -0.077769047248747072 0 -0.36009938766948452 -0.051194529553421839 0 -0.35221739011871678 -0.077769047248747072 0 -0.34083045390550792 -0.054478799175520259 0 -0.34566249475218042 -0.099869178819208593 0 -0.3643619388480101 -0.10260887662403211 0 -0.35221739011871678 -0.077769047248747072 0 -0.3643619388480101 -0.10260887662403211 0 -0.35221739011871678 -0.077769047248747072 0 -0.34566249475218042 -0.099869178819208593 0 -0.35221739011871678 -0.077769047248747072 0 -0.33516635096027553 -0.087070393747830432 0 -0.34566249475218042 -0.099869178819208593 0 -0.35221739011871678 -0.077769047248747072 0 -0.3643619388480101 -0.10260887662403211 0 -0.35221739011871678 -0.077769047248747072 0 -0.37556586895243421 -0.088280769288691885 0 -0.35221739011871678 -0.077769047248747072 0 -0.36009938766948452 -0.051194529553421839 0 -0.37655918218499912 -0.068217097007042191 0 -0.35221739011871678 -0.077769047248747072 0 -0.37655918218499912 -0.068217097007042191 0 -0.37556586895243421 -0.088280769288691885 0 -0.36009938766948452 -0.051194529553421839 0 -0.37907160123037592 -0.048820037027131703 0 -0.37655918218499912 -0.068217097007042191 0 -0.35221739011871678 -0.077769047248747072 0 -0.36009938766948452 -0.051194529553421839 0 -0.35059521293857088 -0.057263738132353553 0 -0.36009938766948452 -0.051194529553421839 0 -0.35059521293857088 -0.057263738132353553 0 -0.34923362006056458 -0.045612576551722198 0 -0.35059521293857088 -0.057263738132353553 0 -0.34923362006056458 -0.045612576551722198 0 -0.34083045390550792 -0.054478799175520259 0 -0.34923362006056458 -0.045612576551722198 0 -0.35318963186021402 -0.03405519468188354 0 -0.33564553908897149 -0.034208332581463601 0 -0.36009938766948452 -0.051194529553421839 0 -0.34923362006056458 -0.045612576551722198 0 -0.35318963186021402 -0.03405519468188354 0 -0.36009938766948452 -0.051194529553421839 0 -0.35318963186021402 -0.03405519468188354 0 -0.3679813852202426 -0.024620011858093729 0 -0.36009938766948452 -0.051194529553421839 0 -0.3679813852202426 -0.024620011858093729 0 -0.36009938766948452 -0.051194529553421839 0 -0.3679813852202426 -0.024620011858093729 0 -0.37907160123037592 -0.048820037027131703 0 -0.3679813852202426 -0.024620011858093729 0 -0.36291849627630512 -0.011003334465895581 0 -0.35726674694407368 -0.021333405950539439 0 -0.35318963186021402 -0.03405519468188354 0 -0.3679813852202426 -0.024620011858093729 0 -0.35726674694407368 -0.021333405950539439 0 -0.3679813852202426 -0.024620011858093729 0 -0.36291849627630512 -0.011003334465895581 0 -0.37586338277100068 0.0019545058372344988 0 -0.36291849627630512 -0.011003334465895581 0 -0.37586338277100068 0.0019545058372344988 0 -0.35848621854042878 0.0035493877830932892 0 -0.3679813852202426 -0.024620011858093729 0 -0.37586338277100068 0.0019545058372344988 0 -0.34631492114257878 -0.016570873726576809 0 -0.35848621854042878 0.0035493877830932892 0 -0.34385549330821541 -0.0030521141313502899 0 -0.34631492114257878 -0.016570873726576809 0 -0.35848621854042878 0.0035493877830932892 0 -0.35452545960934628 -0.012553838251106149 0 -0.34631492114257878 -0.016570873726576809 0 -0.35848621854042878 0.0035493877830932892 0 -0.36291849627630512 -0.011003334465895581 0 -0.35452545960934628 -0.012553838251106149 0 -0.35848621854042878 0.0035493877830932892 0 -0.36291849627630512 -0.011003334465895581 0 -0.35452545960934628 -0.012553838251106149 0 -0.35726674694407368 -0.021333405950539439 0 -0.35318963186021402 -0.03405519468188354 0 -0.34801155083583668 -0.024715754367215091 0 -0.33564553908897149 -0.034208332581463601 0 -0.35318963186021402 -0.03405519468188354 0 -0.35726674694407368 -0.021333405950539439 0 -0.34801155083583668 -0.024715754367215091 0 -0.35452545960934628 -0.012553838251106149 0 -0.35726674694407368 -0.021333405950539439 0 -0.34631492114257878 -0.016570873726576809 0 -0.35726674694407368 -0.021333405950539439 0 -0.34631492114257878 -0.016570873726576809 0 -0.34801155083583668 -0.024715754367215091 0 -0.33518024096845422 -0.021516058851720241 0 -0.32981813867183951 -0.0061192417712125653 0 -0.32537188059897781 -0.0221743245200943 0 -0.34631492114257878 -0.016570873726576809 0 -0.33518024096845422 -0.021516058851720241 0 -0.33564553908897149 -0.034208332581463601 0 -0.34631492114257878 -0.016570873726576809 0 -0.34801155083583668 -0.024715754367215091 0 -0.33564553908897149 -0.034208332581463601 0 -0.34631492114257878 -0.016570873726576809 0 -0.33564553908897149 -0.034208332581463601 0 -0.33518024096845422 -0.021516058851720241 0 -0.33062277628484338 -0.02712673402252468 0 -0.33564553908897149 -0.034208332581463601 0 -0.33518024096845422 -0.021516058851720241 0 -0.33062277628484338 -0.02712673402252468 0 -0.32537188059897781 -0.0221743245200943 0 -0.33062277628484338 -0.02712673402252468 0 -0.32630954465416673 -0.033484713917493948 0 -0.33205874571996341 -0.031937560019797813 0 -0.33062277628484338 -0.02712673402252468 0 -0.33205874571996341 -0.031937560019797813 0 -0.33564553908897149 -0.034208332581463601 0 -0.34631492114257878 -0.016570873726576809 0 -0.32981813867183951 -0.0061192417712125653 0 -0.34385549330821541 -0.0030521141313502899 0 -0.34631492114257878 -0.016570873726576809 0 -0.32981813867183951 -0.0061192417712125653 0 -0.34631492114257878 -0.016570873726576809 0 -0.33518024096845422 -0.021516058851720241 0 -0.32981813867183951 -0.0061192417712125653 0 -0.34385549330821541 -0.0030521141313502899 0 -0.32981813867183951 -0.0061192417712125653 0 -0.34080269487801462 0.0069322711892949931 0 -0.30987599943209893 -0.01791619496714596 0 -0.32981813867183951 -0.0061192417712125653 0 -0.32537188059897781 -0.0221743245200943 0 -0.32981813867183951 -0.0061192417712125653 0 -0.31332135620110318 0.0043323901841563778 0 -0.30987599943209893 -0.01791619496714596 0 -0.32981813867183951 -0.0061192417712125653 0 -0.31332135620110318 0.0043323901841563778 0 -0.33062277628484338 -0.02712673402252468 0 -0.32537188059897781 -0.0221743245200943 0 -0.32630954465416673 -0.033484713917493948 0 -0.32537188059897781 -0.0221743245200943 0 -0.31568328481807439 -0.032709364960495681 0 -0.32630954465416673 -0.033484713917493948 0 -0.30987599943209893 -0.01791619496714596 0 -0.32537188059897781 -0.0221743245200943 0 -0.31568328481807439 -0.032709364960495681 0 -0.29829193660678399 -0.042106480019324363 0 -0.31568328481807439 -0.032709364960495681 0 -0.3263423330055028 -0.049587378311691452 0 -0.31568328481807439 -0.032709364960495681 0 -0.32630954465416673 -0.033484713917493948 0 -0.3263423330055028 -0.049587378311691452 0 -0.31703912692203379 -0.064966424041919185 0 -0.3263423330055028 -0.049587378311691452 0 -0.33540594502462512 -0.060639363164647027 0 -0.29829193660678399 -0.042106480019324363 0 -0.31703912692203379 -0.064966424041919185 0 -0.3263423330055028 -0.049587378311691452 0 -0.31703912692203379 -0.064966424041919185 0 -0.3263423330055028 -0.049587378311691452 0 -0.33540594502462512 -0.060639363164647027 0 -0.34083045390550792 -0.054478799175520259 0 -0.33564553908897149 -0.034208332581463601 0 -0.33540594502462512 -0.060639363164647027 0 -0.33564553908897149 -0.034208332581463601 0 -0.3263423330055028 -0.049587378311691452 0 -0.33540594502462512 -0.060639363164647027 0 -0.33564553908897149 -0.034208332581463601 0 -0.32630954465416673 -0.033484713917493948 0 -0.3263423330055028 -0.049587378311691452 0 -0.33564553908897149 -0.034208332581463601 0 -0.34923362006056458 -0.045612576551722198 0 -0.34083045390550792 -0.054478799175520259 0 -0.33564553908897149 -0.034208332581463601 0 -0.32630954465416673 -0.033484713917493948 0 -0.33205874571996341 -0.031937560019797813 0 -0.33564553908897149 -0.034208332581463601 0 -0.3263423330055028 -0.049587378311691452 0 -0.33564553908897149 -0.034208332581463601 0 -0.30135248256264541 -0.25011025019154232 0 -0.30530464233036803 -0.23365091060391341 0 -0.31722060212611358 -0.24934470963434141 0 -0.30135248256264541 -0.25011025019154232 0 -0.30530464233036803 -0.23365091060391341 0 -0.28813250276720259 -0.23386487898149219 0 -0.30530464233036803 -0.23365091060391341 0 -0.30346407965692163 -0.2168368162066259 0 -0.32107591686267511 -0.22283425654894831 0 -0.30530464233036803 -0.23365091060391341 0 -0.28813250276720259 -0.23386487898149219 0 -0.30346407965692163 -0.2168368162066259 0 -0.28813250276720259 -0.23386487898149219 0 -0.28694061111813152 -0.2132206816953828 0 -0.30346407965692163 -0.2168368162066259 0 -0.28813250276720259 -0.23386487898149219 0 -0.27114042832924978 -0.23137538788118531 0 -0.28694061111813152 -0.2132206816953828 0 -0.2835409387152325 -0.25041316285626603 0 -0.30135248256264541 -0.25011025019154232 0 -0.28813250276720259 -0.23386487898149219 0 -0.28813250276720259 -0.23386487898149219 0 -0.26956626606988687 -0.24595824657802251 0 -0.27114042832924978 -0.23137538788118531 0 -0.2835409387152325 -0.25041316285626603 0 -0.28813250276720259 -0.23386487898149219 0 -0.26956626606988687 -0.24595824657802251 0 -0.25534024554036799 -0.24953009406698781 0 -0.25571962837200518 -0.22937650551787259 0 -0.27114042832924978 -0.23137538788118531 0 -0.26956626606988687 -0.24595824657802251 0 -0.25534024554036799 -0.24953009406698781 0 -0.27114042832924978 -0.23137538788118531 0 -0.24398490533090411 -0.23798917360845631 0 -0.25534024554036799 -0.24953009406698781 0 -0.25571962837200518 -0.22937650551787259 0 -0.25534024554036799 -0.24953009406698781 0 -0.27114042832924978 -0.23137538788118531 0 -0.25571962837200518 -0.22937650551787259 0 -0.27114042832924978 -0.23137538788118531 0 -0.25810050579600641 -0.21099136787076239 0 -0.24513076192569991 -0.22228630733671209 0 -0.25571962837200518 -0.22937650551787259 0 -0.25810050579600641 -0.21099136787076239 0 -0.27114042832924978 -0.23137538788118531 0 -0.28694061111813152 -0.2132206816953828 0 -0.25810050579600641 -0.21099136787076239 0 -0.2695333828073222 -0.1981430513722893 0 -0.28694061111813152 -0.2132206816953828 0 -0.27114042832924978 -0.23137538788118531 0 -0.25810050579600641 -0.21099136787076239 0 -0.28694061111813152 -0.2132206816953828 0 -0.2488743987547265 -0.1964769315240191 0 -0.24513076192569991 -0.22228630733671209 0 -0.25810050579600641 -0.21099136787076239 0 -0.2488743987547265 -0.1964769315240191 0 -0.25480096477913827 -0.19209074860696701 0 -0.25399519627080319 -0.18572101370062019 0 -0.25480096477913827 -0.19209074860696701 0 -0.25789643153735481 -0.1866794693321239 0 -0.25399519627080319 -0.18572101370062019 0 -0.25480096477913827 -0.19209074860696701 0 -0.26038480146967619 -0.19221782310506 0 -0.25789643153735481 -0.1866794693321239 0 -0.2488743987547265 -0.1964769315240191 0 -0.25810050579600641 -0.21099136787076239 0 -0.25833881072137388 -0.19798398449581961 0 -0.2488743987547265 -0.1964769315240191 0 -0.25480096477913827 -0.19209074860696701 0 -0.25833881072137388 -0.19798398449581961 0 -0.25810050579600641 -0.21099136787076239 0 -0.25833881072137388 -0.19798398449581961 0 -0.2695333828073222 -0.1981430513722893 0 -0.25833881072137388 -0.19798398449581961 0 -0.26038480146967619 -0.19221782310506 0 -0.2695333828073222 -0.1981430513722893 0 -0.26038480146967619 -0.19221782310506 0 -0.2695333828073222 -0.1981430513722893 0 -0.2642490191364037 -0.18334460113504969 0 -0.25480096477913827 -0.19209074860696701 0 -0.25833881072137388 -0.19798398449581961 0 -0.26038480146967619 -0.19221782310506 0 -0.2695333828073222 -0.1981430513722893 0 -0.28699433922668499 -0.19731457726515891 0 -0.28694061111813152 -0.2132206816953828 0 -0.2695333828073222 -0.1981430513722893 0 -0.2900683108260288 -0.1817082406206656 0 -0.2695333828073222 -0.1981430513722893 0 -0.28699433922668499 -0.19731457726515891 0 -0.2900683108260288 -0.1817082406206656 0 -0.28699433922668499 -0.19731457726515891 0 -0.30274079390701331 -0.19506597550958019 0 -0.2900683108260288 -0.1817082406206656 0 -0.28699433922668499 -0.19731457726515891 0 -0.28694061111813152 -0.2132206816953828 0 -0.30274079390701331 -0.19506597550958019 0 -0.28694061111813152 -0.2132206816953828 0 -0.30274079390701331 -0.19506597550958019 0 -0.30346407965692163 -0.2168368162066259 0 -0.30274079390701331 -0.19506597550958019 0 -0.31653207543670597 -0.2045073433681541 0 -0.28694061111813152 -0.2132206816953828 0 -0.30346407965692163 -0.2168368162066259 0 -0.30274079390701331 -0.19506597550958019 0 -0.30548833006841808 -0.17973972883076639 0 -0.31060323884473529 -0.165273429869042 0 -0.2900683108260288 -0.1817082406206656 0 -0.30274079390701331 -0.19506597550958019 0 -0.30548833006841808 -0.17973972883076639 0 -0.31854097669589498 -0.17691126932377771 0 -0.31060323884473529 -0.165273429869042 0 -0.2900683108260288 -0.1817082406206656 0 -0.30274079390701331 -0.19506597550958019 0 -0.31854097669589498 -0.17691126932377771 0 -0.30274079390701331 -0.19506597550958019 0 -0.30548833006841808 -0.17973972883076639 0 -0.2900683108260288 -0.1817082406206656 0 -0.30548833006841808 -0.17973972883076639 0 -0.31060323884473529 -0.165273429869042 0 -0.31854097669589498 -0.17691126932377771 0 -0.31060323884473529 -0.165273429869042 0 -0.29625430851641432 -0.16415910285035401 0 -0.2900683108260288 -0.1817082406206656 0 -0.29625430851641432 -0.16415910285035401 0 -0.29187970649107831 -0.15233143325025619 0 -0.30364810621285399 -0.15537567875738889 0 -0.31060323884473529 -0.165273429869042 0 -0.29625430851641432 -0.16415910285035401 0 -0.30364810621285399 -0.15537567875738889 0 -0.29625430851641432 -0.16415910285035401 0 -0.28507218020737513 -0.1661067317544172 0 -0.2900683108260288 -0.1817082406206656 0 -0.29625430851641432 -0.16415910285035401 0 -0.28507218020737513 -0.1661067317544172 0 -0.29187970649107831 -0.15233143325025619 0 -0.28507218020737513 -0.1661067317544172 0 -0.27764780261152261 -0.15435597105306331 0 -0.29187970649107831 -0.15233143325025619 0 -0.28507218020737513 -0.1661067317544172 0 -0.2900683108260288 -0.1817082406206656 0 -0.27550035343900292 -0.17730063395417681 0 -0.2695333828073222 -0.1981430513722893 0 -0.2900683108260288 -0.1817082406206656 0 -0.27550035343900292 -0.17730063395417681 0 -0.2695333828073222 -0.1981430513722893 0 -0.27550035343900292 -0.17730063395417681 0 -0.2642490191364037 -0.18334460113504969 0 -0.27550035343900292 -0.17730063395417681 0 -0.26737876615813461 -0.17370546466514711 0 -0.2642490191364037 -0.18334460113504969 0 -0.27550035343900292 -0.17730063395417681 0 -0.26737876615813461 -0.17370546466514711 0 -0.27258490128151952 -0.16538857693836251 0 -0.2488743987547265 -0.1964769315240191 0 -0.25261803558375312 -0.17066755571132619 0 -0.2488743987547265 -0.1964769315240191 0 -0.25369825060611201 -0.17841623830429701 0 -0.25399519627080319 -0.18572101370062019 0 -0.2488743987547265 -0.1964769315240191 0 -0.25369825060611201 -0.17841623830429701 0 -0.25261803558375312 -0.17066755571132619 0 -0.25784152460556758 -0.1812749105718644 0 -0.2642490191364037 -0.18334460113504969 0 -0.25920427879114749 -0.17473154698905691 0 -0.26038480146967619 -0.19221782310506 0 -0.25789643153735481 -0.1866794693321239 0 -0.2642490191364037 -0.18334460113504969 0 -0.25789643153735481 -0.1866794693321239 0 -0.25784152460556758 -0.1812749105718644 0 -0.2642490191364037 -0.18334460113504969 0 -0.26737876615813461 -0.17370546466514711 0 -0.2642490191364037 -0.18334460113504969 0 -0.25920427879114749 -0.17473154698905691 0 -0.26737876615813461 -0.17370546466514711 0 -0.25920427879114749 -0.17473154698905691 0 -0.2653552781425989 -0.16776196430908921 0 -0.25784152460556758 -0.1812749105718644 0 -0.25920427879114749 -0.17473154698905691 0 -0.25369825060611201 -0.17841623830429701 0 -0.25920427879114749 -0.17473154698905691 0 -0.25490985567174079 -0.1736586077659483 0 -0.25369825060611201 -0.17841623830429701 0 -0.25920427879114749 -0.17473154698905691 0 -0.25649688237314622 -0.1726312702589281 0 -0.25490985567174079 -0.1736586077659483 0 -0.25649688237314622 -0.1726312702589281 0 -0.25490985567174079 -0.1736586077659483 0 -0.25500898878899431 -0.17094729734891301 0 -0.25490985567174079 -0.1736586077659483 0 -0.25369825060611201 -0.17841623830429701 0 -0.25261803558375312 -0.17066755571132619 0 -0.25789643153735481 -0.1866794693321239 0 -0.25784152460556758 -0.1812749105718644 0 -0.25399519627080319 -0.18572101370062019 0 -0.25784152460556758 -0.1812749105718644 0 -0.25369825060611201 -0.17841623830429701 0 -0.25399519627080319 -0.18572101370062019 0 -0.25410649664536111 -0.1689997852579328 0 -0.26085648340178169 -0.1656844403562871 0 -0.26669302270069573 -0.14819311301473009 0 -0.25261803558375312 -0.17066755571132619 0 -0.25636167241277957 -0.1448581798986332 0 -0.25410649664536111 -0.1689997852579328 0 -0.26669302270069573 -0.14819311301473009 0 -0.26085648340178169 -0.1656844403562871 0 -0.26882557485771091 -0.1591519877044254 0 -0.26669302270069573 -0.14819311301473009 0 -0.25744480683564741 -0.1581796584706556 0 -0.25410649664536111 -0.1689997852579328 0 -0.26669302270069573 -0.14819311301473009 0 -0.25744480683564741 -0.1581796584706556 0 -0.25261803558375312 -0.17066755571132619 0 -0.25636167241277957 -0.1448581798986332 0 -0.2462108327293189 -0.16072611239223561 0 -0.25261803558375312 -0.17066755571132619 0 -0.25636167241277957 -0.1448581798986332 0 -0.25744480683564741 -0.1581796584706556 0 -0.25261803558375312 -0.17066755571132619 0 -0.25410649664536111 -0.1689997852579328 0 -0.25649688237314622 -0.1726312702589281 0 -0.25500898878899431 -0.17094729734891301 0 -0.26085648340178169 -0.1656844403562871 0 -0.25500898878899431 -0.17094729734891301 0 -0.25410649664536111 -0.1689997852579328 0 -0.26085648340178169 -0.1656844403562871 0 -0.25261803558375312 -0.17066755571132619 0 -0.25500898878899431 -0.17094729734891301 0 -0.25410649664536111 -0.1689997852579328 0 -0.25490985567174079 -0.1736586077659483 0 -0.25261803558375312 -0.17066755571132619 0 -0.25500898878899431 -0.17094729734891301 0 -0.2653552781425989 -0.16776196430908921 0 -0.26085648340178169 -0.1656844403562871 0 -0.26882557485771091 -0.1591519877044254 0 -0.25920427879114749 -0.17473154698905691 0 -0.2653552781425989 -0.16776196430908921 0 -0.26085648340178169 -0.1656844403562871 0 -0.25920427879114749 -0.17473154698905691 0 -0.25649688237314622 -0.1726312702589281 0 -0.26085648340178169 -0.1656844403562871 0 -0.26882557485771091 -0.1591519877044254 0 -0.27258490128151952 -0.16538857693836251 0 -0.27764780261152261 -0.15435597105306331 0 -0.26737876615813461 -0.17370546466514711 0 -0.2653552781425989 -0.16776196430908921 0 -0.27258490128151952 -0.16538857693836251 0 -0.2653552781425989 -0.16776196430908921 0 -0.26882557485771091 -0.1591519877044254 0 -0.27258490128151952 -0.16538857693836251 0 -0.28507218020737513 -0.1661067317544172 0 -0.27550035343900292 -0.17730063395417681 0 -0.27258490128151952 -0.16538857693836251 0 -0.28507218020737513 -0.1661067317544172 0 -0.27258490128151952 -0.16538857693836251 0 -0.27764780261152261 -0.15435597105306331 0 -0.27764780261152261 -0.15435597105306331 0 -0.26669302270069573 -0.14819311301473009 0 -0.28185708473435389 -0.14393395258607869 0 -0.26882557485771091 -0.1591519877044254 0 -0.27764780261152261 -0.15435597105306331 0 -0.26669302270069573 -0.14819311301473009 0 -0.25744480683564741 -0.1581796584706556 0 -0.26669302270069573 -0.14819311301473009 0 -0.25636167241277957 -0.1448581798986332 0 -0.26669302270069573 -0.14819311301473009 0 -0.25636167241277957 -0.1448581798986332 0 -0.26575860549466468 -0.13341755511168579 0 -0.24577625714512799 -0.14029660564726071 0 -0.25636167241277957 -0.1448581798986332 0 -0.2511891577251894 -0.14057830169355889 0 -0.26010530924180619 -0.1190488040859401 0 -0.25636167241277957 -0.1448581798986332 0 -0.2511891577251894 -0.14057830169355889 0 -0.26010530924180619 -0.1190488040859401 0 -0.25636167241277957 -0.1448581798986332 0 -0.26575860549466468 -0.13341755511168579 0 -0.26010530924180619 -0.1190488040859401 0 -0.25636167241277957 -0.1448581798986332 0 -0.24577625714512799 -0.14029660564726071 0 -0.26010530924180619 -0.1190488040859401 0 -0.2511891577251894 -0.14057830169355889 0 -0.26669302270069573 -0.14819311301473009 0 -0.27927954875603039 -0.12738644077152739 0 -0.26669302270069573 -0.14819311301473009 0 -0.27927954875603039 -0.12738644077152739 0 -0.28185708473435389 -0.14393395258607869 0 -0.26669302270069573 -0.14819311301473009 0 -0.27927954875603039 -0.12738644077152739 0 -0.26575860549466468 -0.13341755511168579 0 -0.26010530924180619 -0.1190488040859401 0 -0.27927954875603039 -0.12738644077152739 0 -0.26575860549466468 -0.13341755511168579 0 -0.27927954875603039 -0.12738644077152739 0 -0.29378534311244231 -0.13740280484081679 0 -0.28185708473435389 -0.14393395258607869 0 -0.30078403940394632 -0.1228575569570648 0 -0.27927954875603039 -0.12738644077152739 0 -0.29378534311244231 -0.13740280484081679 0 -0.27764780261152261 -0.15435597105306331 0 -0.28185708473435389 -0.14393395258607869 0 -0.29187970649107831 -0.15233143325025619 0 -0.29378534311244231 -0.13740280484081679 0 -0.29187970649107831 -0.15233143325025619 0 -0.30164490439757069 -0.14565008621493991 0 -0.29378534311244231 -0.13740280484081679 0 -0.28185708473435389 -0.14393395258607869 0 -0.29187970649107831 -0.15233143325025619 0 -0.31060323884473529 -0.165273429869042 0 -0.30364810621285399 -0.15537567875738889 0 -0.3118796905627107 -0.1480020004902671 0 -0.29187970649107831 -0.15233143325025619 0 -0.30164490439757069 -0.14565008621493991 0 -0.30364810621285399 -0.15537567875738889 0 -0.30164490439757069 -0.14565008621493991 0 -0.30364810621285399 -0.15537567875738889 0 -0.3118796905627107 -0.1480020004902671 0 -0.30164490439757069 -0.14565008621493991 0 -0.3118796905627107 -0.1480020004902671 0 -0.30703167560876848 -0.13513851373597069 0 -0.30078403940394632 -0.1228575569570648 0 -0.31891113185760678 -0.1244156289722799 0 -0.30703167560876848 -0.13513851373597069 0 -0.30078403940394632 -0.1228575569570648 0 -0.29378534311244231 -0.13740280484081679 0 -0.30703167560876848 -0.13513851373597069 0 -0.29378534311244231 -0.13740280484081679 0 -0.30164490439757069 -0.14565008621493991 0 -0.30703167560876848 -0.13513851373597069 0 -0.31891113185760678 -0.1244156289722799 0 -0.3215735211957404 -0.13974395583000421 0 -0.33471577060305779 -0.13677656336643049 0 -0.31891113185760678 -0.1244156289722799 0 -0.30703167560876848 -0.13513851373597069 0 -0.3215735211957404 -0.13974395583000421 0 -0.3118796905627107 -0.1480020004902671 0 -0.3215735211957404 -0.13974395583000421 0 -0.31879865436664978 -0.1504645013266776 0 -0.3118796905627107 -0.1480020004902671 0 -0.30703167560876848 -0.13513851373597069 0 -0.3215735211957404 -0.13974395583000421 0 -0.31060323884473529 -0.165273429869042 0 -0.3118796905627107 -0.1480020004902671 0 -0.31879865436664978 -0.1504645013266776 0 -0.31060323884473529 -0.165273429869042 0 -0.31879865436664978 -0.1504645013266776 0 -0.33113816686342912 -0.1488386191174022 0 -0.3215735211957404 -0.13974395583000421 0 -0.31879865436664978 -0.1504645013266776 0 -0.33113816686342912 -0.1488386191174022 0 -0.3215735211957404 -0.13974395583000421 0 -0.33113816686342912 -0.1488386191174022 0 -0.33471577060305779 -0.13677656336643049 0 -0.33463177544123462 -0.14604256374464161 0 -0.33471577060305779 -0.13677656336643049 0 -0.33113816686342912 -0.1488386191174022 0 -0.33471577060305779 -0.13677656336643049 0 -0.33463177544123462 -0.14604256374464161 0 -0.33113816686342912 -0.1488386191174022 0 -0.33471577060305779 -0.13677656336643049 0 -0.33463177544123462 -0.14604256374464161 0 -0.33113816686342912 -0.1488386191174022 0 -0.34018913267761353 -0.1183228710928179 0 -0.33471577060305779 -0.13677656336643049 0 -0.33463177544123462 -0.14604256374464161 0 -0.33471577060305779 -0.13677656336643049 0 -0.34340497599965708 -0.12990771750654989 0 -0.34018913267761353 -0.1183228710928179 0 -0.33471577060305779 -0.13677656336643049 0 -0.34340497599965708 -0.12990771750654989 0 -0.34956542439473298 -0.1191869236496147 0 -0.34340497599965708 -0.12990771750654989 0 -0.35726704382272928 -0.12792677819997469 0 -0.35726704382272928 -0.12792677819997469 0 -0.3637071157644769 -0.13911950607196119 0 -0.3538914338482626 -0.14600803827979189 0 -0.33463177544123462 -0.14604256374464161 0 -0.35726704382272928 -0.12792677819997469 0 -0.3538914338482626 -0.14600803827979189 0 -0.33463177544123462 -0.14604256374464161 0 -0.35726704382272928 -0.12792677819997469 0 -0.33463177544123462 -0.14604256374464161 0 -0.34340497599965708 -0.12990771750654989 0 -0.35726704382272928 -0.12792677819997469 0 -0.35999200860367642 -0.1173422976709896 0 -0.37432152245514833 -0.13481541652279019 0 -0.35999200860367642 -0.1173422976709896 0 -0.35726704382272928 -0.12792677819997469 0 -0.37432152245514833 -0.13481541652279019 0 -0.35726704382272928 -0.12792677819997469 0 -0.3637071157644769 -0.13911950607196119 0 -0.37432152245514833 -0.13481541652279019 0 -0.35999200860367642 -0.1173422976709896 0 -0.37432152245514833 -0.13481541652279019 0 -0.37650648757731559 -0.1274487059993111 0 -0.3637071157644769 -0.13911950607196119 0 -0.37432152245514833 -0.13481541652279019 0 -0.36934150265767968 -0.14941295198707849 0 -0.3637071157644769 -0.13911950607196119 0 -0.36934150265767968 -0.14941295198707849 0 -0.3538914338482626 -0.14600803827979189 0 -0.36934150265767968 -0.14941295198707849 0 -0.3538914338482626 -0.14600803827979189 0 -0.36027959978185459 -0.1609433421744578 0 -0.33463177544123462 -0.14604256374464161 0 -0.3538914338482626 -0.14600803827979189 0 -0.34593694060822799 -0.15993786936278531 0 -0.3538914338482626 -0.14600803827979189 0 -0.34593694060822799 -0.15993786936278531 0 -0.36027959978185459 -0.1609433421744578 0 -0.34593694060822799 -0.15993786936278531 0 -0.36096666751904982 -0.1793364830981575 0 -0.33436113500529419 -0.175898502199823 0 -0.34593694060822799 -0.15993786936278531 0 -0.36027959978185459 -0.1609433421744578 0 -0.36096666751904982 -0.1793364830981575 0 -0.36027959978185459 -0.1609433421744578 0 -0.36096666751904982 -0.1793364830981575 0 -0.37519830778971541 -0.16330287349887951 0 -0.36934150265767968 -0.14941295198707849 0 -0.36027959978185459 -0.1609433421744578 0 -0.37519830778971541 -0.16330287349887951 0 -0.36096666751904982 -0.1793364830981575 0 -0.38072381114907489 -0.19088025119417529 0 -0.37863568028109928 -0.17763145396319771 0 -0.36096666751904982 -0.1793364830981575 0 -0.37863568028109928 -0.17763145396319771 0 -0.37519830778971541 -0.16330287349887951 0 -0.36096666751904982 -0.1793364830981575 0 -0.33436113500529419 -0.175898502199823 0 -0.35208471071104402 -0.19911344287949301 0 -0.33463177544123462 -0.14604256374464161 0 -0.34593694060822799 -0.15993786936278531 0 -0.33436113500529419 -0.175898502199823 0 -0.33463177544123462 -0.14604256374464161 0 -0.33436113500529419 -0.175898502199823 0 -0.33113816686342912 -0.1488386191174022 0 -0.33436113500529419 -0.175898502199823 0 -0.32621362952548899 -0.16544192351900469 0 -0.33463177544123462 -0.14604256374464161 0 -0.33113816686342912 -0.1488386191174022 0 -0.33436113500529419 -0.175898502199823 0 -0.33113816686342912 -0.1488386191174022 0 -0.32621362952548899 -0.16544192351900469 0 -0.31060323884473529 -0.165273429869042 0 -0.33113816686342912 -0.1488386191174022 0 -0.32621362952548899 -0.16544192351900469 0 -0.31060323884473529 -0.165273429869042 0 -0.33113816686342912 -0.1488386191174022 0 -0.31060323884473529 -0.165273429869042 0 -0.32621362952548899 -0.16544192351900469 0 -0.31854097669589498 -0.17691126932377771 0 -0.32621362952548899 -0.16544192351900469 0 -0.32128909218756529 -0.18204522792061181 0 -0.33436113500529419 -0.175898502199823 0 -0.32621362952548899 -0.16544192351900469 0 -0.32128909218756529 -0.18204522792061181 0 -0.30274079390701331 -0.19506597550958019 0 -0.32128909218756529 -0.18204522792061181 0 -0.31854097669589498 -0.17691126932377771 0 -0.32621362952548899 -0.16544192351900469 0 -0.32128909218756529 -0.18204522792061181 0 -0.31854097669589498 -0.17691126932377771 0 -0.32128909218756529 -0.18204522792061181 0 -0.31653207543670597 -0.2045073433681541 0 -0.33409049456935458 -0.20575444065500439 0 -0.30274079390701331 -0.19506597550958019 0 -0.32128909218756529 -0.18204522792061181 0 -0.31653207543670597 -0.2045073433681541 0 -0.30346407965692163 -0.2168368162066259 0 -0.31653207543670597 -0.2045073433681541 0 -0.32107591686267511 -0.22283425654894831 0 -0.31653207543670597 -0.2045073433681541 0 -0.33409049456935458 -0.20575444065500439 0 -0.32107591686267511 -0.22283425654894831 0 -0.33436113500529419 -0.175898502199823 0 -0.33409049456935458 -0.20575444065500439 0 -0.33436113500529419 -0.175898502199823 0 -0.33409049456935458 -0.20575444065500439 0 -0.35208471071104402 -0.19911344287949301 0 -0.33436113500529419 -0.175898502199823 0 -0.32128909218756529 -0.18204522792061181 0 -0.33409049456935458 -0.20575444065500439 0 -0.36096666751904982 -0.1793364830981575 0 -0.35208471071104402 -0.19911344287949301 0 -0.37051444640536818 -0.20093297152766029 0 -0.36096666751904982 -0.1793364830981575 0 -0.37051444640536818 -0.20093297152766029 0 -0.38072381114907489 -0.19088025119417529 0 -0.35208471071104402 -0.19911344287949301 0 -0.37051444640536818 -0.20093297152766029 0 -0.3645391438583574 -0.21489856293347601 0 -0.37051444640536818 -0.20093297152766029 0 -0.3645391438583574 -0.21489856293347601 0 -0.3813058970595769 -0.21387774659939651 0 -0.35208471071104402 -0.19911344287949301 0 -0.3645391438583574 -0.21489856293347601 0 -0.34734430536945887 -0.21757210513160699 0 -0.33409049456935458 -0.20575444065500439 0 -0.35208471071104402 -0.19911344287949301 0 -0.34734430536945887 -0.21757210513160699 0 -0.3645391438583574 -0.21489856293347601 0 -0.34734430536945887 -0.21757210513160699 0 -0.3580549419247564 -0.22715339943330801 0 -0.34734430536945887 -0.21757210513160699 0 -0.3580549419247564 -0.22715339943330801 0 -0.35023093617404671 -0.23508419229958899 0 -0.34734430536945887 -0.21757210513160699 0 -0.35023093617404671 -0.23508419229958899 0 -0.33381985413342208 -0.2356103791101857 0 -0.3645391438583574 -0.21489856293347601 0 -0.37825513954928391 -0.23418565519173329 0 -0.3813058970595769 -0.21387774659939651 0 -0.3645391438583574 -0.21489856293347601 0 -0.3580549419247564 -0.22715339943330801 0 -0.37825513954928391 -0.23418565519173329 0 -0.3580549419247564 -0.22715339943330801 0 -0.35023093617404671 -0.23508419229958899 0 -0.37825513954928391 -0.23418565519173329 0 -0.36574197782918022 -0.24588091879952639 0 -0.35023093617404671 -0.23508419229958899 0 -0.37825513954928391 -0.23418565519173329 0 -0.35023093617404671 -0.23508419229958899 0 -0.37825513954928391 -0.23418565519173329 0 -0.36757427284176208 -0.25455807078907677 0 -0.36574197782918022 -0.24588091879952639 0 -0.37764468782704042 -0.24899062017314161 0 -0.36574197782918022 -0.24588091879952639 0 -0.37764468782704042 -0.24899062017314161 0 -0.37825513954928391 -0.23418565519173329 0 -0.35668027886030312 -0.25602512018371798 0 -0.35023093617404671 -0.23508419229958899 0 -0.34239593143502273 -0.2469038302415234 0 -0.35668027886030312 -0.25602512018371798 0 -0.35023093617404671 -0.23508419229958899 0 -0.35668027886030312 -0.25602512018371798 0 -0.36574197782918022 -0.24588091879952639 0 -0.35023093617404671 -0.23508419229958899 0 -0.33361653275719072 -0.25803995610263991 0 -0.34239593143502273 -0.2469038302415234 0 -0.33381985413342208 -0.2356103791101857 0 -0.35023093617404671 -0.23508419229958899 0 -0.34239593143502273 -0.2469038302415234 0 -0.33381985413342208 -0.2356103791101857 0 -0.33361653275719072 -0.25803995610263991 0 -0.33381985413342208 -0.2356103791101857 0 -0.32735349430960708 -0.24262562400034121 0 -0.33361653275719072 -0.25803995610263991 0 -0.33381985413342208 -0.2356103791101857 0 -0.35023093617404671 -0.23508419229958899 0 -0.33381985413342208 -0.2356103791101857 0 -0.33409049456935458 -0.20575444065500439 0 -0.34734430536945887 -0.21757210513160699 0 -0.33381985413342208 -0.2356103791101857 0 -0.33409049456935458 -0.20575444065500439 0 -0.33381985413342208 -0.2356103791101857 0 -0.32107591686267511 -0.22283425654894831 0 -0.33409049456935458 -0.20575444065500439 0 -0.33381985413342208 -0.2356103791101857 0 -0.30530464233036803 -0.23365091060391341 0 -0.32107591686267511 -0.22283425654894831 0 -0.3194078345079745 -0.23448687518145109 0 -0.33381985413342208 -0.2356103791101857 0 -0.32107591686267511 -0.22283425654894831 0 -0.3194078345079745 -0.23448687518145109 0 -0.30530464233036803 -0.23365091060391341 0 -0.3194078345079745 -0.23448687518145109 0 -0.31722060212611358 -0.24934470963434141 0 -0.33381985413342208 -0.2356103791101857 0 -0.3194078345079745 -0.23448687518145109 0 -0.32735349430960708 -0.24262562400034121 0 -0.3194078345079745 -0.23448687518145109 0 -0.31722060212611358 -0.24934470963434141 0 -0.32735349430960708 -0.24262562400034121 0 -0.42836401332371432 -0.23865874682188451 0 -0.41862232456115961 -0.2451785838159298 0 -0.44092962542926251 -0.24420782110838621 0 -0.43192748323268432 -0.25712770411644359 0 -0.41862232456115961 -0.2451785838159298 0 -0.44092962542926251 -0.24420782110838621 0 -0.42836401332371432 -0.23865874682188451 0 -0.43591031917992401 -0.23233706318486971 0 -0.41799378412451088 -0.23291151917835209 0 -0.41862232456115961 -0.2451785838159298 0 -0.44092962542926251 -0.24420782110838621 0 -0.42836401332371432 -0.23865874682188451 0 -0.43591031917992401 -0.23233706318486971 0 -0.44092962542926251 -0.24420782110838621 0 -0.43591031917992401 -0.23233706318486971 0 -0.42658374039690727 -0.22046600310872921 0 -0.44106556703794209 -0.21620175214681689 0 -0.43591031917992401 -0.23233706318486971 0 -0.41799378412451088 -0.23291151917835209 0 -0.43591031917992401 -0.23233706318486971 0 -0.42658374039690727 -0.22046600310872921 0 -0.41799378412451088 -0.23291151917835209 0 -0.41799378412451088 -0.23291151917835209 0 -0.41676838838383418 -0.2089957806180093 0 -0.41165072162761918 -0.22133179241106921 0 -0.40627934292452128 -0.23328711808387809 0 -0.40556137107761031 -0.21013275176403709 0 -0.41799378412451088 -0.23291151917835209 0 -0.41165072162761918 -0.22133179241106921 0 -0.41676838838383418 -0.2089957806180093 0 -0.42658374039690727 -0.22046600310872921 0 -0.41799378412451088 -0.23291151917835209 0 -0.41676838838383418 -0.2089957806180093 0 -0.41799378412451088 -0.23291151917835209 0 -0.40627934292452128 -0.23328711808387809 0 -0.41799378412451088 -0.23291151917835209 0 -0.41165072162761918 -0.22133179241106921 0 -0.40627934292452128 -0.23328711808387809 0 -0.41799378412451088 -0.23291151917835209 0 -0.40627934292452128 -0.23328711808387809 0 -0.41238991550589188 -0.2392690486671338 0 -0.40627934292452128 -0.23328711808387809 0 -0.40666421041337558 -0.24569897359037501 0 -0.40627934292452128 -0.23328711808387809 0 -0.41238991550589188 -0.2392690486671338 0 -0.40666421041337558 -0.24569897359037501 0 -0.41799378412451088 -0.23291151917835209 0 -0.41862232456115961 -0.2451785838159298 0 -0.42836401332371432 -0.23865874682188451 0 -0.41799378412451088 -0.23291151917835209 0 -0.41862232456115961 -0.2451785838159298 0 -0.41799378412451088 -0.23291151917835209 0 -0.41238991550589188 -0.2392690486671338 0 -0.41862232456115961 -0.2451785838159298 0 -0.41862232456115961 -0.2451785838159298 0 -0.40666421041337558 -0.24569897359037501 0 -0.41305905268443521 -0.25629159816691388 0 -0.41862232456115961 -0.2451785838159298 0 -0.40666421041337558 -0.24569897359037501 0 -0.41238991550589188 -0.2392690486671338 0 -0.41862232456115961 -0.2451785838159298 0 -0.40666421041337558 -0.24569897359037501 0 -0.40627934292452128 -0.23328711808387809 0 -0.39411142420351142 -0.24624524213269491 0 -0.37825513954928391 -0.23418565519173329 0 -0.40666421041337558 -0.24569897359037501 0 -0.39411142420351142 -0.24624524213269491 0 -0.40016623746553048 -0.25365426733689111 0 -0.40666421041337558 -0.24569897359037501 0 -0.39411142420351142 -0.24624524213269491 0 -0.40627934292452128 -0.23328711808387809 0 -0.40666421041337558 -0.24569897359037501 0 -0.39411142420351142 -0.24624524213269491 0 -0.39411142420351142 -0.24624524213269491 0 -0.37764468782704042 -0.24899062017314161 0 -0.37825513954928391 -0.23418565519173329 0 -0.37825513954928391 -0.23418565519173329 0 -0.39414187063326428 -0.22066022982298619 0 -0.3813058970595769 -0.21387774659939651 0 -0.40627934292452128 -0.23328711808387809 0 -0.40556137107761031 -0.21013275176403709 0 -0.40627934292452128 -0.23328711808387809 0 -0.37825513954928391 -0.23418565519173329 0 -0.40627934292452128 -0.23328711808387809 0 -0.37825513954928391 -0.23418565519173329 0 -0.39414187063326428 -0.22066022982298619 0 -0.40627934292452128 -0.23328711808387809 0 -0.39414187063326428 -0.22066022982298619 0 -0.40556137107761031 -0.21013275176403709 0 -0.40556137107761031 -0.21013275176403709 0 -0.39333469307406671 -0.20770393312013821 0 -0.40066123037045559 -0.20101675105657221 0 -0.40556137107761031 -0.21013275176403709 0 -0.40066123037045559 -0.20101675105657221 0 -0.41196793477421972 -0.19997970878955909 0 -0.39414187063326428 -0.22066022982298619 0 -0.40556137107761031 -0.21013275176403709 0 -0.39333469307406671 -0.20770393312013821 0 -0.39414187063326428 -0.22066022982298619 0 -0.39333469307406671 -0.20770393312013821 0 -0.3813058970595769 -0.21387774659939651 0 -0.39333469307406671 -0.20770393312013821 0 -0.3813058970595769 -0.21387774659939651 0 -0.38360828025367549 -0.201675339855618 0 -0.37051444640536818 -0.20093297152766029 0 -0.3813058970595769 -0.21387774659939651 0 -0.38360828025367549 -0.201675339855618 0 -0.37051444640536818 -0.20093297152766029 0 -0.38072381114907489 -0.19088025119417529 0 -0.38360828025367549 -0.201675339855618 0 -0.38072381114907489 -0.19088025119417529 0 -0.38360828025367549 -0.201675339855618 0 -0.39216255358029051 -0.19498179683671951 0 -0.39333469307406671 -0.20770393312013821 0 -0.38360828025367549 -0.201675339855618 0 -0.39216255358029051 -0.19498179683671951 0 -0.38072381114907489 -0.19088025119417529 0 -0.39216255358029051 -0.19498179683671951 0 -0.39000999676860842 -0.18275449699346799 0 -0.41196793477421972 -0.19997970878955909 0 -0.4003094855404204 -0.17613412208207471 0 -0.39916823006887431 -0.19085073960471921 0 -0.41196793477421972 -0.19997970878955909 0 -0.4003094855404204 -0.17613412208207471 0 -0.39216255358029051 -0.19498179683671951 0 -0.39916823006887431 -0.19085073960471921 0 -0.39000999676860842 -0.18275449699346799 0 -0.39333469307406671 -0.20770393312013821 0 -0.39216255358029051 -0.19498179683671951 0 -0.40066123037045559 -0.20101675105657221 0 -0.39216255358029051 -0.19498179683671951 0 -0.40066123037045559 -0.20101675105657221 0 -0.39916823006887431 -0.19085073960471921 0 -0.40066123037045559 -0.20101675105657221 0 -0.39916823006887431 -0.19085073960471921 0 -0.41196793477421972 -0.19997970878955909 0 -0.41676838838383418 -0.2089957806180093 0 -0.41554299264315792 -0.18508004205766621 0 -0.41676838838383418 -0.2089957806180093 0 -0.42830427984055008 -0.20064089710224151 0 -0.41554299264315792 -0.18508004205766621 0 -0.41196793477421972 -0.19997970878955909 0 -0.41676838838383418 -0.2089957806180093 0 -0.41554299264315792 -0.18508004205766621 0 -0.40556137107761031 -0.21013275176403709 0 -0.41196793477421972 -0.19997970878955909 0 -0.41676838838383418 -0.2089957806180093 0 -0.41165072162761918 -0.22133179241106921 0 -0.40556137107761031 -0.21013275176403709 0 -0.41676838838383418 -0.2089957806180093 0 -0.42658374039690727 -0.22046600310872921 0 -0.41676838838383418 -0.2089957806180093 0 -0.42830427984055008 -0.20064089710224151 0 -0.42658374039690727 -0.22046600310872921 0 -0.42830427984055008 -0.20064089710224151 0 -0.44106556703794209 -0.21620175214681689 0 -0.42830427984055008 -0.20064089710224151 0 -0.44106556703794209 -0.21620175214681689 0 -0.42830427984055008 -0.20064089710224151 0 -0.42636070152507849 -0.17959735092351531 0 -0.41554299264315792 -0.18508004205766621 0 -0.42830427984055008 -0.20064089710224151 0 -0.41554299264315792 -0.18508004205766621 0 -0.42636070152507849 -0.17959735092351531 0 -0.42706895671375589 -0.16519923439750531 0 -0.43951571871923412 -0.180883717792339 0 -0.42830427984055008 -0.20064089710224151 0 -0.42636070152507849 -0.17959735092351531 0 -0.43951571871923412 -0.180883717792339 0 -0.42636070152507849 -0.17959735092351531 0 -0.42706895671375589 -0.16519923439750531 0 -0.4149841453049033 -0.1741731599842479 0 -0.42706895671375589 -0.16519923439750531 0 -0.44379288363427372 -0.16373701776817881 0 -0.43951571871923412 -0.180883717792339 0 -0.42706895671375589 -0.16519923439750531 0 -0.43572698603394922 -0.14346632739800921 0 -0.44379288363427372 -0.16373701776817881 0 -0.42706895671375589 -0.16519923439750531 0 -0.4120280278173839 -0.16345959749200459 0 -0.4149841453049033 -0.1741731599842479 0 -0.42706895671375589 -0.16519923439750531 0 -0.4120280278173839 -0.16345959749200459 0 -0.41552550500241819 -0.1514357457477401 0 -0.4120280278173839 -0.16345959749200459 0 -0.40213012419852279 -0.15494580923318141 0 -0.41552550500241819 -0.1514357457477401 0 -0.4120280278173839 -0.16345959749200459 0 -0.4149841453049033 -0.1741731599842479 0 -0.40209701447488921 -0.16868428871612839 0 -0.41196793477421972 -0.19997970878955909 0 -0.41554299264315792 -0.18508004205766621 0 -0.4003094855404204 -0.17613412208207471 0 -0.41554299264315792 -0.18508004205766621 0 -0.40209701447488921 -0.16868428871612839 0 -0.4149841453049033 -0.1741731599842479 0 -0.41554299264315792 -0.18508004205766621 0 -0.40209701447488921 -0.16868428871612839 0 -0.42636070152507849 -0.17959735092351531 0 -0.4149841453049033 -0.1741731599842479 0 -0.41554299264315792 -0.18508004205766621 0 -0.4149841453049033 -0.1741731599842479 0 -0.41554299264315792 -0.18508004205766621 0 -0.41554299264315792 -0.18508004205766621 0 -0.4003094855404204 -0.17613412208207471 0 -0.40209701447488921 -0.16868428871612839 0 -0.4003094855404204 -0.17613412208207471 0 -0.39000999676860842 -0.18275449699346799 0 -0.38656090133729282 -0.17042229638244219 0 -0.39916823006887431 -0.19085073960471921 0 -0.4003094855404204 -0.17613412208207471 0 -0.39000999676860842 -0.18275449699346799 0 -0.38072381114907489 -0.19088025119417529 0 -0.39000999676860842 -0.18275449699346799 0 -0.37863568028109928 -0.17763145396319771 0 -0.39000999676860842 -0.18275449699346799 0 -0.37863568028109928 -0.17763145396319771 0 -0.38656090133729282 -0.17042229638244219 0 -0.37519830778971541 -0.16330287349887951 0 -0.38656090133729282 -0.17042229638244219 0 -0.38865103630662068 -0.1522885353745905 0 -0.37863568028109928 -0.17763145396319771 0 -0.37519830778971541 -0.16330287349887951 0 -0.38656090133729282 -0.17042229638244219 0 -0.40209701447488921 -0.16868428871612839 0 -0.40213012419852279 -0.15494580923318141 0 -0.38865103630662068 -0.1522885353745905 0 -0.4003094855404204 -0.17613412208207471 0 -0.38656090133729282 -0.17042229638244219 0 -0.38865103630662068 -0.1522885353745905 0 -0.4003094855404204 -0.17613412208207471 0 -0.38865103630662068 -0.1522885353745905 0 -0.40209701447488921 -0.16868428871612839 0 -0.38865103630662068 -0.1522885353745905 0 -0.4003094855404204 -0.17613412208207471 0 -0.40209701447488921 -0.16868428871612839 0 -0.38865103630662068 -0.1522885353745905 0 -0.4120280278173839 -0.16345959749200459 0 -0.40209701447488921 -0.16868428871612839 0 -0.40213012419852279 -0.15494580923318141 0 -0.40213012419852279 -0.15494580923318141 0 -0.39926334879361097 -0.14014752074326881 0 -0.41552550500241819 -0.1514357457477401 0 -0.40213012419852279 -0.15494580923318141 0 -0.38865103630662068 -0.1522885353745905 0 -0.39926334879361097 -0.14014752074326881 0 -0.36934150265767968 -0.14941295198707849 0 -0.37519830778971541 -0.16330287349887951 0 -0.38865103630662068 -0.1522885353745905 0 -0.37432152245514833 -0.13481541652279019 0 -0.38865103630662068 -0.1522885353745905 0 -0.37432152245514833 -0.13481541652279019 0 -0.36934150265767968 -0.14941295198707849 0 -0.38865103630662068 -0.1522885353745905 0 -0.37650648757731559 -0.1274487059993111 0 -0.39292673683943757 -0.12531941359698431 0 -0.39926334879361097 -0.14014752074326881 0 -0.38865103630662068 -0.1522885353745905 0 -0.37650648757731559 -0.1274487059993111 0 -0.39926334879361097 -0.14014752074326881 0 -0.38865103630662068 -0.1522885353745905 0 -0.37650648757731559 -0.1274487059993111 0 -0.37432152245514833 -0.13481541652279019 0 -0.38865103630662068 -0.1522885353745905 0 -0.37650648757731559 -0.1274487059993111 0 -0.39292673683943757 -0.12531941359698431 0 -0.41432686143669339 -0.13439287049749679 0 -0.39292673683943757 -0.12531941359698431 0 -0.39926334879361097 -0.14014752074326881 0 -0.41432686143669339 -0.13439287049749679 0 -0.39292673683943757 -0.12531941359698431 0 -0.41432686143669339 -0.13439287049749679 0 -0.41773372174127732 -0.1189594362128276 0 -0.39926334879361097 -0.14014752074326881 0 -0.41432686143669339 -0.13439287049749679 0 -0.41552550500241819 -0.1514357457477401 0 -0.41432686143669339 -0.13439287049749679 0 -0.41552550500241819 -0.1514357457477401 0 -0.43572698603394922 -0.14346632739800921 0 -0.42706895671375589 -0.16519923439750531 0 -0.41552550500241819 -0.1514357457477401 0 -0.43572698603394922 -0.14346632739800921 0 -0.41432686143669339 -0.13439287049749679 0 -0.41773372174127732 -0.1189594362128276 0 -0.43796811146092302 -0.1222599316136963 0 -0.41432686143669339 -0.13439287049749679 0 -0.43572698603394922 -0.14346632739800921 0 -0.41432686143669339 -0.13439287049749679 0 -0.43572698603394922 -0.14346632739800921 0 -0.43796811146092302 -0.1222599316136963 0 -0.43572698603394922 -0.14346632739800921 0 -0.45539387950892901 -0.1371924195797927 0 -0.43796811146092302 -0.1222599316136963 0 -0.43572698603394922 -0.14346632739800921 0 -0.45712711063120498 -0.15253978429852169 0 -0.45539387950892901 -0.1371924195797927 0 -0.43572698603394922 -0.14346632739800921 0 -0.45712711063120498 -0.15253978429852169 0 -0.43572698603394922 -0.14346632739800921 0 -0.45712711063120498 -0.15253978429852169 0 -0.44379288363427372 -0.16373701776817881 0 -0.45712711063120498 -0.15253978429852169 0 -0.45539387950892901 -0.1371924195797927 0 -0.47771490076650902 -0.14466171925791371 0 -0.45539387950892901 -0.1371924195797927 0 -0.43796811146092302 -0.1222599316136963 0 -0.46843228865205838 -0.1230343353308227 0 -0.45539387950892901 -0.1371924195797927 0 -0.47771490076650902 -0.14466171925791371 0 -0.46843228865205838 -0.1230343353308227 0 -0.5 -0.12677599383346849 0 -0.47771490076650902 -0.14466171925791371 0 -0.46843228865205838 -0.1230343353308227 0 -0.5 -0.12677599383346849 0 -0.47771490076650902 -0.14466171925791371 0 -0.5 -0.15632490009773661 0 -0.45712711063120498 -0.15253978429852169 0 -0.47771490076650902 -0.14466171925791371 0 -0.47873015816994402 -0.17325687778462631 0 -0.47771490076650902 -0.14466171925791371 0 -0.5 -0.15632490009773661 0 -0.47873015816994402 -0.17325687778462631 0 -0.5 -0.15632490009773661 0 -0.5 -0.1858738063620049 0 -0.47873015816994402 -0.17325687778462631 0 -0.5 -0.1858738063620049 0 -0.47873015816994402 -0.17325687778462631 0 -0.48589534765145781 -0.19672643911721119 0 -0.47873015816994402 -0.17325687778462631 0 -0.45663331468178109 -0.17737937960770639 0 -0.46937290941839832 -0.1961589574610644 0 -0.45712711063120498 -0.15253978429852169 0 -0.47873015816994402 -0.17325687778462631 0 -0.45663331468178109 -0.17737937960770639 0 -0.45712711063120498 -0.15253978429852169 0 -0.45663331468178109 -0.17737937960770639 0 -0.44379288363427372 -0.16373701776817881 0 -0.45663331468178109 -0.17737937960770639 0 -0.44379288363427372 -0.16373701776817881 0 -0.43951571871923412 -0.180883717792339 0 -0.45663331468178109 -0.17737937960770639 0 -0.43951571871923412 -0.180883717792339 0 -0.44981494182191029 -0.19809159986810179 0 -0.42830427984055008 -0.20064089710224151 0 -0.43951571871923412 -0.180883717792339 0 -0.44981494182191029 -0.19809159986810179 0 -0.44981494182191029 -0.19809159986810179 0 -0.44106556703794209 -0.21620175214681689 0 -0.4617783008394456 -0.21417575193522359 0 -0.42830427984055008 -0.20064089710224151 0 -0.44981494182191029 -0.19809159986810179 0 -0.44106556703794209 -0.21620175214681689 0 -0.45663331468178109 -0.17737937960770639 0 -0.44981494182191029 -0.19809159986810179 0 -0.46937290941839832 -0.1961589574610644 0 -0.44981494182191029 -0.19809159986810179 0 -0.4617783008394456 -0.21417575193522359 0 -0.46937290941839832 -0.1961589574610644 0 -0.47873015816994402 -0.17325687778462631 0 -0.46937290941839832 -0.1961589574610644 0 -0.48589534765145781 -0.19672643911721119 0 -0.46937290941839832 -0.1961589574610644 0 -0.48589534765145781 -0.19672643911721119 0 -0.48137367066894682 -0.21291984135208711 0 -0.5 -0.1858738063620049 0 -0.48589534765145781 -0.19672643911721119 0 -0.5 -0.21542271262627311 0 -0.48589534765145781 -0.19672643911721119 0 -0.5 -0.21542271262627311 0 -0.48137367066894682 -0.21291984135208711 0 -0.5 -0.21542271262627311 0 -0.48137367066894682 -0.21291984135208711 0 -0.4891753270093443 -0.22242448656055119 0 -0.4617783008394456 -0.21417575193522359 0 -0.46937290941839832 -0.1961589574610644 0 -0.48137367066894682 -0.21291984135208711 0 -0.4617783008394456 -0.21417575193522359 0 -0.48137367066894682 -0.21291984135208711 0 -0.47638483053458919 -0.23103933315174391 0 -0.48137367066894682 -0.21291984135208711 0 -0.47638483053458919 -0.23103933315174391 0 -0.4891753270093443 -0.22242448656055119 0 -0.47638483053458919 -0.23103933315174391 0 -0.4891753270093443 -0.22242448656055119 0 -0.49894280683384118 -0.2303160591121006 0 -0.47638483053458919 -0.23103933315174391 0 -0.49894280683384118 -0.2303160591121006 0 -0.5 -0.21542271262627311 0 -0.49894280683384118 -0.2303160591121006 0 -0.5 -0.24497161889054131 0 -0.5 -0.21542271262627311 0 -0.4891753270093443 -0.22242448656055119 0 -0.49894280683384118 -0.2303160591121006 0 -0.47638483053458919 -0.23103933315174391 0 -0.49894280683384118 -0.2303160591121006 0 -0.48632640097225122 -0.2422322572783894 0 -0.49894280683384118 -0.2303160591121006 0 -0.5 -0.24497161889054131 0 -0.48632640097225122 -0.2422322572783894 0 -0.48849233615110238 -0.25564364008010299 0 -0.5 -0.24497161889054131 0 -0.48632640097225122 -0.2422322572783894 0 -0.4760503822597833 -0.25136953932998712 0 -0.48632640097225122 -0.2422322572783894 0 -0.46323692629736518 -0.24323705840084281 0 -0.48632640097225122 -0.2422322572783894 0 -0.46323692629736518 -0.24323705840084281 0 -0.4760503822597833 -0.25136953932998712 0 -0.48849233615110238 -0.25564364008010299 0 -0.48632640097225122 -0.2422322572783894 0 -0.47638483053458919 -0.23103933315174391 0 -0.48632640097225122 -0.2422322572783894 0 -0.46323692629736518 -0.24323705840084281 0 -0.46703257367587808 -0.25037202600514408 0 -0.4760503822597833 -0.25136953932998712 0 -0.46323692629736518 -0.24323705840084281 0 -0.47638483053458919 -0.23103933315174391 0 -0.46323692629736518 -0.24323705840084281 0 -0.45382685423533731 -0.23176260719138969 0 -0.46703257367587808 -0.25037202600514408 0 -0.46323692629736518 -0.24323705840084281 0 -0.46280675988418207 -0.24924293530940511 0 -0.45388261704758309 -0.25188450484146541 0 -0.46323692629736518 -0.24323705840084281 0 -0.46280675988418207 -0.24924293530940511 0 -0.46323692629736518 -0.24323705840084281 0 -0.45382685423533731 -0.23176260719138969 0 -0.4617783008394456 -0.21417575193522359 0 -0.47638483053458919 -0.23103933315174391 0 -0.45382685423533731 -0.23176260719138969 0 -0.47638483053458919 -0.23103933315174391 0 -0.45382685423533731 -0.23176260719138969 0 -0.43591031917992401 -0.23233706318486971 0 -0.44106556703794209 -0.21620175214681689 0 -0.45382685423533731 -0.23176260719138969 0 -0.44106556703794209 -0.21620175214681689 0 -0.4617783008394456 -0.21417575193522359 0 -0.45382685423533731 -0.23176260719138969 0 -0.43591031917992401 -0.23233706318486971 0 -0.45382685423533731 -0.23176260719138969 0 -0.44106556703794209 -0.21620175214681689 0 -0.45382685423533731 -0.23176260719138969 0 -0.46323692629736518 -0.24323705840084281 0 -0.45382685423533731 -0.23176260719138969 0 -0.44092962542926251 -0.24420782110838621 0 -0.43591031917992401 -0.23233706318486971 0 -0.45382685423533731 -0.23176260719138969 0 -0.44092962542926251 -0.24420782110838621 0 -0.46323692629736518 -0.24323705840084281 0 -0.44092962542926251 -0.24420782110838621 0 -0.45388261704758309 -0.25188450484146541 0 -0.46323692629736518 -0.24323705840084281 0 -0.44092962542926251 -0.24420782110838621 0 -0.42026371641198867 -0.053465418963322922 0 -0.41046337971554592 -0.026164547143641709 0 -0.39487427071928161 -0.038829037723471863 0 -0.42026371641198867 -0.053465418963322922 0 -0.43021686657863117 -0.027486697905044641 0 -0.41046337971554592 -0.026164547143641709 0 -0.42026371641198867 -0.053465418963322922 0 -0.42554002313377293 -0.069072793798440835 0 -0.44241618659373277 -0.064284228531334184 0 -0.42026371641198867 -0.053465418963322922 0 -0.44241618659373277 -0.064284228531334184 0 -0.44060834124154019 -0.045293472880420217 0 -0.42026371641198867 -0.053465418963322922 0 -0.43021686657863117 -0.027486697905044641 0 -0.44060834124154019 -0.045293472880420217 0 -0.43021686657863117 -0.027486697905044641 0 -0.43140134465179658 -0.0040513762586762911 0 -0.41638703995461551 -0.0072738463822082863 0 -0.43021686657863117 -0.027486697905044641 0 -0.43140134465179658 -0.0040513762586762911 0 -0.44633470637967781 -0.007630254119278132 0 -0.43140134465179658 -0.0040513762586762911 0 -0.41638703995461551 -0.0072738463822082863 0 -0.42980825817548279 0.011221990584159359 0 -0.43021686657863117 -0.027486697905044641 0 -0.41638703995461551 -0.0072738463822082863 0 -0.41046337971554592 -0.026164547143641709 0 -0.41638703995461551 -0.0072738463822082863 0 -0.41046337971554592 -0.026164547143641709 0 -0.3928159067085199 -0.017191530797269969 0 -0.41046337971554592 -0.026164547143641709 0 -0.3928159067085199 -0.017191530797269969 0 -0.39487427071928161 -0.038829037723471863 0 -0.41638703995461551 -0.0072738463822082863 0 -0.3928159067085199 -0.017191530797269969 0 -0.39562906181429391 8.540701072373599e-05 0 -0.3928159067085199 -0.017191530797269969 0 -0.37586338277100068 0.0019545058372344988 0 -0.39562906181429391 8.540701072373599e-05 0 -0.3679813852202426 -0.024620011858093729 0 -0.3928159067085199 -0.017191530797269969 0 -0.37586338277100068 0.0019545058372344988 0 -0.3679813852202426 -0.024620011858093729 0 -0.3928159067085199 -0.017191530797269969 0 -0.39487427071928161 -0.038829037723471863 0 -0.3679813852202426 -0.024620011858093729 0 -0.39487427071928161 -0.038829037723471863 0 -0.37907160123037592 -0.048820037027131703 0 -0.42026371641198867 -0.053465418963322922 0 -0.39487427071928161 -0.038829037723471863 0 -0.39584378035787188 -0.061239508993628899 0 -0.39487427071928161 -0.038829037723471863 0 -0.39584378035787188 -0.061239508993628899 0 -0.37907160123037592 -0.048820037027131703 0 -0.39584378035787188 -0.061239508993628899 0 -0.37907160123037592 -0.048820037027131703 0 -0.37655918218499912 -0.068217097007042191 0 -0.39584378035787188 -0.061239508993628899 0 -0.37655918218499912 -0.068217097007042191 0 -0.39269214415292347 -0.080679514573833808 0 -0.37556586895243421 -0.088280769288691885 0 -0.39269214415292347 -0.080679514573833808 0 -0.39068723898523972 -0.098123474769372845 0 -0.37655918218499912 -0.068217097007042191 0 -0.37556586895243421 -0.088280769288691885 0 -0.39269214415292347 -0.080679514573833808 0 -0.39269214415292347 -0.080679514573833808 0 -0.39068723898523972 -0.098123474769372845 0 -0.40827671313921571 -0.092709568477118837 0 -0.39269214415292347 -0.080679514573833808 0 -0.40922008129778042 -0.075506668907148217 0 -0.40827671313921571 -0.092709568477118837 0 -0.39584378035787188 -0.061239508993628899 0 -0.39269214415292347 -0.080679514573833808 0 -0.40922008129778042 -0.075506668907148217 0 -0.37112524462420932 -0.1164421910796144 0 -0.37650648757731559 -0.1274487059993111 0 -0.39292673683943757 -0.12531941359698431 0 -0.37112524462420932 -0.1164421910796144 0 -0.39292673683943757 -0.12531941359698431 0 -0.38694003641199037 -0.11065340033208 0 -0.37112524462420932 -0.1164421910796144 0 -0.39292673683943757 -0.12531941359698431 0 -0.37112524462420932 -0.1164421910796144 0 -0.38694003641199037 -0.11065340033208 0 -0.37730311894933699 -0.1037545088539835 0 -0.38694003641199037 -0.11065340033208 0 -0.37730311894933699 -0.1037545088539835 0 -0.39068723898523972 -0.098123474769372845 0 -0.37556586895243421 -0.088280769288691885 0 -0.37730311894933699 -0.1037545088539835 0 -0.39068723898523972 -0.098123474769372845 0 -0.40353952539034149 -0.1083936144639531 0 -0.39068723898523972 -0.098123474769372845 0 -0.40827671313921571 -0.092709568477118837 0 -0.38694003641199037 -0.11065340033208 0 -0.40353952539034149 -0.1083936144639531 0 -0.39068723898523972 -0.098123474769372845 0 -0.39292673683943757 -0.12531941359698431 0 -0.38694003641199037 -0.11065340033208 0 -0.40353952539034149 -0.1083936144639531 0 -0.39292673683943757 -0.12531941359698431 0 -0.40353952539034149 -0.1083936144639531 0 -0.41773372174127732 -0.1189594362128276 0 -0.40353952539034149 -0.1083936144639531 0 -0.41773372174127732 -0.1189594362128276 0 -0.42542819853069952 -0.10380190582138379 0 -0.40353952539034149 -0.1083936144639531 0 -0.42542819853069952 -0.10380190582138379 0 -0.40827671313921571 -0.092709568477118837 0 -0.42542819853069952 -0.10380190582138379 0 -0.43026010823158978 -0.083034858791958016 0 -0.45181671259765888 -0.098041519383210499 0 -0.41773372174127732 -0.1189594362128276 0 -0.42542819853069952 -0.10380190582138379 0 -0.43796811146092302 -0.1222599316136963 0 -0.42026371641198867 -0.053465418963322922 0 -0.39584378035787188 -0.061239508993628899 0 -0.40922008129778042 -0.075506668907148217 0 -0.40922008129778042 -0.075506668907148217 0 -0.43026010823158978 -0.083034858791958016 0 -0.42554002313377293 -0.069072793798440835 0 -0.42026371641198867 -0.053465418963322922 0 -0.40922008129778042 -0.075506668907148217 0 -0.42554002313377293 -0.069072793798440835 0 -0.42542819853069952 -0.10380190582138379 0 -0.40827671313921571 -0.092709568477118837 0 -0.43026010823158978 -0.083034858791958016 0 -0.40922008129778042 -0.075506668907148217 0 -0.40827671313921571 -0.092709568477118837 0 -0.43026010823158978 -0.083034858791958016 0 -0.43026010823158978 -0.083034858791958016 0 -0.42554002313377293 -0.069072793798440835 0 -0.44241618659373277 -0.064284228531334184 0 -0.43026010823158978 -0.083034858791958016 0 -0.44241618659373277 -0.064284228531334184 0 -0.44767292826274441 -0.081007909146761675 0 -0.43026010823158978 -0.083034858791958016 0 -0.44767292826274441 -0.081007909146761675 0 -0.45181671259765888 -0.098041519383210499 0 -0.45181671259765888 -0.098041519383210499 0 -0.47595829157051728 -0.10058856619760879 0 -0.47070038034200029 -0.074595363690283703 0 -0.44767292826274441 -0.081007909146761675 0 -0.45181671259765888 -0.098041519383210499 0 -0.47070038034200029 -0.074595363690283703 0 -0.44241618659373277 -0.064284228531334184 0 -0.47070038034200029 -0.074595363690283703 0 -0.46212417193740679 -0.052375719497548531 0 -0.44241618659373277 -0.064284228531334184 0 -0.44767292826274441 -0.081007909146761675 0 -0.47070038034200029 -0.074595363690283703 0 -0.43796811146092302 -0.1222599316136963 0 -0.45181671259765888 -0.098041519383210499 0 -0.46843228865205838 -0.1230343353308227 0 -0.42542819853069952 -0.10380190582138379 0 -0.43796811146092302 -0.1222599316136963 0 -0.45181671259765888 -0.098041519383210499 0 -0.45181671259765888 -0.098041519383210499 0 -0.46843228865205838 -0.1230343353308227 0 -0.47595829157051728 -0.10058856619760879 0 -0.5 -0.12677599383346849 0 -0.46843228865205838 -0.1230343353308227 0 -0.47595829157051728 -0.10058856619760879 0 -0.5 -0.12677599383346849 0 -0.47595829157051728 -0.10058856619760879 0 -0.5 -0.097227087569200288 0 -0.47070038034200029 -0.074595363690283703 0 -0.5 -0.067678181304932084 0 -0.4819127015611237 -0.053472057772443793 0 -0.47595829157051728 -0.10058856619760879 0 -0.5 -0.097227087569200288 0 -0.47070038034200029 -0.074595363690283703 0 -0.5 -0.097227087569200288 0 -0.47070038034200029 -0.074595363690283703 0 -0.5 -0.067678181304932084 0 -0.5 -0.067678181304932084 0 -0.50000000000000089 -0.038129275040663872 0 -0.4819127015611237 -0.053472057772443793 0 -0.50000000000000089 -0.038129275040663872 0 -0.47673895552621098 -0.034581749328790698 0 -0.50000000000000089 -0.038129275040663872 0 -0.47673895552621098 -0.034581749328790698 0 -0.4819127015611237 -0.053472057772443793 0 -0.47673895552621098 -0.034581749328790698 0 -0.4819127015611237 -0.053472057772443793 0 -0.46212417193740679 -0.052375719497548531 0 -0.47070038034200029 -0.074595363690283703 0 -0.4819127015611237 -0.053472057772443793 0 -0.46212417193740679 -0.052375719497548531 0 -0.47673895552621098 -0.034581749328790698 0 -0.45347791105242108 -0.031034223616917669 0 -0.47673895552621098 -0.034581749328790698 0 -0.46212417193740679 -0.052375719497548531 0 -0.45347791105242108 -0.031034223616917669 0 -0.43021686657863117 -0.027486697905044641 0 -0.44060834124154019 -0.045293472880420217 0 -0.45347791105242108 -0.031034223616917669 0 -0.46212417193740679 -0.052375719497548531 0 -0.44060834124154019 -0.045293472880420217 0 -0.45347791105242108 -0.031034223616917669 0 -0.44241618659373277 -0.064284228531334184 0 -0.46212417193740679 -0.052375719497548531 0 -0.44060834124154019 -0.045293472880420217 0 -0.43140134465179658 -0.0040513762586762911 0 -0.44633470637967781 -0.007630254119278132 0 -0.44616908948812839 0.010652187374221319 0 -0.43021686657863117 -0.027486697905044641 0 -0.44633470637967781 -0.007630254119278132 0 -0.45347791105242108 -0.031034223616917669 0 -0.43021686657863117 -0.027486697905044641 0 -0.45347791105242108 -0.031034223616917669 0 -0.47673895552621098 -0.034581749328790698 0 -0.45347791105242108 -0.031034223616917669 0 -0.46834859675825341 -0.022110181353677979 0 -0.45347791105242108 -0.031034223616917669 0 -0.46834859675825341 -0.022110181353677979 0 -0.45962087816689662 -0.013510164294281949 0 -0.44633470637967781 -0.007630254119278132 0 -0.45347791105242108 -0.031034223616917669 0 -0.45962087816689662 -0.013510164294281949 0 -0.46834859675825341 -0.022110181353677979 0 -0.45962087816689662 -0.013510164294281949 0 -0.47202978705225151 -0.0065354077420677736 0 -0.44633470637967781 -0.007630254119278132 0 -0.45962087816689662 -0.013510164294281949 0 -0.45899100081414151 0.00078915980014676503 0 -0.45962087816689662 -0.013510164294281949 0 -0.47202978705225151 -0.0065354077420677736 0 -0.45899100081414151 0.00078915980014676503 0 -0.47202978705225151 -0.0065354077420677736 0 -0.48438574741380858 -0.019977191586437081 0 -0.48538265169408851 -0.0064676082628929267 0 -0.47202978705225151 -0.0065354077420677736 0 -0.48538265169408851 -0.0064676082628929267 0 -0.47864341741602212 0.0030270442414996779 0 -0.46834859675825341 -0.022110181353677979 0 -0.47202978705225151 -0.0065354077420677736 0 -0.48438574741380858 -0.019977191586437081 0 -0.47673895552621098 -0.034581749328790698 0 -0.46834859675825341 -0.022110181353677979 0 -0.48438574741380858 -0.019977191586437081 0 -0.50000000000000089 -0.038129275040663872 0 -0.47673895552621098 -0.034581749328790698 0 -0.48438574741380858 -0.019977191586437081 0 -0.50000000000000089 -0.038129275040663872 0 -0.48438574741380858 -0.019977191586437081 0 -0.5 -0.01221990186561028 0 -0.48538265169408851 -0.0064676082628929267 0 -0.5 -0.01221990186561028 0 -0.48814886097969667 0.0055914001976607886 0 -0.48438574741380858 -0.019977191586437081 0 -0.48538265169408851 -0.0064676082628929267 0 -0.5 -0.01221990186561028 0 -0.5 -0.01221990186561028 0 -0.50000000000000111 0.01368947130944336 0 -0.48814886097969667 0.0055914001976607886 0 -0.50000000000000111 0.01368947130944336 0 -0.48814886097969667 0.0055914001976607886 0 -0.48426371447694228 0.018132389469507511 0 -0.48426371447694228 0.018132389469507511 0 -0.5 0.040533832524933373 0 -0.48148346772098771 0.033178762502599532 0 -0.50000000000000111 0.01368947130944336 0 -0.48426371447694228 0.018132389469507511 0 -0.5 0.040533832524933373 0 -0.50000000000000111 0.01368947130944336 0 -0.48426371447694228 0.018132389469507511 0 -0.48426371447694228 0.018132389469507511 0 -0.47690857398832642 0.013391077062049809 0 -0.46852742895388361 0.02257530762957171 0 -0.48426371447694228 0.018132389469507511 0 -0.46852742895388361 0.02257530762957171 0 -0.48426371447694228 0.018132389469507511 0 -0.48148346772098771 0.033178762502599532 0 -0.46852742895388361 0.02257530762957171 0 -0.47690857398832642 0.013391077062049809 0 -0.46873839445061272 0.016525770232662901 0 -0.46852742895388361 0.02257530762957171 0 -0.46920742201357107 0.0063425585041254999 0 -0.47690857398832642 0.013391077062049809 0 -0.46873839445061272 0.016525770232662901 0 -0.46920742201357107 0.0063425585041254999 0 -0.47864341741602212 0.0030270442414996779 0 -0.47690857398832642 0.013391077062049809 0 -0.47202978705225151 -0.0065354077420677736 0 -0.46920742201357107 0.0063425585041254999 0 -0.47864341741602212 0.0030270442414996779 0 -0.48814886097969667 0.0055914001976607886 0 -0.47864341741602212 0.0030270442414996779 0 -0.47690857398832642 0.013391077062049809 0 -0.48538265169408851 -0.0064676082628929267 0 -0.48814886097969667 0.0055914001976607886 0 -0.47864341741602212 0.0030270442414996779 0 -0.48814886097969667 0.0055914001976607886 0 -0.48426371447694228 0.018132389469507511 0 -0.47690857398832642 0.013391077062049809 0 -0.48530618946123921 0.055304871483770841 0 -0.5 0.040533832524933373 0 -0.5 0.06737819374042342 0 -0.48530618946123921 0.055304871483770841 0 -0.5 0.040533832524933373 0 -0.48144775784701721 0.044331854631647273 0 -0.5 0.040533832524933373 0 -0.48148346772098771 0.033178762502599532 0 -0.48144775784701721 0.044331854631647273 0 -0.48148346772098771 0.033178762502599532 0 -0.47512669755073311 0.038281700311278338 0 -0.46852742895388361 0.02257530762957171 0 -0.47512669755073311 0.038281700311278338 0 -0.4693924257154436 0.046237345039591142 0 -0.46852742895388361 0.02257530762957171 0 -0.48148346772098771 0.033178762502599532 0 -0.47512669755073311 0.038281700311278338 0 -0.48144775784701721 0.044331854631647273 0 -0.47512669755073311 0.038281700311278338 0 -0.4693924257154436 0.046237345039591142 0 -0.47535696273057632 0.044744808988356727 0 -0.47535696273057632 0.044744808988356727 0 -0.48144775784701721 0.044331854631647273 0 -0.47546096980911151 0.05012833597091014 0 -0.47512669755073311 0.038281700311278338 0 -0.47535696273057632 0.044744808988356727 0 -0.48144775784701721 0.044331854631647273 0 -0.48530618946123921 0.055304871483770841 0 -0.48144775784701721 0.044331854631647273 0 -0.47546096980911151 0.05012833597091014 0 -0.47546096980911151 0.05012833597091014 0 -0.47443887449724598 0.059127066520884911 0 -0.46763390737020971 0.04819747011222103 0 -0.4693924257154436 0.046237345039591142 0 -0.47535696273057632 0.044744808988356727 0 -0.47546096980911151 0.05012833597091014 0 -0.4693924257154436 0.046237345039591142 0 -0.47546096980911151 0.05012833597091014 0 -0.46763390737020971 0.04819747011222103 0 -0.47443887449724598 0.059127066520884911 0 -0.46763390737020971 0.04819747011222103 0 -0.46712973440647332 0.062654873080568996 0 -0.48530618946123921 0.055304871483770841 0 -0.47546096980911151 0.05012833597091014 0 -0.47443887449724598 0.059127066520884911 0 -0.48530618946123921 0.055304871483770841 0 -0.47443887449724598 0.059127066520884911 0 -0.48148159278886737 0.068106439011092007 0 -0.46155539729252359 0.054972855788364028 0 -0.46763390737020971 0.04819747011222103 0 -0.46712973440647332 0.062654873080568996 0 -0.46763390737020971 0.04819747011222103 0 -0.46712973440647332 0.062654873080568996 0 -0.46155539729252359 0.054972855788364028 0 -0.46712973440647332 0.062654873080568996 0 -0.46155539729252359 0.054972855788364028 0 -0.46763390737020971 0.04819747011222103 0 -0.4693924257154436 0.046237345039591142 0 -0.46763390737020971 0.04819747011222103 0 -0.46763390737020971 0.04819747011222103 0 -0.46852742895388361 0.02257530762957171 0 -0.46155539729252359 0.054972855788364028 0 -0.44596226176755482 0.03348389050085418 0 -0.46155539729252359 0.054972855788364028 0 -0.46763390737020971 0.04819747011222103 0 -0.45871934785722018 0.036917216918424443 0 -0.46763390737020971 0.04819747011222103 0 -0.45871934785722018 0.036917216918424443 0 -0.46852742895388361 0.02257530762957171 0 -0.46155539729252359 0.054972855788364028 0 -0.45871934785722018 0.036917216918424443 0 -0.44596226176755482 0.03348389050085418 0 -0.4693924257154436 0.046237345039591142 0 -0.46763390737020971 0.04819747011222103 0 -0.46852742895388361 0.02257530762957171 0 -0.44596226176755482 0.03348389050085418 0 -0.44578440920489482 0.053117027198969519 0 -0.44596226176755482 0.03348389050085418 0 -0.44578440920489482 0.053117027198969519 0 -0.43259187264536719 0.040311373504760793 0 -0.45871934785722018 0.036917216918424443 0 -0.44596226176755482 0.03348389050085418 0 -0.44600347259657869 0.02893462886772075 0 -0.44596226176755482 0.03348389050085418 0 -0.44322947639634969 0.029717827550527261 0 -0.44596226176755482 0.03348389050085418 0 -0.44322947639634969 0.029717827550527261 0 -0.43259187264536719 0.040311373504760793 0 -0.46155539729252359 0.054972855788364028 0 -0.44596226176755482 0.03348389050085418 0 -0.44578440920489482 0.053117027198969519 0 -0.46155539729252359 0.054972855788364028 0 -0.44578440920489482 0.053117027198969519 0 -0.44560655664223459 0.072750163897084774 0 -0.45993335836007282 0.010857707430461629 0 -0.45656059714123393 0.018830630305848368 0 -0.44616908948812839 0.010652187374221319 0 -0.45993335836007282 0.010857707430461629 0 -0.45899100081414151 0.00078915980014676503 0 -0.44616908948812839 0.010652187374221319 0 -0.47202978705225151 -0.0065354077420677736 0 -0.46920742201357107 0.0063425585041254999 0 -0.45899100081414151 0.00078915980014676503 0 -0.46920742201357107 0.0063425585041254999 0 -0.45993335836007282 0.010857707430461629 0 -0.45899100081414151 0.00078915980014676503 0 -0.46920742201357107 0.0063425585041254999 0 -0.45993335836007282 0.010857707430461629 0 -0.46873839445061272 0.016525770232662901 0 -0.45993335836007282 0.010857707430461629 0 -0.46873839445061272 0.016525770232662901 0 -0.45656059714123393 0.018830630305848368 0 -0.46852742895388361 0.02257530762957171 0 -0.44600347259657869 0.02893462886772075 0 -0.45871934785722018 0.036917216918424443 0 -0.46852742895388361 0.02257530762957171 0 -0.44600347259657869 0.02893462886772075 0 -0.46852742895388361 0.02257530762957171 0 -0.45656059714123393 0.018830630305848368 0 -0.44600347259657869 0.02893462886772075 0 -0.46873839445061272 0.016525770232662901 0 -0.46852742895388361 0.02257530762957171 0 -0.45656059714123393 0.018830630305848368 0 -0.46873839445061272 0.016525770232662901 0 -0.46852742895388361 0.02257530762957171 0 -0.44322947639634969 0.029717827550527261 0 -0.44616908948812839 0.010652187374221319 0 -0.42980825817548279 0.011221990584159359 0 -0.44600347259657869 0.02893462886772075 0 -0.44322947639634969 0.029717827550527261 0 -0.44616908948812839 0.010652187374221319 0 -0.44600347259657869 0.02893462886772075 0 -0.44616908948812839 0.010652187374221319 0 -0.45656059714123393 0.018830630305848368 0 -0.44600347259657869 0.02893462886772075 0 -0.44616908948812839 0.010652187374221319 0 -0.44596226176755482 0.03348389050085418 0 -0.44600347259657869 0.02893462886772075 0 -0.44596226176755482 0.03348389050085418 0 -0.44600347259657869 0.02893462886772075 0 -0.44322947639634969 0.029717827550527261 0 -0.44600347259657869 0.02893462886772075 0 -0.44322947639634969 0.029717827550527261 0 -0.44633470637967781 -0.007630254119278132 0 -0.45899100081414151 0.00078915980014676503 0 -0.44616908948812839 0.010652187374221319 0 -0.44633470637967781 -0.007630254119278132 0 -0.44616908948812839 0.010652187374221319 0 -0.43140134465179658 -0.0040513762586762911 0 -0.44616908948812839 0.010652187374221319 0 -0.42980825817548279 0.011221990584159359 0 -0.41638703995461551 -0.0072738463822082863 0 -0.42980825817548279 0.011221990584159359 0 -0.41638703995461551 -0.0072738463822082863 0 -0.42980825817548279 0.011221990584159359 0 -0.41676328150808539 0.01707879483626825 0 -0.41638703995461551 -0.0072738463822082863 0 -0.41676328150808539 0.01707879483626825 0 -0.40450910632673021 0.01029598511767797 0 -0.41676328150808539 0.01707879483626825 0 -0.41798474012010978 0.036845322605404067 0 -0.40094639894228867 0.025019112084735892 0 -0.41676328150808539 0.01707879483626825 0 -0.40450910632673021 0.01029598511767797 0 -0.40094639894228867 0.025019112084735892 0 -0.41676328150808539 0.01707879483626825 0 -0.42766572579510542 0.02456226706055115 0 -0.41798474012010978 0.036845322605404067 0 -0.44322947639634969 0.029717827550527261 0 -0.42766572579510542 0.02456226706055115 0 -0.41798474012010978 0.036845322605404067 0 -0.44322947639634969 0.029717827550527261 0 -0.42980825817548279 0.011221990584159359 0 -0.44322947639634969 0.029717827550527261 0 -0.42980825817548279 0.011221990584159359 0 -0.42766572579510542 0.02456226706055115 0 -0.42980825817548279 0.011221990584159359 0 -0.41676328150808539 0.01707879483626825 0 -0.42766572579510542 0.02456226706055115 0 -0.44322947639634969 0.029717827550527261 0 -0.41798474012010978 0.036845322605404067 0 -0.43259187264536719 0.040311373504760793 0 -0.41798474012010978 0.036845322605404067 0 -0.42054009216064492 0.062881069134277212 0 -0.44322947639634969 0.029717827550527261 0 -0.43259187264536719 0.040311373504760793 0 -0.41798474012010978 0.036845322605404067 0 -0.44578440920489482 0.053117027198969519 0 -0.43259187264536719 0.040311373504760793 0 -0.42054009216064492 0.062881069134277212 0 -0.40839743579800858 0.051158903703687399 0 -0.41798474012010978 0.036845322605404067 0 -0.42054009216064492 0.062881069134277212 0 -0.40839743579800858 0.051158903703687399 0 -0.41798474012010978 0.036845322605404067 0 -0.39274000384386998 0.043972817660280723 0 -0.41798474012010978 0.036845322605404067 0 -0.39274000384386998 0.043972817660280723 0 -0.39274000384386998 0.043972817660280723 0 -0.38374538032175881 0.02852902353256262 0 -0.40094639894228867 0.025019112084735892 0 -0.41798474012010978 0.036845322605404067 0 -0.39274000384386998 0.043972817660280723 0 -0.40094639894228867 0.025019112084735892 0 -0.40839743579800858 0.051158903703687399 0 -0.39274000384386998 0.043972817660280723 0 -0.39162737787251678 0.055103541227890712 0 -0.39162737787251678 0.055103541227890712 0 -0.37334710544339761 0.055220481311926709 0 -0.37490948726365508 0.070131888805492454 0 -0.39162737787251678 0.055103541227890712 0 -0.37254830518738308 0.038631753301114999 0 -0.37334710544339761 0.055220481311926709 0 -0.39162737787251678 0.055103541227890712 0 -0.38374538032175881 0.02852902353256262 0 -0.39274000384386998 0.043972817660280723 0 -0.39162737787251678 0.055103541227890712 0 -0.38374538032175881 0.02852902353256262 0 -0.39162737787251678 0.055103541227890712 0 -0.38374538032175881 0.02852902353256262 0 -0.37254830518738308 0.038631753301114999 0 -0.38374538032175881 0.02852902353256262 0 -0.37065751593827889 0.023669649292763491 0 -0.37254830518738308 0.038631753301114999 0 -0.38374538032175881 0.02852902353256262 0 -0.37586338277100068 0.0019545058372344988 0 -0.37065751593827889 0.023669649292763491 0 -0.38374538032175881 0.02852902353256262 0 -0.37586338277100068 0.0019545058372344988 0 -0.39213866603521441 0.01317680671658694 0 -0.37586338277100068 0.0019545058372344988 0 -0.39213866603521441 0.01317680671658694 0 -0.39562906181429391 8.540701072373599e-05 0 -0.38374538032175881 0.02852902353256262 0 -0.37586338277100068 0.0019545058372344988 0 -0.39213866603521441 0.01317680671658694 0 -0.39562906181429391 8.540701072373599e-05 0 -0.40450910632673021 0.01029598511767797 0 -0.41638703995461551 -0.0072738463822082863 0 -0.39562906181429391 8.540701072373599e-05 0 -0.40450910632673021 0.01029598511767797 0 -0.39213866603521441 0.01317680671658694 0 -0.40450910632673021 0.01029598511767797 0 -0.40094639894228867 0.025019112084735892 0 -0.38374538032175881 0.02852902353256262 0 -0.39213866603521441 0.01317680671658694 0 -0.40094639894228867 0.025019112084735892 0 -0.39950937542327503 0.081678058923218944 0 -0.40739137297403311 0.1082525766185472 0 -0.37385041651091028 0.094977537029620598 0 -0.38289791490575992 0.1227367021696955 0 -0.40739137297403311 0.1082525766185472 0 -0.37385041651091028 0.094977537029620598 0 -0.38289791490575992 0.1227367021696955 0 -0.40739137297403311 0.1082525766185472 0 -0.41632854846925338 0.13422085020438029 0 -0.39950937542327503 0.081678058923218944 0 -0.40739137297403311 0.1082525766185472 0 -0.39950937542327503 0.081678058923218944 0 -0.37490948726365508 0.070131888805492454 0 -0.37385041651091028 0.094977537029620598 0 -0.39162737787251678 0.055103541227890712 0 -0.39950937542327503 0.081678058923218944 0 -0.37490948726365508 0.070131888805492454 0 -0.40839743579800858 0.051158903703687399 0 -0.39162737787251678 0.055103541227890712 0 -0.39950937542327503 0.081678058923218944 0 -0.39162737787251678 0.055103541227890712 0 -0.39950937542327503 0.081678058923218944 0 -0.39950937542327503 0.081678058923218944 0 -0.41531591711374122 0.086881027822749576 0 -0.40739137297403311 0.1082525766185472 0 -0.41531591711374122 0.086881027822749576 0 -0.43191859612960248 0.088007391475483684 0 -0.41823063561697033 0.1032646190538825 0 -0.40839743579800858 0.051158903703687399 0 -0.39950937542327503 0.081678058923218944 0 -0.42054009216064492 0.062881069134277212 0 -0.39950937542327503 0.081678058923218944 0 -0.41531591711374122 0.086881027822749576 0 -0.42054009216064492 0.062881069134277212 0 -0.44578440920489482 0.053117027198969519 0 -0.42054009216064492 0.062881069134277212 0 -0.43183311425022358 0.072727335905712953 0 -0.41531591711374122 0.086881027822749576 0 -0.42054009216064492 0.062881069134277212 0 -0.43183311425022358 0.072727335905712953 0 -0.43183311425022358 0.072727335905712953 0 -0.43191859612960248 0.088007391475483684 0 -0.44560655664223459 0.072750163897084774 0 -0.41531591711374122 0.086881027822749576 0 -0.43183311425022358 0.072727335905712953 0 -0.43191859612960248 0.088007391475483684 0 -0.43191859612960248 0.088007391475483684 0 -0.4315989058611151 0.10092110053372901 0 -0.44538807830884031 0.096867977668906702 0 -0.4315989058611151 0.10092110053372901 0 -0.43085831338904618 0.115544413936643 0 -0.44538807830884031 0.096867977668906702 0 -0.4315989058611151 0.10092110053372901 0 -0.41823063561697033 0.1032646190538825 0 -0.43085831338904618 0.115544413936643 0 -0.43191859612960248 0.088007391475483684 0 -0.4315989058611151 0.10092110053372901 0 -0.41823063561697033 0.1032646190538825 0 -0.43191859612960248 0.088007391475483684 0 -0.41823063561697033 0.1032646190538825 0 -0.41531591711374122 0.086881027822749576 0 -0.40739137297403311 0.1082525766185472 0 -0.41823063561697033 0.1032646190538825 0 -0.40739137297403311 0.1082525766185472 0 -0.41674567154011022 0.1195552595073683 0 -0.41632854846925338 0.13422085020438029 0 -0.40739137297403311 0.1082525766185472 0 -0.41632854846925338 0.13422085020438029 0 -0.40739137297403311 0.1082525766185472 0 -0.41823063561697033 0.1032646190538825 0 -0.41674567154011022 0.1195552595073683 0 -0.41674567154011022 0.1195552595073683 0 -0.43085831338904618 0.115544413936643 0 -0.41632854846925338 0.13422085020438029 0 -0.41823063561697033 0.1032646190538825 0 -0.41674567154011022 0.1195552595073683 0 -0.43085831338904618 0.115544413936643 0 -0.43085831338904618 0.115544413936643 0 -0.43843042777466729 0.12152239094641749 0 -0.41632854846925338 0.13422085020438029 0 -0.43085831338904618 0.115544413936643 0 -0.41632854846925338 0.13422085020438029 0 -0.43085831338904618 0.115544413936643 0 -0.43843042777466729 0.12152239094641749 0 -0.43992122660549587 0.1118493758315052 0 -0.43843042777466729 0.12152239094641749 0 -0.46053230708008103 0.1088239316884544 0 -0.43843042777466729 0.12152239094641749 0 -0.43992122660549587 0.1118493758315052 0 -0.46053230708008103 0.1088239316884544 0 -0.43843042777466729 0.12152239094641749 0 -0.45240891962190249 0.1213330807177856 0 -0.46053230708008103 0.1088239316884544 0 -0.43843042777466729 0.12152239094641749 0 -0.45240891962190249 0.1213330807177856 0 -0.4459562811647842 0.1270706398903004 0 -0.43085831338904618 0.115544413936643 0 -0.44538807830884031 0.096867977668906702 0 -0.43992122660549587 0.1118493758315052 0 -0.44538807830884031 0.096867977668906702 0 -0.44532627883921388 0.1036900184476111 0 -0.43992122660549587 0.1118493758315052 0 -0.44532627883921388 0.1036900184476111 0 -0.46053230708008103 0.1088239316884544 0 -0.43085831338904618 0.115544413936643 0 -0.43992122660549587 0.1118493758315052 0 -0.44538807830884031 0.096867977668906702 0 -0.44538807830884031 0.096867977668906702 0 -0.45289479980376751 0.09491578572076563 0 -0.45358091703311071 0.09950834817063893 0 -0.44538807830884031 0.096867977668906702 0 -0.44532627883921388 0.1036900184476111 0 -0.45358091703311071 0.09950834817063893 0 -0.44538807830884031 0.096867977668906702 0 -0.44532627883921388 0.1036900184476111 0 -0.44532627883921388 0.1036900184476111 0 -0.45494523023913619 0.1030192335792071 0 -0.45358091703311071 0.09950834817063893 0 -0.46555645996469908 0.1077692767093008 0 -0.46634309718558697 0.085212074894934903 0 -0.46053230708008103 0.1088239316884544 0 -0.45494523023913619 0.1030192335792071 0 -0.46034141800413919 0.1000546360101241 0 -0.46555645996469908 0.1077692767093008 0 -0.46634309718558697 0.085212074894934903 0 -0.47259307395541222 0.096044660400932472 0 -0.46034141800413919 0.1000546360101241 0 -0.46555645996469908 0.1077692767093008 0 -0.46634309718558697 0.085212074894934903 0 -0.44532627883921388 0.1036900184476111 0 -0.46053230708008103 0.1088239316884544 0 -0.45494523023913619 0.1030192335792071 0 -0.45289479980376751 0.09491578572076563 0 -0.45358091703311071 0.09950834817063893 0 -0.45802648552422859 0.09398499040525668 0 -0.45494523023913619 0.1030192335792071 0 -0.45358091703311071 0.09950834817063893 0 -0.46034141800413919 0.1000546360101241 0 -0.45358091703311071 0.09950834817063893 0 -0.46034141800413919 0.1000546360101241 0 -0.45802648552422859 0.09398499040525668 0 -0.46053230708008103 0.1088239316884544 0 -0.46034141800413919 0.1000546360101241 0 -0.46555645996469908 0.1077692767093008 0 -0.45240891962190249 0.1213330807177856 0 -0.46053230708008103 0.1088239316884544 0 -0.46476982274381129 0.13032647852366661 0 -0.46555645996469908 0.1077692767093008 0 -0.46476982274381129 0.13032647852366661 0 -0.46053230708008103 0.1088239316884544 0 -0.46555645996469908 0.1077692767093008 0 -0.46476982274381129 0.13032647852366661 0 -0.46555645996469908 0.1077692767093008 0 -0.47273101878895879 0.11635845321407171 0 -0.46476982274381129 0.13032647852366661 0 -0.44578440920489482 0.053117027198969519 0 -0.44560655664223459 0.072750163897084774 0 -0.44578440920489482 0.053117027198969519 0 -0.43183311425022358 0.072727335905712953 0 -0.44560655664223459 0.072750163897084774 0 -0.44560655664223459 0.072750163897084774 0 -0.45487836715590341 0.084669241089681962 0 -0.45690301439207348 0.072191204660537828 0 -0.44538807830884031 0.096867977668906702 0 -0.44560655664223459 0.072750163897084774 0 -0.44538807830884031 0.096867977668906702 0 -0.44560655664223459 0.072750163897084774 0 -0.45487836715590341 0.084669241089681962 0 -0.43191859612960248 0.088007391475483684 0 -0.44538807830884031 0.096867977668906702 0 -0.44560655664223459 0.072750163897084774 0 -0.43191859612960248 0.088007391475483684 0 -0.44560655664223459 0.072750163897084774 0 -0.44538807830884031 0.096867977668906702 0 -0.45487836715590341 0.084669241089681962 0 -0.44538807830884031 0.096867977668906702 0 -0.45289479980376751 0.09491578572076563 0 -0.45487836715590341 0.084669241089681962 0 -0.45802648552422859 0.09398499040525668 0 -0.46634309718558697 0.085212074894934903 0 -0.45487836715590341 0.084669241089681962 0 -0.45289479980376751 0.09491578572076563 0 -0.45802648552422859 0.09398499040525668 0 -0.45487836715590341 0.084669241089681962 0 -0.46034141800413919 0.1000546360101241 0 -0.45802648552422859 0.09398499040525668 0 -0.46634309718558697 0.085212074894934903 0 -0.46634309718558697 0.085212074894934903 0 -0.45487836715590341 0.084669241089681962 0 -0.46436865600296728 0.072470504510458028 0 -0.45487836715590341 0.084669241089681962 0 -0.46436865600296728 0.072470504510458028 0 -0.46155539729252359 0.054972855788364028 0 -0.44560655664223459 0.072750163897084774 0 -0.46634309718558697 0.085212074894934903 0 -0.46712973440647332 0.062654873080568996 0 -0.46155539729252359 0.054972855788364028 0 -0.45690301439207348 0.072191204660537828 0 -0.46712973440647332 0.062654873080568996 0 -0.46634309718558697 0.085212074894934903 0 -0.46712973440647332 0.062654873080568996 0 -0.47002145801389589 0.066639969479013073 0 -0.46155539729252359 0.054972855788364028 0 -0.44560655664223459 0.072750163897084774 0 -0.45690301439207348 0.072191204660537828 0 -0.46634309718558697 0.085212074894934903 0 -0.46436865600296728 0.072470504510458028 0 -0.46712973440647332 0.062654873080568996 0 -0.45487836715590341 0.084669241089681962 0 -0.45690301439207348 0.072191204660537828 0 -0.46436865600296728 0.072470504510458028 0 -0.45690301439207348 0.072191204660537828 0 -0.46436865600296728 0.072470504510458028 0 -0.46712973440647332 0.062654873080568996 0 -0.46712973440647332 0.062654873080568996 0 -0.47002145801389589 0.066639969479013073 0 -0.46634309718558697 0.085212074894934903 0 -0.47002145801389589 0.066639969479013073 0 -0.47598921538597438 0.077777895994494028 0 -0.47443887449724598 0.059127066520884911 0 -0.48148159278886737 0.068106439011092007 0 -0.47002145801389589 0.066639969479013073 0 -0.47443887449724598 0.059127066520884911 0 -0.46712973440647332 0.062654873080568996 0 -0.47002145801389589 0.066639969479013073 0 -0.48148159278886737 0.068106439011092007 0 -0.47002145801389589 0.066639969479013073 0 -0.47598921538597438 0.077777895994494028 0 -0.48148159278886737 0.068106439011092007 0 -0.47598921538597438 0.077777895994494028 0 -0.48543507913077227 0.081767877888082541 0 -0.47598921538597438 0.077777895994494028 0 -0.47578027058444611 0.087279360596152489 0 -0.48543507913077227 0.081767877888082541 0 -0.46634309718558697 0.085212074894934903 0 -0.47598921538597438 0.077777895994494028 0 -0.47578027058444611 0.087279360596152489 0 -0.46634309718558697 0.085212074894934903 0 -0.47578027058444611 0.087279360596152489 0 -0.47259307395541222 0.096044660400932472 0 -0.47578027058444611 0.087279360596152489 0 -0.47259307395541222 0.096044660400932472 0 -0.48136632062955259 0.096265505858871295 0 -0.47578027058444611 0.087279360596152489 0 -0.48543507913077227 0.081767877888082541 0 -0.48136632062955259 0.096265505858871295 0 -0.48543507913077227 0.081767877888082541 0 -0.5 0.06737819374042342 0 -0.5 0.094222554955913695 0 -0.48543507913077227 0.081767877888082541 0 -0.48136632062955259 0.096265505858871295 0 -0.5 0.094222554955913695 0 -0.48148159278886737 0.068106439011092007 0 -0.48543507913077227 0.081767877888082541 0 -0.5 0.06737819374042342 0 -0.48530618946123921 0.055304871483770841 0 -0.48148159278886737 0.068106439011092007 0 -0.5 0.06737819374042342 0 -0.48274324455982037 0.1145082865220797 0 -0.47547200860194239 0.1236574039456306 0 -0.48291680814046861 0.13235031937654029 0 -0.48274324455982037 0.1145082865220797 0 -0.47273101878895879 0.11635845321407171 0 -0.4751135580745211 0.1055308203696808 0 -0.48274324455982037 0.1145082865220797 0 -0.47547200860194239 0.1236574039456306 0 -0.47273101878895879 0.11635845321407171 0 -0.47547200860194239 0.1236574039456306 0 -0.47273101878895879 0.11635845321407171 0 -0.46476982274381129 0.13032647852366661 0 -0.46555645996469908 0.1077692767093008 0 -0.47273101878895879 0.11635845321407171 0 -0.4751135580745211 0.1055308203696808 0 -0.46555645996469908 0.1077692767093008 0 -0.4751135580745211 0.1055308203696808 0 -0.47259307395541222 0.096044660400932472 0 -0.48274324455982037 0.1145082865220797 0 -0.4751135580745211 0.1055308203696808 0 -0.48136632062955259 0.096265505858871295 0 -0.4751135580745211 0.1055308203696808 0 -0.47259307395541222 0.096044660400932472 0 -0.48136632062955259 0.096265505858871295 0 -0.48274324455982037 0.1145082865220797 0 -0.48136632062955259 0.096265505858871295 0 -0.5 0.094222554955913695 0 -0.48274324455982037 0.1145082865220797 0 -0.5 0.094222554955913695 0 -0.5 0.1210669161714039 0 -0.48274324455982037 0.1145082865220797 0 -0.5 0.1210669161714039 0 -0.48291680814046861 0.13235031937654029 0 -0.5 0.1210669161714039 0 -0.48291680814046861 0.13235031937654029 0 -0.5 0.14791127738689411 0 -0.47547200860194239 0.1236574039456306 0 -0.48291680814046861 0.13235031937654029 0 -0.46476982274381129 0.13032647852366661 0 -0.48291680814046861 0.13235031937654029 0 -0.47458555326892399 0.14478824228565679 0 -0.46476982274381129 0.13032647852366661 0 -0.47310427065402588 0.1551779250357771 0 -0.47458555326892399 0.14478824228565679 0 -0.46065194279449362 0.1486267472750317 0 -0.48291680814046861 0.13235031937654029 0 -0.47458555326892399 0.14478824228565679 0 -0.48546301794761693 0.14723566711001199 0 -0.47310427065402588 0.1551779250357771 0 -0.47458555326892399 0.14478824228565679 0 -0.48231724764927197 0.1547790771481751 0 -0.47458555326892399 0.14478824228565679 0 -0.48231724764927197 0.1547790771481751 0 -0.48546301794761693 0.14723566711001199 0 -0.48231724764927197 0.1547790771481751 0 -0.48546301794761693 0.14723566711001199 0 -0.4918893784549096 0.15635995570016351 0 -0.48291680814046861 0.13235031937654029 0 -0.48546301794761693 0.14723566711001199 0 -0.5 0.14791127738689411 0 -0.48546301794761693 0.14723566711001199 0 -0.5 0.14791127738689411 0 -0.4918893784549096 0.15635995570016351 0 -0.5 0.14791127738689411 0 -0.4918893784549096 0.15635995570016351 0 -0.4999999999999975 0.17475563860238419 0 -0.48687755519463782 0.16272260846104369 0 -0.4918893784549096 0.15635995570016351 0 -0.4999999999999975 0.17475563860238419 0 -0.48516222350904659 0.169226963764599 0 -0.48687755519463782 0.16272260846104369 0 -0.4999999999999975 0.17475563860238419 0 -0.48516222350904659 0.169226963764599 0 -0.48687755519463782 0.16272260846104369 0 -0.48516222350904659 0.169226963764599 0 -0.48687755519463782 0.16272260846104369 0 -0.48198371037551802 0.16239006429639749 0 -0.48231724764927197 0.1547790771481751 0 -0.48687755519463782 0.16272260846104369 0 -0.4918893784549096 0.15635995570016351 0 -0.48516222350904659 0.169226963764599 0 -0.4906194135597266 0.18699797343892871 0 -0.47825293418499842 0.19542625398711561 0 -0.48516222350904659 0.169226963764599 0 -0.4999999999999975 0.17475563860238419 0 -0.4906194135597266 0.18699797343892871 0 -0.4999999999999975 0.17475563860238419 0 -0.4906194135597266 0.18699797343892871 0 -0.5 0.20024851796226889 0 -0.48516222350904659 0.169226963764599 0 -0.4999999999999975 0.17475563860238419 0 -0.48516222350904659 0.169226963764599 0 -0.47825293418499842 0.19542625398711561 0 -0.48516222350904659 0.169226963764599 0 -0.48024582597402637 0.16739507450808341 0 -0.47140321785309908 0.19286129303515839 0 -0.48516222350904659 0.169226963764599 0 -0.47825293418499842 0.19542625398711561 0 -0.47140321785309908 0.19286129303515839 0 -0.48024582597402637 0.16739507450808341 0 -0.46825859771964218 0.1775010759170188 0 -0.47140321785309908 0.19286129303515839 0 -0.48024582597402637 0.16739507450808341 0 -0.47140321785309908 0.19286129303515839 0 -0.47310427065402588 0.1551779250357771 0 -0.48198371037551802 0.16239006429639749 0 -0.48024582597402637 0.16739507450808341 0 -0.48231724764927197 0.1547790771481751 0 -0.48687755519463782 0.16272260846104369 0 -0.48198371037551802 0.16239006429639749 0 -0.47310427065402588 0.1551779250357771 0 -0.48231724764927197 0.1547790771481751 0 -0.48198371037551802 0.16239006429639749 0 -0.48198371037551802 0.16239006429639749 0 -0.48024582597402637 0.16739507450808341 0 -0.48516222350904659 0.169226963764599 0 -0.48198371037551802 0.16239006429639749 0 -0.48024582597402637 0.16739507450808341 0 -0.48516222350904659 0.169226963764599 0 -0.48024582597402637 0.16739507450808341 0 -0.48024582597402637 0.16739507450808341 0 -0.46580714396967388 0.16201510548530579 0 -0.46825859771964218 0.1775010759170188 0 -0.48024582597402637 0.16739507450808341 0 -0.46580714396967388 0.16201510548530579 0 -0.47310427065402588 0.1551779250357771 0 -0.48024582597402637 0.16739507450808341 0 -0.46580714396967388 0.16201510548530579 0 -0.47310427065402588 0.1551779250357771 0 -0.46580714396967388 0.16201510548530579 0 -0.46580714396967388 0.16201510548530579 0 -0.44916473440647797 0.15581400985293509 0 -0.46580714396967388 0.16201510548530579 0 -0.44919017314130599 0.1775846896507792 0 -0.44916473440647797 0.15581400985293509 0 -0.46580714396967388 0.16201510548530579 0 -0.44919017314130599 0.1775846896507792 0 -0.46580714396967388 0.16201510548530579 0 -0.46825859771964218 0.1775010759170188 0 -0.44919017314130599 0.1775846896507792 0 -0.46825859771964218 0.1775010759170188 0 -0.45876781025731111 0.18744607689008921 0 -0.44919017314130599 0.1775846896507792 0 -0.46554617956225541 0.1874521028727508 0 -0.46825859771964218 0.1775010759170188 0 -0.47140321785309908 0.19286129303515839 0 -0.46554617956225541 0.1874521028727508 0 -0.46825859771964218 0.1775010759170188 0 -0.45876781025731111 0.18744607689008921 0 -0.44919017314130599 0.1775846896507792 0 -0.43257320231293922 0.19315427381625369 0 -0.44919017314130599 0.1775846896507792 0 -0.44916473440647797 0.15581400985293509 0 -0.43566402663150838 0.16365273107653791 0 -0.44916473440647797 0.15581400985293509 0 -0.43130194472001382 0.15413001894343109 0 -0.43566402663150838 0.16365273107653791 0 -0.44916473440647797 0.15581400985293509 0 -0.44221095551865452 0.14361263256661461 0 -0.43130194472001382 0.15413001894343109 0 -0.44221095551865452 0.14361263256661461 0 -0.4510826484475719 0.1333933879086725 0 -0.46065194279449362 0.1486267472750317 0 -0.44916473440647797 0.15581400985293509 0 -0.44221095551865452 0.14361263256661461 0 -0.46065194279449362 0.1486267472750317 0 -0.44221095551865452 0.14361263256661461 0 -0.44190312881499499 0.13203369998832601 0 -0.4510826484475719 0.1333933879086725 0 -0.44221095551865452 0.14361263256661461 0 -0.44190312881499499 0.13203369998832601 0 -0.43199655043178431 0.1364134141489543 0 -0.43843042777466729 0.12152239094641749 0 -0.44190312881499499 0.13203369998832601 0 -0.4459562811647842 0.1270706398903004 0 -0.44190312881499499 0.13203369998832601 0 -0.4459562811647842 0.1270706398903004 0 -0.4510826484475719 0.1333933879086725 0 -0.45240891962190249 0.1213330807177856 0 -0.4459562811647842 0.1270706398903004 0 -0.4510826484475719 0.1333933879086725 0 -0.4510826484475719 0.1333933879086725 0 -0.46476982274381129 0.13032647852366661 0 -0.46065194279449362 0.1486267472750317 0 -0.45240891962190249 0.1213330807177856 0 -0.4510826484475719 0.1333933879086725 0 -0.46476982274381129 0.13032647852366661 0 -0.47458555326892399 0.14478824228565679 0 -0.46476982274381129 0.13032647852366661 0 -0.46065194279449362 0.1486267472750317 0 -0.46580714396967388 0.16201510548530579 0 -0.44916473440647797 0.15581400985293509 0 -0.46065194279449362 0.1486267472750317 0 -0.47310427065402588 0.1551779250357771 0 -0.46580714396967388 0.16201510548530579 0 -0.46065194279449362 0.1486267472750317 0 -0.47439185818606461 0.24013758992397949 0 -0.48560421726998892 0.23852843717976199 0 -0.47909939784891531 0.25481779002133048 0 -0.47439185818606461 0.24013758992397949 0 -0.47134364486094987 0.22162554420963201 0 -0.46443435553690132 0.24782483443214859 0 -0.47439185818606461 0.24013758992397949 0 -0.46443435553690132 0.24782483443214859 0 -0.47909939784891531 0.25481779002133048 0 -0.47439185818606461 0.24013758992397949 0 -0.48560421726998892 0.23852843717976199 0 -0.47854016846536368 0.23189875060402701 0 -0.48560421726998892 0.23852843717976199 0 -0.5 0.2257413973221537 0 -0.50000000000000311 0.25123427668203852 0 -0.48560421726998892 0.23852843717976199 0 -0.50000000000000311 0.25123427668203852 0 -0.47909939784891531 0.25481779002133048 0 -0.5 0.2257413973221537 0 -0.484292306263576 0.22605497419169349 0 -0.48799340483239861 0.21506210414831531 0 -0.48560421726998892 0.23852843717976199 0 -0.5 0.2257413973221537 0 -0.484292306263576 0.22605497419169349 0 -0.47439185818606461 0.24013758992397949 0 -0.47854016846536368 0.23189875060402701 0 -0.47134364486094987 0.22162554420963201 0 -0.484292306263576 0.22605497419169349 0 -0.47854016846536368 0.23189875060402701 0 -0.47134364486094987 0.22162554420963201 0 -0.484292306263576 0.22605497419169349 0 -0.47134364486094987 0.22162554420963201 0 -0.48799340483239861 0.21506210414831531 0 -0.48560421726998892 0.23852843717976199 0 -0.484292306263576 0.22605497419169349 0 -0.47854016846536368 0.23189875060402701 0 -0.47134364486094987 0.22162554420963201 0 -0.48537851272062521 0.20558981010771829 0 -0.47825293418499842 0.19542625398711561 0 -0.47134364486094987 0.22162554420963201 0 -0.48799340483239861 0.21506210414831531 0 -0.48537851272062521 0.20558981010771829 0 -0.47134364486094987 0.22162554420963201 0 -0.47825293418499842 0.19542625398711561 0 -0.46256060973217172 0.21832751156223351 0 -0.47134364486094987 0.22162554420963201 0 -0.47825293418499842 0.19542625398711561 0 -0.5 0.2257413973221537 0 -0.48799340483239861 0.21506210414831531 0 -0.5 0.20024851796226889 0 -0.48799340483239861 0.21506210414831531 0 -0.48537851272062521 0.20558981010771829 0 -0.5 0.20024851796226889 0 -0.48537851272062521 0.20558981010771829 0 -0.48930257972477881 0.1955866302312595 0 -0.5 0.20024851796226889 0 -0.4906194135597266 0.18699797343892871 0 -0.48930257972477881 0.1955866302312595 0 -0.5 0.20024851796226889 0 -0.4906194135597266 0.18699797343892871 0 -0.48930257972477881 0.1955866302312595 0 -0.47825293418499842 0.19542625398711561 0 -0.47825293418499842 0.19542625398711561 0 -0.47140321785309908 0.19286129303515839 0 -0.46256060973217172 0.21832751156223351 0 -0.48537851272062521 0.20558981010771829 0 -0.48930257972477881 0.1955866302312595 0 -0.47825293418499842 0.19542625398711561 0 -0.46554617956225541 0.1874521028727508 0 -0.47140321785309908 0.19286129303515839 0 -0.46148472118401018 0.19469473135172841 0 -0.46554617956225541 0.1874521028727508 0 -0.45876781025731111 0.18744607689008921 0 -0.46148472118401018 0.19469473135172841 0 -0.47140321785309908 0.19286129303515839 0 -0.46148472118401018 0.19469473135172841 0 -0.45946319435341709 0.2042187430757256 0 -0.46148472118401018 0.19469473135172841 0 -0.45049161623270978 0.1994942135231762 0 -0.45946319435341709 0.2042187430757256 0 -0.45876781025731111 0.18744607689008921 0 -0.46148472118401018 0.19469473135172841 0 -0.45049161623270978 0.1994942135231762 0 -0.45876781025731111 0.18744607689008921 0 -0.44919017314130599 0.1775846896507792 0 -0.45049161623270978 0.1994942135231762 0 -0.44919017314130599 0.1775846896507792 0 -0.45049161623270978 0.1994942135231762 0 -0.43257320231293922 0.19315427381625369 0 -0.45049161623270978 0.1994942135231762 0 -0.43973653171645738 0.21730576875967941 0 -0.45258812935239512 0.21308524855401009 0 -0.45049161623270978 0.1994942135231762 0 -0.43973653171645738 0.21730576875967941 0 -0.43257320231293922 0.19315427381625369 0 -0.47140321785309908 0.19286129303515839 0 -0.45946319435341709 0.2042187430757256 0 -0.46256060973217172 0.21832751156223351 0 -0.47140321785309908 0.19286129303515839 0 -0.46256060973217172 0.21832751156223351 0 -0.45258812935239512 0.21308524855401009 0 -0.45946319435341709 0.2042187430757256 0 -0.46256060973217172 0.21832751156223351 0 -0.45049161623270978 0.1994942135231762 0 -0.45258812935239512 0.21308524855401009 0 -0.45946319435341709 0.2042187430757256 0 -0.46256060973217172 0.21832751156223351 0 -0.45346679179765248 0.2324146278009708 0 -0.45371800161124443 0.2437937300893086 0 -0.46256060973217172 0.21832751156223351 0 -0.46301415293531678 0.23289290507333071 0 -0.45371800161124443 0.2437937300893086 0 -0.47134364486094987 0.22162554420963201 0 -0.46301415293531678 0.23289290507333071 0 -0.46443435553690132 0.24782483443214859 0 -0.46256060973217172 0.21832751156223351 0 -0.45371800161124443 0.2437937300893086 0 -0.47134364486094987 0.22162554420963201 0 -0.46256060973217172 0.21832751156223351 0 -0.46301415293531678 0.23289290507333071 0 -0.45258812935239512 0.21308524855401009 0 -0.46256060973217172 0.21832751156223351 0 -0.45068869472721951 0.22608000584923571 0 -0.46256060973217172 0.21832751156223351 0 -0.45346679179765248 0.2324146278009708 0 -0.45068869472721951 0.22608000584923571 0 -0.43973653171645738 0.21730576875967941 0 -0.45258812935239512 0.21308524855401009 0 -0.45068869472721951 0.22608000584923571 0 -0.43973653171645738 0.21730576875967941 0 -0.4468998611199746 0.24145726370310541 0 -0.43973653171645738 0.21730576875967941 0 -0.45068869472721951 0.22608000584923571 0 -0.4468998611199746 0.24145726370310541 0 -0.43973653171645738 0.21730576875967941 0 -0.4468998611199746 0.24145726370310541 0 -0.43146189561989129 0.22272459543525769 0 -0.45346679179765248 0.2324146278009708 0 -0.45068869472721951 0.22608000584923571 0 -0.4468998611199746 0.24145726370310541 0 -0.4468998611199746 0.24145726370310541 0 -0.44077169072161537 0.2425306692159222 0 -0.45008148582333951 0.26233674299658671 0 -0.4468998611199746 0.24145726370310541 0 -0.44077169072161537 0.2425306692159222 0 -0.43146189561989129 0.22272459543525769 0 -0.45346679179765248 0.2324146278009708 0 -0.4468998611199746 0.24145726370310541 0 -0.45371800161124443 0.2437937300893086 0 -0.44077169072161537 0.2425306692159222 0 -0.44142167977321528 0.25670787682661578 0 -0.43588497190996628 0.25042843610989651 0 -0.47134364486094987 0.22162554420963201 0 -0.46443435553690132 0.24782483443214859 0 -0.46301415293531678 0.23289290507333071 0 -0.45371800161124443 0.2437937300893086 0 -0.46443435553690132 0.24782483443214859 0 -0.40995018577121428 0.23679476339690331 0 -0.42135483006212038 0.24456503597302581 0 -0.4059651703890037 0.24982079629174919 0 -0.40995018577121428 0.23679476339690331 0 -0.41943411735173258 0.23530846989091081 0 -0.42135483006212038 0.24456503597302581 0 -0.42135483006212038 0.24456503597302581 0 -0.43207745955460358 0.2439300842395786 0 -0.42934358693169389 0.2506254408654271 0 -0.43207745955460358 0.2439300842395786 0 -0.43588497190996628 0.25042843610989651 0 -0.42934358693169389 0.2506254408654271 0 -0.44077169072161537 0.2425306692159222 0 -0.43207745955460358 0.2439300842395786 0 -0.43588497190996628 0.25042843610989651 0 -0.44077169072161537 0.2425306692159222 0 -0.43207745955460358 0.2439300842395786 0 -0.42906865324939619 0.23599342009190041 0 -0.42135483006212038 0.24456503597302581 0 -0.43207745955460358 0.2439300842395786 0 -0.42906865324939619 0.23599342009190041 0 -0.41943411735173258 0.23530846989091081 0 -0.42135483006212038 0.24456503597302581 0 -0.42906865324939619 0.23599342009190041 0 -0.44077169072161537 0.2425306692159222 0 -0.42906865324939619 0.23599342009190041 0 -0.43146189561989129 0.22272459543525769 0 -0.41943411735173258 0.23530846989091081 0 -0.42906865324939619 0.23599342009190041 0 -0.42319882079742871 0.22852253186434329 0 -0.42906865324939619 0.23599342009190041 0 -0.42319882079742871 0.22852253186434329 0 -0.43146189561989129 0.22272459543525769 0 -0.44077169072161537 0.2425306692159222 0 -0.43146189561989129 0.22272459543525769 0 -0.42319882079742871 0.22852253186434329 0 -0.43146189561989129 0.22272459543525769 0 -0.41979336103514309 0.2186573826667314 0 -0.42319882079742871 0.22852253186434329 0 -0.41460061002262971 0.22871635725718681 0 -0.41979336103514309 0.2186573826667314 0 -0.41460061002262971 0.22871635725718681 0 -0.41233044547632552 0.21844553038409081 0 -0.41979336103514309 0.2186573826667314 0 -0.40995018577121428 0.23679476339690331 0 -0.41943411735173258 0.23530846989091081 0 -0.41460061002262971 0.22871635725718681 0 -0.41943411735173258 0.23530846989091081 0 -0.42319882079742871 0.22852253186434329 0 -0.41460061002262971 0.22871635725718681 0 -0.40995018577121428 0.23679476339690331 0 -0.41460061002262971 0.22871635725718681 0 -0.40573944514876281 0.22803659493207831 0 -0.41460061002262971 0.22871635725718681 0 -0.41233044547632552 0.21844553038409081 0 -0.40573944514876281 0.22803659493207831 0 -0.41233044547632552 0.21844553038409081 0 -0.40420269282930871 0.2196636628317582 0 -0.40573944514876281 0.22803659493207831 0 -0.4141373504397447 0.210428092875489 0 -0.41979336103514309 0.2186573826667314 0 -0.42215210051816671 0.20291852165459351 0 -0.41233044547632552 0.21844553038409081 0 -0.40673416048405109 0.2076478035701034 0 -0.40420269282930871 0.2196636628317582 0 -0.41233044547632552 0.21844553038409081 0 -0.40673416048405109 0.2076478035701034 0 -0.4141373504397447 0.210428092875489 0 -0.40673416048405109 0.2076478035701034 0 -0.412725009581276 0.20409783570520831 0 -0.4141373504397447 0.210428092875489 0 -0.4141373504397447 0.210428092875489 0 -0.42215210051816671 0.20291852165459351 0 -0.412725009581276 0.20409783570520831 0 -0.4141373504397447 0.210428092875489 0 -0.42215210051816671 0.20291852165459351 0 -0.41233044547632552 0.21844553038409081 0 -0.4141373504397447 0.210428092875489 0 -0.41979336103514309 0.2186573826667314 0 -0.43146189561989129 0.22272459543525769 0 -0.41979336103514309 0.2186573826667314 0 -0.42215210051816671 0.20291852165459351 0 -0.43973653171645738 0.21730576875967941 0 -0.43146189561989129 0.22272459543525769 0 -0.42215210051816671 0.20291852165459351 0 -0.43146189561989129 0.22272459543525769 0 -0.42215210051816671 0.20291852165459351 0 -0.43973653171645738 0.21730576875967941 0 -0.43257320231293922 0.19315427381625369 0 -0.43973653171645738 0.21730576875967941 0 -0.42215210051816671 0.20291852165459351 0 -0.43257320231293922 0.19315427381625369 0 -0.42215210051816671 0.20291852165459351 0 -0.43257320231293922 0.19315427381625369 0 -0.42215210051816671 0.20291852165459351 0 -0.43257320231293922 0.19315427381625369 0 -0.42232034218597297 0.19026181678025669 0 -0.43257320231293922 0.19315427381625369 0 -0.42232034218597297 0.19026181678025669 0 -0.42183473972908359 0.18211940039769439 0 -0.42215210051816671 0.20291852165459351 0 -0.42232034218597297 0.19026181678025669 0 -0.4127213261837015 0.18285507125248579 0 -0.42215210051816671 0.20291852165459351 0 -0.4092812178661035 0.19674248991743529 0 -0.4127213261837015 0.18285507125248579 0 -0.42215210051816671 0.20291852165459351 0 -0.4127213261837015 0.18285507125248579 0 -0.412725009581276 0.20409783570520831 0 -0.42215210051816671 0.20291852165459351 0 -0.4092812178661035 0.19674248991743529 0 -0.40673416048405109 0.2076478035701034 0 -0.412725009581276 0.20409783570520831 0 -0.4092812178661035 0.19674248991743529 0 -0.39581984277341059 0.20425966524013861 0 -0.40870214796446269 0.18018243262920841 0 -0.39581984277341059 0.20425966524013861 0 -0.40870214796446269 0.18018243262920841 0 -0.39539030922568852 0.18718898336649359 0 -0.38636787862627359 0.1952421544789642 0 -0.39581984277341059 0.20425966524013861 0 -0.39539030922568852 0.18718898336649359 0 -0.4092812178661035 0.19674248991743529 0 -0.39581984277341059 0.20425966524013861 0 -0.40870214796446269 0.18018243262920841 0 -0.40673416048405109 0.2076478035701034 0 -0.4092812178661035 0.19674248991743529 0 -0.39581984277341059 0.20425966524013861 0 -0.38636787862627359 0.1952421544789642 0 -0.38527079980056672 0.17630413596394401 0 -0.37201630389582468 0.19477802576388459 0 -0.38636787862627359 0.1952421544789642 0 -0.37800395967672928 0.20988987172074239 0 -0.37201630389582468 0.19477802576388459 0 -0.38636787862627359 0.1952421544789642 0 -0.37800395967672928 0.20988987172074239 0 -0.39581984277341059 0.20425966524013861 0 -0.39581984277341059 0.20425966524013861 0 -0.3829375375823586 0.22833689785106889 0 -0.37800395967672928 0.20988987172074239 0 -0.39581984277341059 0.20425966524013861 0 -0.3829375375823586 0.22833689785106889 0 -0.39581984277341059 0.20425966524013861 0 -0.40420269282930871 0.2196636628317582 0 -0.39501297319893858 0.22964074794560291 0 -0.40673416048405109 0.2076478035701034 0 -0.39581984277341059 0.20425966524013861 0 -0.40420269282930871 0.2196636628317582 0 -0.39581984277341059 0.20425966524013861 0 -0.39501297319893858 0.22964074794560291 0 -0.3829375375823586 0.22833689785106889 0 -0.40420269282930871 0.2196636628317582 0 -0.40573944514876281 0.22803659493207831 0 -0.39501297319893858 0.22964074794560291 0 -0.40995018577121428 0.23679476339690331 0 -0.40573944514876281 0.22803659493207831 0 -0.39501297319893858 0.22964074794560291 0 -0.37800395967672928 0.20988987172074239 0 -0.3829375375823586 0.22833689785106889 0 -0.37038655920818558 0.22357120801157321 0 -0.3829375375823586 0.22833689785106889 0 -0.37237801042727531 0.23677029235194169 0 -0.37038655920818558 0.22357120801157321 0 -0.39501297319893858 0.22964074794560291 0 -0.3829375375823586 0.22833689785106889 0 -0.38702646908577448 0.24703725013213551 0 -0.3829375375823586 0.22833689785106889 0 -0.38702646908577448 0.24703725013213551 0 -0.37237801042727531 0.23677029235194169 0 -0.40995018577121428 0.23679476339690331 0 -0.39501297319893858 0.22964074794560291 0 -0.4059651703890037 0.24982079629174919 0 -0.39501297319893858 0.22964074794560291 0 -0.38702646908577448 0.24703725013213551 0 -0.4059651703890037 0.24982079629174919 0 -0.39501297319893858 0.22964074794560291 0 -0.4059651703890037 0.24982079629174919 0 -0.42158445315551518 0.1561052000182783 0 -0.41632854846925338 0.13422085020438029 0 -0.42391944474909271 0.15174106371585661 0 -0.41070007786744139 0.15463102035075471 0 -0.41632854846925338 0.13422085020438029 0 -0.39975293047086319 0.15552700862154531 0 -0.41632854846925338 0.13422085020438029 0 -0.42354600839533729 0.14155027162256431 0 -0.42391944474909271 0.15174106371585661 0 -0.42158445315551518 0.1561052000182783 0 -0.41632854846925338 0.13422085020438029 0 -0.41632854846925338 0.13422085020438029 0 -0.39975293047086319 0.15552700862154531 0 -0.42158445315551518 0.1561052000182783 0 -0.41070007786744139 0.15463102035075471 0 -0.41632854846925338 0.13422085020438029 0 -0.41632854846925338 0.13422085020438029 0 -0.43199655043178431 0.1364134141489543 0 -0.42354600839533729 0.14155027162256431 0 -0.43843042777466729 0.12152239094641749 0 -0.41632854846925338 0.13422085020438029 0 -0.43199655043178431 0.1364134141489543 0 -0.43843042777466729 0.12152239094641749 0 -0.41632854846925338 0.13422085020438029 0 -0.43843042777466729 0.12152239094641749 0 -0.44190312881499499 0.13203369998832601 0 -0.43199655043178431 0.1364134141489543 0 -0.44221095551865452 0.14361263256661461 0 -0.43109060639359043 0.14503876926669651 0 -0.43130194472001382 0.15413001894343109 0 -0.44221095551865452 0.14361263256661461 0 -0.43199655043178431 0.1364134141489543 0 -0.43109060639359043 0.14503876926669651 0 -0.43199655043178431 0.1364134141489543 0 -0.43109060639359043 0.14503876926669651 0 -0.42354600839533729 0.14155027162256431 0 -0.42746450106450862 0.14811503088713709 0 -0.42354600839533729 0.14155027162256431 0 -0.42391944474909271 0.15174106371585661 0 -0.43109060639359043 0.14503876926669651 0 -0.42746450106450862 0.14811503088713709 0 -0.42354600839533729 0.14155027162256431 0 -0.42158445315551518 0.1561052000182783 0 -0.42391944474909271 0.15174106371585661 0 -0.43130194472001382 0.15413001894343109 0 -0.42158445315551518 0.1561052000182783 0 -0.42391944474909271 0.15174106371585661 0 -0.42746450106450862 0.14811503088713709 0 -0.42391944474909271 0.15174106371585661 0 -0.43130194472001382 0.15413001894343109 0 -0.43109060639359043 0.14503876926669651 0 -0.42746450106450862 0.14811503088713709 0 -0.43130194472001382 0.15413001894343109 0 -0.42158445315551518 0.1561052000182783 0 -0.43566402663150838 0.16365273107653791 0 -0.42707882773422812 0.17462973691726569 0 -0.42158445315551518 0.1561052000182783 0 -0.42707882773422812 0.17462973691726569 0 -0.42158445315551518 0.1561052000182783 0 -0.43130194472001382 0.15413001894343109 0 -0.43566402663150838 0.16365273107653791 0 -0.44919017314130599 0.1775846896507792 0 -0.43566402663150838 0.16365273107653791 0 -0.42707882773422812 0.17462973691726569 0 -0.43257320231293922 0.19315427381625369 0 -0.42707882773422812 0.17462973691726569 0 -0.43257320231293922 0.19315427381625369 0 -0.42707882773422812 0.17462973691726569 0 -0.42183473972908359 0.18211940039769439 0 -0.44919017314130599 0.1775846896507792 0 -0.43257320231293922 0.19315427381625369 0 -0.42707882773422812 0.17462973691726569 0 -0.42707882773422812 0.17462973691726569 0 -0.42183473972908359 0.18211940039769439 0 -0.40870214796446269 0.18018243262920841 0 -0.4092812178661035 0.19674248991743529 0 -0.40870214796446269 0.18018243262920841 0 -0.4127213261837015 0.18285507125248579 0 -0.42232034218597297 0.19026181678025669 0 -0.42183473972908359 0.18211940039769439 0 -0.4127213261837015 0.18285507125248579 0 -0.42183473972908359 0.18211940039769439 0 -0.40870214796446269 0.18018243262920841 0 -0.4127213261837015 0.18285507125248579 0 -0.42158445315551518 0.1561052000182783 0 -0.40870214796446269 0.18018243262920841 0 -0.42158445315551518 0.1561052000182783 0 -0.40870214796446269 0.18018243262920841 0 -0.40785396592336332 0.16361012797783661 0 -0.42158445315551518 0.1561052000182783 0 -0.42707882773422812 0.17462973691726569 0 -0.40870214796446269 0.18018243262920841 0 -0.42158445315551518 0.1561052000182783 0 -0.41070007786744139 0.15463102035075471 0 -0.40785396592336332 0.16361012797783661 0 -0.41070007786744139 0.15463102035075471 0 -0.40785396592336332 0.16361012797783661 0 -0.39975293047086319 0.15552700862154531 0 -0.40870214796446269 0.18018243262920841 0 -0.40785396592336332 0.16361012797783661 0 -0.39851124675272348 0.17087290892463419 0 -0.40785396592336332 0.16361012797783661 0 -0.39851124675272348 0.17087290892463419 0 -0.39975293047086319 0.15552700862154531 0 -0.39851124675272348 0.17087290892463419 0 -0.38749633024927099 0.16327364046022949 0 -0.39975293047086319 0.15552700862154531 0 -0.40870214796446269 0.18018243262920841 0 -0.39795335013238547 0.1789378740252569 0 -0.39539030922568852 0.18718898336649359 0 -0.40870214796446269 0.18018243262920841 0 -0.39851124675272348 0.17087290892463419 0 -0.39795335013238547 0.1789378740252569 0 -0.39851124675272348 0.17087290892463419 0 -0.39795335013238547 0.1789378740252569 0 -0.38527079980056672 0.17630413596394401 0 -0.39795335013238547 0.1789378740252569 0 -0.39539030922568852 0.18718898336649359 0 -0.38527079980056672 0.17630413596394401 0 -0.38636787862627359 0.1952421544789642 0 -0.39539030922568852 0.18718898336649359 0 -0.38527079980056672 0.17630413596394401 0 -0.38527079980056672 0.17630413596394401 0 -0.38749633024927099 0.16327364046022949 0 -0.36420665930653762 0.16416706775605761 0 -0.38974001491566401 0.14949708103496651 0 -0.36420665930653762 0.16416706775605761 0 -0.38749633024927099 0.16327364046022949 0 -0.38974001491566401 0.14949708103496651 0 -0.36420665930653762 0.16416706775605761 0 -0.39851124675272348 0.17087290892463419 0 -0.38527079980056672 0.17630413596394401 0 -0.38749633024927099 0.16327364046022949 0 -0.38289791490575992 0.1227367021696955 0 -0.41632854846925338 0.13422085020438029 0 -0.38974001491566401 0.14949708103496651 0 -0.38749633024927099 0.16327364046022949 0 -0.38974001491566401 0.14949708103496651 0 -0.39975293047086319 0.15552700862154531 0 -0.41632854846925338 0.13422085020438029 0 -0.38974001491566401 0.14949708103496651 0 -0.41632854846925338 0.13422085020438029 0 -0.38974001491566401 0.14949708103496651 0 -0.39975293047086319 0.15552700862154531 0 -0.38289791490575992 0.1227367021696955 0 -0.38974001491566401 0.14949708103496651 0 -0.36026520367256187 0.13749143609449321 0 -0.36026520367256187 0.13749143609449321 0 -0.33567536368962808 0.1294403138358334 0 -0.339761687334313 0.15407462832811369 0 -0.36026520367256187 0.13749143609449321 0 -0.33567536368962808 0.1294403138358334 0 -0.35476289010026918 0.11220892543272699 0 -0.36026520367256187 0.13749143609449321 0 -0.36420665930653762 0.16416706775605761 0 -0.339761687334313 0.15407462832811369 0 -0.38974001491566401 0.14949708103496651 0 -0.36026520367256187 0.13749143609449321 0 -0.36420665930653762 0.16416706775605761 0 -0.38527079980056672 0.17630413596394401 0 -0.36269018246752799 0.1815824989546222 0 -0.37201630389582468 0.19477802576388459 0 -0.38527079980056672 0.17630413596394401 0 -0.36420665930653762 0.16416706775605761 0 -0.36269018246752799 0.1815824989546222 0 -0.36420665930653762 0.16416706775605761 0 -0.36269018246752799 0.1815824989546222 0 -0.33867330369741111 0.17883705447714879 0 -0.36269018246752799 0.1815824989546222 0 -0.33867330369741111 0.17883705447714879 0 -0.35328384563730031 0.19382621081207599 0 -0.36420665930653762 0.16416706775605761 0 -0.33867330369741111 0.17883705447714879 0 -0.36420665930653762 0.16416706775605761 0 -0.33867330369741111 0.17883705447714879 0 -0.339761687334313 0.15407462832811369 0 -0.33867330369741111 0.17883705447714879 0 -0.31670879158506599 0.17127418401382821 0 -0.339761687334313 0.15407462832811369 0 -0.33867330369741111 0.17883705447714879 0 -0.31670879158506599 0.17127418401382821 0 -0.3131399480882846 0.19350704119824 0 -0.33867330369741111 0.17883705447714879 0 -0.3131399480882846 0.19350704119824 0 -0.31670879158506599 0.17127418401382821 0 -0.31658783727898698 0.14667170223893991 0 -0.339761687334313 0.15407462832811369 0 -0.31658783727898698 0.14667170223893991 0 -0.33567536368962808 0.1294403138358334 0 -0.31658783727898698 0.14667170223893991 0 -0.31631020558434592 0.12551755118178659 0 -0.33567536368962808 0.1294403138358334 0 -0.31658783727898698 0.14667170223893991 0 -0.33567536368962808 0.1294403138358334 0 -0.339761687334313 0.15407462832811369 0 -0.35128395450412669 0.24126696948971529 0 -0.3650723950661709 0.24998549435974801 0 -0.34413919195685061 0.25265196040736021 0 -0.35128395450412669 0.24126696948971529 0 -0.3650723950661709 0.24998549435974801 0 -0.3588096185983165 0.23102870437729431 0 -0.35128395450412669 0.24126696948971529 0 -0.33979482615947271 0.2361766713433113 0 -0.34413919195685061 0.25265196040736021 0 -0.35128395450412669 0.24126696948971529 0 -0.34673170897802291 0.23141987360439789 0 -0.33979482615947271 0.2361766713433113 0 -0.35128395450412669 0.24126696948971529 0 -0.3588096185983165 0.23102870437729431 0 -0.34673170897802291 0.23141987360439789 0 -0.38702646908577448 0.24703725013213551 0 -0.3650723950661709 0.24998549435974801 0 -0.37237801042727531 0.23677029235194169 0 -0.3650723950661709 0.24998549435974801 0 -0.37237801042727531 0.23677029235194169 0 -0.3588096185983165 0.23102870437729431 0 -0.37038655920818558 0.22357120801157321 0 -0.3588096185983165 0.23102870437729431 0 -0.35980366975624839 0.2118302737568184 0 -0.37237801042727531 0.23677029235194169 0 -0.37038655920818558 0.22357120801157321 0 -0.3588096185983165 0.23102870437729431 0 -0.3588096185983165 0.23102870437729431 0 -0.34585234665485831 0.22137637041283889 0 -0.35980366975624839 0.2118302737568184 0 -0.3588096185983165 0.23102870437729431 0 -0.34673170897802291 0.23141987360439789 0 -0.34585234665485831 0.22137637041283889 0 -0.34585234665485831 0.22137637041283889 0 -0.35980366975624839 0.2118302737568184 0 -0.34152479775393663 0.20787761672402491 0 -0.35980366975624839 0.2118302737568184 0 -0.35328384563730031 0.19382621081207599 0 -0.34152479775393663 0.20787761672402491 0 -0.37800395967672928 0.20988987172074239 0 -0.35980366975624839 0.2118302737568184 0 -0.37201630389582468 0.19477802576388459 0 -0.37800395967672928 0.20988987172074239 0 -0.37038655920818558 0.22357120801157321 0 -0.35980366975624839 0.2118302737568184 0 -0.36269018246752799 0.1815824989546222 0 -0.37201630389582468 0.19477802576388459 0 -0.35328384563730031 0.19382621081207599 0 -0.35980366975624839 0.2118302737568184 0 -0.37201630389582468 0.19477802576388459 0 -0.35328384563730031 0.19382621081207599 0 -0.35328384563730031 0.19382621081207599 0 -0.33299521106146612 0.19491192508219229 0 -0.34152479775393663 0.20787761672402491 0 -0.33867330369741111 0.17883705447714879 0 -0.33299521106146612 0.19491192508219229 0 -0.3131399480882846 0.19350704119824 0 -0.33867330369741111 0.17883705447714879 0 -0.35328384563730031 0.19382621081207599 0 -0.33299521106146612 0.19491192508219229 0 -0.33299521106146612 0.19491192508219229 0 -0.3131399480882846 0.19350704119824 0 -0.32182273812612783 0.20111807788962141 0 -0.3131399480882846 0.19350704119824 0 -0.32182273812612783 0.20111807788962141 0 -0.31021991081793571 0.206509063368949 0 -0.33299521106146612 0.19491192508219229 0 -0.32182273812612783 0.20111807788962141 0 -0.32784036954228801 0.2094850339258239 0 -0.32182273812612783 0.20111807788962141 0 -0.30807847522554899 0.22029911100287269 0 -0.3181533752542719 0.21300355390394721 0 -0.3285951695688894 0.21976356096486729 0 -0.30807847522554899 0.22029911100287269 0 -0.32182273812612783 0.20111807788962141 0 -0.30807847522554899 0.22029911100287269 0 -0.31021991081793571 0.206509063368949 0 -0.32182273812612783 0.20111807788962141 0 -0.3181533752542719 0.21300355390394721 0 -0.30807847522554899 0.22029911100287269 0 -0.32182273812612783 0.20111807788962141 0 -0.32784036954228801 0.2094850339258239 0 -0.3181533752542719 0.21300355390394721 0 -0.32784036954228801 0.2094850339258239 0 -0.3181533752542719 0.21300355390394721 0 -0.3285951695688894 0.21976356096486729 0 -0.34585234665485831 0.22137637041283889 0 -0.34152479775393663 0.20787761672402491 0 -0.3285951695688894 0.21976356096486729 0 -0.32784036954228801 0.2094850339258239 0 -0.34152479775393663 0.20787761672402491 0 -0.3285951695688894 0.21976356096486729 0 -0.33299521106146612 0.19491192508219229 0 -0.32784036954228801 0.2094850339258239 0 -0.34152479775393663 0.20787761672402491 0 -0.34585234665485831 0.22137637041283889 0 -0.33842231616950208 0.22812203518376881 0 -0.3285951695688894 0.21976356096486729 0 -0.34673170897802291 0.23141987360439789 0 -0.34585234665485831 0.22137637041283889 0 -0.33842231616950208 0.22812203518376881 0 -0.33842231616950208 0.22812203518376881 0 -0.33113752948626729 0.23187369959342891 0 -0.33979482615947271 0.2361766713433113 0 -0.34673170897802291 0.23141987360439789 0 -0.33842231616950208 0.22812203518376881 0 -0.33979482615947271 0.2361766713433113 0 -0.33842231616950208 0.22812203518376881 0 -0.33113752948626729 0.23187369959342891 0 -0.3285951695688894 0.21976356096486729 0 -0.3285951695688894 0.21976356096486729 0 -0.32033646903040952 0.23129670238534189 0 -0.30807847522554899 0.22029911100287269 0 -0.3285951695688894 0.21976356096486729 0 -0.30807847522554899 0.22029911100287269 0 -0.32033646903040952 0.23129670238534189 0 -0.31162433600828698 0.2370693885301344 0 -0.30807847522554899 0.22029911100287269 0 -0.32033646903040952 0.23129670238534189 0 -0.30807847522554899 0.22029911100287269 0 -0.33113752948626729 0.23187369959342891 0 -0.3285951695688894 0.21976356096486729 0 -0.32033646903040952 0.23129670238534189 0 -0.33113752948626729 0.23187369959342891 0 -0.32033646903040952 0.23129670238534189 0 -0.33259446283527072 0.24229429376781031 0 -0.32033646903040952 0.23129670238534189 0 -0.33259446283527072 0.24229429376781031 0 -0.32033646903040952 0.23129670238534189 0 -0.3198698390523787 0.24248957414849839 0 -0.33259446283527072 0.24229429376781031 0 -0.3198698390523787 0.24248957414849839 0 -0.33259446283527072 0.24229429376781031 0 -0.31242753141762769 0.25942866134329529 0 -0.3198698390523787 0.24248957414849839 0 -0.31162433600828698 0.2370693885301344 0 -0.31242753141762769 0.25942866134329529 0 -0.32033646903040952 0.23129670238534189 0 -0.3198698390523787 0.24248957414849839 0 -0.31162433600828698 0.2370693885301344 0 -0.33259446283527072 0.24229429376781031 0 -0.33979482615947271 0.2361766713433113 0 -0.34413919195685061 0.25265196040736021 0 -0.33113752948626729 0.23187369959342891 0 -0.33259446283527072 0.24229429376781031 0 -0.33979482615947271 0.2361766713433113 0 -0.33259446283527072 0.24229429376781031 0 -0.33979482615947271 0.2361766713433113 0 -0.33259446283527072 0.24229429376781031 0 -0.34413919195685061 0.25265196040736021 0 -0.29222907257208403 0.24074557093379831 0 -0.28485116335331812 0.23321920624294809 0 -0.27103680752545423 0.24403107392080631 0 -0.29222907257208403 0.24074557093379831 0 -0.30247996729088872 0.24864381714645439 0 -0.29253527374002541 0.25818464783769479 0 -0.29222907257208403 0.24074557093379831 0 -0.29412999365248849 0.22922493605379091 0 -0.28485116335331812 0.23321920624294809 0 -0.30247996729088872 0.24864381714645439 0 -0.31162433600828698 0.2370693885301344 0 -0.31242753141762769 0.25942866134329529 0 -0.29222907257208403 0.24074557093379831 0 -0.30247996729088872 0.24864381714645439 0 -0.31162433600828698 0.2370693885301344 0 -0.31162433600828698 0.2370693885301344 0 -0.31242753141762769 0.25942866134329529 0 -0.29222907257208403 0.24074557093379831 0 -0.31162433600828698 0.2370693885301344 0 -0.30807847522554899 0.22029911100287269 0 -0.30807847522554899 0.22029911100287269 0 -0.29135546942208101 0.22073563387754769 0 -0.29973814110322339 0.21602431030953129 0 -0.29222907257208403 0.24074557093379831 0 -0.30807847522554899 0.22029911100287269 0 -0.29412999365248849 0.22922493605379091 0 -0.29222907257208403 0.24074557093379831 0 -0.30807847522554899 0.22029911100287269 0 -0.30807847522554899 0.22029911100287269 0 -0.29135546942208101 0.22073563387754769 0 -0.30807847522554899 0.22029911100287269 0 -0.29135546942208101 0.22073563387754769 0 -0.29412999365248849 0.22922493605379091 0 -0.29135546942208101 0.22073563387754769 0 -0.29412999365248849 0.22922493605379091 0 -0.29135546942208101 0.22073563387754769 0 -0.28485116335331812 0.23321920624294809 0 -0.27550447359448282 0.2313588164287973 0 -0.29135546942208101 0.22073563387754769 0 -0.29412999365248849 0.22922493605379091 0 -0.28485116335331812 0.23321920624294809 0 -0.29135546942208101 0.22073563387754769 0 -0.28715566101267859 0.2078853432658945 0 -0.26589619103571299 0.22065056668017691 0 -0.28715566101267859 0.2078853432658945 0 -0.29818582247133602 0.21142364945415471 0 -0.29973814110322339 0.21602431030953129 0 -0.29135546942208101 0.22073563387754769 0 -0.28715566101267859 0.2078853432658945 0 -0.29135546942208101 0.22073563387754769 0 -0.28715566101267859 0.2078853432658945 0 -0.29973814110322339 0.21602431030953129 0 -0.28715566101267859 0.2078853432658945 0 -0.29973814110322339 0.21602431030953129 0 -0.3131399480882846 0.19350704119824 0 -0.28715566101267859 0.2078853432658945 0 -0.29818582247133602 0.21142364945415471 0 -0.3131399480882846 0.19350704119824 0 -0.29818582247133602 0.21142364945415471 0 -0.31021991081793571 0.206509063368949 0 -0.30807847522554899 0.22029911100287269 0 -0.29818582247133602 0.21142364945415471 0 -0.30807847522554899 0.22029911100287269 0 -0.29818582247133602 0.21142364945415471 0 -0.29973814110322339 0.21602431030953129 0 -0.30807847522554899 0.22029911100287269 0 -0.29818582247133602 0.21142364945415471 0 -0.31021991081793571 0.206509063368949 0 -0.3131399480882846 0.19350704119824 0 -0.28715566101267859 0.2078853432658945 0 -0.29458966224305472 0.1906515871984806 0 -0.3131399480882846 0.19350704119824 0 -0.28715566101267859 0.2078853432658945 0 -0.28715566101267859 0.2078853432658945 0 -0.27841278445770201 0.18113447904514979 0 -0.28715566101267859 0.2078853432658945 0 -0.29458966224305472 0.1906515871984806 0 -0.27841278445770201 0.18113447904514979 0 -0.28715566101267859 0.2078853432658945 0 -0.26479929435913158 0.1934241456244519 0 -0.28715566101267859 0.2078853432658945 0 -0.26479929435913158 0.1934241456244519 0 -0.27841278445770201 0.18113447904514979 0 -0.26479929435913158 0.1934241456244519 0 -0.24882679655978021 0.20784342172274001 0 -0.26479929435913158 0.1934241456244519 0 -0.24874787384898819 0.1830412972832951 0 -0.24882679655978021 0.20784342172274001 0 -0.26479929435913158 0.1934241456244519 0 -0.24874787384898819 0.1830412972832951 0 -0.26479929435913158 0.1934241456244519 0 -0.26239525568065108 0.2075379839136256 0 -0.24882679655978021 0.20784342172274001 0 -0.26239525568065108 0.2075379839136256 0 -0.26210488409125532 0.22149916584928939 0 -0.24882679655978021 0.20784342172274001 0 -0.26239525568065108 0.2075379839136256 0 -0.2667425779800478 0.21478786894851509 0 -0.26210488409125532 0.22149916584928939 0 -0.2667425779800478 0.21478786894851509 0 -0.27519480235345251 0.21205107377986629 0 -0.26589619103571299 0.22065056668017691 0 -0.28715566101267859 0.2078853432658945 0 -0.26589619103571299 0.22065056668017691 0 -0.28715566101267859 0.2078853432658945 0 -0.27519480235345251 0.21205107377986629 0 -0.26589619103571299 0.22065056668017691 0 -0.28715566101267859 0.2078853432658945 0 -0.26479929435913158 0.1934241456244519 0 -0.27519480235345251 0.21205107377986629 0 -0.26239525568065108 0.2075379839136256 0 -0.2667425779800478 0.21478786894851509 0 -0.27519480235345251 0.21205107377986629 0 -0.26479929435913158 0.1934241456244519 0 -0.26239525568065108 0.2075379839136256 0 -0.27519480235345251 0.21205107377986629 0 -0.29135546942208101 0.22073563387754769 0 -0.26210488409125532 0.22149916584928939 0 -0.29135546942208101 0.22073563387754769 0 -0.27550447359448282 0.2313588164287973 0 -0.26210488409125532 0.22149916584928939 0 -0.29135546942208101 0.22073563387754769 0 -0.26589619103571299 0.22065056668017691 0 -0.26210488409125532 0.22149916584928939 0 -0.27550447359448282 0.2313588164287973 0 -0.26210488409125532 0.22149916584928939 0 -0.26453794159046717 0.2332653852208951 0 -0.26210488409125532 0.22149916584928939 0 -0.25542566316957921 0.23151948133455191 0 -0.24543730221246171 0.22482866379383809 0 -0.2667425779800478 0.21478786894851509 0 -0.26589619103571299 0.22065056668017691 0 -0.26210488409125532 0.22149916584928939 0 -0.26210488409125532 0.22149916584928939 0 -0.25542566316957921 0.23151948133455191 0 -0.26453794159046717 0.2332653852208951 0 -0.25718231193678831 0.2399436278613554 0 -0.27103680752545423 0.24403107392080631 0 -0.25265335745042522 0.25109173675386448 0 -0.26453794159046717 0.2332653852208951 0 -0.25718231193678831 0.2399436278613554 0 -0.27103680752545423 0.24403107392080631 0 -0.25542566316957921 0.23151948133455191 0 -0.26453794159046717 0.2332653852208951 0 -0.25718231193678831 0.2399436278613554 0 -0.25542566316957921 0.23151948133455191 0 -0.25718231193678831 0.2399436278613554 0 -0.24714809219953521 0.23907318359254359 0 -0.25718231193678831 0.2399436278613554 0 -0.25265335745042522 0.25109173675386448 0 -0.24714809219953521 0.23907318359254359 0 -0.29222907257208403 0.24074557093379831 0 -0.27103680752545423 0.24403107392080631 0 -0.27697126413119733 0.26117658840125102 0 -0.27550447359448282 0.2313588164287973 0 -0.26453794159046717 0.2332653852208951 0 -0.27103680752545423 0.24403107392080631 0 -0.28485116335331812 0.23321920624294809 0 -0.27550447359448282 0.2313588164287973 0 -0.27103680752545423 0.24403107392080631 0 -0.28922318394765723 0.1282620240163202 0 -0.29799548615922328 0.1436934950068865 0 -0.26907918302227551 0.15257615466305041 0 -0.29799548615922328 0.1436934950068865 0 -0.29750031086834589 0.16390309064204639 0 -0.26907918302227551 0.15257615466305041 0 -0.28922318394765723 0.1282620240163202 0 -0.29799548615922328 0.1436934950068865 0 -0.30255080643382048 0.12208388567831011 0 -0.31658783727898698 0.14667170223893991 0 -0.31631020558434592 0.12551755118178659 0 -0.29799548615922328 0.1436934950068865 0 -0.31631020558434592 0.12551755118178659 0 -0.29799548615922328 0.1436934950068865 0 -0.30255080643382048 0.12208388567831011 0 -0.31658783727898698 0.14667170223893991 0 -0.29750031086834589 0.16390309064204639 0 -0.31658783727898698 0.14667170223893991 0 -0.29799548615922328 0.1436934950068865 0 -0.29750031086834589 0.16390309064204639 0 -0.31670879158506599 0.17127418401382821 0 -0.31658783727898698 0.14667170223893991 0 -0.29750031086834589 0.16390309064204639 0 -0.31670879158506599 0.17127418401382821 0 -0.29458966224305472 0.1906515871984806 0 -0.29750031086834589 0.16390309064204639 0 -0.31670879158506599 0.17127418401382821 0 -0.3131399480882846 0.19350704119824 0 -0.29458966224305472 0.1906515871984806 0 -0.29458966224305472 0.1906515871984806 0 -0.29750031086834589 0.16390309064204639 0 -0.27841278445770201 0.18113447904514979 0 -0.29750031086834589 0.16390309064204639 0 -0.27841278445770201 0.18113447904514979 0 -0.29750031086834589 0.16390309064204639 0 -0.27841278445770201 0.18113447904514979 0 -0.26907918302227551 0.15257615466305041 0 -0.27841278445770201 0.18113447904514979 0 -0.26907918302227551 0.15257615466305041 0 -0.27841278445770201 0.18113447904514979 0 -0.26187051524597588 0.174783095380417 0 -0.26907918302227551 0.15257615466305041 0 -0.26479929435913158 0.1934241456244519 0 -0.27841278445770201 0.18113447904514979 0 -0.26187051524597588 0.174783095380417 0 -0.26479929435913158 0.1934241456244519 0 -0.27841278445770201 0.18113447904514979 0 -0.26187051524597588 0.174783095380417 0 -0.24831344054178331 0.1637394002861367 0 -0.24874787384898819 0.1830412972832951 0 -0.26479929435913158 0.1934241456244519 0 -0.26187051524597588 0.174783095380417 0 -0.24874787384898819 0.1830412972832951 0 -0.26187051524597588 0.174783095380417 0 -0.26907918302227551 0.15257615466305041 0 -0.24831344054178331 0.1637394002861367 0 -0.26907918302227551 0.15257615466305041 0 -0.2430235962010098 0.1436194546799206 0 -0.24831344054178331 0.1637394002861367 0 -0.26907918302227551 0.15257615466305041 0 -0.27384433742721043 0.12682403936369091 0 -0.25974558158685063 0.1240178302809503 0 -0.28922318394765723 0.1282620240163202 0 -0.26907918302227551 0.15257615466305041 0 -0.27384433742721043 0.12682403936369091 0 -0.26907918302227551 0.15257615466305041 0 -0.25974558158685063 0.1240178302809503 0 -0.26907918302227551 0.15257615466305041 0 -0.25974558158685063 0.1240178302809503 0 -0.2430235962010098 0.1436194546799206 0 -0.25974558158685063 0.1240178302809503 0 -0.25041198015142918 0.095459505898848926 0 -0.24365668353991851 0.1103158310452878 0 -0.25974558158685063 0.1240178302809503 0 -0.25041198015142918 0.095459505898848926 0 -0.26981758204954459 0.1118607649575829 0 -0.25974558158685063 0.1240178302809503 0 -0.25041198015142918 0.095459505898848926 0 -0.25041198015142918 0.095459505898848926 0 -0.26981758204954459 0.1118607649575829 0 -0.25041198015142918 0.095459505898848926 0 -0.26981758204954459 0.1118607649575829 0 -0.26141704115476638 0.090495698672661995 0 -0.27270662245338573 0.094773093202966646 0 -0.27771663533900859 0.1093615386211543 0 -0.26981758204954459 0.1118607649575829 0 -0.27270662245338573 0.094773093202966646 0 -0.26981758204954459 0.1118607649575829 0 -0.26141704115476638 0.090495698672661995 0 -0.27270662245338573 0.094773093202966646 0 -0.27771663533900859 0.1093615386211543 0 -0.27270662245338573 0.094773093202966646 0 -0.28201734722405941 0.1001153152251959 0 -0.28391015050727519 0.091397655072335673 0 -0.27270662245338573 0.094773093202966646 0 -0.27771663533900859 0.1093615386211543 0 -0.28201734722405941 0.1001153152251959 0 -0.28922318394765723 0.1282620240163202 0 -0.27384433742721043 0.12682403936369091 0 -0.26981758204954459 0.1118607649575829 0 -0.28922318394765723 0.1282620240163202 0 -0.27771663533900859 0.1093615386211543 0 -0.26981758204954459 0.1118607649575829 0 -0.28922318394765723 0.1282620240163202 0 -0.26981758204954459 0.1118607649575829 0 -0.27384433742721043 0.12682403936369091 0 -0.25974558158685063 0.1240178302809503 0 -0.26981758204954459 0.1118607649575829 0 -0.28922318394765723 0.1282620240163202 0 -0.27771663533900859 0.1093615386211543 0 -0.29163236794498149 0.11384250559643171 0 -0.28922318394765723 0.1282620240163202 0 -0.29163236794498149 0.11384250559643171 0 -0.30255080643382048 0.12208388567831011 0 -0.27771663533900859 0.1093615386211543 0 -0.29163236794498149 0.11384250559643171 0 -0.28710431020934818 0.1054463492958697 0 -0.27771663533900859 0.1093615386211543 0 -0.28710431020934818 0.1054463492958697 0 -0.28201734722405941 0.1001153152251959 0 -0.28201734722405941 0.1001153152251959 0 -0.28963430697536802 0.097928250411328466 0 -0.28391015050727519 0.091397655072335673 0 -0.28710431020934818 0.1054463492958697 0 -0.28201734722405941 0.1001153152251959 0 -0.28963430697536802 0.097928250411328466 0 -0.28963430697536802 0.097928250411328466 0 -0.29649147229150119 0.10264475758058909 0 -0.29797457380558318 0.09234957746350464 0 -0.28963430697536802 0.097928250411328466 0 -0.29797457380558318 0.09234957746350464 0 -0.28391015050727519 0.091397655072335673 0 -0.29163236794498149 0.11384250559643171 0 -0.28710431020934818 0.1054463492958697 0 -0.29649147229150119 0.10264475758058909 0 -0.28710431020934818 0.1054463492958697 0 -0.28963430697536802 0.097928250411328466 0 -0.29649147229150119 0.10264475758058909 0 -0.29163236794498149 0.11384250559643171 0 -0.29649147229150119 0.10264475758058909 0 -0.30618539930334221 0.1072157163425189 0 -0.29649147229150119 0.10264475758058909 0 -0.30740316487447289 0.097416456851557032 0 -0.30618539930334221 0.1072157163425189 0 -0.29649147229150119 0.10264475758058909 0 -0.30740316487447289 0.097416456851557032 0 -0.29797457380558318 0.09234957746350464 0 -0.30740316487447289 0.097416456851557032 0 -0.30618539930334221 0.1072157163425189 0 -0.31781828788682848 0.100695581615606 0 -0.30618539930334221 0.1072157163425189 0 -0.30255080643382048 0.12208388567831011 0 -0.31415049402697648 0.112614420479498 0 -0.31631020558434592 0.12551755118178659 0 -0.30255080643382048 0.12208388567831011 0 -0.31415049402697648 0.112614420479498 0 -0.29163236794498149 0.11384250559643171 0 -0.30618539930334221 0.1072157163425189 0 -0.30255080643382048 0.12208388567831011 0 -0.30284047199317288 0.077899882412751739 0 -0.29751546582925409 0.067279444185059045 0 -0.30531520919385668 0.070551786854124249 0 -0.29751546582925409 0.067279444185059045 0 -0.30548701166274927 0.064613420940663246 0 -0.29972433769491791 0.059710592505707219 0 -0.29751546582925409 0.067279444185059045 0 -0.30548701166274927 0.064613420940663246 0 -0.30531520919385668 0.070551786854124249 0 -0.30548701166274927 0.064613420940663246 0 -0.31156094219583857 0.06807936801096974 0 -0.30531520919385668 0.070551786854124249 0 -0.30548701166274927 0.064613420940663246 0 -0.31156094219583857 0.06807936801096974 0 -0.31313423812619018 0.061154500492800801 0 -0.30284047199317288 0.077899882412751739 0 -0.31048181319094897 0.073115490872607478 0 -0.3149128197704954 0.077091396323122813 0 -0.31156094219583857 0.06807936801096974 0 -0.31048181319094897 0.073115490872607478 0 -0.30531520919385668 0.070551786854124249 0 -0.30284047199317288 0.077899882412751739 0 -0.31048181319094897 0.073115490872607478 0 -0.30531520919385668 0.070551786854124249 0 -0.30755526864546712 0.089975295751970608 0 -0.294434772206077 0.083075721610914907 0 -0.32117293484439352 0.085966795437046439 0 -0.30284047199317288 0.077899882412751739 0 -0.294434772206077 0.083075721610914907 0 -0.32117293484439352 0.085966795437046439 0 -0.294434772206077 0.083075721610914907 0 -0.32117293484439352 0.085966795437046439 0 -0.30740316487447289 0.097416456851557032 0 -0.30755526864546712 0.089975295751970608 0 -0.31552525736878428 0.093333074259403404 0 -0.30740316487447289 0.097416456851557032 0 -0.30755526864546712 0.089975295751970608 0 -0.29797457380558318 0.09234957746350464 0 -0.30755526864546712 0.089975295751970608 0 -0.29797457380558318 0.09234957746350464 0 -0.294434772206077 0.083075721610914907 0 -0.294434772206077 0.083075721610914907 0 -0.28391015050727519 0.091397655072335673 0 -0.26769660956776109 0.080184647784779517 0 -0.29797457380558318 0.09234957746350464 0 -0.294434772206077 0.083075721610914907 0 -0.28391015050727519 0.091397655072335673 0 -0.30284047199317288 0.077899882412751739 0 -0.294434772206077 0.083075721610914907 0 -0.28226946233320299 0.070309374938271968 0 -0.294434772206077 0.083075721610914907 0 -0.28226946233320299 0.070309374938271968 0 -0.26769660956776109 0.080184647784779517 0 -0.30284047199317288 0.077899882412751739 0 -0.28226946233320299 0.070309374938271968 0 -0.30284047199317288 0.077899882412751739 0 -0.29751546582925409 0.067279444185059045 0 -0.28226946233320299 0.070309374938271968 0 -0.29751546582925409 0.067279444185059045 0 -0.28226946233320299 0.070309374938271968 0 -0.29022363274236801 0.059216895145030223 0 -0.28226946233320299 0.070309374938271968 0 -0.27744035203432998 0.058756295689662882 0 -0.29022363274236801 0.059216895145030223 0 -0.28226946233320299 0.070309374938271968 0 -0.26169845267323261 0.062718867463793793 0 -0.28226946233320299 0.070309374938271968 0 -0.26169845267323261 0.062718867463793793 0 -0.27744035203432998 0.058756295689662882 0 -0.28226946233320299 0.070309374938271968 0 -0.26769660956776109 0.080184647784779517 0 -0.26169845267323261 0.062718867463793793 0 -0.294434772206077 0.083075721610914907 0 -0.26769660956776109 0.080184647784779517 0 -0.27270662245338573 0.094773093202966646 0 -0.28391015050727519 0.091397655072335673 0 -0.26769660956776109 0.080184647784779517 0 -0.27270662245338573 0.094773093202966646 0 -0.26769660956776109 0.080184647784779517 0 -0.26141704115476638 0.090495698672661995 0 -0.27270662245338573 0.094773093202966646 0 -0.26769660956776109 0.080184647784779517 0 -0.26769660956776109 0.080184647784779517 0 -0.26141704115476638 0.090495698672661995 0 -0.244603698784257 0.07768771817751037 0 -0.26769660956776109 0.080184647784779517 0 -0.244603698784257 0.07768771817751037 0 -0.25041198015142918 0.095459505898848926 0 -0.26141704115476638 0.090495698672661995 0 -0.244603698784257 0.07768771817751037 0 -0.26769660956776109 0.080184647784779517 0 -0.26169845267323261 0.062718867463793793 0 -0.244603698784257 0.07768771817751037 0 -0.26769660956776109 0.080184647784779517 0 -0.26169845267323261 0.062718867463793793 0 -0.26169845267323261 0.062718867463793793 0 -0.25811756134856428 0.052291820901049349 0 -0.2365299022825417 0.052984059993001507 0 -0.26169845267323261 0.062718867463793793 0 -0.25811756134856428 0.052291820901049349 0 -0.25811756134856428 0.052291820901049349 0 -0.25445515451353462 0.041627412758430252 0 -0.25811756134856428 0.052291820901049349 0 -0.25445515451353462 0.041627412758430252 0 -0.2447050572814031 0.047804643256565749 0 -0.25811756134856428 0.052291820901049349 0 -0.2447050572814031 0.047804643256565749 0 -0.25811756134856428 0.052291820901049349 0 -0.25445515451353462 0.041627412758430252 0 -0.2704145169565858 0.045579440051100893 0 -0.25445515451353462 0.041627412758430252 0 -0.2740772217427252 0.029195738567007339 0 -0.2704145169565858 0.045579440051100893 0 -0.2740772217427252 0.029195738567007339 0 -0.28620844944028978 0.047194618168521253 0 -0.25445515451353462 0.041627412758430252 0 -0.2704145169565858 0.045579440051100893 0 -0.2740772217427252 0.029195738567007339 0 -0.25811756134856428 0.052291820901049349 0 -0.2704145169565858 0.045579440051100893 0 -0.27744035203432998 0.058756295689662882 0 -0.26169845267323261 0.062718867463793793 0 -0.25811756134856428 0.052291820901049349 0 -0.27744035203432998 0.058756295689662882 0 -0.2704145169565858 0.045579440051100893 0 -0.27744035203432998 0.058756295689662882 0 -0.28620844944028978 0.047194618168521253 0 -0.25811756134856428 0.052291820901049349 0 -0.27744035203432998 0.058756295689662882 0 -0.26333516374386129 0.00051910053004670942 0 -0.24712558119618661 0.020284737056821159 0 -0.24396522868510681 0.011082239745400501 0 -0.26333516374386129 0.00051910053004670942 0 -0.24712558119618661 0.020284737056821159 0 -0.25244635663921139 -0.01058035858029167 0 -0.26333516374386129 0.00051910053004670942 0 -0.24396522868510681 0.011082239745400501 0 -0.26333516374386129 0.00051910053004670942 0 -0.2740772217427252 0.029195738567007339 0 -0.24712558119618661 0.020284737056821159 0 -0.25445515451353462 0.041627412758430252 0 -0.2740772217427252 0.029195738567007339 0 -0.24712558119618661 0.020284737056821159 0 -0.25445515451353462 0.041627412758430252 0 -0.24712558119618661 0.020284737056821159 0 -0.26333516374386129 0.00051910053004670942 0 -0.2740772217427252 0.029195738567007339 0 -0.28141789439927128 0.0039550589139241482 0 -0.29643305124632008 -0.0074570729062871004 0 -0.28141789439927128 0.0039550589139241482 0 -0.29369928897191439 0.016764064375582161 0 -0.2740772217427252 0.029195738567007339 0 -0.29369928897191439 0.016764064375582161 0 -0.29504326718540053 0.033588916280847723 0 -0.2740772217427252 0.029195738567007339 0 -0.28141789439927128 0.0039550589139241482 0 -0.29369928897191439 0.016764064375582161 0 -0.2740772217427252 0.029195738567007339 0 -0.29369928897191439 0.016764064375582161 0 -0.29369928897191439 0.016764064375582161 0 -0.30311066291720679 0.025944776031556309 0 -0.29504326718540053 0.033588916280847723 0 -0.29369928897191439 0.016764064375582161 0 -0.30311066291720679 0.025944776031556309 0 -0.31088204074588888 0.017956426083854261 0 -0.30311066291720679 0.025944776031556309 0 -0.31215922840072918 0.030311994623399049 0 -0.31088204074588888 0.017956426083854261 0 -0.29369928897191439 0.016764064375582161 0 -0.31088204074588888 0.017956426083854261 0 -0.31332135620110318 0.0043323901841563778 0 -0.29643305124632008 -0.0074570729062871004 0 -0.29369928897191439 0.016764064375582161 0 -0.31332135620110318 0.0043323901841563778 0 -0.29369928897191439 0.016764064375582161 0 -0.31332135620110318 0.0043323901841563778 0 -0.29022363274236801 0.059216895145030223 0 -0.28620844944028978 0.047194618168521253 0 -0.29933831071313571 0.04904953992441391 0 -0.29022363274236801 0.059216895145030223 0 -0.29933831071313571 0.04904953992441391 0 -0.29972433769491791 0.059710592505707219 0 -0.29751546582925409 0.067279444185059045 0 -0.29022363274236801 0.059216895145030223 0 -0.29972433769491791 0.059710592505707219 0 -0.27744035203432998 0.058756295689662882 0 -0.29022363274236801 0.059216895145030223 0 -0.28620844944028978 0.047194618168521253 0 -0.2740772217427252 0.029195738567007339 0 -0.28620844944028978 0.047194618168521253 0 -0.29504326718540053 0.033588916280847723 0 -0.28620844944028978 0.047194618168521253 0 -0.29504326718540053 0.033588916280847723 0 -0.29933831071313571 0.04904953992441391 0 -0.29504326718540053 0.033588916280847723 0 -0.30591119211506601 0.037520972269776187 0 -0.29933831071313571 0.04904953992441391 0 -0.30311066291720679 0.025944776031556309 0 -0.29504326718540053 0.033588916280847723 0 -0.30591119211506601 0.037520972269776187 0 -0.30311066291720679 0.025944776031556309 0 -0.31215922840072918 0.030311994623399049 0 -0.30591119211506601 0.037520972269776187 0 -0.31215922840072918 0.030311994623399049 0 -0.30591119211506601 0.037520972269776187 0 -0.31486300926504551 0.039255802259104723 0 -0.30591119211506601 0.037520972269776187 0 -0.3097715227913056 0.047342480928849823 0 -0.31486300926504551 0.039255802259104723 0 -0.30591119211506601 0.037520972269776187 0 -0.3097715227913056 0.047342480928849823 0 -0.29933831071313571 0.04904953992441391 0 -0.3097715227913056 0.047342480928849823 0 -0.30659727325541569 0.056046230063670127 0 -0.3134181430984328 0.054117855087736783 0 -0.3097715227913056 0.047342480928849823 0 -0.29933831071313571 0.04904953992441391 0 -0.30659727325541569 0.056046230063670127 0 -0.30548701166274927 0.064613420940663246 0 -0.29972433769491791 0.059710592505707219 0 -0.30659727325541569 0.056046230063670127 0 -0.29933831071313571 0.04904953992441391 0 -0.29972433769491791 0.059710592505707219 0 -0.30659727325541569 0.056046230063670127 0 -0.30548701166274927 0.064613420940663246 0 -0.30659727325541569 0.056046230063670127 0 -0.31313423812619018 0.061154500492800801 0 -0.30659727325541569 0.056046230063670127 0 -0.31313423812619018 0.061154500492800801 0 -0.3134181430984328 0.054117855087736783 0 -0.31313423812619018 0.061154500492800801 0 -0.32156062932359991 0.057209671262867079 0 -0.3134181430984328 0.054117855087736783 0 -0.31313423812619018 0.061154500492800801 0 -0.32156062932359991 0.057209671262867079 0 -0.3187676112071991 0.066405761124366997 0 -0.32156062932359991 0.057209671262867079 0 -0.33110046754179889 0.060856433732331253 0 -0.32483291628994237 0.064079481787454484 0 -0.32156062932359991 0.057209671262867079 0 -0.33110046754179889 0.060856433732331253 0 -0.32827086226453323 0.054328863827804177 0 -0.32156062932359991 0.057209671262867079 0 -0.325567022170895 0.047978699549556858 0 -0.32827086226453323 0.054328863827804177 0 -0.32156062932359991 0.057209671262867079 0 -0.325567022170895 0.047978699549556858 0 -0.31782315017249901 0.047660523588708981 0 -0.32156062932359991 0.057209671262867079 0 -0.31782315017249901 0.047660523588708981 0 -0.3134181430984328 0.054117855087736783 0 -0.3097715227913056 0.047342480928849823 0 -0.31782315017249901 0.047660523588708981 0 -0.3134181430984328 0.054117855087736783 0 -0.31782315017249901 0.047660523588708981 0 -0.31486300926504551 0.039255802259104723 0 -0.32293599774655019 0.040258690331810322 0 -0.3097715227913056 0.047342480928849823 0 -0.31782315017249901 0.047660523588708981 0 -0.31486300926504551 0.039255802259104723 0 -0.31486300926504551 0.039255802259104723 0 -0.31997154554175361 0.03235137589521022 0 -0.32293599774655019 0.040258690331810322 0 -0.31215922840072918 0.030311994623399049 0 -0.31486300926504551 0.039255802259104723 0 -0.31997154554175361 0.03235137589521022 0 -0.3275267218542498 0.031572520153036437 0 -0.32293599774655019 0.040258690331810322 0 -0.33127557602994989 0.041732887763516052 0 -0.31997154554175361 0.03235137589521022 0 -0.3275267218542498 0.031572520153036437 0 -0.32293599774655019 0.040258690331810322 0 -0.325567022170895 0.047978699549556858 0 -0.32293599774655019 0.040258690331810322 0 -0.33127557602994989 0.041732887763516052 0 -0.325567022170895 0.047978699549556858 0 -0.31782315017249901 0.047660523588708981 0 -0.32293599774655019 0.040258690331810322 0 -0.33127557602994989 0.041732887763516052 0 -0.33947846719948338 0.042357869020188392 0 -0.33485533002183893 0.051270650766461562 0 -0.33127557602994989 0.041732887763516052 0 -0.33700655617323871 0.033526260828094609 0 -0.33947846719948338 0.042357869020188392 0 -0.3275267218542498 0.031572520153036437 0 -0.33127557602994989 0.041732887763516052 0 -0.33700655617323871 0.033526260828094609 0 -0.33700655617323871 0.033526260828094609 0 -0.33947846719948338 0.042357869020188392 0 -0.34655163946476197 0.036849739340160219 0 -0.33700655617323871 0.033526260828094609 0 -0.3433589372568866 0.027110046983171619 0 -0.34655163946476197 0.036849739340160219 0 -0.34340156728795468 0.060757126218648039 0 -0.33485533002183893 0.051270650766461562 0 -0.34654727878825808 0.048883518365499083 0 -0.33947846719948338 0.042357869020188392 0 -0.33485533002183893 0.051270650766461562 0 -0.34654727878825808 0.048883518365499083 0 -0.34340156728795468 0.060757126218648039 0 -0.33110046754179889 0.060856433732331253 0 -0.33485533002183893 0.051270650766461562 0 -0.33110046754179889 0.060856433732331253 0 -0.33485533002183893 0.051270650766461562 0 -0.32827086226453323 0.054328863827804177 0 -0.325567022170895 0.047978699549556858 0 -0.33485533002183893 0.051270650766461562 0 -0.32827086226453323 0.054328863827804177 0 -0.325567022170895 0.047978699549556858 0 -0.33127557602994989 0.041732887763516052 0 -0.33485533002183893 0.051270650766461562 0 -0.32981813867183951 -0.0061192417712125653 0 -0.32223283422324372 0.010553354425657181 0 -0.33153374954540432 0.0078061539967142768 0 -0.32981813867183951 -0.0061192417712125653 0 -0.31332135620110318 0.0043323901841563778 0 -0.32223283422324372 0.010553354425657181 0 -0.31332135620110318 0.0043323901841563778 0 -0.32223283422324372 0.010553354425657181 0 -0.31088204074588888 0.017956426083854261 0 -0.31332135620110318 0.0043323901841563778 0 -0.32223283422324372 0.010553354425657181 0 -0.32223283422324372 0.010553354425657181 0 -0.32102476297105847 0.02372778650565804 0 -0.33328133040851959 0.0198582321431175 0 -0.31088204074588888 0.017956426083854261 0 -0.32223283422324372 0.010553354425657181 0 -0.32102476297105847 0.02372778650565804 0 -0.31215922840072918 0.030311994623399049 0 -0.31088204074588888 0.017956426083854261 0 -0.32102476297105847 0.02372778650565804 0 -0.31215922840072918 0.030311994623399049 0 -0.31997154554175361 0.03235137589521022 0 -0.32102476297105847 0.02372778650565804 0 -0.3275267218542498 0.031572520153036437 0 -0.32102476297105847 0.02372778650565804 0 -0.33328133040851959 0.0198582321431175 0 -0.31997154554175361 0.03235137589521022 0 -0.3275267218542498 0.031572520153036437 0 -0.32102476297105847 0.02372778650565804 0 -0.3275267218542498 0.031572520153036437 0 -0.33700655617323871 0.033526260828094609 0 -0.33328133040851959 0.0198582321431175 0 -0.33700655617323871 0.033526260828094609 0 -0.3433589372568866 0.027110046983171619 0 -0.33328133040851959 0.0198582321431175 0 -0.3433589372568866 0.027110046983171619 0 -0.33328133040851959 0.0198582321431175 0 -0.34611040069373927 0.0177164707038934 0 -0.32223283422324372 0.010553354425657181 0 -0.33328133040851959 0.0198582321431175 0 -0.33153374954540432 0.0078061539967142768 0 -0.33328133040851959 0.0198582321431175 0 -0.34080269487801462 0.0069322711892949931 0 -0.33153374954540432 0.0078061539967142768 0 -0.33328133040851959 0.0198582321431175 0 -0.34080269487801462 0.0069322711892949931 0 -0.34611040069373927 0.0177164707038934 0 -0.32981813867183951 -0.0061192417712125653 0 -0.34080269487801462 0.0069322711892949931 0 -0.33153374954540432 0.0078061539967142768 0 -0.34385549330821541 -0.0030521141313502899 0 -0.34080269487801462 0.0069322711892949931 0 -0.35848621854042878 0.0035493877830932892 0 -0.34080269487801462 0.0069322711892949931 0 -0.35848621854042878 0.0035493877830932892 0 -0.34611040069373927 0.0177164707038934 0 -0.35848621854042878 0.0035493877830932892 0 -0.35721315989970592 0.018325712826754621 0 -0.34611040069373927 0.0177164707038934 0 -0.35721315989970592 0.018325712826754621 0 -0.34611040069373927 0.0177164707038934 0 -0.35359850442637658 0.028367343527268291 0 -0.3433589372568866 0.027110046983171619 0 -0.34611040069373927 0.0177164707038934 0 -0.35359850442637658 0.028367343527268291 0 -0.3433589372568866 0.027110046983171619 0 -0.35359850442637658 0.028367343527268291 0 -0.34655163946476197 0.036849739340160219 0 -0.35721315989970592 0.018325712826754621 0 -0.35359850442637658 0.028367343527268291 0 -0.37065751593827889 0.023669649292763491 0 -0.35359850442637658 0.028367343527268291 0 -0.37065751593827889 0.023669649292763491 0 -0.35932009294432887 0.04085339731673937 0 -0.37586338277100068 0.0019545058372344988 0 -0.35848621854042878 0.0035493877830932892 0 -0.37065751593827889 0.023669649292763491 0 -0.35848621854042878 0.0035493877830932892 0 -0.35721315989970592 0.018325712826754621 0 -0.37065751593827889 0.023669649292763491 0 -0.35848621854042878 0.0035493877830932892 0 -0.37065751593827889 0.023669649292763491 0 -0.35688377407016297 0.057407419573693143 0 -0.34654727878825808 0.048883518365499083 0 -0.35932009294432887 0.04085339731673937 0 -0.34340156728795468 0.060757126218648039 0 -0.35688377407016297 0.057407419573693143 0 -0.34654727878825808 0.048883518365499083 0 -0.34654727878825808 0.048883518365499083 0 -0.34655163946476197 0.036849739340160219 0 -0.35932009294432887 0.04085339731673937 0 -0.33947846719948338 0.042357869020188392 0 -0.34654727878825808 0.048883518365499083 0 -0.34655163946476197 0.036849739340160219 0 -0.35359850442637658 0.028367343527268291 0 -0.34655163946476197 0.036849739340160219 0 -0.35932009294432887 0.04085339731673937 0 -0.37065751593827889 0.023669649292763491 0 -0.35932009294432887 0.04085339731673937 0 -0.37254830518738308 0.038631753301114999 0 -0.35932009294432887 0.04085339731673937 0 -0.37254830518738308 0.038631753301114999 0 -0.37334710544339761 0.055220481311926709 0 -0.35688377407016297 0.057407419573693143 0 -0.35932009294432887 0.04085339731673937 0 -0.37334710544339761 0.055220481311926709 0 -0.35688377407016297 0.057407419573693143 0 -0.37334710544339761 0.055220481311926709 0 -0.37490948726365508 0.070131888805492454 0 -0.35688377407016297 0.057407419573693143 0 -0.37490948726365508 0.070131888805492454 0 -0.35594632466378873 0.073991316286497077 0 -0.34340156728795468 0.060757126218648039 0 -0.35594632466378873 0.073991316286497077 0 -0.33872160536733958 0.071816056828350308 0 -0.34340156728795468 0.060757126218648039 0 -0.35688377407016297 0.057407419573693143 0 -0.35594632466378873 0.073991316286497077 0 -0.35594632466378873 0.073991316286497077 0 -0.34791109748270971 0.08885786926317793 0 -0.37385041651091028 0.094977537029620598 0 -0.35594632466378873 0.073991316286497077 0 -0.34791109748270971 0.08885786926317793 0 -0.33872160536733958 0.071816056828350308 0 -0.37490948726365508 0.070131888805492454 0 -0.35594632466378873 0.073991316286497077 0 -0.37385041651091028 0.094977537029620598 0 -0.37385041651091028 0.094977537029620598 0 -0.35476289010026918 0.11220892543272699 0 -0.38289791490575992 0.1227367021696955 0 -0.37385041651091028 0.094977537029620598 0 -0.35476289010026918 0.11220892543272699 0 -0.38289791490575992 0.1227367021696955 0 -0.36026520367256187 0.13749143609449321 0 -0.35476289010026918 0.11220892543272699 0 -0.33567536368962808 0.1294403138358334 0 -0.35476289010026918 0.11220892543272699 0 -0.34163087209212989 0.10199623057873949 0 -0.33567536368962808 0.1294403138358334 0 -0.35476289010026918 0.11220892543272699 0 -0.34791109748270971 0.08885786926317793 0 -0.37385041651091028 0.094977537029620598 0 -0.35476289010026918 0.11220892543272699 0 -0.34791109748270971 0.08885786926317793 0 -0.35476289010026918 0.11220892543272699 0 -0.34163087209212989 0.10199623057873949 0 -0.34791109748270971 0.08885786926317793 0 -0.34163087209212989 0.10199623057873949 0 -0.32930074317882951 0.096314301192758772 0 -0.34163087209212989 0.10199623057873949 0 -0.32930074317882951 0.096314301192758772 0 -0.32710306401442563 0.1090607282143677 0 -0.33567536368962808 0.1294403138358334 0 -0.34163087209212989 0.10199623057873949 0 -0.32710306401442563 0.1090607282143677 0 -0.31631020558434592 0.12551755118178659 0 -0.31415049402697648 0.112614420479498 0 -0.32710306401442563 0.1090607282143677 0 -0.31631020558434592 0.12551755118178659 0 -0.33567536368962808 0.1294403138358334 0 -0.32710306401442563 0.1090607282143677 0 -0.32930074317882951 0.096314301192758772 0 -0.32095430581970902 0.094077438126203644 0 -0.31781828788682848 0.100695581615606 0 -0.32930074317882951 0.096314301192758772 0 -0.32710306401442563 0.1090607282143677 0 -0.31781828788682848 0.100695581615606 0 -0.30618539930334221 0.1072157163425189 0 -0.31415049402697648 0.112614420479498 0 -0.31781828788682848 0.100695581615606 0 -0.31415049402697648 0.112614420479498 0 -0.32710306401442563 0.1090607282143677 0 -0.31781828788682848 0.100695581615606 0 -0.30740316487447289 0.097416456851557032 0 -0.31781828788682848 0.100695581615606 0 -0.31552525736878428 0.093333074259403404 0 -0.32095430581970902 0.094077438126203644 0 -0.31781828788682848 0.100695581615606 0 -0.31552525736878428 0.093333074259403404 0 -0.30284047199317288 0.077899882412751739 0 -0.32341148165314287 0.085490389887231552 0 -0.30284047199317288 0.077899882412751739 0 -0.32117293484439352 0.085966795437046439 0 -0.32341148165314287 0.085490389887231552 0 -0.30284047199317288 0.077899882412751739 0 -0.32341148165314287 0.085490389887231552 0 -0.3149128197704954 0.077091396323122813 0 -0.32095430581970902 0.094077438126203644 0 -0.31552525736878428 0.093333074259403404 0 -0.32117293484439352 0.085966795437046439 0 -0.30755526864546712 0.089975295751970608 0 -0.31552525736878428 0.093333074259403404 0 -0.32117293484439352 0.085966795437046439 0 -0.32930074317882951 0.096314301192758772 0 -0.32095430581970902 0.094077438126203644 0 -0.32117293484439352 0.085966795437046439 0 -0.32341148165314287 0.085490389887231552 0 -0.32361050802010838 0.078965254868525958 0 -0.33136909971864598 0.07849122885959664 0 -0.32341148165314287 0.085490389887231552 0 -0.32361050802010838 0.078965254868525958 0 -0.3149128197704954 0.077091396323122813 0 -0.32361050802010838 0.078965254868525958 0 -0.3149128197704954 0.077091396323122813 0 -0.32074054314778788 0.074856383233353183 0 -0.31048181319094897 0.073115490872607478 0 -0.3149128197704954 0.077091396323122813 0 -0.31683459924542751 0.071749583856970764 0 -0.31156094219583857 0.06807936801096974 0 -0.31048181319094897 0.073115490872607478 0 -0.31683459924542751 0.071749583856970764 0 -0.31683459924542751 0.071749583856970764 0 -0.32074054314778788 0.074856383233353183 0 -0.32240554912764807 0.070764036039783179 0 -0.3149128197704954 0.077091396323122813 0 -0.31683459924542751 0.071749583856970764 0 -0.32074054314778788 0.074856383233353183 0 -0.31156094219583857 0.06807936801096974 0 -0.31313423812619018 0.061154500492800801 0 -0.3187676112071991 0.066405761124366997 0 -0.31156094219583857 0.06807936801096974 0 -0.31683459924542751 0.071749583856970764 0 -0.3187676112071991 0.066405761124366997 0 -0.31683459924542751 0.071749583856970764 0 -0.3187676112071991 0.066405761124366997 0 -0.32240554912764807 0.070764036039783179 0 -0.32156062932359991 0.057209671262867079 0 -0.3187676112071991 0.066405761124366997 0 -0.32483291628994237 0.064079481787454484 0 -0.3187676112071991 0.066405761124366997 0 -0.32483291628994237 0.064079481787454484 0 -0.32240554912764807 0.070764036039783179 0 -0.32483291628994237 0.064079481787454484 0 -0.32240554912764807 0.070764036039783179 0 -0.32862066621331543 0.070106157231930977 0 -0.32361050802010838 0.078965254868525958 0 -0.32074054314778788 0.074856383233353183 0 -0.32549730372388908 0.074873426404425666 0 -0.32074054314778788 0.074856383233353183 0 -0.32240554912764807 0.070764036039783179 0 -0.32549730372388908 0.074873426404425666 0 -0.32240554912764807 0.070764036039783179 0 -0.32549730372388908 0.074873426404425666 0 -0.32862066621331543 0.070106157231930977 0 -0.32361050802010838 0.078965254868525958 0 -0.32549730372388908 0.074873426404425666 0 -0.33136909971864598 0.07849122885959664 0 -0.32862066621331543 0.070106157231930977 0 -0.33872160536733958 0.071816056828350308 0 -0.33136909971864598 0.07849122885959664 0 -0.32549730372388908 0.074873426404425666 0 -0.32862066621331543 0.070106157231930977 0 -0.33136909971864598 0.07849122885959664 0 -0.33110046754179889 0.060856433732331253 0 -0.32862066621331543 0.070106157231930977 0 -0.33872160536733958 0.071816056828350308 0 -0.33110046754179889 0.060856433732331253 0 -0.32483291628994237 0.064079481787454484 0 -0.32862066621331543 0.070106157231930977 0 -0.34340156728795468 0.060757126218648039 0 -0.33110046754179889 0.060856433732331253 0 -0.33872160536733958 0.071816056828350308 0 -0.34791109748270971 0.08885786926317793 0 -0.32117293484439352 0.085966795437046439 0 -0.32341148165314287 0.085490389887231552 0 -0.34791109748270971 0.08885786926317793 0 -0.32341148165314287 0.085490389887231552 0 -0.33136909971864598 0.07849122885959664 0 -0.34791109748270971 0.08885786926317793 0 -0.32117293484439352 0.085966795437046439 0 -0.34791109748270971 0.08885786926317793 0 -0.32930074317882951 0.096314301192758772 0 -0.32117293484439352 0.085966795437046439 0 -0.34791109748270971 0.08885786926317793 0 -0.33872160536733958 0.071816056828350308 0 -0.33136909971864598 0.07849122885959664 0 -0.39686066366823802 0.47773795576213229 0 -0.40386299213237398 0.46290472494753138 0 -0.41030074827494478 0.47480563778827489 0 -0.39686066366823802 0.47773795576213229 0 -0.40933669638963999 0.48303281204728171 0 -0.41030074827494478 0.47480563778827489 0 -0.40374002939968823 0.50000000000000044 0 -0.38648750900614248 0.48438560845919698 0 -0.39686066366823802 0.47773795576213229 0 -0.40374002939968823 0.50000000000000044 0 -0.40585483772561098 0.49999999999999911 0 -0.39686066366823802 0.47773795576213229 0 -0.40585483772561098 0.49999999999999911 0 -0.39686066366823802 0.47773795576213229 0 -0.40585483772561098 0.49999999999999911 0 -0.40933669638963999 0.48303281204728171 0 -0.39686066366823802 0.47773795576213229 0 -0.40374002939968823 0.50000000000000044 0 -0.38648750900614248 0.48438560845919698 0 -0.40374002939968823 0.50000000000000044 0 -0.38648750900614248 0.48438560845919698 0 -0.37401875175743488 0.5 0 -0.38648750900614248 0.48438560845919698 0 -0.38375291349838558 0.46981660316827317 0 -0.36923498861259713 0.46877121691839319 0 -0.38648750900614248 0.48438560845919698 0 -0.36923498861259713 0.46877121691839319 0 -0.39686066366823802 0.47773795576213229 0 -0.38648750900614248 0.48438560845919698 0 -0.38375291349838558 0.46981660316827317 0 -0.38375291349838558 0.46981660316827317 0 -0.37752696234133309 0.46276126082490221 0 -0.36923498861259713 0.46877121691839319 0 -0.38786648961086478 0.45547591152426581 0 -0.37507549070465729 0.44757931484736252 0 -0.36925345764348511 0.45698131168867667 0 -0.38786648961086478 0.45547591152426581 0 -0.36925345764348511 0.45698131168867667 0 -0.37752696234133309 0.46276126082490221 0 -0.38786648961086478 0.45547591152426581 0 -0.36925345764348511 0.45698131168867667 0 -0.39686066366823802 0.47773795576213229 0 -0.38375291349838558 0.46981660316827317 0 -0.38786648961086478 0.45547591152426581 0 -0.38375291349838558 0.46981660316827317 0 -0.37752696234133309 0.46276126082490221 0 -0.38786648961086478 0.45547591152426581 0 -0.38786648961086478 0.45547591152426581 0 -0.3801361377889812 0.43634203295628732 0 -0.38786648961086478 0.45547591152426581 0 -0.37507549070465729 0.44757931484736252 0 -0.3801361377889812 0.43634203295628732 0 -0.38786648961086478 0.45547591152426581 0 -0.39886255093347278 0.44379086357250069 0 -0.3801361377889812 0.43634203295628732 0 -0.38786648961086478 0.45547591152426581 0 -0.39886255093347278 0.44379086357250069 0 -0.41320754798004927 0.45121406525441232 0 -0.38786648961086478 0.45547591152426581 0 -0.40386299213237398 0.46290472494753138 0 -0.41665308088932912 0.45314768583167608 0 -0.38786648961086478 0.45547591152426581 0 -0.41665308088932912 0.45314768583167608 0 -0.38786648961086478 0.45547591152426581 0 -0.41665308088932912 0.45314768583167608 0 -0.41320754798004927 0.45121406525441232 0 -0.39686066366823802 0.47773795576213229 0 -0.38786648961086478 0.45547591152426581 0 -0.39686066366823802 0.47773795576213229 0 -0.38786648961086478 0.45547591152426581 0 -0.40386299213237398 0.46290472494753138 0 -0.40386299213237398 0.46290472494753138 0 -0.41500325765897739 0.46730446471875581 0 -0.41030074827494478 0.47480563778827489 0 -0.40386299213237398 0.46290472494753138 0 -0.41500325765897739 0.46730446471875581 0 -0.41436412566290082 0.46120194371195822 0 -0.40386299213237398 0.46290472494753138 0 -0.41665308088932912 0.45314768583167608 0 -0.41436412566290082 0.46120194371195822 0 -0.41665308088932912 0.45314768583167608 0 -0.41436412566290082 0.46120194371195822 0 -0.4219371719709229 0.4614508993498696 0 -0.41500325765897739 0.46730446471875581 0 -0.41436412566290082 0.46120194371195822 0 -0.4219371719709229 0.4614508993498696 0 -0.4096971154168228 0.43801063999386769 0 -0.41320754798004927 0.45121406525441232 0 -0.42373935222032882 0.42694757737165928 0 -0.41320754798004927 0.45121406525441232 0 -0.42373935222032882 0.42694757737165928 0 -0.39886255093347278 0.44379086357250069 0 -0.4096971154168228 0.43801063999386769 0 -0.41320754798004927 0.45121406525441232 0 -0.41665308088932912 0.45314768583167608 0 -0.41320754798004927 0.45121406525441232 0 -0.42872817520818579 0.44101860711582602 0 -0.41320754798004927 0.45121406525441232 0 -0.42872817520818579 0.44101860711582602 0 -0.42373935222032882 0.42694757737165928 0 -0.41665308088932912 0.45314768583167608 0 -0.42872817520818579 0.44101860711582602 0 -0.44543967216779318 0.45081946013908669 0 -0.41665308088932912 0.45314768583167608 0 -0.44543967216779318 0.45081946013908669 0 -0.4219371719709229 0.4614508993498696 0 -0.43174918584241889 0.46067323074885203 0 -0.42433053588976632 0.47958765463871927 0 -0.41665308088932912 0.45314768583167608 0 -0.43174918584241889 0.46067323074885203 0 -0.44543967216779318 0.45081946013908669 0 -0.41665308088932912 0.45314768583167608 0 -0.4219371719709229 0.4614508993498696 0 -0.43174918584241889 0.46067323074885203 0 -0.43174918584241889 0.46067323074885203 0 -0.42433053588976632 0.47958765463871927 0 -0.45185819006354261 0.47261370153444637 0 -0.40585483772561098 0.49999999999999911 0 -0.42433053588976632 0.47958765463871927 0 -0.46076727581575161 0.5 0 -0.41500325765897739 0.46730446471875581 0 -0.42433053588976632 0.47958765463871927 0 -0.41030074827494478 0.47480563778827489 0 -0.41500325765897739 0.46730446471875581 0 -0.4219371719709229 0.4614508993498696 0 -0.42433053588976632 0.47958765463871927 0 -0.42433053588976632 0.47958765463871927 0 -0.40933669638963999 0.48303281204728171 0 -0.41030074827494478 0.47480563778827489 0 -0.40585483772561098 0.49999999999999911 0 -0.42433053588976632 0.47958765463871927 0 -0.40933669638963999 0.48303281204728171 0 -0.42433053588976632 0.47958765463871927 0 -0.45185819006354261 0.47261370153444637 0 -0.46076727581575161 0.5 0 -0.45185819006354261 0.47261370153444637 0 -0.46076727581575161 0.5 0 -0.47665153896279022 0.47608434049056619 0 -0.46076727581575161 0.5 0 -0.5 0.5 0 -0.47665153896279022 0.47608434049056619 0 -0.5 0.5 0 -0.47665153896279022 0.47608434049056619 0 -0.5 0.45389036895754692 0 -0.5 0.45389036895754692 0 -0.47063222893465662 0.45391763196083779 0 -0.48284297528230358 0.43171507812970161 0 -0.47665153896279022 0.47608434049056619 0 -0.5 0.45389036895754692 0 -0.47063222893465662 0.45391763196083779 0 -0.47063222893465662 0.45391763196083779 0 -0.46385998907381581 0.43131381611029979 0 -0.48284297528230358 0.43171507812970161 0 -0.47063222893465662 0.45391763196083779 0 -0.44543967216779318 0.45081946013908669 0 -0.46385998907381581 0.43131381611029979 0 -0.45185819006354261 0.47261370153444637 0 -0.47665153896279022 0.47608434049056619 0 -0.47063222893465662 0.45391763196083779 0 -0.45185819006354261 0.47261370153444637 0 -0.47063222893465662 0.45391763196083779 0 -0.44543967216779318 0.45081946013908669 0 -0.43174918584241889 0.46067323074885203 0 -0.45185819006354261 0.47261370153444637 0 -0.44543967216779318 0.45081946013908669 0 -0.42872817520818579 0.44101860711582602 0 -0.44543967216779318 0.45081946013908669 0 -0.44460122278342862 0.42296424698229529 0 -0.44543967216779318 0.45081946013908669 0 -0.44460122278342862 0.42296424698229529 0 -0.46385998907381581 0.43131381611029979 0 -0.44460122278342862 0.42296424698229529 0 -0.45143598678431018 0.4073267109596882 0 -0.4342711564606081 0.40268108948890641 0 -0.44460122278342862 0.42296424698229529 0 -0.45143598678431018 0.4073267109596882 0 -0.46440188491540169 0.41254821745264852 0 -0.46440188491540169 0.41254821745264852 0 -0.46385998907381581 0.43131381611029979 0 -0.47561252454541658 0.41934418910902821 0 -0.45143598678431018 0.4073267109596882 0 -0.46440188491540169 0.41254821745264852 0 -0.46333434013798103 0.3999115002521515 0 -0.44460122278342862 0.42296424698229529 0 -0.46440188491540169 0.41254821745264852 0 -0.46385998907381581 0.43131381611029979 0 -0.48284297528230358 0.43171507812970161 0 -0.47561252454541658 0.41934418910902821 0 -0.48733135940245392 0.41569651723657469 0 -0.5 0.45389036895754692 0 -0.48284297528230358 0.43171507812970161 0 -0.49999999999999789 0.42048682711064361 0 -0.46385998907381581 0.43131381611029979 0 -0.48284297528230358 0.43171507812970161 0 -0.47561252454541658 0.41934418910902821 0 -0.46440188491540169 0.41254821745264852 0 -0.47704797721322018 0.40170265738379413 0 -0.46440188491540169 0.41254821745264852 0 -0.47704797721322018 0.40170265738379413 0 -0.47962641405310807 0.40544731661591621 0 -0.46440188491540169 0.41254821745264852 0 -0.47561252454541658 0.41934418910902821 0 -0.47962641405310807 0.40544731661591621 0 -0.47561252454541658 0.41934418910902821 0 -0.48733135940245392 0.41569651723657469 0 -0.47962641405310807 0.40544731661591621 0 -0.49999999999999789 0.42048682711064361 0 -0.49545202254750409 0.40515311170273038 0 -0.5 0.40125266866537668 0 -0.48733135940245392 0.41569651723657469 0 -0.49545202254750409 0.40515311170273038 0 -0.47962641405310807 0.40544731661591621 0 -0.48733135940245392 0.41569651723657469 0 -0.49999999999999789 0.42048682711064361 0 -0.49545202254750409 0.40515311170273038 0 -0.49999999999999789 0.42048682711064361 0 -0.49545202254750409 0.40515311170273038 0 -0.48284297528230358 0.43171507812970161 0 -0.48733135940245392 0.41569651723657469 0 -0.49999999999999789 0.42048682711064361 0 -0.49090404509501512 0.38981939629481599 0 -0.47931600999441842 0.38370016494942438 0 -0.48569365219148197 0.372252316690591 0 -0.49090404509501512 0.38981939629481599 0 -0.48569365219148197 0.372252316690591 0 -0.49999999999999989 0.3820185102201098 0 -0.4933007587571494 0.38781790183190912 0 -0.5 0.40125266866537668 0 -0.49090404509501512 0.38981939629481599 0 -0.4933007587571494 0.38781790183190912 0 -0.48569365219148197 0.372252316690591 0 -0.4933007587571494 0.38781790183190912 0 -0.48874595044448488 0.37001859626270051 0 -0.48569365219148197 0.372252316690591 0 -0.49999999999999989 0.3820185102201098 0 -0.4933007587571494 0.38781790183190912 0 -0.48874595044448488 0.37001859626270051 0 -0.4933007587571494 0.38781790183190912 0 -0.48874595044448488 0.37001859626270051 0 -0.49090404509501512 0.38981939629481599 0 -0.4933007587571494 0.38781790183190912 0 -0.49999999999999989 0.3820185102201098 0 -0.4933007587571494 0.38781790183190912 0 -0.49090404509501512 0.38981939629481599 0 -0.49545202254750409 0.40515311170273038 0 -0.47962641405310807 0.40544731661591621 0 -0.49090404509501512 0.38981939629481599 0 -0.4933007587571494 0.38781790183190912 0 -0.5 0.40125266866537668 0 -0.49090404509501512 0.38981939629481599 0 -0.49545202254750409 0.40515311170273038 0 -0.49090404509501512 0.38981939629481599 0 -0.49545202254750409 0.40515311170273038 0 -0.5 0.40125266866537668 0 -0.49090404509501512 0.38981939629481599 0 -0.47704797721322018 0.40170265738379413 0 -0.47931600999441842 0.38370016494942438 0 -0.49090404509501512 0.38981939629481599 0 -0.47704797721322018 0.40170265738379413 0 -0.47962641405310807 0.40544731661591621 0 -0.49090404509501512 0.38981939629481599 0 -0.47704797721322018 0.40170265738379413 0 -0.47704797721322018 0.40170265738379413 0 -0.47962641405310807 0.40544731661591621 0 -0.47704797721322018 0.40170265738379413 0 -0.46648460830468841 0.38636149552412702 0 -0.46333434013798103 0.3999115002521515 0 -0.47704797721322018 0.40170265738379413 0 -0.46648460830468841 0.38636149552412702 0 -0.47704797721322018 0.40170265738379413 0 -0.47931600999441842 0.38370016494942438 0 -0.46648460830468841 0.38636149552412702 0 -0.47931600999441842 0.38370016494942438 0 -0.47357975383493989 0.37360390958299322 0 -0.48569365219148197 0.372252316690591 0 -0.47931600999441842 0.38370016494942438 0 -0.46648460830468841 0.38636149552412702 0 -0.47357975383493989 0.37360390958299322 0 -0.46648460830468841 0.38636149552412702 0 -0.45592123939615908 0.37102033366445808 0 -0.46648460830468841 0.38636149552412702 0 -0.45592123939615908 0.37102033366445808 0 -0.47357975383493989 0.37360390958299322 0 -0.46648460830468841 0.38636149552412702 0 -0.45493917588579758 0.38258921043180349 0 -0.45152303430721741 0.39460258206328358 0 -0.46648460830468841 0.38636149552412702 0 -0.45493917588579758 0.38258921043180349 0 -0.45592123939615908 0.37102033366445808 0 -0.46440188491540169 0.41254821745264852 0 -0.47704797721322018 0.40170265738379413 0 -0.46333434013798103 0.3999115002521515 0 -0.46648460830468841 0.38636149552412702 0 -0.46333434013798103 0.3999115002521515 0 -0.45152303430721741 0.39460258206328358 0 -0.45143598678431018 0.4073267109596882 0 -0.46333434013798103 0.3999115002521515 0 -0.45152303430721741 0.39460258206328358 0 -0.45152303430721741 0.39460258206328358 0 -0.44480296070088537 0.37841460160615248 0 -0.4342711564606081 0.40268108948890641 0 -0.45143598678431018 0.4073267109596882 0 -0.45152303430721741 0.39460258206328358 0 -0.4342711564606081 0.40268108948890641 0 -0.45493917588579758 0.38258921043180349 0 -0.45152303430721741 0.39460258206328358 0 -0.44480296070088537 0.37841460160615248 0 -0.44480296070088537 0.37841460160615248 0 -0.4342711564606081 0.40268108948890641 0 -0.45493917588579758 0.38258921043180349 0 -0.44480296070088537 0.37841460160615248 0 -0.45592123939615908 0.37102033366445808 0 -0.44480296070088537 0.37841460160615248 0 -0.43178432961061008 0.38707270859859672 0 -0.44480296070088537 0.37841460160615248 0 -0.43178432961061008 0.38707270859859672 0 -0.42962067338336979 0.37452387840719609 0 -0.43178432961061008 0.38707270859859672 0 -0.4140570909208412 0.38093864372352348 0 -0.42962067338336979 0.37452387840719609 0 -0.44480296070088537 0.37841460160615248 0 -0.43178432961061008 0.38707270859859672 0 -0.4342711564606081 0.40268108948890641 0 -0.43178432961061008 0.38707270859859672 0 -0.4140570909208412 0.38093864372352348 0 -0.41630864852307609 0.39581164149733411 0 -0.4140570909208412 0.38093864372352348 0 -0.41630864852307609 0.39581164149733411 0 -0.40280719733464881 0.38817868897901597 0 -0.41630864852307609 0.39581164149733411 0 -0.41258923169895018 0.41266007506899111 0 -0.40203757985720312 0.40226706252709249 0 -0.41630864852307609 0.39581164149733411 0 -0.4342711564606081 0.40268108948890641 0 -0.41258923169895018 0.41266007506899111 0 -0.41630864852307609 0.39581164149733411 0 -0.40280719733464881 0.38817868897901597 0 -0.40203757985720312 0.40226706252709249 0 -0.43178432961061008 0.38707270859859672 0 -0.41630864852307609 0.39581164149733411 0 -0.4342711564606081 0.40268108948890641 0 -0.44460122278342862 0.42296424698229529 0 -0.4342711564606081 0.40268108948890641 0 -0.42373935222032882 0.42694757737165928 0 -0.4342711564606081 0.40268108948890641 0 -0.42373935222032882 0.42694757737165928 0 -0.4342711564606081 0.40268108948890641 0 -0.42373935222032882 0.42694757737165928 0 -0.41258923169895018 0.41266007506899111 0 -0.42872817520818579 0.44101860711582602 0 -0.44460122278342862 0.42296424698229529 0 -0.42373935222032882 0.42694757737165928 0 -0.42373935222032882 0.42694757737165928 0 -0.41258923169895018 0.41266007506899111 0 -0.40297901053344021 0.43009005377689868 0 -0.4096971154168228 0.43801063999386769 0 -0.42373935222032882 0.42694757737165928 0 -0.40297901053344021 0.43009005377689868 0 -0.41258923169895018 0.41266007506899111 0 -0.39140667492701431 0.41707264660507748 0 -0.40203757985720312 0.40226706252709249 0 -0.39140667492701431 0.41707264660507748 0 -0.38452603278281061 0.40396159587811831 0 -0.40203757985720312 0.40226706252709249 0 -0.41258923169895018 0.41266007506899111 0 -0.39140667492701431 0.41707264660507748 0 -0.40297901053344021 0.43009005377689868 0 -0.39140667492701431 0.41707264660507748 0 -0.40297901053344021 0.43009005377689868 0 -0.3801361377889812 0.43634203295628732 0 -0.39886255093347278 0.44379086357250069 0 -0.40297901053344021 0.43009005377689868 0 -0.3801361377889812 0.43634203295628732 0 -0.39886255093347278 0.44379086357250069 0 -0.4096971154168228 0.43801063999386769 0 -0.40297901053344021 0.43009005377689868 0 -0.39140667492701431 0.41707264660507748 0 -0.3801361377889812 0.43634203295628732 0 -0.37240578596709772 0.41720815438830888 0 -0.3801361377889812 0.43634203295628732 0 -0.37240578596709772 0.41720815438830888 0 -0.39140667492701431 0.41707264660507748 0 -0.38452603278281061 0.40396159587811831 0 -0.37240578596709772 0.41720815438830888 0 -0.38452603278281061 0.40396159587811831 0 -0.37007597783464391 0.39806814896234288 0 -0.37240578596709772 0.41720815438830888 0 -0.38452603278281061 0.40396159587811831 0 -0.38689856719908589 0.38880993469984221 0 -0.37007597783464391 0.39806814896234288 0 -0.38689856719908589 0.38880993469984221 0 -0.39811762938853862 0.3718316505406784 0 -0.38318417006187039 0.37285460182622238 0 -0.38689856719908589 0.38880993469984221 0 -0.36914281069579841 0.38042266790116719 0 -0.37007597783464391 0.39806814896234288 0 -0.38689856719908589 0.38880993469984221 0 -0.38318417006187039 0.37285460182622238 0 -0.36914281069579841 0.38042266790116719 0 -0.4140570909208412 0.38093864372352348 0 -0.40280719733464881 0.38817868897901597 0 -0.39811762938853862 0.3718316505406784 0 -0.38689856719908589 0.38880993469984221 0 -0.40280719733464881 0.38817868897901597 0 -0.39811762938853862 0.3718316505406784 0 -0.38452603278281061 0.40396159587811831 0 -0.38689856719908589 0.38880993469984221 0 -0.40203757985720312 0.40226706252709249 0 -0.38689856719908589 0.38880993469984221 0 -0.40280719733464881 0.38817868897901597 0 -0.40203757985720312 0.40226706252709249 0 -0.38627767411470659 0.3538347616038886 0 -0.4002148475145082 0.33157088508771498 0 -0.40890607178641791 0.35466235874912361 0 -0.39811762938853862 0.3718316505406784 0 -0.38627767411470659 0.3538347616038886 0 -0.40890607178641791 0.35466235874912361 0 -0.39811762938853862 0.3718316505406784 0 -0.40890607178641791 0.35466235874912361 0 -0.41059569667382961 0.36794499425981347 0 -0.38318417006187039 0.37285460182622238 0 -0.37286605736730882 0.36463254837100689 0 -0.36914281069579841 0.38042266790116719 0 -0.39811762938853862 0.3718316505406784 0 -0.38318417006187039 0.37285460182622238 0 -0.38627767411470659 0.3538347616038886 0 -0.38318417006187039 0.37285460182622238 0 -0.38627767411470659 0.3538347616038886 0 -0.37286605736730882 0.36463254837100689 0 -0.38627767411470659 0.3538347616038886 0 -0.37828998161256222 0.33180206257399458 0 -0.36407850004417402 0.34907735137327478 0 -0.38627767411470659 0.3538347616038886 0 -0.37828998161256222 0.33180206257399458 0 -0.4002148475145082 0.33157088508771498 0 -0.37828998161256222 0.33180206257399458 0 -0.38937104482412449 0.31661790531214551 0 -0.4002148475145082 0.33157088508771498 0 -0.37828998161256222 0.33180206257399458 0 -0.38937104482412449 0.31661790531214551 0 -0.3735935436532194 0.31098543761388697 0 -0.4002148475145082 0.33157088508771498 0 -0.41332781474691349 0.32716427034219708 0 -0.40409370365539138 0.31030018250086372 0 -0.38937104482412449 0.31661790531214551 0 -0.4002148475145082 0.33157088508771498 0 -0.40409370365539138 0.31030018250086372 0 -0.4002148475145082 0.33157088508771498 0 -0.41985164608334091 0.33936295010057321 0 -0.40890607178641791 0.35466235874912361 0 -0.4002148475145082 0.33157088508771498 0 -0.41985164608334091 0.33936295010057321 0 -0.41332781474691349 0.32716427034219708 0 -0.4002148475145082 0.33157088508771498 0 -0.41985164608334091 0.33936295010057321 0 -0.41985164608334091 0.33936295010057321 0 -0.41332781474691349 0.32716427034219708 0 -0.42408722690387451 0.32938139873639249 0 -0.41332781474691349 0.32716427034219708 0 -0.42410403852682621 0.31849010385781279 0 -0.40409370365539138 0.31030018250086372 0 -0.41332781474691349 0.32716427034219708 0 -0.42410403852682621 0.31849010385781279 0 -0.42408722690387451 0.32938139873639249 0 -0.42410403852682621 0.31849010385781279 0 -0.43263138472890811 0.32750575203653332 0 -0.42408722690387451 0.32938139873639249 0 -0.43263138472890811 0.32750575203653332 0 -0.43676074224784017 0.32018278182607851 0 -0.44298012858685892 0.32616482297700611 0 -0.42410403852682621 0.31849010385781279 0 -0.43263138472890811 0.32750575203653332 0 -0.43676074224784017 0.32018278182607851 0 -0.42410403852682621 0.31849010385781279 0 -0.43676074224784017 0.32018278182607851 0 -0.43522193609993831 0.31125234339540903 0 -0.41985164608334091 0.33936295010057321 0 -0.43620158327271691 0.34238151218371871 0 -0.43948844465217329 0.34715501511343178 0 -0.41985164608334091 0.33936295010057321 0 -0.43052125043338352 0.33438391734484602 0 -0.43620158327271691 0.34238151218371871 0 -0.41985164608334091 0.33936295010057321 0 -0.43948844465217329 0.34715501511343178 0 -0.43263138472890811 0.32750575203653332 0 -0.42408722690387451 0.32938139873639249 0 -0.43052125043338352 0.33438391734484602 0 -0.41985164608334091 0.33936295010057321 0 -0.42408722690387451 0.32938139873639249 0 -0.43052125043338352 0.33438391734484602 0 -0.43263138472890811 0.32750575203653332 0 -0.43052125043338352 0.33438391734484602 0 -0.43902472069809351 0.33441901798856682 0 -0.43052125043338352 0.33438391734484602 0 -0.43620158327271691 0.34238151218371871 0 -0.43902472069809351 0.33441901798856682 0 -0.41985164608334091 0.33936295010057321 0 -0.4259847762184153 0.35275997654664792 0 -0.43948844465217329 0.34715501511343178 0 -0.4259847762184153 0.35275997654664792 0 -0.43615699108498968 0.36184611408177791 0 -0.43948844465217329 0.34715501511343178 0 -0.4259847762184153 0.35275997654664792 0 -0.40890607178641791 0.35466235874912361 0 -0.42130199459952072 0.3643473240259289 0 -0.41985164608334091 0.33936295010057321 0 -0.4259847762184153 0.35275997654664792 0 -0.40890607178641791 0.35466235874912361 0 -0.4140570909208412 0.38093864372352348 0 -0.41059569667382961 0.36794499425981347 0 -0.42130199459952072 0.3643473240259289 0 -0.4140570909208412 0.38093864372352348 0 -0.39811762938853862 0.3718316505406784 0 -0.41059569667382961 0.36794499425981347 0 -0.4140570909208412 0.38093864372352348 0 -0.42130199459952072 0.3643473240259289 0 -0.42962067338336979 0.37452387840719609 0 -0.40890607178641791 0.35466235874912361 0 -0.41059569667382961 0.36794499425981347 0 -0.42130199459952072 0.3643473240259289 0 -0.44480296070088537 0.37841460160615248 0 -0.42962067338336979 0.37452387840719609 0 -0.43615699108498968 0.36184611408177791 0 -0.42130199459952072 0.3643473240259289 0 -0.42962067338336979 0.37452387840719609 0 -0.43615699108498968 0.36184611408177791 0 -0.4259847762184153 0.35275997654664792 0 -0.42130199459952072 0.3643473240259289 0 -0.43615699108498968 0.36184611408177791 0 -0.44480296070088537 0.37841460160615248 0 -0.43615699108498968 0.36184611408177791 0 -0.45106992949941849 0.36397478493832258 0 -0.44480296070088537 0.37841460160615248 0 -0.45592123939615908 0.37102033366445808 0 -0.44480296070088537 0.37841460160615248 0 -0.45106992949941849 0.36397478493832258 0 -0.44480296070088537 0.37841460160615248 0 -0.45106992949941849 0.36397478493832258 0 -0.45592123939615908 0.37102033366445808 0 -0.43948844465217329 0.34715501511343178 0 -0.45559583511081297 0.35354657803552691 0 -0.45106992949941849 0.36397478493832258 0 -0.43948844465217329 0.34715501511343178 0 -0.45559583511081297 0.35354657803552691 0 -0.45106992949941849 0.36397478493832258 0 -0.43948844465217329 0.34715501511343178 0 -0.43615699108498968 0.36184611408177791 0 -0.45106992949941849 0.36397478493832258 0 -0.43948844465217329 0.34715501511343178 0 -0.43948844465217329 0.34715501511343178 0 -0.45559583511081297 0.35354657803552691 0 -0.4470196826471094 0.34121352557526002 0 -0.43620158327271691 0.34238151218371871 0 -0.43948844465217329 0.34715501511343178 0 -0.45559583511081297 0.35354657803552691 0 -0.46795488328519008 0.34840769896673718 0 -0.47177747046113971 0.36047506633904902 0 -0.45559583511081297 0.35354657803552691 0 -0.46288753533924221 0.3367456623328639 0 -0.4470196826471094 0.34121352557526002 0 -0.45559583511081297 0.35354657803552691 0 -0.46795488328519008 0.34840769896673718 0 -0.46288753533924221 0.3367456623328639 0 -0.45559583511081297 0.35354657803552691 0 -0.46288753533924221 0.3367456623328639 0 -0.45559583511081297 0.35354657803552691 0 -0.47177747046113971 0.36047506633904902 0 -0.45106992949941849 0.36397478493832258 0 -0.45559583511081297 0.35354657803552691 0 -0.45559583511081297 0.35354657803552691 0 -0.45592123939615908 0.37102033366445808 0 -0.47177747046113971 0.36047506633904902 0 -0.45592123939615908 0.37102033366445808 0 -0.47357975383493989 0.37360390958299322 0 -0.47177747046113971 0.36047506633904902 0 -0.45592123939615908 0.37102033366445808 0 -0.47177747046113971 0.36047506633904902 0 -0.45106992949941849 0.36397478493832258 0 -0.45559583511081297 0.35354657803552691 0 -0.45592123939615908 0.37102033366445808 0 -0.45106992949941849 0.36397478493832258 0 -0.45592123939615908 0.37102033366445808 0 -0.4804832592879591 0.35468523708636313 0 -0.48569365219148197 0.372252316690591 0 -0.47357975383493989 0.37360390958299322 0 -0.4804832592879591 0.35468523708636313 0 -0.48569365219148197 0.372252316690591 0 -0.47357975383493989 0.37360390958299322 0 -0.47177747046113971 0.36047506633904902 0 -0.4804832592879591 0.35468523708636313 0 -0.4804832592879591 0.35468523708636313 0 -0.48419114213182018 0.35221929069349189 0 -0.47533124742781252 0.33731499185828351 0 -0.46795488328519008 0.34840769896673718 0 -0.47177747046113971 0.36047506633904902 0 -0.4804832592879591 0.35468523708636313 0 -0.47177747046113971 0.36047506633904902 0 -0.4804832592879591 0.35468523708636313 0 -0.46795488328519008 0.34840769896673718 0 -0.4804832592879591 0.35468523708636313 0 -0.47533124742781252 0.33731499185828351 0 -0.4804832592879591 0.35468523708636313 0 -0.47533124742781252 0.33731499185828351 0 -0.4804832592879591 0.35468523708636313 0 -0.48419114213182018 0.35221929069349189 0 -0.48419114213182018 0.35221929069349189 0 -0.50000000000000111 0.34170552915420321 0 -0.48419114213182018 0.35221929069349189 0 -0.5 0.36186201968715648 0 -0.50000000000000111 0.34170552915420321 0 -0.4804832592879591 0.35468523708636313 0 -0.48419114213182018 0.35221929069349189 0 -0.48874595044448488 0.37001859626270051 0 -0.48419114213182018 0.35221929069349189 0 -0.5 0.36186201968715648 0 -0.48874595044448488 0.37001859626270051 0 -0.4804832592879591 0.35468523708636313 0 -0.48874595044448488 0.37001859626270051 0 -0.48569365219148197 0.372252316690591 0 -0.49999999999999989 0.3820185102201098 0 -0.5 0.36186201968715648 0 -0.48874595044448488 0.37001859626270051 0 -0.48419114213182018 0.35221929069349189 0 -0.48874595044448488 0.37001859626270051 0 -0.48419114213182018 0.35221929069349189 0 -0.50000000000000111 0.34170552915420321 0 -0.47899471481774902 0.33191266277807169 0 -0.5 0.31548841982054138 0 -0.50000000000000111 0.34170552915420321 0 -0.47899471481774902 0.33191266277807169 0 -0.47533124742781252 0.33731499185828351 0 -0.47017923556767288 0.31994474663020173 0 -0.48419114213182018 0.35221929069349189 0 -0.47899471481774902 0.33191266277807169 0 -0.47899471481774902 0.33191266277807169 0 -0.47533124742781252 0.33731499185828351 0 -0.47017923556767288 0.31994474663020173 0 -0.47533124742781252 0.33731499185828351 0 -0.47017923556767288 0.31994474663020173 0 -0.46288753533924221 0.3367456623328639 0 -0.48419114213182018 0.35221929069349189 0 -0.47899471481774902 0.33191266277807169 0 -0.47533124742781252 0.33731499185828351 0 -0.47899471481774902 0.33191266277807169 0 -0.47017923556767288 0.31994474663020173 0 -0.4737982875036737 0.31160603486265259 0 -0.47899471481774902 0.33191266277807169 0 -0.4737982875036737 0.31160603486265259 0 -0.5 0.31548841982054138 0 -0.47899471481774902 0.33191266277807169 0 -0.4737982875036737 0.31160603486265259 0 -0.47017923556767288 0.31994474663020173 0 -0.4737982875036737 0.31160603486265259 0 -0.47017923556767288 0.31994474663020173 0 -0.45500885706123928 0.32476792987714442 0 -0.46288753533924221 0.3367456623328639 0 -0.47017923556767288 0.31994474663020173 0 -0.45500885706123928 0.32476792987714442 0 -0.4560046482400546 0.3124255769976636 0 -0.47017923556767288 0.31994474663020173 0 -0.46288753533924221 0.3367456623328639 0 -0.46795488328519008 0.34840769896673718 0 -0.47533124742781252 0.33731499185828351 0 -0.46288753533924221 0.3367456623328639 0 -0.45500885706123928 0.32476792987714442 0 -0.46288753533924221 0.3367456623328639 0 -0.44891997680961759 0.33303336779745207 0 -0.46288753533924221 0.3367456623328639 0 -0.4470196826471094 0.34121352557526002 0 -0.44891997680961759 0.33303336779745207 0 -0.44891997680961759 0.33303336779745207 0 -0.43902472069809351 0.33441901798856682 0 -0.44298012858685892 0.32616482297700611 0 -0.43263138472890811 0.32750575203653332 0 -0.43902472069809351 0.33441901798856682 0 -0.44298012858685892 0.32616482297700611 0 -0.4470196826471094 0.34121352557526002 0 -0.44891997680961759 0.33303336779745207 0 -0.43902472069809351 0.33441901798856682 0 -0.43620158327271691 0.34238151218371871 0 -0.43948844465217329 0.34715501511343178 0 -0.4470196826471094 0.34121352557526002 0 -0.43620158327271691 0.34238151218371871 0 -0.4470196826471094 0.34121352557526002 0 -0.43902472069809351 0.33441901798856682 0 -0.45500885706123928 0.32476792987714442 0 -0.44553508997545521 0.317080088336262 0 -0.4560046482400546 0.3124255769976636 0 -0.45500885706123928 0.32476792987714442 0 -0.44891997680961759 0.33303336779745207 0 -0.44298012858685892 0.32616482297700611 0 -0.45500885706123928 0.32476792987714442 0 -0.44553508997545521 0.317080088336262 0 -0.44298012858685892 0.32616482297700611 0 -0.43676074224784017 0.32018278182607851 0 -0.44553508997545521 0.317080088336262 0 -0.44298012858685892 0.32616482297700611 0 -0.43676074224784017 0.32018278182607851 0 -0.44553508997545521 0.317080088336262 0 -0.43522193609993831 0.31125234339540903 0 -0.44495665435693987 0.30504120032753129 0 -0.43522193609993831 0.31125234339540903 0 -0.43264203317394268 0.29897443837663817 0 -0.44553508997545521 0.317080088336262 0 -0.44495665435693987 0.30504120032753129 0 -0.43522193609993831 0.31125234339540903 0 -0.44495665435693987 0.30504120032753129 0 -0.44454804234807171 0.2899705732869986 0 -0.43264203317394268 0.29897443837663817 0 -0.44495665435693987 0.30504120032753129 0 -0.44454804234807171 0.2899705732869986 0 -0.45494042310319532 0.30014973421854629 0 -0.44495665435693987 0.30504120032753129 0 -0.4560046482400546 0.3124255769976636 0 -0.45494042310319532 0.30014973421854629 0 -0.44553508997545521 0.317080088336262 0 -0.44495665435693987 0.30504120032753129 0 -0.4560046482400546 0.3124255769976636 0 -0.44454804234807171 0.2899705732869986 0 -0.44710638341364328 0.27426871373736061 0 -0.43613383213136631 0.28413045418230709 0 -0.44454804234807171 0.2899705732869986 0 -0.46122651992700558 0.28976025358995872 0 -0.4517360340530539 0.27990207481521212 0 -0.44454804234807171 0.2899705732869986 0 -0.4517360340530539 0.27990207481521212 0 -0.44710638341364328 0.27426871373736061 0 -0.44454804234807171 0.2899705732869986 0 -0.46122651992700558 0.28976025358995872 0 -0.44454804234807171 0.2899705732869986 0 -0.46122651992700558 0.28976025358995872 0 -0.45494042310319532 0.30014973421854629 0 -0.4560046482400546 0.3124255769976636 0 -0.45494042310319532 0.30014973421854629 0 -0.46570287774734109 0.30485250011007969 0 -0.46122651992700558 0.28976025358995872 0 -0.45494042310319532 0.30014973421854629 0 -0.46570287774734109 0.30485250011007969 0 -0.46122651992700558 0.28976025358995872 0 -0.46570287774734109 0.30485250011007969 0 -0.47017923556767288 0.31994474663020173 0 -0.4560046482400546 0.3124255769976636 0 -0.46570287774734109 0.30485250011007969 0 -0.47017923556767288 0.31994474663020173 0 -0.46570287774734109 0.30485250011007969 0 -0.4737982875036737 0.31160603486265259 0 -0.48340084867141281 0.28948062986042522 0 -0.46570287774734109 0.30485250011007969 0 -0.4737982875036737 0.31160603486265259 0 -0.48340084867141281 0.28948062986042522 0 -0.47017923556767288 0.31994474663020173 0 -0.46570287774734109 0.30485250011007969 0 -0.4737982875036737 0.31160603486265259 0 -0.46122651992700558 0.28976025358995872 0 -0.48340084867141281 0.28948062986042522 0 -0.46122651992700558 0.28976025358995872 0 -0.48340084867141281 0.28948062986042522 0 -0.4719796028051938 0.27293316048684069 0 -0.46122651992700558 0.28976025358995872 0 -0.46570287774734109 0.30485250011007969 0 -0.48340084867141281 0.28948062986042522 0 -0.48340084867141281 0.28948062986042522 0 -0.49999999999999928 0.28927131048687971 0 -0.48340084867141281 0.28948062986042522 0 -0.49999999999999928 0.28927131048687971 0 -0.49170042433570832 0.27035745327123201 0 -0.5 0.31548841982054138 0 -0.4737982875036737 0.31160603486265259 0 -0.48340084867141281 0.28948062986042522 0 -0.5 0.31548841982054138 0 -0.48340084867141281 0.28948062986042522 0 -0.49999999999999928 0.28927131048687971 0 -0.50000000000000311 0.25123427668203852 0 -0.49170042433570832 0.27035745327123201 0 -0.47909939784891531 0.25481779002133048 0 -0.50000000000000311 0.25123427668203852 0 -0.49170042433570832 0.27035745327123201 0 -0.50000000000000311 0.25123427668203852 0 -0.5 0.27025279358445908 0 -0.49170042433570832 0.27035745327123201 0 -0.48340084867141281 0.28948062986042522 0 -0.49170042433570832 0.27035745327123201 0 -0.49999999999999928 0.28927131048687971 0 -0.5 0.27025279358445908 0 -0.49170042433570832 0.27035745327123201 0 -0.49170042433570832 0.27035745327123201 0 -0.4719796028051938 0.27293316048684069 0 -0.47909939784891531 0.25481779002133048 0 -0.48340084867141281 0.28948062986042522 0 -0.49170042433570832 0.27035745327123201 0 -0.4719796028051938 0.27293316048684069 0 -0.4719796028051938 0.27293316048684069 0 -0.47909939784891531 0.25481779002133048 0 -0.46755006963787971 0.26081431996585269 0 -0.46443435553690132 0.24782483443214859 0 -0.47909939784891531 0.25481779002133048 0 -0.46755006963787971 0.26081431996585269 0 -0.46443435553690132 0.24782483443214859 0 -0.46755006963787971 0.26081431996585269 0 -0.45406319052349181 0.26560875864653172 0 -0.45371800161124443 0.2437937300893086 0 -0.46443435553690132 0.24782483443214859 0 -0.45406319052349181 0.26560875864653172 0 -0.46122651992700558 0.28976025358995872 0 -0.4719796028051938 0.27293316048684069 0 -0.45406319052349181 0.26560875864653172 0 -0.4719796028051938 0.27293316048684069 0 -0.46755006963787971 0.26081431996585269 0 -0.45406319052349181 0.26560875864653172 0 -0.46122651992700558 0.28976025358995872 0 -0.45406319052349181 0.26560875864653172 0 -0.46122651992700558 0.28976025358995872 0 -0.45406319052349181 0.26560875864653172 0 -0.4517360340530539 0.27990207481521212 0 -0.45406319052349181 0.26560875864653172 0 -0.44710638341364328 0.27426871373736061 0 -0.44716884919266953 0.26664303508463272 0 -0.45406319052349181 0.26560875864653172 0 -0.4517360340530539 0.27990207481521212 0 -0.44710638341364328 0.27426871373736061 0 -0.44710638341364328 0.27426871373736061 0 -0.44716884919266953 0.26664303508463272 0 -0.44044262106073412 0.26544066781369408 0 -0.44710638341364328 0.27426871373736061 0 -0.44044262106073412 0.26544066781369408 0 -0.43342634288157411 0.27497864116969323 0 -0.44710638341364328 0.27426871373736061 0 -0.43342634288157411 0.27497864116969323 0 -0.43613383213136631 0.28413045418230709 0 -0.4468998611199746 0.24145726370310541 0 -0.45406319052349181 0.26560875864653172 0 -0.45008148582333951 0.26233674299658671 0 -0.44077169072161537 0.2425306692159222 0 -0.45008148582333951 0.26233674299658671 0 -0.44142167977321528 0.25670787682661578 0 -0.4468998611199746 0.24145726370310541 0 -0.45406319052349181 0.26560875864653172 0 -0.4468998611199746 0.24145726370310541 0 -0.45371800161124443 0.2437937300893086 0 -0.45406319052349181 0.26560875864653172 0 -0.44077169072161537 0.2425306692159222 0 -0.45008148582333951 0.26233674299658671 0 -0.45008148582333951 0.26233674299658671 0 -0.44470887076022841 0.26309077085244992 0 -0.44142167977321528 0.25670787682661578 0 -0.45406319052349181 0.26560875864653172 0 -0.44716884919266953 0.26664303508463272 0 -0.45008148582333951 0.26233674299658671 0 -0.44716884919266953 0.26664303508463272 0 -0.45008148582333951 0.26233674299658671 0 -0.44470887076022841 0.26309077085244992 0 -0.44044262106073412 0.26544066781369408 0 -0.44142167977321528 0.25670787682661578 0 -0.434298426757041 0.25779491856857489 0 -0.44470887076022841 0.26309077085244992 0 -0.44044262106073412 0.26544066781369408 0 -0.44142167977321528 0.25670787682661578 0 -0.44716884919266953 0.26664303508463272 0 -0.44470887076022841 0.26309077085244992 0 -0.44044262106073412 0.26544066781369408 0 -0.44142167977321528 0.25670787682661578 0 -0.43588497190996628 0.25042843610989651 0 -0.434298426757041 0.25779491856857489 0 -0.43588497190996628 0.25042843610989651 0 -0.434298426757041 0.25779491856857489 0 -0.42934358693169389 0.2506254408654271 0 -0.44044262106073412 0.26544066781369408 0 -0.434298426757041 0.25779491856857489 0 -0.42922208071783929 0.26509214944632209 0 -0.434298426757041 0.25779491856857489 0 -0.42922208071783929 0.26509214944632209 0 -0.42310224637473809 0.25640872943605969 0 -0.42922208071783929 0.26509214944632209 0 -0.42310224637473809 0.25640872943605969 0 -0.41691736757906872 0.27000084463789559 0 -0.434298426757041 0.25779491856857489 0 -0.42310224637473809 0.25640872943605969 0 -0.42934358693169389 0.2506254408654271 0 -0.42135483006212038 0.24456503597302581 0 -0.42310224637473809 0.25640872943605969 0 -0.42934358693169389 0.2506254408654271 0 -0.42135483006212038 0.24456503597302581 0 -0.4059651703890037 0.24982079629174919 0 -0.42310224637473809 0.25640872943605969 0 -0.4059651703890037 0.24982079629174919 0 -0.41691736757906872 0.27000084463789559 0 -0.4059651703890037 0.24982079629174919 0 -0.42310224637473809 0.25640872943605969 0 -0.41691736757906872 0.27000084463789559 0 -0.42922208071783929 0.26509214944632209 0 -0.41691736757906872 0.27000084463789559 0 -0.43342634288157411 0.27497864116969323 0 -0.41691736757906872 0.27000084463789559 0 -0.43342634288157411 0.27497864116969323 0 -0.42786956476913779 0.2901808929840396 0 -0.41691736757906872 0.27000084463789559 0 -0.42786956476913779 0.2901808929840396 0 -0.44044262106073412 0.26544066781369408 0 -0.42922208071783929 0.26509214944632209 0 -0.43342634288157411 0.27497864116969323 0 -0.44454804234807171 0.2899705732869986 0 -0.42786956476913779 0.2901808929840396 0 -0.43342634288157411 0.27497864116969323 0 -0.43613383213136631 0.28413045418230709 0 -0.42786956476913779 0.2901808929840396 0 -0.44454804234807171 0.2899705732869986 0 -0.43613383213136631 0.28413045418230709 0 -0.42786956476913779 0.2901808929840396 0 -0.44454804234807171 0.2899705732869986 0 -0.42786956476913779 0.2901808929840396 0 -0.43264203317394268 0.29897443837663817 0 -0.42786956476913779 0.2901808929840396 0 -0.43264203317394268 0.29897443837663817 0 -0.42786956476913779 0.2901808929840396 0 -0.43264203317394268 0.29897443837663817 0 -0.42333641948750872 0.2979669527034563 0 -0.43522193609993831 0.31125234339540903 0 -0.43264203317394268 0.29897443837663817 0 -0.42718409530309731 0.30649666684718568 0 -0.43264203317394268 0.29897443837663817 0 -0.42333641948750872 0.2979669527034563 0 -0.42718409530309731 0.30649666684718568 0 -0.42333641948750872 0.2979669527034563 0 -0.42718409530309731 0.30649666684718568 0 -0.41649808278633649 0.30380791107027721 0 -0.42410403852682621 0.31849010385781279 0 -0.42718409530309731 0.30649666684718568 0 -0.41649808278633649 0.30380791107027721 0 -0.42410403852682621 0.31849010385781279 0 -0.43522193609993831 0.31125234339540903 0 -0.42718409530309731 0.30649666684718568 0 -0.42410403852682621 0.31849010385781279 0 -0.41649808278633649 0.30380791107027721 0 -0.40409370365539138 0.31030018250086372 0 -0.42333641948750872 0.2979669527034563 0 -0.41649808278633649 0.30380791107027721 0 -0.412488321405029 0.29037485423914072 0 -0.41649808278633649 0.30380791107027721 0 -0.40479669634414012 0.29644104921269387 0 -0.40409370365539138 0.31030018250086372 0 -0.41691736757906872 0.27000084463789559 0 -0.42786956476913779 0.2901808929840396 0 -0.412488321405029 0.29037485423914072 0 -0.41691736757906872 0.27000084463789559 0 -0.412488321405029 0.29037485423914072 0 -0.40113936345350198 0.28342834341202522 0 -0.42786956476913779 0.2901808929840396 0 -0.412488321405029 0.29037485423914072 0 -0.42786956476913779 0.2901808929840396 0 -0.42333641948750872 0.2979669527034563 0 -0.412488321405029 0.29037485423914072 0 -0.41649808278633649 0.30380791107027721 0 -0.412488321405029 0.29037485423914072 0 -0.40479669634414012 0.29644104921269387 0 -0.40113936345350198 0.28342834341202522 0 -0.38976401042044201 0.29429395484116311 0 -0.39304847986397728 0.26928363720610832 0 -0.412488321405029 0.29037485423914072 0 -0.40113936345350198 0.28342834341202522 0 -0.40479669634414012 0.29644104921269387 0 -0.40113936345350198 0.28342834341202522 0 -0.40479669634414012 0.29644104921269387 0 -0.38976401042044201 0.29429395484116311 0 -0.38937104482412449 0.31661790531214551 0 -0.40409370365539138 0.31030018250086372 0 -0.38976401042044201 0.29429395484116311 0 -0.40479669634414012 0.29644104921269387 0 -0.40409370365539138 0.31030018250086372 0 -0.38976401042044201 0.29429395484116311 0 -0.38976401042044201 0.29429395484116311 0 -0.37358947601324388 0.29493999002416632 0 -0.3735935436532194 0.31098543761388697 0 -0.38937104482412449 0.31661790531214551 0 -0.38976401042044201 0.29429395484116311 0 -0.3735935436532194 0.31098543761388697 0 -0.38976401042044201 0.29429395484116311 0 -0.37328732560364469 0.27880299853905638 0 -0.37358947601324388 0.29493999002416632 0 -0.38976401042044201 0.29429395484116311 0 -0.39304847986397728 0.26928363720610832 0 -0.37328732560364469 0.27880299853905638 0 -0.37630619323391662 0.26177012605870847 0 -0.39304847986397728 0.26928363720610832 0 -0.37328732560364469 0.27880299853905638 0 -0.38702646908577448 0.24703725013213551 0 -0.37630619323391662 0.26177012605870847 0 -0.39304847986397728 0.26928363720610832 0 -0.38702646908577448 0.24703725013213551 0 -0.3650723950661709 0.24998549435974801 0 -0.37630619323391662 0.26177012605870847 0 -0.4059651703890037 0.24982079629174919 0 -0.41691736757906872 0.27000084463789559 0 -0.39304847986397728 0.26928363720610832 0 -0.38702646908577448 0.24703725013213551 0 -0.4059651703890037 0.24982079629174919 0 -0.39304847986397728 0.26928363720610832 0 -0.41691736757906872 0.27000084463789559 0 -0.40113936345350198 0.28342834341202522 0 -0.39304847986397728 0.26928363720610832 0 -0.35568392107843078 0.26300962704690978 0 -0.34199039336817239 0.28200593273905378 0 -0.34028887527608148 0.26475443469808441 0 -0.35568392107843078 0.26300962704690978 0 -0.34199039336817239 0.28200593273905378 0 -0.35568392107843078 0.26300962704690978 0 -0.3524808780031185 0.28333591072948949 0 -0.34199039336817239 0.28200593273905378 0 -0.34413919195685061 0.25265196040736021 0 -0.35568392107843078 0.26300962704690978 0 -0.3650723950661709 0.24998549435974801 0 -0.34413919195685061 0.25265196040736021 0 -0.35568392107843078 0.26300962704690978 0 -0.34413919195685061 0.25265196040736021 0 -0.35568392107843078 0.26300962704690978 0 -0.34028887527608148 0.26475443469808441 0 -0.3650723950661709 0.24998549435974801 0 -0.37630619323391662 0.26177012605870847 0 -0.35568392107843078 0.26300962704690978 0 -0.3650723950661709 0.24998549435974801 0 -0.35568392107843078 0.26300962704690978 0 -0.35568392107843078 0.26300962704690978 0 -0.37328732560364469 0.27880299853905638 0 -0.35568392107843078 0.26300962704690978 0 -0.37328732560364469 0.27880299853905638 0 -0.3524808780031185 0.28333591072948949 0 -0.37630619323391662 0.26177012605870847 0 -0.35568392107843078 0.26300962704690978 0 -0.37328732560364469 0.27880299853905638 0 -0.37328732560364469 0.27880299853905638 0 -0.37358947601324388 0.29493999002416632 0 -0.36489686727838577 0.28927384340320078 0 -0.37328732560364469 0.27880299853905638 0 -0.36489686727838577 0.28927384340320078 0 -0.3524808780031185 0.28333591072948949 0 -0.37358947601324388 0.29493999002416632 0 -0.36489686727838577 0.28927384340320078 0 -0.36022978949353618 0.30001647432009099 0 -0.3735935436532194 0.31098543761388697 0 -0.36022978949353618 0.30001647432009099 0 -0.35720459419796952 0.31149365195687689 0 -0.37358947601324388 0.29493999002416632 0 -0.3735935436532194 0.31098543761388697 0 -0.36022978949353618 0.30001647432009099 0 -0.36022978949353618 0.30001647432009099 0 -0.3524808780031185 0.28333591072948949 0 -0.34291764600089059 0.3073926938424355 0 -0.36022978949353618 0.30001647432009099 0 -0.35720459419796952 0.31149365195687689 0 -0.34291764600089059 0.3073926938424355 0 -0.3524808780031185 0.28333591072948949 0 -0.34291764600089059 0.3073926938424355 0 -0.3524808780031185 0.28333591072948949 0 -0.33971498455850069 0.29479935667640439 0 -0.34291764600089059 0.3073926938424355 0 -0.36489686727838577 0.28927384340320078 0 -0.36022978949353618 0.30001647432009099 0 -0.3524808780031185 0.28333591072948949 0 -0.3524808780031185 0.28333591072948949 0 -0.34199039336817239 0.28200593273905378 0 -0.33971498455850069 0.29479935667640439 0 -0.34199039336817239 0.28200593273905378 0 -0.32829686565791161 0.30100223843119611 0 -0.32496007643491398 0.28682720805669037 0 -0.34199039336817239 0.28200593273905378 0 -0.33971498455850069 0.29479935667640439 0 -0.32829686565791161 0.30100223843119611 0 -0.34199039336817239 0.28200593273905378 0 -0.32829686565791161 0.30100223843119611 0 -0.33971498455850069 0.29479935667640439 0 -0.34291764600089059 0.3073926938424355 0 -0.32829686565791161 0.30100223843119611 0 -0.34291764600089059 0.3073926938424355 0 -0.32829686565791161 0.30100223843119611 0 -0.32979306590127822 0.31496073833808758 0 -0.32829686565791161 0.30100223843119611 0 -0.31387806910430871 0.29980858319665687 0 -0.3146033379476495 0.31999854412333761 0 -0.31387806910430871 0.29980858319665687 0 -0.3146033379476495 0.31999854412333761 0 -0.32829686565791161 0.30100223843119611 0 -0.3146033379476495 0.31999854412333761 0 -0.32979306590127822 0.31496073833808758 0 -0.32829686565791161 0.30100223843119611 0 -0.3146033379476495 0.31999854412333761 0 -0.31387806910430871 0.29980858319665687 0 -0.32496007643491398 0.28682720805669037 0 -0.31315280026096909 0.27961862226997602 0 -0.31387806910430871 0.29980858319665687 0 -0.31315280026096909 0.27961862226997602 0 -0.32829686565791161 0.30100223843119611 0 -0.31387806910430871 0.29980858319665687 0 -0.32496007643491398 0.28682720805669037 0 -0.31315280026096909 0.27961862226997602 0 -0.31242753141762769 0.25942866134329529 0 -0.31315280026096909 0.27961862226997602 0 -0.32748225378320839 0.27170066364656892 0 -0.31242753141762769 0.25942866134329529 0 -0.32496007643491398 0.28682720805669037 0 -0.31315280026096909 0.27961862226997602 0 -0.32748225378320839 0.27170066364656892 0 -0.34199039336817239 0.28200593273905378 0 -0.32748225378320839 0.27170066364656892 0 -0.34028887527608148 0.26475443469808441 0 -0.34199039336817239 0.28200593273905378 0 -0.32496007643491398 0.28682720805669037 0 -0.32748225378320839 0.27170066364656892 0 -0.33259446283527072 0.24229429376781031 0 -0.34413919195685061 0.25265196040736021 0 -0.33138646305380809 0.25816600277262369 0 -0.34413919195685061 0.25265196040736021 0 -0.34028887527608148 0.26475443469808441 0 -0.33138646305380809 0.25816600277262369 0 -0.32748225378320839 0.27170066364656892 0 -0.34028887527608148 0.26475443469808441 0 -0.33138646305380809 0.25816600277262369 0 -0.33259446283527072 0.24229429376781031 0 -0.33138646305380809 0.25816600277262369 0 -0.31242753141762769 0.25942866134329529 0 -0.33259446283527072 0.24229429376781031 0 -0.31242753141762769 0.25942866134329529 0 -0.32748225378320839 0.27170066364656892 0 -0.33138646305380809 0.25816600277262369 0 -0.31242753141762769 0.25942866134329529 0 -0.30247996729088872 0.24864381714645439 0 -0.31242753141762769 0.25942866134329529 0 -0.29253527374002541 0.25818464783769479 0 -0.31242753141762769 0.25942866134329529 0 -0.29981968791688901 0.2701406244279092 0 -0.29253527374002541 0.25818464783769479 0 -0.31242753141762769 0.25942866134329529 0 -0.29981968791688901 0.2701406244279092 0 -0.30994005342502018 0.28017959537998882 0 -0.28721184441615061 0.28085258751252362 0 -0.31315280026096909 0.27961862226997602 0 -0.31242753141762769 0.25942866134329529 0 -0.29981968791688901 0.2701406244279092 0 -0.30994005342502018 0.28017959537998882 0 -0.29981968791688901 0.2701406244279092 0 -0.28721184441615061 0.28085258751252362 0 -0.31315280026096909 0.27961862226997602 0 -0.30994005342502018 0.28017959537998882 0 -0.29981968791688901 0.2701406244279092 0 -0.28721184441615061 0.28085258751252362 0 -0.29253527374002541 0.25818464783769479 0 -0.27697126413119733 0.26117658840125102 0 -0.29981968791688901 0.2701406244279092 0 -0.28721184441615061 0.28085258751252362 0 -0.29253527374002541 0.25818464783769479 0 -0.29981968791688901 0.2701406244279092 0 -0.28721184441615061 0.28085258751252362 0 -0.29222907257208403 0.24074557093379831 0 -0.27697126413119733 0.26117658840125102 0 -0.29222907257208403 0.24074557093379831 0 -0.29253527374002541 0.25818464783769479 0 -0.27697126413119733 0.26117658840125102 0 -0.27103680752545423 0.24403107392080631 0 -0.27697126413119733 0.26117658840125102 0 -0.26229004229316921 0.26104480872743452 0 -0.28721184441615061 0.28085258751252362 0 -0.27697126413119733 0.26117658840125102 0 -0.26171345569030929 0.28160760586870281 0 -0.27697126413119733 0.26117658840125102 0 -0.26171345569030929 0.28160760586870281 0 -0.27697126413119733 0.26117658840125102 0 -0.26229004229316921 0.26104480872743452 0 -0.26171345569030929 0.28160760586870281 0 -0.28721184441615061 0.28085258751252362 0 -0.26171345569030929 0.28160760586870281 0 -0.26171345569030929 0.28160760586870281 0 -0.24357244021055369 0.28214476921004727 0 -0.24907532666845869 0.26731703869254703 0 -0.26229004229316921 0.26104480872743452 0 -0.26171345569030929 0.28160760586870281 0 -0.24907532666845869 0.26731703869254703 0 -0.27103680752545423 0.24403107392080631 0 -0.26229004229316921 0.26104480872743452 0 -0.25265335745042522 0.25109173675386448 0 -0.26229004229316921 0.26104480872743452 0 -0.25265335745042522 0.25109173675386448 0 -0.24907532666845869 0.26731703869254703 0 -0.26525122684953722 0.30241966598549341 0 -0.25176489436465621 0.29492925891002708 0 -0.24724126437382779 0.31100423139068861 0 -0.26525122684953722 0.30241966598549341 0 -0.26693039435321081 0.31897908848980672 0 -0.24724126437382779 0.31100423139068861 0 -0.26525122684953722 0.30241966598549341 0 -0.25176489436465621 0.29492925891002708 0 -0.26171345569030929 0.28160760586870281 0 -0.25176489436465621 0.29492925891002708 0 -0.26171345569030929 0.28160760586870281 0 -0.24357244021055369 0.28214476921004727 0 -0.26171345569030929 0.28160760586870281 0 -0.24357244021055369 0.28214476921004727 0 -0.25176489436465621 0.29492925891002708 0 -0.26171345569030929 0.28160760586870281 0 -0.28721184441615061 0.28085258751252362 0 -0.26171345569030929 0.28160760586870281 0 -0.27545043056744062 0.29084540118941821 0 -0.26525122684953722 0.30241966598549341 0 -0.26171345569030929 0.28160760586870281 0 -0.27545043056744062 0.29084540118941821 0 -0.26525122684953722 0.30241966598549341 0 -0.28674797061937851 0.310740249972982 0 -0.26693039435321081 0.31897908848980672 0 -0.26525122684953722 0.30241966598549341 0 -0.27545043056744062 0.29084540118941821 0 -0.28674797061937851 0.310740249972982 0 -0.28674797061937851 0.310740249972982 0 -0.29446951690701861 0.28438643284697301 0 -0.28674797061937851 0.310740249972982 0 -0.29446951690701861 0.28438643284697301 0 -0.30165678087701092 0.30399859625666159 0 -0.28674797061937851 0.310740249972982 0 -0.30165678087701092 0.30399859625666159 0 -0.30052462287960863 0.31828724163511718 0 -0.27545043056744062 0.29084540118941821 0 -0.28674797061937851 0.310740249972982 0 -0.29446951690701861 0.28438643284697301 0 -0.28721184441615061 0.28085258751252362 0 -0.27545043056744062 0.29084540118941821 0 -0.29446951690701861 0.28438643284697301 0 -0.28721184441615061 0.28085258751252362 0 -0.27545043056744062 0.29084540118941821 0 -0.28721184441615061 0.28085258751252362 0 -0.29446951690701861 0.28438643284697301 0 -0.29939114166817721 0.28350412710082229 0 -0.29446951690701861 0.28438643284697301 0 -0.30594315192451937 0.28859789266380581 0 -0.30165678087701092 0.30399859625666159 0 -0.30994005342502018 0.28017959537998882 0 -0.28721184441615061 0.28085258751252362 0 -0.29939114166817721 0.28350412710082229 0 -0.31387806910430871 0.29980858319665687 0 -0.31315280026096909 0.27961862226997602 0 -0.30594315192451937 0.28859789266380581 0 -0.29446951690701861 0.28438643284697301 0 -0.29939114166817721 0.28350412710082229 0 -0.30594315192451937 0.28859789266380581 0 -0.31315280026096909 0.27961862226997602 0 -0.30994005342502018 0.28017959537998882 0 -0.30594315192451937 0.28859789266380581 0 -0.30994005342502018 0.28017959537998882 0 -0.29939114166817721 0.28350412710082229 0 -0.30594315192451937 0.28859789266380581 0 -0.31387806910430871 0.29980858319665687 0 -0.30165678087701092 0.30399859625666159 0 -0.3146033379476495 0.31999854412333761 0 -0.31387806910430871 0.29980858319665687 0 -0.30594315192451937 0.28859789266380581 0 -0.30165678087701092 0.30399859625666159 0 -0.30165678087701092 0.30399859625666159 0 -0.30052462287960863 0.31828724163511718 0 -0.3146033379476495 0.31999854412333761 0 -0.30052462287960863 0.31828724163511718 0 -0.30774711505369418 0.32950981899295939 0 -0.3146033379476495 0.31999854412333761 0 -0.30774711505369418 0.32950981899295939 0 -0.3146033379476495 0.31999854412333761 0 -0.30052462287960863 0.31828724163511718 0 -0.30774711505369418 0.32950981899295939 0 -0.29445712932066209 0.33213860239632448 0 -0.30774711505369418 0.32950981899295939 0 -0.30406046447976071 0.33847951029436152 0 -0.31537570979153712 0.34149975362956669 0 -0.30406046447976071 0.33847951029436152 0 -0.30600619351982561 0.34903062025954862 0 -0.31537570979153712 0.34149975362956669 0 -0.30774711505369418 0.32950981899295939 0 -0.30406046447976071 0.33847951029436152 0 -0.29445712932066209 0.33213860239632448 0 -0.30406046447976071 0.33847951029436152 0 -0.29445712932066209 0.33213860239632448 0 -0.29739634451355901 0.34451730938059599 0 -0.29445712932066209 0.33213860239632448 0 -0.28878134481390388 0.34546222063730597 0 -0.29739634451355901 0.34451730938059599 0 -0.29445712932066209 0.33213860239632448 0 -0.27902642433173852 0.33709406709899109 0 -0.28878134481390388 0.34546222063730597 0 -0.28674797061937851 0.310740249972982 0 -0.30052462287960863 0.31828724163511718 0 -0.29445712932066209 0.33213860239632448 0 -0.28674797061937851 0.310740249972982 0 -0.29445712932066209 0.33213860239632448 0 -0.27902642433173852 0.33709406709899109 0 -0.28674797061937851 0.310740249972982 0 -0.27902642433173852 0.33709406709899109 0 -0.28674797061937851 0.310740249972982 0 -0.26693039435321081 0.31897908848980672 0 -0.27902642433173852 0.33709406709899109 0 -0.26693039435321081 0.31897908848980672 0 -0.27902642433173852 0.33709406709899109 0 -0.25635578808319709 0.33248488659275199 0 -0.25635578808319709 0.33248488659275199 0 -0.26076068202118458 0.34900636599656493 0 -0.24531804091642909 0.34677646153151481 0 -0.27902642433173852 0.33709406709899109 0 -0.25635578808319709 0.33248488659275199 0 -0.26076068202118458 0.34900636599656493 0 -0.26693039435321081 0.31897908848980672 0 -0.25635578808319709 0.33248488659275199 0 -0.24724126437382779 0.31100423139068861 0 -0.25207376591612241 0.37475543941028922 0 -0.27130487804409831 0.36344788422500002 0 -0.26535844899663491 0.38374318491115073 0 -0.25207376591612241 0.37475543941028922 0 -0.27130487804409831 0.36344788422500002 0 -0.24781565924486029 0.35925588195421643 0 -0.27130487804409831 0.36344788422500002 0 -0.24781565924486029 0.35925588195421643 0 -0.26076068202118458 0.34900636599656493 0 -0.27130487804409831 0.36344788422500002 0 -0.24781565924486029 0.35925588195421643 0 -0.26076068202118458 0.34900636599656493 0 -0.24531804091642909 0.34677646153151481 0 -0.24781565924486029 0.35925588195421643 0 -0.27902642433173852 0.33709406709899109 0 -0.27130487804409831 0.36344788422500002 0 -0.27902642433173852 0.33709406709899109 0 -0.27130487804409831 0.36344788422500002 0 -0.28443922574782948 0.35566549521228152 0 -0.27902642433173852 0.33709406709899109 0 -0.26076068202118458 0.34900636599656493 0 -0.27130487804409831 0.36344788422500002 0 -0.27130487804409831 0.36344788422500002 0 -0.26535844899663491 0.38374318491115073 0 -0.27130487804409831 0.36344788422500002 0 -0.28670652730789281 0.36619653879880287 0 -0.28670652730789281 0.36619653879880287 0 -0.26535844899663491 0.38374318491115073 0 -0.27130487804409831 0.36344788422500002 0 -0.28670652730789281 0.36619653879880287 0 -0.28443922574782948 0.35566549521228152 0 -0.27130487804409831 0.36344788422500002 0 -0.28670652730789281 0.36619653879880287 0 -0.26535844899663491 0.38374318491115073 0 -0.28670652730789281 0.36619653879880287 0 -0.30670654260239189 0.36976584053875061 0 -0.28331624864815941 0.38652502253923993 0 -0.28670652730789281 0.36619653879880287 0 -0.30670654260239189 0.36976584053875061 0 -0.28670652730789281 0.36619653879880287 0 -0.29192461231185718 0.36190763327701581 0 -0.28443922574782948 0.35566549521228152 0 -0.29192461231185718 0.36190763327701581 0 -0.29579968708858062 0.35415548152791398 0 -0.2987395742210785 0.36299525588189069 0 -0.28670652730789281 0.36619653879880287 0 -0.29192461231185718 0.36190763327701581 0 -0.2987395742210785 0.36299525588189069 0 -0.28670652730789281 0.36619653879880287 0 -0.29192461231185718 0.36190763327701581 0 -0.27902642433173852 0.33709406709899109 0 -0.28878134481390388 0.34546222063730597 0 -0.28443922574782948 0.35566549521228152 0 -0.28878134481390388 0.34546222063730597 0 -0.28443922574782948 0.35566549521228152 0 -0.29579968708858062 0.35415548152791398 0 -0.29192461231185718 0.36190763327701581 0 -0.28443922574782948 0.35566549521228152 0 -0.29579968708858062 0.35415548152791398 0 -0.28878134481390388 0.34546222063730597 0 -0.29579968708858062 0.35415548152791398 0 -0.29739634451355901 0.34451730938059599 0 -0.30406046447976071 0.33847951029436152 0 -0.29739634451355901 0.34451730938059599 0 -0.30600619351982561 0.34903062025954862 0 -0.29579968708858062 0.35415548152791398 0 -0.29739634451355901 0.34451730938059599 0 -0.30600619351982561 0.34903062025954862 0 -0.29579968708858062 0.35415548152791398 0 -0.30491533890321082 0.35849200870597819 0 -0.30600619351982561 0.34903062025954862 0 -0.29579968708858062 0.35415548152791398 0 -0.30491533890321082 0.35849200870597819 0 -0.2987395742210785 0.36299525588189069 0 -0.30491533890321082 0.35849200870597819 0 -0.30600619351982561 0.34903062025954862 0 -0.31614808163542679 0.36300096313579577 0 -0.28670652730789281 0.36619653879880287 0 -0.2987395742210785 0.36299525588189069 0 -0.30670654260239189 0.36976584053875061 0 -0.30491533890321082 0.35849200870597819 0 -0.2987395742210785 0.36299525588189069 0 -0.30670654260239189 0.36976584053875061 0 -0.30670654260239189 0.36976584053875061 0 -0.31614808163542679 0.36300096313579577 0 -0.30491533890321082 0.35849200870597819 0 -0.30670654260239189 0.36976584053875061 0 -0.31614808163542679 0.36300096313579577 0 -0.30670654260239189 0.36976584053875061 0 -0.316453578166357 0.37150534475839903 0 -0.30670654260239189 0.36976584053875061 0 -0.316453578166357 0.37150534475839903 0 -0.30995066502310192 0.37976565071609047 0 -0.316453578166357 0.37150534475839903 0 -0.33453893464919188 0.37473294700826421 0 -0.30670654260239189 0.36976584053875061 0 -0.316453578166357 0.37150534475839903 0 -0.31614808163542679 0.36300096313579577 0 -0.316453578166357 0.37150534475839903 0 -0.32735487676218772 0.36452673703964322 0 -0.33453893464919188 0.37473294700826421 0 -0.316453578166357 0.37150534475839903 0 -0.31614808163542679 0.36300096313579577 0 -0.316453578166357 0.37150534475839903 0 -0.31614808163542679 0.36300096313579577 0 -0.32735487676218772 0.36452673703964322 0 -0.31614808163542679 0.36300096313579577 0 -0.32735487676218772 0.36452673703964322 0 -0.33036115878603978 0.35281727124974332 0 -0.32735487676218772 0.36452673703964322 0 -0.33453893464919188 0.37473294700826421 0 -0.33722058835921198 0.36024683628409843 0 -0.33453893464919188 0.37473294700826421 0 -0.33722058835921198 0.36024683628409843 0 -0.34881025615644329 0.3620765690523769 0 -0.33036115878603978 0.35281727124974332 0 -0.32379118199643481 0.35550626006832708 0 -0.33335441399866272 0.33144947695538141 0 -0.33036115878603978 0.35281727124974332 0 -0.33335441399866272 0.33144947695538141 0 -0.34503771544219741 0.34708065707046443 0 -0.33722058835921198 0.36024683628409843 0 -0.33036115878603978 0.35281727124974332 0 -0.34503771544219741 0.34708065707046443 0 -0.33722058835921198 0.36024683628409843 0 -0.34881025615644329 0.3620765690523769 0 -0.34503771544219741 0.34708065707046443 0 -0.32735487676218772 0.36452673703964322 0 -0.33722058835921198 0.36024683628409843 0 -0.33036115878603978 0.35281727124974332 0 -0.31614808163542679 0.36300096313579577 0 -0.32379118199643481 0.35550626006832708 0 -0.31537570979153712 0.34149975362956669 0 -0.31614808163542679 0.36300096313579577 0 -0.31537570979153712 0.34149975362956669 0 -0.30600619351982561 0.34903062025954862 0 -0.31614808163542679 0.36300096313579577 0 -0.31537570979153712 0.34149975362956669 0 -0.31614808163542679 0.36300096313579577 0 -0.33036115878603978 0.35281727124974332 0 -0.32379118199643481 0.35550626006832708 0 -0.31614808163542679 0.36300096313579577 0 -0.33036115878603978 0.35281727124974332 0 -0.30774711505369418 0.32950981899295939 0 -0.31537570979153712 0.34149975362956669 0 -0.3146033379476495 0.31999854412333761 0 -0.31537570979153712 0.34149975362956669 0 -0.3146033379476495 0.31999854412333761 0 -0.33335441399866272 0.33144947695538141 0 -0.31537570979153712 0.34149975362956669 0 -0.3146033379476495 0.31999854412333761 0 -0.32379118199643481 0.35550626006832708 0 -0.31537570979153712 0.34149975362956669 0 -0.33335441399866272 0.33144947695538141 0 -0.3146033379476495 0.31999854412333761 0 -0.32979306590127822 0.31496073833808758 0 -0.33335441399866272 0.33144947695538141 0 -0.34291764600089059 0.3073926938424355 0 -0.33335441399866272 0.33144947695538141 0 -0.34291764600089059 0.3073926938424355 0 -0.32979306590127822 0.31496073833808758 0 -0.33335441399866272 0.33144947695538141 0 -0.32379118199643481 0.35550626006832708 0 -0.33335441399866272 0.33144947695538141 0 -0.35575471089239102 0.32665753248150459 0 -0.36407850004417402 0.34907735137327478 0 -0.34503771544219741 0.34708065707046443 0 -0.33335441399866272 0.33144947695538141 0 -0.35575471089239102 0.32665753248150459 0 -0.34503771544219741 0.34708065707046443 0 -0.35720459419796952 0.31149365195687689 0 -0.34291764600089059 0.3073926938424355 0 -0.35575471089239102 0.32665753248150459 0 -0.34291764600089059 0.3073926938424355 0 -0.33335441399866272 0.33144947695538141 0 -0.35575471089239102 0.32665753248150459 0 -0.3735935436532194 0.31098543761388697 0 -0.35720459419796952 0.31149365195687689 0 -0.35575471089239102 0.32665753248150459 0 -0.37828998161256222 0.33180206257399458 0 -0.3735935436532194 0.31098543761388697 0 -0.35575471089239102 0.32665753248150459 0 -0.37828998161256222 0.33180206257399458 0 -0.35575471089239102 0.32665753248150459 0 -0.36407850004417402 0.34907735137327478 0 -0.38627767411470659 0.3538347616038886 0 -0.36407850004417402 0.34907735137327478 0 -0.37286605736730882 0.36463254837100689 0 -0.37286605736730882 0.36463254837100689 0 -0.36108168483506042 0.36673472507096622 0 -0.36914281069579841 0.38042266790116719 0 -0.36407850004417402 0.34907735137327478 0 -0.37286605736730882 0.36463254837100689 0 -0.36108168483506042 0.36673472507096622 0 -0.36108168483506042 0.36673472507096622 0 -0.34881025615644329 0.3620765690523769 0 -0.35262429113202731 0.37796054925812689 0 -0.33453893464919188 0.37473294700826421 0 -0.34881025615644329 0.3620765690523769 0 -0.35262429113202731 0.37796054925812689 0 -0.36407850004417402 0.34907735137327478 0 -0.34881025615644329 0.3620765690523769 0 -0.34503771544219741 0.34708065707046443 0 -0.36407850004417402 0.34907735137327478 0 -0.36108168483506042 0.36673472507096622 0 -0.34881025615644329 0.3620765690523769 0 -0.34431021693436947 0.405099134311388 0 -0.37007597783464391 0.39806814896234288 0 -0.34431021693436947 0.405099134311388 0 -0.35548932322215282 0.39014386739862772 0 -0.34019829950094138 0.38787316159784879 0 -0.34431021693436947 0.405099134311388 0 -0.35548932322215282 0.39014386739862772 0 -0.37007597783464391 0.39806814896234288 0 -0.34431021693436947 0.405099134311388 0 -0.37007597783464391 0.39806814896234288 0 -0.35755465366588879 0.41301758651882858 0 -0.35262429113202731 0.37796054925812689 0 -0.35548932322215282 0.39014386739862772 0 -0.36914281069579841 0.38042266790116719 0 -0.35262429113202731 0.37796054925812689 0 -0.35548932322215282 0.39014386739862772 0 -0.34019829950094138 0.38787316159784879 0 -0.36108168483506042 0.36673472507096622 0 -0.35262429113202731 0.37796054925812689 0 -0.36914281069579841 0.38042266790116719 0 -0.35548932322215282 0.39014386739862772 0 -0.36914281069579841 0.38042266790116719 0 -0.37007597783464391 0.39806814896234288 0 -0.37240578596709772 0.41720815438830888 0 -0.36132594428705439 0.42913468065574512 0 -0.35755465366588879 0.41301758651882858 0 -0.37007597783464391 0.39806814896234288 0 -0.37240578596709772 0.41720815438830888 0 -0.35755465366588879 0.41301758651882858 0 -0.3801361377889812 0.43634203295628732 0 -0.36132594428705439 0.42913468065574512 0 -0.36414434464906131 0.4432442600246943 0 -0.3801361377889812 0.43634203295628732 0 -0.37240578596709772 0.41720815438830888 0 -0.36132594428705439 0.42913468065574512 0 -0.36132594428705439 0.42913468065574512 0 -0.34777911104724007 0.43735030512530121 0 -0.36414434464906131 0.4432442600246943 0 -0.36132594428705439 0.42913468065574512 0 -0.34819134994303857 0.42540468855761648 0 -0.35755465366588879 0.41301758651882858 0 -0.36132594428705439 0.42913468065574512 0 -0.34819134994303857 0.42540468855761648 0 -0.34777911104724007 0.43735030512530121 0 -0.34819134994303857 0.42540468855761648 0 -0.34777911104724007 0.43735030512530121 0 -0.33696519536256131 0.43061528074779409 0 -0.34819134994303857 0.42540468855761648 0 -0.35755465366588879 0.41301758651882858 0 -0.33733184535244809 0.4169055897404137 0 -0.34431021693436947 0.405099134311388 0 -0.35755465366588879 0.41301758651882858 0 -0.33733184535244809 0.4169055897404137 0 -0.33733184535244809 0.4169055897404137 0 -0.33014952405895759 0.42431608600908299 0 -0.31854445603409509 0.41213011966043311 0 -0.34431021693436947 0.405099134311388 0 -0.31854445603409509 0.41213011966043311 0 -0.34431021693436947 0.405099134311388 0 -0.33733184535244809 0.4169055897404137 0 -0.31854445603409509 0.41213011966043311 0 -0.34777911104724007 0.43735030512530121 0 -0.33696519536256131 0.43061528074779409 0 -0.33472994782550619 0.43754243383678548 0 -0.34819134994303857 0.42540468855761648 0 -0.33733184535244809 0.4169055897404137 0 -0.33696519536256131 0.43061528074779409 0 -0.33733184535244809 0.4169055897404137 0 -0.33696519536256131 0.43061528074779409 0 -0.33014952405895759 0.42431608600908299 0 -0.33014952405895759 0.42431608600908299 0 -0.32179507864527651 0.42583573201571467 0 -0.33472994782550619 0.43754243383678548 0 -0.32179507864527651 0.42583573201571467 0 -0.33472994782550619 0.43754243383678548 0 -0.33696519536256131 0.43061528074779409 0 -0.33014952405895759 0.42431608600908299 0 -0.33472994782550619 0.43754243383678548 0 -0.33696519536256131 0.43061528074779409 0 -0.33472994782550619 0.43754243383678548 0 -0.32179507864527651 0.42583573201571467 0 -0.30627006042434102 0.43003077810682833 0 -0.31739670311140311 0.44336459826936409 0 -0.32179507864527651 0.42583573201571467 0 -0.31739670311140311 0.44336459826936409 0 -0.33472994782550619 0.43754243383678548 0 -0.32179507864527651 0.42583573201571467 0 -0.31854445603409509 0.41213011966043311 0 -0.30627006042434102 0.43003077810682833 0 -0.33014952405895759 0.42431608600908299 0 -0.32179507864527651 0.42583573201571467 0 -0.31854445603409509 0.41213011966043311 0 -0.31854445603409509 0.41213011966043311 0 -0.32912282517242769 0.39777187684704118 0 -0.31711487150776257 0.38991436211334968 0 -0.34431021693436947 0.405099134311388 0 -0.32912282517242769 0.39777187684704118 0 -0.34019829950094138 0.38787316159784879 0 -0.34431021693436947 0.405099134311388 0 -0.31854445603409509 0.41213011966043311 0 -0.32912282517242769 0.39777187684704118 0 -0.33453893464919188 0.37473294700826421 0 -0.35262429113202731 0.37796054925812689 0 -0.34019829950094138 0.38787316159784879 0 -0.32912282517242769 0.39777187684704118 0 -0.34019829950094138 0.38787316159784879 0 -0.32510420589547939 0.38153059476364498 0 -0.33453893464919188 0.37473294700826421 0 -0.35262429113202731 0.37796054925812689 0 -0.33453893464919188 0.37473294700826421 0 -0.34019829950094138 0.38787316159784879 0 -0.32510420589547939 0.38153059476364498 0 -0.32912282517242769 0.39777187684704118 0 -0.31711487150776257 0.38991436211334968 0 -0.32510420589547939 0.38153059476364498 0 -0.316453578166357 0.37150534475839903 0 -0.31711487150776257 0.38991436211334968 0 -0.30995066502310192 0.37976565071609047 0 -0.316453578166357 0.37150534475839903 0 -0.31711487150776257 0.38991436211334968 0 -0.32510420589547939 0.38153059476364498 0 -0.316453578166357 0.37150534475839903 0 -0.31711487150776257 0.38991436211334968 0 -0.316453578166357 0.37150534475839903 0 -0.33453893464919188 0.37473294700826421 0 -0.32510420589547939 0.38153059476364498 0 -0.30670654260239189 0.36976584053875061 0 -0.30995066502310192 0.37976565071609047 0 -0.30109314715502278 0.38542823944211169 0 -0.31711487150776257 0.38991436211334968 0 -0.30995066502310192 0.37976565071609047 0 -0.30109314715502278 0.38542823944211169 0 -0.30670654260239189 0.36976584053875061 0 -0.30109314715502278 0.38542823944211169 0 -0.28331624864815941 0.38652502253923993 0 -0.31711487150776257 0.38991436211334968 0 -0.30109314715502278 0.38542823944211169 0 -0.29947749033837778 0.40036204469031111 0 -0.31854445603409509 0.41213011966043311 0 -0.31711487150776257 0.38991436211334968 0 -0.29947749033837778 0.40036204469031111 0 -0.30109314715502278 0.38542823944211169 0 -0.29947749033837778 0.40036204469031111 0 -0.28331624864815941 0.38652502253923993 0 -0.29947749033837778 0.40036204469031111 0 -0.28331624864815941 0.38652502253923993 0 -0.27808354444609729 0.40497648948987358 0 -0.30670654260239189 0.36976584053875061 0 -0.28331624864815941 0.38652502253923993 0 -0.28670652730789281 0.36619653879880287 0 -0.28331624864815941 0.38652502253923993 0 -0.26535844899663491 0.38374318491115073 0 -0.28331624864815941 0.38652502253923993 0 -0.25978981881287472 0.40274904928575922 0 -0.28331624864815941 0.38652502253923993 0 -0.27808354444609729 0.40497648948987358 0 -0.25978981881287472 0.40274904928575922 0 -0.28331624864815941 0.38652502253923993 0 -0.25978981881287472 0.40274904928575922 0 -0.26535844899663491 0.38374318491115073 0 -0.25978981881287472 0.40274904928575922 0 -0.2517814801222712 0.39490251572507368 0 -0.26535844899663491 0.38374318491115073 0 -0.25978981881287472 0.40274904928575922 0 -0.26535844899663491 0.38374318491115073 0 -0.2517814801222712 0.39490251572507368 0 -0.25064852575760788 0.38469994987524803 0 -0.26535844899663491 0.38374318491115073 0 -0.25207376591612241 0.37475543941028922 0 -0.25064852575760788 0.38469994987524803 0 -0.26535844899663491 0.38374318491115073 0 -0.2517814801222712 0.39490251572507368 0 -0.26535844899663491 0.38374318491115073 0 -0.26138900758400219 0.43650205706185108 0 -0.26298055422288702 0.4205021834214519 0 -0.2478775639996767 0.43602787735303022 0 -0.2518299334140468 0.41996441296360842 0 -0.26298055422288702 0.4205021834214519 0 -0.2478775639996767 0.43602787735303022 0 -0.26298055422288702 0.4205021834214519 0 -0.2478775639996767 0.43602787735303022 0 -0.25978981881287472 0.40274904928575922 0 -0.2518299334140468 0.41996441296360842 0 -0.26298055422288702 0.4205021834214519 0 -0.27808354444609729 0.40497648948987358 0 -0.26298055422288702 0.4205021834214519 0 -0.27865223062507988 0.42121714253260018 0 -0.27808354444609729 0.40497648948987358 0 -0.25978981881287472 0.40274904928575922 0 -0.26298055422288702 0.4205021834214519 0 -0.27808354444609729 0.40497648948987358 0 -0.26298055422288702 0.4205021834214519 0 -0.26298055422288702 0.4205021834214519 0 -0.27865223062507988 0.42121714253260018 0 -0.27489559041244133 0.43590525355383852 0 -0.26138900758400219 0.43650205706185108 0 -0.26298055422288702 0.4205021834214519 0 -0.27489559041244133 0.43590525355383852 0 -0.29123722882486658 0.437118644252111 0 -0.29277869513382049 0.41916110500947817 0 -0.30627006042434102 0.43003077810682833 0 -0.27865223062507988 0.42121714253260018 0 -0.27489559041244133 0.43590525355383852 0 -0.29123722882486658 0.437118644252111 0 -0.27865223062507988 0.42121714253260018 0 -0.29123722882486658 0.437118644252111 0 -0.29277869513382049 0.41916110500947817 0 -0.29947749033837778 0.40036204469031111 0 -0.27808354444609729 0.40497648948987358 0 -0.29277869513382049 0.41916110500947817 0 -0.27808354444609729 0.40497648948987358 0 -0.27865223062507988 0.42121714253260018 0 -0.29277869513382049 0.41916110500947817 0 -0.31854445603409509 0.41213011966043311 0 -0.29277869513382049 0.41916110500947817 0 -0.31854445603409509 0.41213011966043311 0 -0.29947749033837778 0.40036204469031111 0 -0.29277869513382049 0.41916110500947817 0 -0.31854445603409509 0.41213011966043311 0 -0.29277869513382049 0.41916110500947817 0 -0.30627006042434102 0.43003077810682833 0 -0.29123722882486658 0.437118644252111 0 -0.30627006042434102 0.43003077810682833 0 -0.30186312040016061 0.44907633511896228 0 -0.30186312040016061 0.44907633511896228 0 -0.31276511368983051 0.45991761084631011 0 -0.31739670311140311 0.44336459826936409 0 -0.30627006042434102 0.43003077810682833 0 -0.30186312040016061 0.44907633511896228 0 -0.31739670311140311 0.44336459826936409 0 -0.30186312040016061 0.44907633511896228 0 -0.29946459427802019 0.46921723299609558 0 -0.31276511368983051 0.45991761084631011 0 -0.30186312040016061 0.44907633511896228 0 -0.28276180758415659 0.45763949315824942 0 -0.29946459427802019 0.46921723299609558 0 -0.27489559041244133 0.43590525355383852 0 -0.29123722882486658 0.437118644252111 0 -0.28276180758415659 0.45763949315824942 0 -0.29123722882486658 0.437118644252111 0 -0.30186312040016061 0.44907633511896228 0 -0.28276180758415659 0.45763949315824942 0 -0.27489559041244133 0.43590525355383852 0 -0.28276180758415659 0.45763949315824942 0 -0.26526128982827502 0.45074709689295372 0 -0.26138900758400219 0.43650205706185108 0 -0.27489559041244133 0.43590525355383852 0 -0.26526128982827502 0.45074709689295372 0 -0.28276180758415659 0.45763949315824942 0 -0.26832183076130078 0.46270492286451631 0 -0.27124968621564038 0.47791131114214702 0 -0.28276180758415659 0.45763949315824942 0 -0.26832183076130078 0.46270492286451631 0 -0.26526128982827502 0.45074709689295372 0 -0.26832183076130078 0.46270492286451631 0 -0.2538441374005192 0.46419532409276781 0 -0.26526128982827502 0.45074709689295372 0 -0.2538441374005192 0.46419532409276781 0 -0.25047570145932352 0.44829845483618741 0 -0.26526128982827502 0.45074709689295372 0 -0.26832183076130078 0.46270492286451631 0 -0.2538441374005192 0.46419532409276781 0 -0.27124968621564038 0.47791131114214702 0 -0.26138900758400219 0.43650205706185108 0 -0.25047570145932352 0.44829845483618741 0 -0.2478775639996767 0.43602787735303022 0 -0.26138900758400219 0.43650205706185108 0 -0.25047570145932352 0.44829845483618741 0 -0.26526128982827502 0.45074709689295372 0 -0.26175670617293179 0.5 0 -0.25098910503429528 0.47846852912753879 0 -0.27124968621564038 0.47791131114214702 0 -0.26175670617293179 0.5 0 -0.25098910503429528 0.47846852912753879 0 -0.24256099994576011 0.4880969360860925 0 -0.2538441374005192 0.46419532409276781 0 -0.25098910503429528 0.47846852912753879 0 -0.27124968621564038 0.47791131114214702 0 -0.28276180758415659 0.45763949315824942 0 -0.27124968621564038 0.47791131114214702 0 -0.28883920516244682 0.48110293273333932 0 -0.26175670617293179 0.5 0 -0.27124968621564038 0.47791131114214702 0 -0.28816645132293012 0.5 0 -0.27124968621564038 0.47791131114214702 0 -0.28816645132293012 0.5 0 -0.28883920516244682 0.48110293273333932 0 -0.28816645132293012 0.5 0 -0.28883920516244682 0.48110293273333932 0 -0.30246929726038829 0.48610628133960321 0 -0.28276180758415659 0.45763949315824942 0 -0.28883920516244682 0.48110293273333932 0 -0.29946459427802019 0.46921723299609558 0 -0.29946459427802019 0.46921723299609558 0 -0.32129411359045418 0.47918081127892809 0 -0.31276511368983051 0.45991761084631011 0 -0.29946459427802019 0.46921723299609558 0 -0.30246929726038829 0.48610628133960321 0 -0.32129411359045418 0.47918081127892809 0 -0.28883920516244682 0.48110293273333932 0 -0.29946459427802019 0.46921723299609558 0 -0.30246929726038829 0.48610628133960321 0 -0.28816645132293012 0.5 0 -0.30246929726038829 0.48610628133960321 0 -0.31457619647292828 0.49999999999999939 0 -0.30246929726038829 0.48610628133960321 0 -0.31457619647292828 0.49999999999999939 0 -0.32129411359045418 0.47918081127892809 0 -0.31457619647292828 0.49999999999999939 0 -0.32129411359045418 0.47918081127892809 0 -0.34429747411518158 0.5 0 -0.31457619647292828 0.49999999999999939 0 -0.32129411359045418 0.47918081127892809 0 -0.32129411359045418 0.47918081127892809 0 -0.34429747411518158 0.5 0 -0.34462364687746599 0.47486493033092109 0 -0.32129411359045418 0.47918081127892809 0 -0.32801203070798018 0.45836162255785678 0 -0.34462364687746599 0.47486493033092109 0 -0.32129411359045418 0.47918081127892809 0 -0.32801203070798018 0.45836162255785678 0 -0.32129411359045418 0.47918081127892809 0 -0.32801203070798018 0.45836162255785678 0 -0.31276511368983051 0.45991761084631011 0 -0.32801203070798018 0.45836162255785678 0 -0.31276511368983051 0.45991761084631011 0 -0.31739670311140311 0.44336459826936409 0 -0.32801203070798018 0.45836162255785678 0 -0.31739670311140311 0.44336459826936409 0 -0.33472994782550619 0.43754243383678548 0 -0.32801203070798018 0.45836162255785678 0 -0.33472994782550619 0.43754243383678548 0 -0.32801203070798018 0.45836162255785678 0 -0.33472994782550619 0.43754243383678548 0 -0.35198246821905171 0.45315682537758939 0 -0.33472994782550619 0.43754243383678548 0 -0.35198246821905171 0.45315682537758939 0 -0.32801203070798018 0.45836162255785678 0 -0.35198246821905171 0.45315682537758939 0 -0.34462364687746599 0.47486493033092109 0 -0.35198246821905171 0.45315682537758939 0 -0.36923498861259713 0.46877121691839319 0 -0.34462364687746599 0.47486493033092109 0 -0.34777911104724007 0.43735030512530121 0 -0.33472994782550619 0.43754243383678548 0 -0.35198246821905171 0.45315682537758939 0 -0.34777911104724007 0.43735030512530121 0 -0.35198246821905171 0.45315682537758939 0 -0.36414434464906131 0.4432442600246943 0 -0.37507549070465729 0.44757931484736252 0 -0.3801361377889812 0.43634203295628732 0 -0.36414434464906131 0.4432442600246943 0 -0.35198246821905171 0.45315682537758939 0 -0.36414434464906131 0.4432442600246943 0 -0.36925345764348511 0.45698131168867667 0 -0.37507549070465729 0.44757931484736252 0 -0.36414434464906131 0.4432442600246943 0 -0.36925345764348511 0.45698131168867667 0 -0.35198246821905171 0.45315682537758939 0 -0.36925345764348511 0.45698131168867667 0 -0.36923498861259713 0.46877121691839319 0 -0.35198246821905171 0.45315682537758939 0 -0.36923498861259713 0.46877121691839319 0 -0.37752696234133309 0.46276126082490221 0 -0.36925345764348511 0.45698131168867667 0 -0.36923498861259713 0.46877121691839319 0 -0.38648750900614248 0.48438560845919698 0 -0.36923498861259713 0.46877121691839319 0 -0.36028785893007548 0.48612256836565693 0 -0.36028785893007548 0.48612256836565693 0 -0.37401875175743488 0.5 0 -0.34429747411518158 0.5 0 -0.38648750900614248 0.48438560845919698 0 -0.36028785893007548 0.48612256836565693 0 -0.37401875175743488 0.5 0 -0.36028785893007548 0.48612256836565693 0 -0.34429747411518158 0.5 0 -0.34462364687746599 0.47486493033092109 0 -0.36923498861259713 0.46877121691839319 0 -0.36028785893007548 0.48612256836565693 0 -0.34462364687746599 0.47486493033092109 0 -0.153768865275727 0.47640469348188008 0 -0.14359783365883949 0.48776660279468731 0 -0.15939768319280251 0.48840094722776828 0 -0.153768865275727 0.47640469348188008 0 -0.14359783365883949 0.48776660279468731 0 -0.14053518983319069 0.47724109030250977 0 -0.153768865275727 0.47640469348188008 0 -0.14053518983319069 0.47724109030250977 0 -0.1435082131116901 0.46754334196099678 0 -0.153768865275727 0.47640469348188008 0 -0.1435082131116901 0.46754334196099678 0 -0.15482171351020091 0.46342421843181508 0 -0.1531617291500279 0.5 0 -0.14359783365883949 0.48776660279468731 0 -0.15939768319280251 0.48840094722776828 0 -0.1531617291500279 0.5 0 -0.14359783365883949 0.48776660279468731 0 -0.13072716435958551 0.5 0 -0.13072716435958551 0.5 0 -0.13025054025300761 0.4826643573959446 0 -0.1149921912092071 0.48466225520027822 0 -0.14359783365883949 0.48776660279468731 0 -0.13072716435958551 0.5 0 -0.13025054025300761 0.4826643573959446 0 -0.14359783365883949 0.48776660279468731 0 -0.13025054025300761 0.4826643573959446 0 -0.14053518983319069 0.47724109030250977 0 -0.13025054025300761 0.4826643573959446 0 -0.14053518983319069 0.47724109030250977 0 -0.13118830386020741 0.47279695520388898 0 -0.14053518983319069 0.47724109030250977 0 -0.13118830386020741 0.47279695520388898 0 -0.1435082131116901 0.46754334196099678 0 -0.13025054025300761 0.4826643573959446 0 -0.13118830386020741 0.47279695520388898 0 -0.1202814620937747 0.47400449053672777 0 -0.12695833985532259 0.45756942101487302 0 -0.13369083520311251 0.46329976234507819 0 -0.122377696522578 0.46366266860828159 0 -0.13118830386020741 0.47279695520388898 0 -0.13369083520311251 0.46329976234507819 0 -0.122377696522578 0.46366266860828159 0 -0.12695833985532259 0.45756942101487302 0 -0.1344623132418564 0.45625755424693998 0 -0.1230046864836971 0.44912249390313519 0 -0.12695833985532259 0.45756942101487302 0 -0.1344623132418564 0.45625755424693998 0 -0.13369083520311251 0.46329976234507819 0 -0.1344623132418564 0.45625755424693998 0 -0.13369083520311251 0.46329976234507819 0 -0.14153560936209869 0.46036267515722518 0 -0.13369083520311251 0.46329976234507819 0 -0.1435082131116901 0.46754334196099678 0 -0.14153560936209869 0.46036267515722518 0 -0.13118830386020741 0.47279695520388898 0 -0.13369083520311251 0.46329976234507819 0 -0.1435082131116901 0.46754334196099678 0 -0.1344623132418564 0.45625755424693998 0 -0.1468950445197322 0.45349448995471048 0 -0.1230046864836971 0.44912249390313519 0 -0.1468950445197322 0.45349448995471048 0 -0.1230046864836971 0.44912249390313519 0 -0.127110104771292 0.44628913160647932 0 -0.14101498282671859 0.44360009119965232 0 -0.1500852699138982 0.4490054649617215 0 -0.127110104771292 0.44628913160647932 0 -0.1468950445197322 0.45349448995471048 0 -0.1230046864836971 0.44912249390313519 0 -0.127110104771292 0.44628913160647932 0 -0.1500852699138982 0.4490054649617215 0 -0.12958539990051529 0.43975039999026672 0 -0.127110104771292 0.44628913160647932 0 -0.12582028798773601 0.43557595697160212 0 -0.12958539990051529 0.43975039999026672 0 -0.13393562983705831 0.44040169697121079 0 -0.132912812236476 0.43527140001113562 0 -0.12958539990051529 0.43975039999026672 0 -0.127110104771292 0.44628913160647932 0 -0.13393562983705831 0.44040169697121079 0 -0.127110104771292 0.44628913160647932 0 -0.13393562983705831 0.44040169697121079 0 -0.14101498282671859 0.44360009119965232 0 -0.13393562983705831 0.44040169697121079 0 -0.14101498282671859 0.44360009119965232 0 -0.13995312146935249 0.43618282804812081 0 -0.127110104771292 0.44628913160647932 0 -0.1500852699138982 0.4490054649617215 0 -0.1468950445197322 0.45349448995471048 0 -0.14101498282671859 0.44360009119965232 0 -0.1481806454488013 0.44307310748348427 0 -0.1500852699138982 0.4490054649617215 0 -0.1449541789038758 0.43967853181970051 0 -0.1511481773586158 0.43896487449238369 0 -0.14690829342226269 0.43487464608378712 0 -0.1449541789038758 0.43967853181970051 0 -0.1481806454488013 0.44307310748348427 0 -0.1511481773586158 0.43896487449238369 0 -0.1449541789038758 0.43967853181970051 0 -0.14101498282671859 0.44360009119965232 0 -0.13995312146935249 0.43618282804812081 0 -0.1449541789038758 0.43967853181970051 0 -0.14101498282671859 0.44360009119965232 0 -0.1481806454488013 0.44307310748348427 0 -0.1500852699138982 0.4490054649617215 0 -0.15422841927300729 0.44328056362217211 0 -0.16254422361799559 0.44502885110952839 0 -0.1481806454488013 0.44307310748348427 0 -0.15422841927300729 0.44328056362217211 0 -0.1511481773586158 0.43896487449238369 0 -0.1481806454488013 0.44307310748348427 0 -0.1500852699138982 0.4490054649617215 0 -0.15422841927300729 0.44328056362217211 0 -0.15422841927300729 0.44328056362217211 0 -0.1511481773586158 0.43896487449238369 0 -0.15847898142472011 0.43872288433626788 0 -0.1500852699138982 0.4490054649617215 0 -0.1468950445197322 0.45349448995471048 0 -0.1707854025557673 0.45786648600628582 0 -0.14669014512593051 0.46120618137618691 0 -0.1435082131116901 0.46754334196099678 0 -0.15482171351020091 0.46342421843181508 0 -0.14669014512593051 0.46120618137618691 0 -0.1435082131116901 0.46754334196099678 0 -0.14153560936209869 0.46036267515722518 0 -0.1344623132418564 0.45625755424693998 0 -0.14153560936209869 0.46036267515722518 0 -0.1468950445197322 0.45349448995471048 0 -0.14669014512593051 0.46120618137618691 0 -0.14153560936209869 0.46036267515722518 0 -0.1468950445197322 0.45349448995471048 0 -0.14669014512593051 0.46120618137618691 0 -0.1468950445197322 0.45349448995471048 0 -0.15482171351020091 0.46342421843181508 0 -0.15482171351020091 0.46342421843181508 0 -0.1707854025557673 0.45786648600628582 0 -0.1660443679129977 0.46995405534097329 0 -0.1468950445197322 0.45349448995471048 0 -0.1707854025557673 0.45786648600628582 0 -0.1468950445197322 0.45349448995471048 0 -0.15482171351020091 0.46342421843181508 0 -0.1707854025557673 0.45786648600628582 0 -0.1707854025557673 0.45786648600628582 0 -0.17592854246920961 0.47109495307096161 0 -0.1660443679129977 0.46995405534097329 0 -0.1500852699138982 0.4490054649617215 0 -0.1707854025557673 0.45786648600628582 0 -0.16254422361799559 0.44502885110952839 0 -0.1707854025557673 0.45786648600628582 0 -0.16254422361799559 0.44502885110952839 0 -0.1736161744262894 0.44217550981888187 0 -0.16254422361799559 0.44502885110952839 0 -0.15847898142472011 0.43872288433626788 0 -0.16729889150648281 0.43435965771143392 0 -0.15422841927300729 0.44328056362217211 0 -0.16254422361799559 0.44502885110952839 0 -0.15847898142472011 0.43872288433626788 0 -0.16254422361799559 0.44502885110952839 0 -0.1736161744262894 0.44217550981888187 0 -0.16729889150648281 0.43435965771143392 0 -0.1707854025557673 0.45786648600628582 0 -0.18315223149483401 0.44607518492651488 0 -0.18862269814072019 0.45245227963688373 0 -0.1707854025557673 0.45786648600628582 0 -0.1736161744262894 0.44217550981888187 0 -0.18315223149483401 0.44607518492651488 0 -0.1736161744262894 0.44217550981888187 0 -0.18315223149483401 0.44607518492651488 0 -0.1822137837236649 0.43653078766584902 0 -0.18315223149483401 0.44607518492651488 0 -0.19068832202536251 0.4401955184129458 0 -0.1822137837236649 0.43653078766584902 0 -0.1707854025557673 0.45786648600628582 0 -0.18449816443620831 0.46824027911932159 0 -0.19467576059180239 0.46223848205786039 0 -0.1707854025557673 0.45786648600628582 0 -0.19467576059180239 0.46223848205786039 0 -0.18862269814072019 0.45245227963688373 0 -0.1707854025557673 0.45786648600628582 0 -0.19467576059180239 0.46223848205786039 0 -0.1707854025557673 0.45786648600628582 0 -0.18449816443620831 0.46824027911932159 0 -0.17592854246920961 0.47109495307096161 0 -0.18449816443620831 0.46824027911932159 0 -0.1861770803672099 0.47714459515158392 0 -0.17592854246920961 0.47109495307096161 0 -0.1861770803672099 0.47714459515158392 0 -0.17213769707386509 0.48226934973664343 0 -0.18918035391480009 0.49120182897353748 0 -0.1861770803672099 0.47714459515158392 0 -0.17213769707386509 0.48226934973664343 0 -0.17592854246920961 0.47109495307096161 0 -0.17213769707386509 0.48226934973664343 0 -0.17592854246920961 0.47109495307096161 0 -0.1660443679129977 0.46995405534097329 0 -0.153768865275727 0.47640469348188008 0 -0.17213769707386509 0.48226934973664343 0 -0.1660443679129977 0.46995405534097329 0 -0.153768865275727 0.47640469348188008 0 -0.17213769707386509 0.48226934973664343 0 -0.15939768319280251 0.48840094722776828 0 -0.153768865275727 0.47640469348188008 0 -0.15482171351020091 0.46342421843181508 0 -0.1660443679129977 0.46995405534097329 0 -0.17213769707386509 0.48226934973664343 0 -0.15939768319280251 0.48840094722776828 0 -0.17559629394047041 0.49999999999999772 0 -0.1531617291500279 0.5 0 -0.15939768319280251 0.48840094722776828 0 -0.17559629394047041 0.49999999999999772 0 -0.17213769707386509 0.48226934973664343 0 -0.17559629394047041 0.49999999999999772 0 -0.18918035391480009 0.49120182897353748 0 -0.17559629394047041 0.49999999999999772 0 -0.18564715116575581 0.50000000000000067 0 -0.18918035391480009 0.49120182897353748 0 -0.17559629394047041 0.49999999999999772 0 -0.18918035391480009 0.49120182897353748 0 -0.18564715116575581 0.50000000000000067 0 -0.2027058877044558 0.4973204257565712 0 -0.20300707322196659 0.48220017153781441 0 -0.18564715116575581 0.50000000000000067 0 -0.20300707322196659 0.48220017153781441 0 -0.18564715116575581 0.50000000000000067 0 -0.18918035391480009 0.49120182897353748 0 -0.20300707322196659 0.48220017153781441 0 -0.18564715116575581 0.50000000000000067 0 -0.20183977687189031 0.5 0 -0.2027058877044558 0.4973204257565712 0 -0.18918035391480009 0.49120182897353748 0 -0.20300707322196659 0.48220017153781441 0 -0.2027058877044558 0.4973204257565712 0 -0.20300707322196659 0.48220017153781441 0 -0.18918035391480009 0.49120182897353748 0 -0.20300707322196659 0.48220017153781441 0 -0.19624697403693089 0.47978460404103901 0 -0.18449816443620831 0.46824027911932159 0 -0.1861770803672099 0.47714459515158392 0 -0.19357521510708589 0.47228428142443862 0 -0.1861770803672099 0.47714459515158392 0 -0.19357521510708589 0.47228428142443862 0 -0.19624697403693089 0.47978460404103901 0 -0.1861770803672099 0.47714459515158392 0 -0.18918035391480009 0.49120182897353748 0 -0.19624697403693089 0.47978460404103901 0 -0.20300707322196659 0.48220017153781441 0 -0.19624697403693089 0.47978460404103901 0 -0.20313235803842791 0.47591056541635762 0 -0.20300707322196659 0.48220017153781441 0 -0.20313235803842791 0.47591056541635762 0 -0.19357521510708589 0.47228428142443862 0 -0.19624697403693089 0.47978460404103901 0 -0.20313235803842791 0.47591056541635762 0 -0.20313235803842791 0.47591056541635762 0 -0.19467576059180239 0.46223848205786039 0 -0.19357521510708589 0.47228428142443862 0 -0.20313235803842791 0.47591056541635762 0 -0.19467576059180239 0.46223848205786039 0 -0.20544445213142229 0.47964861057833019 0 -0.2231833763186428 0.4691786336187691 0 -0.21819387438225851 0.46654235646934072 0 -0.20544445213142229 0.47964861057833019 0 -0.2231833763186428 0.4691786336187691 0 -0.20313235803842791 0.47591056541635762 0 -0.21819387438225851 0.46654235646934072 0 -0.20337299300993089 0.46383009762655131 0 -0.20313235803842791 0.47591056541635762 0 -0.20337299300993089 0.46383009762655131 0 -0.20313235803842791 0.47591056541635762 0 -0.20544445213142229 0.47964861057833019 0 -0.21819387438225851 0.46654235646934072 0 -0.20300707322196659 0.48220017153781441 0 -0.20313235803842791 0.47591056541635762 0 -0.20544445213142229 0.47964861057833019 0 -0.20313235803842791 0.47591056541635762 0 -0.20544445213142229 0.47964861057833019 0 -0.20300707322196659 0.48220017153781441 0 -0.20544445213142229 0.47964861057833019 0 -0.20544445213142229 0.47964861057833019 0 -0.21819387438225851 0.46654235646934072 0 -0.20183977687189031 0.5 0 -0.2027058877044558 0.4973204257565712 0 -0.2180324025780247 0.49999999999999989 0 -0.2027058877044558 0.4973204257565712 0 -0.20300707322196659 0.48220017153781441 0 -0.20544445213142229 0.47964861057833019 0 -0.20544445213142229 0.47964861057833019 0 -0.2180324025780247 0.49999999999999989 0 -0.2027058877044558 0.4973204257565712 0 -0.20544445213142229 0.47964861057833019 0 -0.2180324025780247 0.49999999999999989 0 -0.20544445213142229 0.47964861057833019 0 -0.2180324025780247 0.49999999999999989 0 -0.22926516867078769 0.48458931680938511 0 -0.2180324025780247 0.49999999999999989 0 -0.22926516867078769 0.48458931680938511 0 -0.23534696102293351 0.50000000000000067 0 -0.22926516867078769 0.48458931680938511 0 -0.23534696102293351 0.50000000000000067 0 -0.22926516867078769 0.48458931680938511 0 -0.2231833763186428 0.4691786336187691 0 -0.20544445213142229 0.47964861057833019 0 -0.22926516867078769 0.48458931680938511 0 -0.2231833763186428 0.4691786336187691 0 -0.22926516867078769 0.48458931680938511 0 -0.2231833763186428 0.4691786336187691 0 -0.2312483009038698 0.47263826583406859 0 -0.22926516867078769 0.48458931680938511 0 -0.2312483009038698 0.47263826583406859 0 -0.23721664183907329 0.47600542610047469 0 -0.22926516867078769 0.48458931680938511 0 -0.23721664183907329 0.47600542610047469 0 -0.24256099994576011 0.4880969360860925 0 -0.23488978011482531 0.46888248591338239 0 -0.23721664183907329 0.47600542610047469 0 -0.24127145996452801 0.46709353347628668 0 -0.2312483009038698 0.47263826583406859 0 -0.23488978011482531 0.46888248591338239 0 -0.23721664183907329 0.47600542610047469 0 -0.2538441374005192 0.46419532409276781 0 -0.25098910503429528 0.47846852912753879 0 -0.24127145996452801 0.46709353347628668 0 -0.25098910503429528 0.47846852912753879 0 -0.23721664183907329 0.47600542610047469 0 -0.24127145996452801 0.46709353347628668 0 -0.25098910503429528 0.47846852912753879 0 -0.23721664183907329 0.47600542610047469 0 -0.24256099994576011 0.4880969360860925 0 -0.26175670617293179 0.5 0 -0.24256099994576011 0.4880969360860925 0 -0.23534696102293351 0.50000000000000067 0 -0.22926516867078769 0.48458931680938511 0 -0.24256099994576011 0.4880969360860925 0 -0.23534696102293351 0.50000000000000067 0 -0.25047570145932352 0.44829845483618741 0 -0.2327745737764664 0.45155357128460849 0 -0.2478775639996767 0.43602787735303022 0 -0.25047570145932352 0.44829845483618741 0 -0.24301422012366319 0.45633452399873009 0 -0.2327745737764664 0.45155357128460849 0 -0.2327745737764664 0.45155357128460849 0 -0.2478775639996767 0.43602787735303022 0 -0.23465511725808119 0.43579847891241491 0 -0.2327745737764664 0.45155357128460849 0 -0.2478775639996767 0.43602787735303022 0 -0.2538441374005192 0.46419532409276781 0 -0.25047570145932352 0.44829845483618741 0 -0.24301422012366319 0.45633452399873009 0 -0.2538441374005192 0.46419532409276781 0 -0.24301422012366319 0.45633452399873009 0 -0.24127145996452801 0.46709353347628668 0 -0.23488978011482531 0.46888248591338239 0 -0.24127145996452801 0.46709353347628668 0 -0.23129816831329389 0.46392281702579857 0 -0.24301422012366319 0.45633452399873009 0 -0.24127145996452801 0.46709353347628668 0 -0.23129816831329389 0.46392281702579857 0 -0.24301422012366319 0.45633452399873009 0 -0.23129816831329389 0.46392281702579857 0 -0.24301422012366319 0.45633452399873009 0 -0.23129816831329389 0.46392281702579857 0 -0.2327745737764664 0.45155357128460849 0 -0.22100323620756679 0.46365436599870219 0 -0.2327745737764664 0.45155357128460849 0 -0.23129816831329389 0.46392281702579857 0 -0.2327745737764664 0.45155357128460849 0 -0.23129816831329389 0.46392281702579857 0 -0.22100323620756679 0.46365436599870219 0 -0.2327745737764664 0.45155357128460849 0 -0.2312483009038698 0.47263826583406859 0 -0.23488978011482531 0.46888248591338239 0 -0.23129816831329389 0.46392281702579857 0 -0.2231833763186428 0.4691786336187691 0 -0.2312483009038698 0.47263826583406859 0 -0.23129816831329389 0.46392281702579857 0 -0.2231833763186428 0.4691786336187691 0 -0.23129816831329389 0.46392281702579857 0 -0.2231833763186428 0.4691786336187691 0 -0.23129816831329389 0.46392281702579857 0 -0.22100323620756679 0.46365436599870219 0 -0.2231833763186428 0.4691786336187691 0 -0.22100323620756679 0.46365436599870219 0 -0.2231833763186428 0.4691786336187691 0 -0.22100323620756679 0.46365436599870219 0 -0.2209831589267017 0.46705280260818161 0 -0.2231833763186428 0.4691786336187691 0 -0.2209831589267017 0.46705280260818161 0 -0.21819387438225851 0.46654235646934072 0 -0.22100323620756679 0.46365436599870219 0 -0.2209831589267017 0.46705280260818161 0 -0.21819387438225851 0.46654235646934072 0 -0.22100323620756679 0.46365436599870219 0 -0.21819387438225851 0.46654235646934072 0 -0.2209831589267017 0.46705280260818161 0 -0.21819387438225851 0.46654235646934072 0 -0.22100323620756679 0.46365436599870219 0 -0.2246431613007614 0.44370538353613098 0 -0.21101003259456269 0.43833253880987749 0 -0.22100323620756679 0.46365436599870219 0 -0.2327745737764664 0.45155357128460849 0 -0.2246431613007614 0.44370538353613098 0 -0.2327745737764664 0.45155357128460849 0 -0.2246431613007614 0.44370538353613098 0 -0.23465511725808119 0.43579847891241491 0 -0.2327745737764664 0.45155357128460849 0 -0.23465511725808119 0.43579847891241491 0 -0.22100323620756679 0.46365436599870219 0 -0.21101003259456269 0.43833253880987749 0 -0.21179367317574779 0.45647645885686111 0 -0.22100323620756679 0.46365436599870219 0 -0.21101003259456269 0.43833253880987749 0 -0.21101003259456269 0.43833253880987749 0 -0.20377766553260901 0.44351454105931221 0 -0.21179367317574779 0.45647645885686111 0 -0.21101003259456269 0.43833253880987749 0 -0.20377766553260901 0.44351454105931221 0 -0.20377766553260901 0.44351454105931221 0 -0.21179367317574779 0.45647645885686111 0 -0.20337299300993089 0.46383009762655131 0 -0.20377766553260901 0.44351454105931221 0 -0.20337299300993089 0.46383009762655131 0 -0.22100323620756679 0.46365436599870219 0 -0.21819387438225851 0.46654235646934072 0 -0.21179367317574779 0.45647645885686111 0 -0.21819387438225851 0.46654235646934072 0 -0.21179367317574779 0.45647645885686111 0 -0.20337299300993089 0.46383009762655131 0 -0.21819387438225851 0.46654235646934072 0 -0.20337299300993089 0.46383009762655131 0 -0.20337299300993089 0.46383009762655131 0 -0.19623902183178851 0.4544520114353594 0 -0.20051516821815921 0.44585212545974728 0 -0.20337299300993089 0.46383009762655131 0 -0.19467576059180239 0.46223848205786039 0 -0.20313235803842791 0.47591056541635762 0 -0.20337299300993089 0.46383009762655131 0 -0.19467576059180239 0.46223848205786039 0 -0.20337299300993089 0.46383009762655131 0 -0.19623902183178851 0.4544520114353594 0 -0.19467576059180239 0.46223848205786039 0 -0.19467576059180239 0.46223848205786039 0 -0.18862269814072019 0.45245227963688373 0 -0.19623902183178851 0.4544520114353594 0 -0.19467576059180239 0.46223848205786039 0 -0.18862269814072019 0.45245227963688373 0 -0.18449816443620831 0.46824027911932159 0 -0.19357521510708589 0.47228428142443862 0 -0.19467576059180239 0.46223848205786039 0 -0.20377766553260901 0.44351454105931221 0 -0.20337299300993089 0.46383009762655131 0 -0.20051516821815921 0.44585212545974728 0 -0.20377766553260901 0.44351454105931221 0 -0.19678485396909939 0.44277251349788882 0 -0.1959561059721672 0.43706985453919539 0 -0.19678485396909939 0.44277251349788882 0 -0.20051516821815921 0.44585212545974728 0 -0.1929870080971999 0.4472305280182437 0 -0.20377766553260901 0.44351454105931221 0 -0.19678485396909939 0.44277251349788882 0 -0.20051516821815921 0.44585212545974728 0 -0.20377766553260901 0.44351454105931221 0 -0.20051516821815921 0.44585212545974728 0 -0.19623902183178851 0.4544520114353594 0 -0.20051516821815921 0.44585212545974728 0 -0.1929870080971999 0.4472305280182437 0 -0.18315223149483401 0.44607518492651488 0 -0.1929870080971999 0.4472305280182437 0 -0.18862269814072019 0.45245227963688373 0 -0.19623902183178851 0.4544520114353594 0 -0.1929870080971999 0.4472305280182437 0 -0.18862269814072019 0.45245227963688373 0 -0.18315223149483401 0.44607518492651488 0 -0.1929870080971999 0.4472305280182437 0 -0.19068832202536251 0.4401955184129458 0 -0.19678485396909939 0.44277251349788882 0 -0.1929870080971999 0.4472305280182437 0 -0.19068832202536251 0.4401955184129458 0 -0.19678485396909939 0.44277251349788882 0 -0.19068832202536251 0.4401955184129458 0 -0.1959561059721672 0.43706985453919539 0 -0.19068832202536251 0.4401955184129458 0 -0.18968369473282751 0.43121728137407828 0 -0.1959561059721672 0.43706985453919539 0 -0.19068832202536251 0.4401955184129458 0 -0.18968369473282751 0.43121728137407828 0 -0.1822137837236649 0.43653078766584902 0 -0.18968369473282751 0.43121728137407828 0 -0.19805148097668501 0.4300818747166959 0 -0.1959561059721672 0.43706985453919539 0 -0.20377766553260901 0.44351454105931221 0 -0.19805148097668501 0.4300818747166959 0 -0.20422343254502889 0.42113593997041449 0 -0.18968369473282751 0.43121728137407828 0 -0.1934366741931948 0.42239406227451598 0 -0.1871034108899538 0.42490528297843883 0 -0.1934366741931948 0.42239406227451598 0 -0.18407172543391909 0.41839536844202158 0 -0.1871034108899538 0.42490528297843883 0 -0.18968369473282751 0.43121728137407828 0 -0.1934366741931948 0.42239406227451598 0 -0.19805148097668501 0.4300818747166959 0 -0.1934366741931948 0.42239406227451598 0 -0.19805148097668501 0.4300818747166959 0 -0.20422343254502889 0.42113593997041449 0 -0.20377766553260901 0.44351454105931221 0 -0.19805148097668501 0.4300818747166959 0 -0.1959561059721672 0.43706985453919539 0 -0.19180135020405231 0.41304686180635353 0 -0.1983824670458777 0.40633548911270401 0 -0.18867256025651291 0.40181004420432842 0 -0.1934366741931948 0.42239406227451598 0 -0.19180135020405231 0.41304686180635353 0 -0.18407172543391909 0.41839536844202158 0 -0.1983824670458777 0.40633548911270401 0 -0.2042835375567541 0.41811852045897308 0 -0.20422343254502889 0.42113593997041449 0 -0.1934366741931948 0.42239406227451598 0 -0.19180135020405231 0.41304686180635353 0 -0.20422343254502889 0.42113593997041449 0 -0.1983824670458777 0.40633548911270401 0 -0.20422343254502889 0.42113593997041449 0 -0.19180135020405231 0.41304686180635353 0 -0.1983824670458777 0.40633548911270401 0 -0.20422343254502889 0.42113593997041449 0 -0.1983824670458777 0.40633548911270401 0 -0.20735772026178401 0.40920976037325202 0 -0.2042835375567541 0.41811852045897308 0 -0.21057777313390019 0.41677234085982429 0 -0.20422343254502889 0.42113593997041449 0 -0.2136908783521255 0.42470843168077671 0 -0.20735772026178401 0.40920976037325202 0 -0.21057777313390019 0.41677234085982429 0 -0.2042835375567541 0.41811852045897308 0 -0.21057777313390019 0.41677234085982429 0 -0.2042835375567541 0.41811852045897308 0 -0.20422343254502889 0.42113593997041449 0 -0.2042835375567541 0.41811852045897308 0 -0.20422343254502889 0.42113593997041449 0 -0.21057777313390019 0.41677234085982429 0 -0.2136908783521255 0.42470843168077671 0 -0.21887030682000569 0.41811337608871513 0 -0.21057777313390019 0.41677234085982429 0 -0.21595674190496419 0.40635786823828818 0 -0.21887030682000569 0.41811337608871513 0 -0.20735772026178401 0.40920976037325202 0 -0.21057777313390019 0.41677234085982429 0 -0.21595674190496419 0.40635786823828818 0 -0.21101003259456269 0.43833253880987749 0 -0.20422343254502889 0.42113593997041449 0 -0.20377766553260901 0.44351454105931221 0 -0.20422343254502889 0.42113593997041449 0 -0.21101003259456269 0.43833253880987749 0 -0.20422343254502889 0.42113593997041449 0 -0.2136908783521255 0.42470843168077671 0 -0.21101003259456269 0.43833253880987749 0 -0.20377766553260901 0.44351454105931221 0 -0.20422343254502889 0.42113593997041449 0 -0.21101003259456269 0.43833253880987749 0 -0.2237728466671309 0.42918796267505149 0 -0.21101003259456269 0.43833253880987749 0 -0.2136908783521255 0.42470843168077671 0 -0.2237728466671309 0.42918796267505149 0 -0.2237728466671309 0.42918796267505149 0 -0.23653566073969581 0.42004338654022111 0 -0.23465511725808119 0.43579847891241491 0 -0.2246431613007614 0.44370538353613098 0 -0.21101003259456269 0.43833253880987749 0 -0.2237728466671309 0.42918796267505149 0 -0.2246431613007614 0.44370538353613098 0 -0.2237728466671309 0.42918796267505149 0 -0.23465511725808119 0.43579847891241491 0 -0.2237728466671309 0.42918796267505149 0 -0.23653566073969581 0.42004338654022111 0 -0.2237728466671309 0.42918796267505149 0 -0.2268836525306531 0.4178582563497793 0 -0.23653566073969581 0.42004338654022111 0 -0.2136908783521255 0.42470843168077671 0 -0.2237728466671309 0.42918796267505149 0 -0.21887030682000569 0.41811337608871513 0 -0.21887030682000569 0.41811337608871513 0 -0.22526363842119121 0.40928573225377579 0 -0.2268836525306531 0.4178582563497793 0 -0.2237728466671309 0.42918796267505149 0 -0.21887030682000569 0.41811337608871513 0 -0.2268836525306531 0.4178582563497793 0 -0.21595674190496419 0.40635786823828818 0 -0.21887030682000569 0.41811337608871513 0 -0.22526363842119121 0.40928573225377579 0 -0.23215934852406131 0.4110305528300412 0 -0.23820451124790659 0.40606184653899569 0 -0.23244858498933019 0.40219792238047147 0 -0.22526363842119121 0.40928573225377579 0 -0.23215934852406131 0.4110305528300412 0 -0.2268836525306531 0.4178582563497793 0 -0.22526363842119121 0.40928573225377579 0 -0.23215934852406131 0.4110305528300412 0 -0.23244858498933019 0.40219792238047147 0 -0.23215934852406131 0.4110305528300412 0 -0.2268836525306531 0.4178582563497793 0 -0.23653566073969581 0.42004338654022111 0 -0.25978981881287472 0.40274904928575922 0 -0.23653566073969581 0.42004338654022111 0 -0.25978981881287472 0.40274904928575922 0 -0.23653566073969581 0.42004338654022111 0 -0.23820451124790659 0.40606184653899569 0 -0.25978981881287472 0.40274904928575922 0 -0.2518299334140468 0.41996441296360842 0 -0.23653566073969581 0.42004338654022111 0 -0.23215934852406131 0.4110305528300412 0 -0.23653566073969581 0.42004338654022111 0 -0.23820451124790659 0.40606184653899569 0 -0.23653566073969581 0.42004338654022111 0 -0.23820451124790659 0.40606184653899569 0 -0.23215934852406131 0.4110305528300412 0 -0.23820451124790659 0.40606184653899569 0 -0.2518299334140468 0.41996441296360842 0 -0.23653566073969581 0.42004338654022111 0 -0.2478775639996767 0.43602787735303022 0 -0.23653566073969581 0.42004338654022111 0 -0.23465511725808119 0.43579847891241491 0 -0.23653566073969581 0.42004338654022111 0 -0.2478775639996767 0.43602787735303022 0 -0.23465511725808119 0.43579847891241491 0 -0.2405405859788288 0.38649033780556008 0 -0.22586163257625891 0.38591428848175652 0 -0.2367744974747035 0.3708953976905594 0 -0.25207376591612241 0.37475543941028922 0 -0.25064852575760788 0.38469994987524803 0 -0.2405405859788288 0.38649033780556008 0 -0.25207376591612241 0.37475543941028922 0 -0.2405405859788288 0.38649033780556008 0 -0.2367744974747035 0.3708953976905594 0 -0.2517814801222712 0.39490251572507368 0 -0.25064852575760788 0.38469994987524803 0 -0.2405405859788288 0.38649033780556008 0 -0.25978981881287472 0.40274904928575922 0 -0.2517814801222712 0.39490251572507368 0 -0.23820451124790659 0.40606184653899569 0 -0.2517814801222712 0.39490251572507368 0 -0.2405405859788288 0.38649033780556008 0 -0.23820451124790659 0.40606184653899569 0 -0.2405405859788288 0.38649033780556008 0 -0.23820451124790659 0.40606184653899569 0 -0.2405405859788288 0.38649033780556008 0 -0.23820451124790659 0.40606184653899569 0 -0.23244858498933019 0.40219792238047147 0 -0.2517814801222712 0.39490251572507368 0 -0.23820451124790659 0.40606184653899569 0 -0.2405405859788288 0.38649033780556008 0 -0.23244858498933019 0.40219792238047147 0 -0.22607484077466319 0.39812114247398461 0 -0.22526363842119121 0.40928573225377579 0 -0.23244858498933019 0.40219792238047147 0 -0.22607484077466319 0.39812114247398461 0 -0.21595674190496419 0.40635786823828818 0 -0.22526363842119121 0.40928573225377579 0 -0.22607484077466319 0.39812114247398461 0 -0.21595674190496419 0.40635786823828818 0 -0.22607484077466319 0.39812114247398461 0 -0.21778417312926451 0.39606560655835188 0 -0.22607484077466319 0.39812114247398461 0 -0.22586163257625891 0.38591428848175652 0 -0.21778417312926451 0.39606560655835188 0 -0.22586163257625891 0.38591428848175652 0 -0.21940001974791709 0.37519778804569109 0 -0.21102711482777459 0.38910018345532049 0 -0.22586163257625891 0.38591428848175652 0 -0.21940001974791709 0.37519778804569109 0 -0.2367744974747035 0.3708953976905594 0 -0.2405405859788288 0.38649033780556008 0 -0.22607484077466319 0.39812114247398461 0 -0.22586163257625891 0.38591428848175652 0 -0.21940001974791709 0.37519778804569109 0 -0.1958669187474586 0.37589616792583641 0 -0.21940001974791709 0.37519778804569109 0 -0.21102711482777459 0.38910018345532049 0 -0.20385355333181629 0.38231752022672422 0 -0.21940001974791709 0.37519778804569109 0 -0.20385355333181629 0.38231752022672422 0 -0.1958669187474586 0.37589616792583641 0 -0.22586163257625891 0.38591428848175652 0 -0.21102711482777459 0.38910018345532049 0 -0.21778417312926451 0.39606560655835188 0 -0.21102711482777459 0.38910018345532049 0 -0.20385355333181629 0.38231752022672422 0 -0.2005982233636481 0.38834601974443972 0 -0.21595674190496419 0.40635786823828818 0 -0.21778417312926451 0.39606560655835188 0 -0.20866141383211709 0.40060352752766393 0 -0.21102711482777459 0.38910018345532049 0 -0.21778417312926451 0.39606560655835188 0 -0.20866141383211709 0.40060352752766393 0 -0.21102711482777459 0.38910018345532049 0 -0.20181493719413271 0.39561307801374751 0 -0.2005982233636481 0.38834601974443972 0 -0.21102711482777459 0.38910018345532049 0 -0.20866141383211709 0.40060352752766393 0 -0.20181493719413271 0.39561307801374751 0 -0.1983824670458777 0.40633548911270401 0 -0.20735772026178401 0.40920976037325202 0 -0.20866141383211709 0.40060352752766393 0 -0.20735772026178401 0.40920976037325202 0 -0.21595674190496419 0.40635786823828818 0 -0.20866141383211709 0.40060352752766393 0 -0.1983824670458777 0.40633548911270401 0 -0.20866141383211709 0.40060352752766393 0 -0.20181493719413271 0.39561307801374751 0 -0.1983824670458777 0.40633548911270401 0 -0.19254150154672681 0.39153503825499342 0 -0.20181493719413271 0.39561307801374751 0 -0.19254150154672681 0.39153503825499342 0 -0.2005982233636481 0.38834601974443972 0 -0.1983824670458777 0.40633548911270401 0 -0.20181493719413271 0.39561307801374751 0 -0.19254150154672681 0.39153503825499342 0 -0.19254150154672681 0.39153503825499342 0 -0.18867256025651291 0.40181004420432842 0 -0.18303769885073101 0.39627328402172929 0 -0.1983824670458777 0.40633548911270401 0 -0.19254150154672681 0.39153503825499342 0 -0.18867256025651291 0.40181004420432842 0 -0.20385355333181629 0.38231752022672422 0 -0.1958669187474586 0.37589616792583641 0 -0.19375400991779021 0.38316427877141312 0 -0.20385355333181629 0.38231752022672422 0 -0.2005982233636481 0.38834601974443972 0 -0.19375400991779021 0.38316427877141312 0 -0.19254150154672681 0.39153503825499342 0 -0.2005982233636481 0.38834601974443972 0 -0.19375400991779021 0.38316427877141312 0 -0.19254150154672681 0.39153503825499342 0 -0.19375400991779021 0.38316427877141312 0 -0.18304776420859681 0.38602022499877869 0 -0.1958669187474586 0.37589616792583641 0 -0.19375400991779021 0.38316427877141312 0 -0.18304776420859681 0.38602022499877869 0 -0.1958669187474586 0.37589616792583641 0 -0.19375400991779021 0.38316427877141312 0 -0.18304776420859681 0.38602022499877869 0 -0.1668383770042314 0.37675763320841932 0 -0.17037579849534151 0.3961088544862903 0 -0.1958669187474586 0.37589616792583641 0 -0.18304776420859681 0.38602022499877869 0 -0.1668383770042314 0.37675763320841932 0 -0.1958669187474586 0.37589616792583641 0 -0.1668383770042314 0.37675763320841932 0 -0.1668383770042314 0.37675763320841932 0 -0.17037579849534151 0.3961088544862903 0 -0.15300147296913111 0.39036598132963402 0 -0.17037579849534151 0.3961088544862903 0 -0.15828345579693431 0.40896623608666882 0 -0.15300147296913111 0.39036598132963402 0 -0.17037579849534151 0.3961088544862903 0 -0.17074809084545209 0.41293747295945682 0 -0.15828345579693431 0.40896623608666882 0 -0.17037579849534151 0.3961088544862903 0 -0.18055086974647699 0.40589225816425561 0 -0.17074809084545209 0.41293747295945682 0 -0.17037579849534151 0.3961088544862903 0 -0.18303769885073101 0.39627328402172929 0 -0.18055086974647699 0.40589225816425561 0 -0.18304776420859681 0.38602022499877869 0 -0.17037579849534151 0.3961088544862903 0 -0.18303769885073101 0.39627328402172929 0 -0.19254150154672681 0.39153503825499342 0 -0.18304776420859681 0.38602022499877869 0 -0.18303769885073101 0.39627328402172929 0 -0.18867256025651291 0.40181004420432842 0 -0.18303769885073101 0.39627328402172929 0 -0.18055086974647699 0.40589225816425561 0 -0.19180135020405231 0.41304686180635353 0 -0.18867256025651291 0.40181004420432842 0 -0.18055086974647699 0.40589225816425561 0 -0.19180135020405231 0.41304686180635353 0 -0.18055086974647699 0.40589225816425561 0 -0.18407172543391909 0.41839536844202158 0 -0.18407172543391909 0.41839536844202158 0 -0.17167535648701729 0.42477455418688231 0 -0.17074809084545209 0.41293747295945682 0 -0.18055086974647699 0.40589225816425561 0 -0.18407172543391909 0.41839536844202158 0 -0.17074809084545209 0.41293747295945682 0 -0.18968369473282751 0.43121728137407828 0 -0.1822137837236649 0.43653078766584902 0 -0.18122154919987399 0.42761441982313941 0 -0.18407172543391909 0.41839536844202158 0 -0.18122154919987399 0.42761441982313941 0 -0.1871034108899538 0.42490528297843883 0 -0.18968369473282751 0.43121728137407828 0 -0.18122154919987399 0.42761441982313941 0 -0.1871034108899538 0.42490528297843883 0 -0.18407172543391909 0.41839536844202158 0 -0.18122154919987399 0.42761441982313941 0 -0.17167535648701729 0.42477455418688231 0 -0.18122154919987399 0.42761441982313941 0 -0.17504857329839901 0.43275861270303012 0 -0.17167535648701729 0.42477455418688231 0 -0.1822137837236649 0.43653078766584902 0 -0.18122154919987399 0.42761441982313941 0 -0.17504857329839901 0.43275861270303012 0 -0.1736161744262894 0.44217550981888187 0 -0.17504857329839901 0.43275861270303012 0 -0.16729889150648281 0.43435965771143392 0 -0.1736161744262894 0.44217550981888187 0 -0.1822137837236649 0.43653078766584902 0 -0.17504857329839901 0.43275861270303012 0 -0.17504857329839901 0.43275861270303012 0 -0.16729889150648281 0.43435965771143392 0 -0.17167535648701729 0.42477455418688231 0 -0.16729889150648281 0.43435965771143392 0 -0.17167535648701729 0.42477455418688231 0 -0.16204132650814901 0.42228574621133491 0 -0.16729889150648281 0.43435965771143392 0 -0.16204132650814901 0.42228574621133491 0 -0.15433433358722209 0.43133910227448807 0 -0.15847898142472011 0.43872288433626788 0 -0.16729889150648281 0.43435965771143392 0 -0.15433433358722209 0.43133910227448807 0 -0.17167535648701729 0.42477455418688231 0 -0.16204132650814901 0.42228574621133491 0 -0.17074809084545209 0.41293747295945682 0 -0.16204132650814901 0.42228574621133491 0 -0.17074809084545209 0.41293747295945682 0 -0.15828345579693431 0.40896623608666882 0 -0.16204132650814901 0.42228574621133491 0 -0.15828345579693431 0.40896623608666882 0 -0.15026575271497969 0.41893138449417339 0 -0.15828345579693431 0.40896623608666882 0 -0.15026575271497969 0.41893138449417339 0 -0.1419054666834583 0.4039637388268994 0 -0.15026575271497969 0.41893138449417339 0 -0.140878277921867 0.41882558978140699 0 -0.1419054666834583 0.4039637388268994 0 -0.15433433358722209 0.43133910227448807 0 -0.1441516557922477 0.42820789378424268 0 -0.14690829342226269 0.43487464608378712 0 -0.1511481773586158 0.43896487449238369 0 -0.15433433358722209 0.43133910227448807 0 -0.14690829342226269 0.43487464608378712 0 -0.1511481773586158 0.43896487449238369 0 -0.15847898142472011 0.43872288433626788 0 -0.15433433358722209 0.43133910227448807 0 -0.16204132650814901 0.42228574621133491 0 -0.15026575271497969 0.41893138449417339 0 -0.15433433358722209 0.43133910227448807 0 -0.15026575271497969 0.41893138449417339 0 -0.15433433358722209 0.43133910227448807 0 -0.1441516557922477 0.42820789378424268 0 -0.15026575271497969 0.41893138449417339 0 -0.140878277921867 0.41882558978140699 0 -0.1441516557922477 0.42820789378424268 0 -0.1441516557922477 0.42820789378424268 0 -0.14690829342226269 0.43487464608378712 0 -0.13995312146935249 0.43618282804812081 0 -0.1449541789038758 0.43967853181970051 0 -0.14690829342226269 0.43487464608378712 0 -0.13995312146935249 0.43618282804812081 0 -0.1441516557922477 0.42820789378424268 0 -0.13995312146935249 0.43618282804812081 0 -0.13326097338784809 0.42716341172911848 0 -0.132912812236476 0.43527140001113562 0 -0.13995312146935249 0.43618282804812081 0 -0.13326097338784809 0.42716341172911848 0 -0.13393562983705831 0.44040169697121079 0 -0.132912812236476 0.43527140001113562 0 -0.13995312146935249 0.43618282804812081 0 -0.140878277921867 0.41882558978140699 0 -0.1441516557922477 0.42820789378424268 0 -0.13326097338784809 0.42716341172911848 0 -0.13326097338784809 0.42716341172911848 0 -0.12978557415322589 0.41426576889006111 0 -0.1227193297556799 0.42476817897396668 0 -0.13326097338784809 0.42716341172911848 0 -0.12582028798773601 0.43557595697160212 0 -0.1227193297556799 0.42476817897396668 0 -0.132912812236476 0.43527140001113562 0 -0.13326097338784809 0.42716341172911848 0 -0.12582028798773601 0.43557595697160212 0 -0.12958539990051529 0.43975039999026672 0 -0.132912812236476 0.43527140001113562 0 -0.12582028798773601 0.43557595697160212 0 -0.140878277921867 0.41882558978140699 0 -0.12978557415322589 0.41426576889006111 0 -0.1419054666834583 0.4039637388268994 0 -0.140878277921867 0.41882558978140699 0 -0.13326097338784809 0.42716341172911848 0 -0.12978557415322589 0.41426576889006111 0 -0.13780983526100399 0.37761909849100239 0 -0.1419054666834583 0.4039637388268994 0 -0.1247521518573156 0.39928047957912749 0 -0.12978557415322589 0.41426576889006111 0 -0.1419054666834583 0.4039637388268994 0 -0.1247521518573156 0.39928047957912749 0 -0.13780983526100399 0.37761909849100239 0 -0.11916959206772031 0.38337544894601627 0 -0.1247521518573156 0.39928047957912749 0 -0.1668383770042314 0.37675763320841932 0 -0.13780983526100399 0.37761909849100239 0 -0.1668383770042314 0.37675763320841932 0 -0.13780983526100399 0.37761909849100239 0 -0.15300147296913111 0.39036598132963402 0 -0.13780983526100399 0.37761909849100239 0 -0.15300147296913111 0.39036598132963402 0 -0.1419054666834583 0.4039637388268994 0 -0.15828345579693431 0.40896623608666882 0 -0.15300147296913111 0.39036598132963402 0 -0.1419054666834583 0.4039637388268994 0 -0.15106532664544639 0.3604062938787761 0 -0.13318469579337719 0.3514936482335298 0 -0.15493664822140221 0.34260344582229979 0 -0.1668383770042314 0.37675763320841932 0 -0.13780983526100399 0.37761909849100239 0 -0.15106532664544639 0.3604062938787761 0 -0.13780983526100399 0.37761909849100239 0 -0.15106532664544639 0.3604062938787761 0 -0.13318469579337719 0.3514936482335298 0 -0.13780983526100399 0.37761909849100239 0 -0.13318469579337719 0.3514936482335298 0 -0.1108752042995866 0.36493926216963751 0 -0.13318469579337719 0.3514936482335298 0 -0.13831219433664821 0.33161104637173239 0 -0.1172582106311677 0.34431557716721062 0 -0.13831219433664821 0.33161104637173239 0 -0.13253179364574719 0.31282949071043931 0 -0.15045161757297729 0.31615807679644048 0 -0.13831219433664821 0.33161104637173239 0 -0.13253179364574719 0.31282949071043931 0 -0.1160963406131106 0.32766670265155762 0 -0.13831219433664821 0.33161104637173239 0 -0.15045161757297729 0.31615807679644048 0 -0.1555111526406977 0.32915883480520702 0 -0.13318469579337719 0.3514936482335298 0 -0.13831219433664821 0.33161104637173239 0 -0.15493664822140221 0.34260344582229979 0 -0.13831219433664821 0.33161104637173239 0 -0.1555111526406977 0.32915883480520702 0 -0.15493664822140221 0.34260344582229979 0 -0.15493664822140221 0.34260344582229979 0 -0.16994690125192519 0.33103620750514412 0 -0.17217536721272581 0.35002885398903782 0 -0.1555111526406977 0.32915883480520702 0 -0.15493664822140221 0.34260344582229979 0 -0.16994690125192519 0.33103620750514412 0 -0.15045161757297729 0.31615807679644048 0 -0.1555111526406977 0.32915883480520702 0 -0.16814297346184071 0.3117745278086424 0 -0.1555111526406977 0.32915883480520702 0 -0.16994690125192519 0.33103620750514412 0 -0.16814297346184071 0.3117745278086424 0 -0.16994690125192519 0.33103620750514412 0 -0.18731870024529571 0.32555677684796819 0 -0.16814297346184071 0.3117745278086424 0 -0.18731870024529571 0.32555677684796819 0 -0.16814297346184071 0.3117745278086424 0 -0.18731870024529571 0.32555677684796819 0 -0.18764608293861029 0.31326390200387261 0 -0.16814297346184071 0.3117745278086424 0 -0.16994690125192519 0.33103620750514412 0 -0.18731870024529571 0.32555677684796819 0 -0.17998715596143849 0.33675684090721841 0 -0.18731870024529571 0.32555677684796819 0 -0.17998715596143849 0.33675684090721841 0 -0.18896120454558091 0.34595306227004918 0 -0.16994690125192519 0.33103620750514412 0 -0.17998715596143849 0.33675684090721841 0 -0.17217536721272581 0.35002885398903782 0 -0.17217536721272581 0.35002885398903782 0 -0.182683583674702 0.36215198235178819 0 -0.18896120454558091 0.34595306227004918 0 -0.17998715596143849 0.33675684090721841 0 -0.17217536721272581 0.35002885398903782 0 -0.18896120454558091 0.34595306227004918 0 -0.15106532664544639 0.3604062938787761 0 -0.15493664822140221 0.34260344582229979 0 -0.17217536721272581 0.35002885398903782 0 -0.1668383770042314 0.37675763320841932 0 -0.15106532664544639 0.3604062938787761 0 -0.17217536721272581 0.35002885398903782 0 -0.1958669187474586 0.37589616792583641 0 -0.1668383770042314 0.37675763320841932 0 -0.182683583674702 0.36215198235178819 0 -0.1668383770042314 0.37675763320841932 0 -0.17217536721272581 0.35002885398903782 0 -0.182683583674702 0.36215198235178819 0 -0.1958669187474586 0.37589616792583641 0 -0.182683583674702 0.36215198235178819 0 -0.19324022449944339 0.36522089806925051 0 -0.1958669187474586 0.37589616792583641 0 -0.20118067288810551 0.35761759690656492 0 -0.1958669187474586 0.37589616792583641 0 -0.19324022449944339 0.36522089806925051 0 -0.20118067288810551 0.35761759690656492 0 -0.1958669187474586 0.37589616792583641 0 -0.20118067288810551 0.35761759690656492 0 -0.2080578303445326 0.36707894866537338 0 -0.19324022449944339 0.36522089806925051 0 -0.18896120454558091 0.34595306227004918 0 -0.20118067288810551 0.35761759690656492 0 -0.18896120454558091 0.34595306227004918 0 -0.20118067288810551 0.35761759690656492 0 -0.2064944270287512 0.33933902588729309 0 -0.182683583674702 0.36215198235178819 0 -0.19324022449944339 0.36522089806925051 0 -0.18896120454558091 0.34595306227004918 0 -0.20118067288810551 0.35761759690656492 0 -0.2064944270287512 0.33933902588729309 0 -0.20118067288810551 0.35761759690656492 0 -0.2154926198005877 0.3458063340152091 0 -0.2064944270287512 0.33933902588729309 0 -0.20118067288810551 0.35761759690656492 0 -0.2154926198005877 0.3458063340152091 0 -0.21578370999464941 0.35960424178340111 0 -0.2154926198005877 0.3458063340152091 0 -0.21578370999464941 0.35960424178340111 0 -0.22492832379853581 0.3480876822095923 0 -0.21940001974791709 0.37519778804569109 0 -0.1958669187474586 0.37589616792583641 0 -0.2080578303445326 0.36707894866537338 0 -0.20118067288810551 0.35761759690656492 0 -0.2080578303445326 0.36707894866537338 0 -0.21578370999464941 0.35960424178340111 0 -0.21940001974791709 0.37519778804569109 0 -0.2080578303445326 0.36707894866537338 0 -0.21578370999464941 0.35960424178340111 0 -0.2272870924982546 0.3618655461126527 0 -0.23685146514321151 0.35458463885641911 0 -0.2367744974747035 0.3708953976905594 0 -0.21940001974791709 0.37519778804569109 0 -0.2272870924982546 0.3618655461126527 0 -0.2367744974747035 0.3708953976905594 0 -0.21940001974791709 0.37519778804569109 0 -0.21578370999464941 0.35960424178340111 0 -0.2272870924982546 0.3618655461126527 0 -0.21578370999464941 0.35960424178340111 0 -0.2272870924982546 0.3618655461126527 0 -0.22492832379853581 0.3480876822095923 0 -0.22492832379853581 0.3480876822095923 0 -0.23685146514321151 0.35458463885641911 0 -0.23261966461080691 0.34099854669676322 0 -0.2272870924982546 0.3618655461126527 0 -0.22492832379853581 0.3480876822095923 0 -0.23685146514321151 0.35458463885641911 0 -0.23685146514321151 0.35458463885641911 0 -0.24531804091642909 0.34677646153151481 0 -0.23261966461080691 0.34099854669676322 0 -0.23685146514321151 0.35458463885641911 0 -0.24531804091642909 0.34677646153151481 0 -0.24781565924486029 0.35925588195421643 0 -0.23685146514321151 0.35458463885641911 0 -0.24781565924486029 0.35925588195421643 0 -0.2367744974747035 0.3708953976905594 0 -0.25207376591612241 0.37475543941028922 0 -0.24781565924486029 0.35925588195421643 0 -0.2367744974747035 0.3708953976905594 0 -0.2386891688545518 0.32541161853814132 0 -0.23206029679267459 0.304046775544768 0 -0.24724126437382779 0.31100423139068861 0 -0.2386891688545518 0.32541161853814132 0 -0.23206029679267459 0.304046775544768 0 -0.25635578808319709 0.33248488659275199 0 -0.2386891688545518 0.32541161853814132 0 -0.24724126437382779 0.31100423139068861 0 -0.24531804091642909 0.34677646153151481 0 -0.2386891688545518 0.32541161853814132 0 -0.23261966461080691 0.34099854669676322 0 -0.24531804091642909 0.34677646153151481 0 -0.2386891688545518 0.32541161853814132 0 -0.25635578808319709 0.33248488659275199 0 -0.24531804091642909 0.34677646153151481 0 -0.2386891688545518 0.32541161853814132 0 -0.2386891688545518 0.32541161853814132 0 -0.23261966461080691 0.34099854669676322 0 -0.2224775869731016 0.33372414401907369 0 -0.22492832379853581 0.3480876822095923 0 -0.23261966461080691 0.34099854669676322 0 -0.2224775869731016 0.33372414401907369 0 -0.2154926198005877 0.3458063340152091 0 -0.22492832379853581 0.3480876822095923 0 -0.2224775869731016 0.33372414401907369 0 -0.2224775869731016 0.33372414401907369 0 -0.22621333204474489 0.31709296688604999 0 -0.21240438453927979 0.31900959866544282 0 -0.2386891688545518 0.32541161853814132 0 -0.22621333204474489 0.31709296688604999 0 -0.23206029679267459 0.304046775544768 0 -0.2386891688545518 0.32541161853814132 0 -0.2224775869731016 0.33372414401907369 0 -0.22621333204474489 0.31709296688604999 0 -0.21240438453927979 0.31900959866544282 0 -0.2064944270287512 0.33933902588729309 0 -0.20121812214341939 0.32490128929293371 0 -0.21240438453927979 0.31900959866544282 0 -0.1982759822545534 0.31535376373388191 0 -0.20121812214341939 0.32490128929293371 0 -0.21240438453927979 0.31900959866544282 0 -0.1982759822545534 0.31535376373388191 0 -0.20403268621352169 0.30355726673911732 0 -0.21240438453927979 0.31900959866544282 0 -0.2064944270287512 0.33933902588729309 0 -0.2154926198005877 0.3458063340152091 0 -0.2224775869731016 0.33372414401907369 0 -0.2064944270287512 0.33933902588729309 0 -0.2224775869731016 0.33372414401907369 0 -0.21240438453927979 0.31900959866544282 0 -0.2064944270287512 0.33933902588729309 0 -0.2154926198005877 0.3458063340152091 0 -0.2064944270287512 0.33933902588729309 0 -0.18731870024529571 0.32555677684796819 0 -0.18896120454558091 0.34595306227004918 0 -0.2064944270287512 0.33933902588729309 0 -0.18731870024529571 0.32555677684796819 0 -0.2064944270287512 0.33933902588729309 0 -0.18731870024529571 0.32555677684796819 0 -0.2064944270287512 0.33933902588729309 0 -0.20121812214341939 0.32490128929293371 0 -0.18731870024529571 0.32555677684796819 0 -0.1982759822545534 0.31535376373388191 0 -0.20121812214341939 0.32490128929293371 0 -0.18731870024529571 0.32555677684796819 0 -0.1982759822545534 0.31535376373388191 0 -0.18764608293861029 0.31326390200387261 0 -0.1982759822545534 0.31535376373388191 0 -0.18764608293861029 0.31326390200387261 0 -0.19057421272114619 0.29993472301738672 0 -0.1982759822545534 0.31535376373388191 0 -0.19057421272114619 0.29993472301738672 0 -0.20403268621352169 0.30355726673911732 0 -0.19057421272114619 0.29993472301738672 0 -0.2001597999871533 0.28343023632764702 0 -0.20403268621352169 0.30355726673911732 0 -0.2001597999871533 0.28343023632764702 0 -0.19864896352875491 0.27856081308021829 0 -0.1748881752435085 0.28417854010389948 0 -0.2001597999871533 0.28343023632764702 0 -0.1748881752435085 0.28417854010389948 0 -0.19057421272114619 0.29993472301738672 0 -0.2001597999871533 0.28343023632764702 0 -0.1748881752435085 0.28417854010389948 0 -0.2001597999871533 0.28343023632764702 0 -0.22543142473079811 0.2826819325513944 0 -0.2001597999871533 0.28343023632764702 0 -0.2183143420498081 0.29868017144359232 0 -0.20403268621352169 0.30355726673911732 0 -0.2001597999871533 0.28343023632764702 0 -0.2183143420498081 0.29868017144359232 0 -0.22543142473079811 0.2826819325513944 0 -0.21240438453927979 0.31900959866544282 0 -0.2183143420498081 0.29868017144359232 0 -0.21240438453927979 0.31900959866544282 0 -0.2183143420498081 0.29868017144359232 0 -0.20403268621352169 0.30355726673911732 0 -0.22621333204474489 0.31709296688604999 0 -0.21240438453927979 0.31900959866544282 0 -0.2183143420498081 0.29868017144359232 0 -0.22621333204474489 0.31709296688604999 0 -0.2183143420498081 0.29868017144359232 0 -0.23206029679267459 0.304046775544768 0 -0.2183143420498081 0.29868017144359232 0 -0.23206029679267459 0.304046775544768 0 -0.22543142473079811 0.2826819325513944 0 -0.23206029679267459 0.304046775544768 0 -0.22543142473079811 0.2826819325513944 0 -0.23932070999576571 0.29388648509867482 0 -0.23206029679267459 0.304046775544768 0 -0.22543142473079811 0.2826819325513944 0 -0.22543142473079811 0.2826819325513944 0 -0.24357244021055369 0.28214476921004727 0 -0.22543142473079811 0.2826819325513944 0 -0.23932070999576571 0.29388648509867482 0 -0.24357244021055369 0.28214476921004727 0 -0.25176489436465621 0.29492925891002708 0 -0.23932070999576571 0.29388648509867482 0 -0.24357244021055369 0.28214476921004727 0 -0.25176489436465621 0.29492925891002708 0 -0.23932070999576571 0.29388648509867482 0 -0.24724126437382779 0.31100423139068861 0 -0.23206029679267459 0.304046775544768 0 -0.23932070999576571 0.29388648509867482 0 -0.24724126437382779 0.31100423139068861 0 -0.25265335745042522 0.25109173675386448 0 -0.24282897534573911 0.25765759540843941 0 -0.24907532666845869 0.26731703869254703 0 -0.23910839462952951 0.26496549555304938 0 -0.24282897534573911 0.25765759540843941 0 -0.2314953657357702 0.25921239392308237 0 -0.24282897534573911 0.25765759540843941 0 -0.2314953657357702 0.25921239392308237 0 -0.23934874357292579 0.2480449370432222 0 -0.25265335745042522 0.25109173675386448 0 -0.24282897534573911 0.25765759540843941 0 -0.23934874357292579 0.2480449370432222 0 -0.23910839462952951 0.26496549555304938 0 -0.24282897534573911 0.25765759540843941 0 -0.24907532666845869 0.26731703869254703 0 -0.22543142473079811 0.2826819325513944 0 -0.24357244021055369 0.28214476921004727 0 -0.24055658283113199 0.27315700544285632 0 -0.23910839462952951 0.26496549555304938 0 -0.24907532666845869 0.26731703869254703 0 -0.24055658283113199 0.27315700544285632 0 -0.24357244021055369 0.28214476921004727 0 -0.24907532666845869 0.26731703869254703 0 -0.24055658283113199 0.27315700544285632 0 -0.23910839462952951 0.26496549555304938 0 -0.24055658283113199 0.27315700544285632 0 -0.23136756811449349 0.27082520317738668 0 -0.23136756811449349 0.27082520317738668 0 -0.22240975181400141 0.27294308605653722 0 -0.2314953657357702 0.25921239392308237 0 -0.23136756811449349 0.27082520317738668 0 -0.22240975181400141 0.27294308605653722 0 -0.22543142473079811 0.2826819325513944 0 -0.24055658283113199 0.27315700544285632 0 -0.23136756811449349 0.27082520317738668 0 -0.22543142473079811 0.2826819325513944 0 -0.22240975181400141 0.27294308605653722 0 -0.22543142473079811 0.2826819325513944 0 -0.23136756811449349 0.27082520317738668 0 -0.22240975181400141 0.27294308605653722 0 -0.22240975181400141 0.27294308605653722 0 -0.2314953657357702 0.25921239392308237 0 -0.21756598056284651 0.25733161983562519 0 -0.22240975181400141 0.27294308605653722 0 -0.21756598056284651 0.25733161983562519 0 -0.23910839462952951 0.26496549555304938 0 -0.23136756811449349 0.27082520317738668 0 -0.2314953657357702 0.25921239392308237 0 -0.2314953657357702 0.25921239392308237 0 -0.22830434625702359 0.2468110332162354 0 -0.23934874357292579 0.2480449370432222 0 -0.2314953657357702 0.25921239392308237 0 -0.21756598056284651 0.25733161983562519 0 -0.22830434625702359 0.2468110332162354 0 -0.22240975181400141 0.27294308605653722 0 -0.21756598056284651 0.25733161983562519 0 -0.2049875981954172 0.26500710788335319 0 -0.21756598056284651 0.25733161983562519 0 -0.2049875981954172 0.26500710788335319 0 -0.2021388689083978 0.24999125155618579 0 -0.2001597999871533 0.28343023632764702 0 -0.22543142473079811 0.2826819325513944 0 -0.22240975181400141 0.27294308605653722 0 -0.22240975181400141 0.27294308605653722 0 -0.2049875981954172 0.26500710788335319 0 -0.19864896352875491 0.27856081308021829 0 -0.2001597999871533 0.28343023632764702 0 -0.22240975181400141 0.27294308605653722 0 -0.19864896352875491 0.27856081308021829 0 -0.22240975181400141 0.27294308605653722 0 -0.19864896352875491 0.27856081308021829 0 -0.2049875981954172 0.26500710788335319 0 -0.19864896352875491 0.27856081308021829 0 -0.1841744261630856 0.26620876888819961 0 -0.18897318159134591 0.25305656382600289 0 -0.1841744261630856 0.26620876888819961 0 -0.2021388689083978 0.24999125155618579 0 -0.1841744261630856 0.26620876888819961 0 -0.2021388689083978 0.24999125155618579 0 -0.2049875981954172 0.26500710788335319 0 -0.1841744261630856 0.26620876888819961 0 -0.2021388689083978 0.24999125155618579 0 -0.18897318159134591 0.25305656382600289 0 -0.1727055712125449 0.25050919978384217 0 -0.1841744261630856 0.26620876888819961 0 -0.1727055712125449 0.25050919978384217 0 -0.16690448961647231 0.26280236223432879 0 -0.1841744261630856 0.26620876888819961 0 -0.16690448961647231 0.26280236223432879 0 -0.15772669448088769 0.25199779342224932 0 -0.1593883814275035 0.2726128432008702 0 -0.1727055712125449 0.25050919978384217 0 -0.16690448961647231 0.26280236223432879 0 -0.15772669448088769 0.25199779342224932 0 -0.15772669448088769 0.25199779342224932 0 -0.1593883814275035 0.2726128432008702 0 -0.16690448961647231 0.26280236223432879 0 -0.1593883814275035 0.2726128432008702 0 -0.16620998341777291 0.28242628622021287 0 -0.1593883814275035 0.2726128432008702 0 -0.16035532700687211 0.28460886404727531 0 -0.15321481579874721 0.27664994172602242 0 -0.1593883814275035 0.2726128432008702 0 -0.16620998341777291 0.28242628622021287 0 -0.16035532700687211 0.28460886404727531 0 -0.1593883814275035 0.2726128432008702 0 -0.16620998341777291 0.28242628622021287 0 -0.1593883814275035 0.2726128432008702 0 -0.16035532700687211 0.28460886404727531 0 -0.1841744261630856 0.26620876888819961 0 -0.1748881752435085 0.28417854010389948 0 -0.16620998341777291 0.28242628622021287 0 -0.16690448961647231 0.26280236223432879 0 -0.1841744261630856 0.26620876888819961 0 -0.16620998341777291 0.28242628622021287 0 -0.19864896352875491 0.27856081308021829 0 -0.1841744261630856 0.26620876888819961 0 -0.1748881752435085 0.28417854010389948 0 -0.1841744261630856 0.26620876888819961 0 -0.16620998341777291 0.28242628622021287 0 -0.19057421272114619 0.29993472301738672 0 -0.1748881752435085 0.28417854010389948 0 -0.17806355518373251 0.29947863715875278 0 -0.19864896352875491 0.27856081308021829 0 -0.1748881752435085 0.28417854010389948 0 -0.17806355518373251 0.29947863715875278 0 -0.1675784805035343 0.28439498333747321 0 -0.1748881752435085 0.28417854010389948 0 -0.17806355518373251 0.29947863715875278 0 -0.1675784805035343 0.28439498333747321 0 -0.17806355518373251 0.29947863715875278 0 -0.16814297346184071 0.3117745278086424 0 -0.16951154959685019 0.29520020273779313 0 -0.18764608293861029 0.31326390200387261 0 -0.17806355518373251 0.29947863715875278 0 -0.16814297346184071 0.3117745278086424 0 -0.18764608293861029 0.31326390200387261 0 -0.17806355518373251 0.29947863715875278 0 -0.18764608293861029 0.31326390200387261 0 -0.19057421272114619 0.29993472301738672 0 -0.17806355518373251 0.29947863715875278 0 -0.16814297346184071 0.3117745278086424 0 -0.16087769704454849 0.2910894375100484 0 -0.1489672466783831 0.29799227876932027 0 -0.16814297346184071 0.3117745278086424 0 -0.16951154959685019 0.29520020273779313 0 -0.16087769704454849 0.2910894375100484 0 -0.16814297346184071 0.3117745278086424 0 -0.1489672466783831 0.29799227876932027 0 -0.1748881752435085 0.28417854010389948 0 -0.16620998341777291 0.28242628622021287 0 -0.1675784805035343 0.28439498333747321 0 -0.16508708314986309 0.28896590442111242 0 -0.1675784805035343 0.28439498333747321 0 -0.1605608583680177 0.2875465098493189 0 -0.1675784805035343 0.28439498333747321 0 -0.1605608583680177 0.2875465098493189 0 -0.16620998341777291 0.28242628622021287 0 -0.16390885763351931 0.28450364246322901 0 -0.1675784805035343 0.28439498333747321 0 -0.16390885763351931 0.28450364246322901 0 -0.16620998341777291 0.28242628622021287 0 -0.1675784805035343 0.28439498333747321 0 -0.16390885763351931 0.28450364246322901 0 -0.16620998341777291 0.28242628622021287 0 -0.1675784805035343 0.28439498333747321 0 -0.1748881752435085 0.28417854010389948 0 -0.1675784805035343 0.28439498333747321 0 -0.17806355518373251 0.29947863715875278 0 -0.1675784805035343 0.28439498333747321 0 -0.16951154959685019 0.29520020273779313 0 -0.16508708314986309 0.28896590442111242 0 -0.1675784805035343 0.28439498333747321 0 -0.16951154959685019 0.29520020273779313 0 -0.16508708314986309 0.28896590442111242 0 -0.16951154959685019 0.29520020273779313 0 -0.16087769704454849 0.2910894375100484 0 -0.16087769704454849 0.2910894375100484 0 -0.1605608583680177 0.2875465098493189 0 -0.1489672466783831 0.29799227876932027 0 -0.16508708314986309 0.28896590442111242 0 -0.16087769704454849 0.2910894375100484 0 -0.1605608583680177 0.2875465098493189 0 -0.16087769704454849 0.2910894375100484 0 -0.1605608583680177 0.2875465098493189 0 -0.1675784805035343 0.28439498333747321 0 -0.1605608583680177 0.2875465098493189 0 -0.16390885763351931 0.28450364246322901 0 -0.1605608583680177 0.2875465098493189 0 -0.16035532700687211 0.28460886404727531 0 -0.1605608583680177 0.2875465098493189 0 -0.16390885763351931 0.28450364246322901 0 -0.16035532700687211 0.28460886404727531 0 -0.1605608583680177 0.2875465098493189 0 -0.16390885763351931 0.28450364246322901 0 -0.16620998341777291 0.28242628622021287 0 -0.16390885763351931 0.28450364246322901 0 -0.16035532700687211 0.28460886404727531 0 -0.16390885763351931 0.28450364246322901 0 -0.16035532700687211 0.28460886404727531 0 -0.1605608583680177 0.2875465098493189 0 -0.14403122460354201 0.29444459130654987 0 -0.1489672466783831 0.29799227876932027 0 -0.1605608583680177 0.2875465098493189 0 -0.14403122460354201 0.29444459130654987 0 -0.13942991932322149 0.29256188160354463 0 -0.16035532700687211 0.28460886404727531 0 -0.1308448383469821 0.28548268242370578 0 -0.16035532700687211 0.28460886404727531 0 -0.13942991932322149 0.29256188160354463 0 -0.1308448383469821 0.28548268242370578 0 -0.1605608583680177 0.2875465098493189 0 -0.13942991932322149 0.29256188160354463 0 -0.1605608583680177 0.2875465098493189 0 -0.16035532700687211 0.28460886404727531 0 -0.13942991932322149 0.29256188160354463 0 -0.16035532700687211 0.28460886404727531 0 -0.1308448383469821 0.28548268242370578 0 -0.14539073657344981 0.27932610585891871 0 -0.1605608583680177 0.2875465098493189 0 -0.1489672466783831 0.29799227876932027 0 -0.14403122460354201 0.29444459130654987 0 -0.1489672466783831 0.29799227876932027 0 -0.13253179364574719 0.31282949071043931 0 -0.14403122460354201 0.29444459130654987 0 -0.1489672466783831 0.29799227876932027 0 -0.15045161757297729 0.31615807679644048 0 -0.16814297346184071 0.3117745278086424 0 -0.1489672466783831 0.29799227876932027 0 -0.13253179364574719 0.31282949071043931 0 -0.15045161757297729 0.31615807679644048 0 -0.1489672466783831 0.29799227876932027 0 -0.13253179364574719 0.31282949071043931 0 -0.1489672466783831 0.29799227876932027 0 -0.13253179364574719 0.31282949071043931 0 -0.14403122460354201 0.29444459130654987 0 -0.13942991932322149 0.29256188160354463 0 -0.13253179364574719 0.31282949071043931 0 -0.13942991932322149 0.29256188160354463 0 -0.11829463280355899 0.29755886523933051 0 -0.13942991932322149 0.29256188160354463 0 -0.11829463280355899 0.29755886523933051 0 -0.13942991932322149 0.29256188160354463 0 -0.1308448383469821 0.28548268242370578 0 -0.11829463280355899 0.29755886523933051 0 -0.1308448383469821 0.28548268242370578 0 -0.12511829780941189 0.2760543428784511 0 -0.13533046120958039 0.27654134182140938 0 -0.12511829780941189 0.2760543428784511 0 -0.13533046120958039 0.27654134182140938 0 -0.13365535822458161 0.26924608885960299 0 -0.12511829780941189 0.2760543428784511 0 -0.13365535822458161 0.26924608885960299 0 -0.1275545426262219 0.25622480739562009 0 -0.1308448383469821 0.28548268242370578 0 -0.13533046120958039 0.27654134182140938 0 -0.14539073657344981 0.27932610585891871 0 -0.13533046120958039 0.27654134182140938 0 -0.14539073657344981 0.27932610585891871 0 -0.14066094302400209 0.27193931692055212 0 -0.13365535822458161 0.26924608885960299 0 -0.13923907678628031 0.26321474993417138 0 -0.14066094302400209 0.27193931692055212 0 -0.13533046120958039 0.27654134182140938 0 -0.13365535822458161 0.26924608885960299 0 -0.14066094302400209 0.27193931692055212 0 -0.1275545426262219 0.25622480739562009 0 -0.13923907678628031 0.26321474993417138 0 -0.1470896434455701 0.25492008355763379 0 -0.13365535822458161 0.26924608885960299 0 -0.1275545426262219 0.25622480739562009 0 -0.13923907678628031 0.26321474993417138 0 -0.13923907678628031 0.26321474993417138 0 -0.1470896434455701 0.25492008355763379 0 -0.14772481818716929 0.27005195379702501 0 -0.15772669448088769 0.25199779342224932 0 -0.1593883814275035 0.2726128432008702 0 -0.1470896434455701 0.25492008355763379 0 -0.1593883814275035 0.2726128432008702 0 -0.1470896434455701 0.25492008355763379 0 -0.1593883814275035 0.2726128432008702 0 -0.1470896434455701 0.25492008355763379 0 -0.14772481818716929 0.27005195379702501 0 -0.1593883814275035 0.2726128432008702 0 -0.15321481579874721 0.27664994172602242 0 -0.14772481818716929 0.27005195379702501 0 -0.16035532700687211 0.28460886404727531 0 -0.15321481579874721 0.27664994172602242 0 -0.14539073657344981 0.27932610585891871 0 -0.15321481579874721 0.27664994172602242 0 -0.14539073657344981 0.27932610585891871 0 -0.14772481818716929 0.27005195379702501 0 -0.14539073657344981 0.27932610585891871 0 -0.14772481818716929 0.27005195379702501 0 -0.14066094302400209 0.27193931692055212 0 -0.13923907678628031 0.26321474993417138 0 -0.14772481818716929 0.27005195379702501 0 -0.14066094302400209 0.27193931692055212 0 -0.097486038469424191 0.26030024180295708 0 -0.1117590346231158 0.27649721535772892 0 -0.092505333831868639 0.27835246372221167 0 -0.097486038469424191 0.26030024180295708 0 -0.11203473163522031 0.25573614939556721 0 -0.1117590346231158 0.27649721535772892 0 -0.097486038469424191 0.26030024180295708 0 -0.11203473163522031 0.25573614939556721 0 -0.10492096951598121 0.24065333376338199 0 -0.1275545426262219 0.25622480739562009 0 -0.11203473163522031 0.25573614939556721 0 -0.1117590346231158 0.27649721535772892 0 -0.1275545426262219 0.25622480739562009 0 -0.11203473163522031 0.25573614939556721 0 -0.1203586633445525 0.2418752357480258 0 -0.12511829780941189 0.2760543428784511 0 -0.1275545426262219 0.25622480739562009 0 -0.1117590346231158 0.27649721535772892 0 -0.1275545426262219 0.25622480739562009 0 -0.1117590346231158 0.27649721535772892 0 -0.12511829780941189 0.2760543428784511 0 -0.1117590346231158 0.27649721535772892 0 -0.1174556933926752 0.28658911496604861 0 -0.1308448383469821 0.28548268242370578 0 -0.12511829780941189 0.2760543428784511 0 -0.1174556933926752 0.28658911496604861 0 -0.1174556933926752 0.28658911496604861 0 -0.11829463280355899 0.29755886523933051 0 -0.095963526620009745 0.29676962331983758 0 -0.1308448383469821 0.28548268242370578 0 -0.1174556933926752 0.28658911496604861 0 -0.11829463280355899 0.29755886523933051 0 -0.13253179364574719 0.31282949071043931 0 -0.1123217857956757 0.3110253028666094 0 -0.11829463280355899 0.29755886523933051 0 -0.1123217857956757 0.3110253028666094 0 -0.095963526620009745 0.29676962331983758 0 -0.098722635295951919 0.32030183241188193 0 -0.1123217857956757 0.3110253028666094 0 -0.11829463280355899 0.29755886523933051 0 -0.095963526620009745 0.29676962331983758 0 -0.1117590346231158 0.27649721535772892 0 -0.1174556933926752 0.28658911496604861 0 -0.095963526620009745 0.29676962331983758 0 -0.1117590346231158 0.27649721535772892 0 -0.095963526620009745 0.29676962331983758 0 -0.092505333831868639 0.27835246372221167 0 -0.1117590346231158 0.27649721535772892 0 -0.095963526620009745 0.29676962331983758 0 -0.081676514181494075 0.29351993848484559 0 -0.074011714520811553 0.2810327441599908 0 -0.092505333831868639 0.27835246372221167 0 -0.095963526620009745 0.29676962331983758 0 -0.081676514181494075 0.29351993848484559 0 -0.092505333831868639 0.27835246372221167 0 -0.095963526620009745 0.29676962331983758 0 -0.080168018616903688 0.31704203128194619 0 -0.098722635295951919 0.32030183241188193 0 -0.095963526620009745 0.29676962331983758 0 -0.080168018616903688 0.31704203128194619 0 -0.095963526620009745 0.29676962331983758 0 -0.081676514181494075 0.29351993848484559 0 -0.080168018616903688 0.31704203128194619 0 -0.081676514181494075 0.29351993848484559 0 -0.071910637466084337 0.30444270498077031 0 -0.080168018616903688 0.31704203128194619 0 -0.071910637466084337 0.30444270498077031 0 -0.059933186322384951 0.29584476508098417 0 -0.056598664798972617 0.30854627231786053 0 -0.071910637466084337 0.30444270498077031 0 -0.056598664798972617 0.30854627231786053 0 -0.064864298737061885 0.31805670369247141 0 -0.074011714520811553 0.2810327441599908 0 -0.059933186322384951 0.29584476508098417 0 -0.05643892896494012 0.28342130962406648 0 -0.071910637466084337 0.30444270498077031 0 -0.074011714520811553 0.2810327441599908 0 -0.059933186322384951 0.29584476508098417 0 -0.071910637466084337 0.30444270498077031 0 -0.074011714520811553 0.2810327441599908 0 -0.081676514181494075 0.29351993848484559 0 -0.071910637466084337 0.30444270498077031 0 -0.074011714520811553 0.2810327441599908 0 -0.074011714520811553 0.2810327441599908 0 -0.076112791575538755 0.25762278333921151 0 -0.074011714520811553 0.2810327441599908 0 -0.062298398948024657 0.27071167799058082 0 -0.05643892896494012 0.28342130962406648 0 -0.074011714520811553 0.2810327441599908 0 -0.076112791575538755 0.25762278333921151 0 -0.062298398948024657 0.27071167799058082 0 -0.074011714520811553 0.2810327441599908 0 -0.092505333831868639 0.27835246372221167 0 -0.076112791575538755 0.25762278333921151 0 -0.097486038469424191 0.26030024180295708 0 -0.076112791575538755 0.25762278333921151 0 -0.089445423833849957 0.24623243253668231 0 -0.097486038469424191 0.26030024180295708 0 -0.092505333831868639 0.27835246372221167 0 -0.076112791575538755 0.25762278333921151 0 -0.076112791575538755 0.25762278333921151 0 -0.062298398948024657 0.27071167799058082 0 -0.065193502800950487 0.24850912018109891 0 -0.052005180078702612 0.2611858004740405 0 -0.062298398948024657 0.27071167799058082 0 -0.065193502800950487 0.24850912018109891 0 -0.052005180078702612 0.2611858004740405 0 -0.065193502800950487 0.24850912018109891 0 -0.05307390100616708 0.24678158754836091 0 -0.052005180078702612 0.2611858004740405 0 -0.04465905322569709 0.24829368723303011 0 -0.05307390100616708 0.24678158754836091 0 -0.062298398948024657 0.27071167799058082 0 -0.048161174369395897 0.27581192352345102 0 -0.05643892896494012 0.28342130962406648 0 -0.052005180078702612 0.2611858004740405 0 -0.062298398948024657 0.27071167799058082 0 -0.048161174369395897 0.27581192352345102 0 -0.048161174369395897 0.27581192352345102 0 -0.039029718335340809 0.2690189808700667 0 -0.034988958937094403 0.28197767547500763 0 -0.052005180078702612 0.2611858004740405 0 -0.048161174369395897 0.27581192352345102 0 -0.039029718335340809 0.2690189808700667 0 -0.039029718335340809 0.2690189808700667 0 -0.02778340432653599 0.26386490528670109 0 -0.02876926241144051 0.27749649468310728 0 -0.039029718335340809 0.2690189808700667 0 -0.02876926241144051 0.27749649468310728 0 -0.034988958937094403 0.28197767547500763 0 -0.02778340432653599 0.26386490528670109 0 -0.039316470176893333 0.24038030446425521 0 -0.039560235199694357 0.25517536691588882 0 -0.02778340432653599 0.26386490528670109 0 -0.039316470176893333 0.24038030446425521 0 -0.052005180078702612 0.2611858004740405 0 -0.039560235199694357 0.25517536691588882 0 -0.04465905322569709 0.24829368723303011 0 -0.052005180078702612 0.2611858004740405 0 -0.039029718335340809 0.2690189808700667 0 -0.039560235199694357 0.25517536691588882 0 -0.039029718335340809 0.2690189808700667 0 -0.039560235199694357 0.25517536691588882 0 -0.02778340432653599 0.26386490528670109 0 -0.02778340432653599 0.26386490528670109 0 -0.01716914486276995 0.26604702125705609 0 -0.031830075697095631 0.24184151100741449 0 -0.01716914486276995 0.26604702125705609 0 -0.031830075697095631 0.24184151100741449 0 -0.01716914486276995 0.26604702125705609 0 -0.031830075697095631 0.24184151100741449 0 -0.017992643477075129 0.24957489420802409 0 -0.02778340432653599 0.26386490528670109 0 -0.016250338476178561 0.28734950610914722 0 -0.02778340432653599 0.26386490528670109 0 -0.02876926241144051 0.27749649468310728 0 -0.016250338476178561 0.28734950610914722 0 -0.02778340432653599 0.26386490528670109 0 -0.01716914486276995 0.26604702125705609 0 -0.016250338476178561 0.28734950610914722 0 -0.01716914486276995 0.26604702125705609 0 -0.0025082140284442898 0.29025253150669778 0 -0.01716914486276995 0.26604702125705609 0 -0.0030242111910691451 0.27415784458153852 0 -0.0025082140284442898 0.29025253150669778 0 -0.01716914486276995 0.26604702125705609 0 -0.0025082140284442898 0.29025253150669778 0 -0.016250338476178561 0.28734950610914722 0 -0.01716914486276995 0.26604702125705609 0 -0.0030242111910691451 0.27415784458153852 0 -0.0070388551701225481 0.26429843528864022 0 -0.0030242111910691451 0.27415784458153852 0 -0.0070388551701225481 0.26429843528864022 0 0.003905588941896832 0.26182209175970711 0 -0.0070388551701225481 0.26429843528864022 0 -0.0053138308958045541 0.25725821092316159 0 0.003905588941896832 0.26182209175970711 0 -0.01716914486276995 0.26604702125705609 0 -0.01141932576701403 0.25769981683164922 0 -0.017992643477075129 0.24957489420802409 0 -0.0053138308958045541 0.25725821092316159 0 0.00034173235196240039 0.25169171842839061 0 0.003905588941896832 0.26182209175970711 0 -0.0053138308958045541 0.25725821092316159 0 -0.0084954783913720449 0.2490669269363194 0 0.00034173235196240039 0.25169171842839061 0 -0.01141932576701403 0.25769981683164922 0 -0.0084954783913720449 0.2490669269363194 0 -0.017992643477075129 0.24957489420802409 0 -0.0053138308958045541 0.25725821092316159 0 -0.01141932576701403 0.25769981683164922 0 -0.0084954783913720449 0.2490669269363194 0 -0.01716914486276995 0.26604702125705609 0 -0.0070388551701225481 0.26429843528864022 0 -0.01141932576701403 0.25769981683164922 0 -0.0070388551701225481 0.26429843528864022 0 -0.0053138308958045541 0.25725821092316159 0 -0.01141932576701403 0.25769981683164922 0 -0.01397790380638198 0.30895499597260923 0 -0.0066953893168378471 0.30245822206907802 0 -0.017989414597368789 0.29833253601236032 0 -0.01397790380638198 0.30895499597260923 0 -0.0066953893168378471 0.30245822206907802 0 -0.0050279189580847783 0.31667723503137363 0 -0.0066953893168378471 0.30245822206907802 0 -0.016250338476178561 0.28734950610914722 0 -0.017989414597368789 0.29833253601236032 0 -0.0066953893168378471 0.30245822206907802 0 -0.0025082140284442898 0.29025253150669778 0 -0.016250338476178561 0.28734950610914722 0 -0.016250338476178561 0.28734950610914722 0 -0.028485453203630051 0.29466041058067288 0 -0.017989414597368789 0.29833253601236032 0 -0.02876926241144051 0.27749649468310728 0 -0.027123503257085881 0.2853710217119837 0 -0.034988958937094403 0.28197767547500763 0 -0.02876926241144051 0.27749649468310728 0 -0.016250338476178561 0.28734950610914722 0 -0.027123503257085881 0.2853710217119837 0 -0.027123503257085881 0.2853710217119837 0 -0.028485453203630051 0.29466041058067288 0 -0.034988958937094403 0.28197767547500763 0 -0.016250338476178561 0.28734950610914722 0 -0.027123503257085881 0.2853710217119837 0 -0.028485453203630051 0.29466041058067288 0 -0.01397790380638198 0.30895499597260923 0 -0.029653077822133361 0.30668324753390069 0 -0.022863511246220838 0.31642661020244239 0 -0.028485453203630051 0.29466041058067288 0 -0.017989414597368789 0.29833253601236032 0 -0.029653077822133361 0.30668324753390069 0 -0.01397790380638198 0.30895499597260923 0 -0.017989414597368789 0.29833253601236032 0 -0.029653077822133361 0.30668324753390069 0 -0.029653077822133361 0.30668324753390069 0 -0.04331836559679518 0.30038735807175349 0 -0.043931634079397958 0.31121694856205162 0 -0.029653077822133361 0.30668324753390069 0 -0.043931634079397958 0.31121694856205162 0 -0.036173228976101063 0.31880798558349588 0 -0.028485453203630051 0.29466041058067288 0 -0.029653077822133361 0.30668324753390069 0 -0.04331836559679518 0.30038735807175349 0 -0.028485453203630051 0.29466041058067288 0 -0.04331836559679518 0.30038735807175349 0 -0.044205860952272837 0.28855609670694421 0 -0.028485453203630051 0.29466041058067288 0 -0.034988958937094403 0.28197767547500763 0 -0.044205860952272837 0.28855609670694421 0 -0.048161174369395897 0.27581192352345102 0 -0.034988958937094403 0.28197767547500763 0 -0.044205860952272837 0.28855609670694421 0 -0.04331836559679518 0.30038735807175349 0 -0.044205860952272837 0.28855609670694421 0 -0.059933186322384951 0.29584476508098417 0 -0.044205860952272837 0.28855609670694421 0 -0.059933186322384951 0.29584476508098417 0 -0.05643892896494012 0.28342130962406648 0 -0.048161174369395897 0.27581192352345102 0 -0.044205860952272837 0.28855609670694421 0 -0.05643892896494012 0.28342130962406648 0 -0.04331836559679518 0.30038735807175349 0 -0.059933186322384951 0.29584476508098417 0 -0.056598664798972617 0.30854627231786053 0 -0.04331836559679518 0.30038735807175349 0 -0.043931634079397958 0.31121694856205162 0 -0.056598664798972617 0.30854627231786053 0 -0.051271662189551107 0.32293807063772523 0 -0.064372510613797645 0.33731443924405491 0 -0.064864298737061885 0.31805670369247141 0 -0.056598664798972617 0.30854627231786053 0 -0.051271662189551107 0.32293807063772523 0 -0.064864298737061885 0.31805670369247141 0 -0.043931634079397958 0.31121694856205162 0 -0.056598664798972617 0.30854627231786053 0 -0.051271662189551107 0.32293807063772523 0 -0.051271662189551107 0.32293807063772523 0 -0.048705704471300168 0.34072075782036981 0 -0.064372510613797645 0.33731443924405491 0 -0.051271662189551107 0.32293807063772523 0 -0.048705704471300168 0.34072075782036981 0 -0.039687963425040919 0.33251325960295569 0 -0.042826462177681983 0.34297811357314689 0 -0.039687963425040919 0.33251325960295569 0 -0.037009843579509913 0.34163581838841589 0 -0.048705704471300168 0.34072075782036981 0 -0.042826462177681983 0.34297811357314689 0 -0.039687963425040919 0.33251325960295569 0 -0.039687963425040919 0.33251325960295569 0 -0.031462579726050502 0.33612809722853892 0 -0.027474106893159319 0.32615738833970259 0 -0.039687963425040919 0.33251325960295569 0 -0.031462579726050502 0.33612809722853892 0 -0.037009843579509913 0.34163581838841589 0 -0.031462579726050502 0.33612809722853892 0 -0.037009843579509913 0.34163581838841589 0 -0.029404085501048161 0.3438895470492393 0 -0.043931634079397958 0.31121694856205162 0 -0.051271662189551107 0.32293807063772523 0 -0.036173228976101063 0.31880798558349588 0 -0.051271662189551107 0.32293807063772523 0 -0.039687963425040919 0.33251325960295569 0 -0.036173228976101063 0.31880798558349588 0 -0.039687963425040919 0.33251325960295569 0 -0.036173228976101063 0.31880798558349588 0 -0.027474106893159319 0.32615738833970259 0 -0.029653077822133361 0.30668324753390069 0 -0.036173228976101063 0.31880798558349588 0 -0.022863511246220838 0.31642661020244239 0 -0.01397790380638198 0.30895499597260923 0 -0.022863511246220838 0.31642661020244239 0 -0.01393326654870416 0.32436665901149692 0 -0.022863511246220838 0.31642661020244239 0 -0.027474106893159319 0.32615738833970259 0 -0.01393326654870416 0.32436665901149692 0 -0.036173228976101063 0.31880798558349588 0 -0.022863511246220838 0.31642661020244239 0 -0.027474106893159319 0.32615738833970259 0 -0.031462579726050502 0.33612809722853892 0 -0.027474106893159319 0.32615738833970259 0 -0.02323913668370238 0.33804977787409918 0 -0.02323913668370238 0.33804977787409918 0 -0.01197429819304479 0.34336295925775723 0 -0.01393326654870416 0.32436665901149692 0 -0.031462579726050502 0.33612809722853892 0 -0.02323913668370238 0.33804977787409918 0 -0.029404085501048161 0.3438895470492393 0 -0.027474106893159319 0.32615738833970259 0 -0.02323913668370238 0.33804977787409918 0 -0.01393326654870416 0.32436665901149692 0 -0.0026857519243812899 0.33314825634734441 0 -0.01197429819304479 0.34336295925775723 0 -0.01393326654870416 0.32436665901149692 0 -0.0026857519243812899 0.33314825634734441 0 -0.01197429819304479 0.34336295925775723 0 0.00087227386193678216 0.35450451783256998 0 -0.0026857519243812899 0.33314825634734441 0 -0.0050279189580847783 0.31667723503137363 0 -0.01393326654870416 0.32436665901149692 0 -0.01397790380638198 0.30895499597260923 0 -0.0050279189580847783 0.31667723503137363 0 -0.01393326654870416 0.32436665901149692 0 -0.002887011069696954 0.37316236348168991 0 -0.0118984707001861 0.35895409489315039 0 0.00087227386193678216 0.35450451783256998 0 -0.002887011069696954 0.37316236348168991 0 -0.0118984707001861 0.35895409489315039 0 -0.01695583758716919 0.36965860228360858 0 -0.01197429819304479 0.34336295925775723 0 -0.0118984707001861 0.35895409489315039 0 0.00087227386193678216 0.35450451783256998 0 -0.01197429819304479 0.34336295925775723 0 -0.0118984707001861 0.35895409489315039 0 -0.021040655415919911 0.35157720027602329 0 -0.0118984707001861 0.35895409489315039 0 -0.021040655415919911 0.35157720027602329 0 -0.026710057983937611 0.36052217289883831 0 -0.02323913668370238 0.33804977787409918 0 -0.01197429819304479 0.34336295925775723 0 -0.021040655415919911 0.35157720027602329 0 -0.021040655415919911 0.35157720027602329 0 -0.029404085501048161 0.3438895470492393 0 -0.029034426183604189 0.35160538719165979 0 -0.02323913668370238 0.33804977787409918 0 -0.021040655415919911 0.35157720027602329 0 -0.029404085501048161 0.3438895470492393 0 -0.029404085501048161 0.3438895470492393 0 -0.029034426183604189 0.35160538719165979 0 -0.034150794658820649 0.34818146942595618 0 -0.021040655415919911 0.35157720027602329 0 -0.029034426183604189 0.35160538719165979 0 -0.026710057983937611 0.36052217289883831 0 -0.029034426183604189 0.35160538719165979 0 -0.026710057983937611 0.36052217289883831 0 -0.035155340471302983 0.35495638260871792 0 -0.026710057983937611 0.36052217289883831 0 -0.026953383983103062 0.37319805800538342 0 -0.036075033715439957 0.36625755807602378 0 -0.0118984707001861 0.35895409489315039 0 -0.026710057983937611 0.36052217289883831 0 -0.01695583758716919 0.36965860228360858 0 -0.026710057983937611 0.36052217289883831 0 -0.01695583758716919 0.36965860228360858 0 -0.026953383983103062 0.37319805800538342 0 -0.036075033715439957 0.36625755807602378 0 -0.048577002610691582 0.35758684720616363 0 -0.032781494607585539 0.37785925516827218 0 -0.026953383983103062 0.37319805800538342 0 -0.036075033715439957 0.36625755807602378 0 -0.032781494607585539 0.37785925516827218 0 -0.048577002610691582 0.35758684720616363 0 -0.032781494607585539 0.37785925516827218 0 -0.048577002610691582 0.35758684720616363 0 -0.044802612766153493 0.37992109198021112 0 -0.032781494607585539 0.37785925516827218 0 -0.026710057983937611 0.36052217289883831 0 -0.036075033715439957 0.36625755807602378 0 -0.036671790106332487 0.35997840114116608 0 -0.036075033715439957 0.36625755807602378 0 -0.036671790106332487 0.35997840114116608 0 -0.042464558058498268 0.35794383652537748 0 -0.036075033715439957 0.36625755807602378 0 -0.042464558058498268 0.35794383652537748 0 -0.048577002610691582 0.35758684720616363 0 -0.037009843579509913 0.34163581838841589 0 -0.034150794658820649 0.34818146942595618 0 -0.040641450462140523 0.349802056671007 0 -0.037009843579509913 0.34163581838841589 0 -0.029404085501048161 0.3438895470492393 0 -0.034150794658820649 0.34818146942595618 0 -0.034150794658820649 0.34818146942595618 0 -0.035155340471302983 0.35495638260871792 0 -0.040641450462140523 0.349802056671007 0 -0.026710057983937611 0.36052217289883831 0 -0.036671790106332487 0.35997840114116608 0 -0.035155340471302983 0.35495638260871792 0 -0.035155340471302983 0.35495638260871792 0 -0.040676661881999809 0.355397549870692 0 -0.040641450462140523 0.349802056671007 0 -0.029034426183604189 0.35160538719165979 0 -0.034150794658820649 0.34818146942595618 0 -0.035155340471302983 0.35495638260871792 0 -0.036671790106332487 0.35997840114116608 0 -0.035155340471302983 0.35495638260871792 0 -0.040676661881999809 0.355397549870692 0 -0.036671790106332487 0.35997840114116608 0 -0.042464558058498268 0.35794383652537748 0 -0.040676661881999809 0.355397549870692 0 -0.042464558058498268 0.35794383652537748 0 -0.044694206648724019 0.35061234307307532 0 -0.048577002610691582 0.35758684720616363 0 -0.042464558058498268 0.35794383652537748 0 -0.040676661881999809 0.355397549870692 0 -0.044694206648724019 0.35061234307307532 0 -0.040676661881999809 0.355397549870692 0 -0.040641450462140523 0.349802056671007 0 -0.044694206648724019 0.35061234307307532 0 -0.042826462177681983 0.34297811357314689 0 -0.037009843579509913 0.34163581838841589 0 -0.040641450462140523 0.349802056671007 0 -0.048705704471300168 0.34072075782036981 0 -0.042826462177681983 0.34297811357314689 0 -0.044694206648724019 0.35061234307307532 0 -0.042826462177681983 0.34297811357314689 0 -0.040641450462140523 0.349802056671007 0 -0.044694206648724019 0.35061234307307532 0 -0.048705704471300168 0.34072075782036981 0 -0.044694206648724019 0.35061234307307532 0 -0.048577002610691582 0.35758684720616363 0 -0.048577002610691582 0.35758684720616363 0 -0.064372510613797645 0.33731443924405491 0 -0.048705704471300168 0.34072075782036981 0 -0.048577002610691582 0.35758684720616363 0 -0.064372510613797645 0.33731443924405491 0 -0.048577002610691582 0.35758684720616363 0 -0.059494835014858277 0.35416554241879478 0 -0.064372510613797645 0.33731443924405491 0 -0.048577002610691582 0.35758684720616363 0 -0.059494835014858277 0.35416554241879478 0 -0.051100464192403633 0.35993119924858902 0 -0.059494835014858277 0.35416554241879478 0 -0.051100464192403633 0.35993119924858902 0 -0.061857004331358427 0.36398268425054048 0 -0.051100464192403633 0.35993119924858902 0 -0.055702040733111108 0.37218758017441378 0 -0.044802612766153493 0.37992109198021112 0 -0.051100464192403633 0.35993119924858902 0 -0.044802612766153493 0.37992109198021112 0 -0.048577002610691582 0.35758684720616363 0 -0.051100464192403633 0.35993119924858902 0 -0.044802612766153493 0.37992109198021112 0 -0.051100464192403633 0.35993119924858902 0 -0.061857004331358427 0.36398268425054048 0 -0.055702040733111108 0.37218758017441378 0 -0.061857004331358427 0.36398268425054048 0 -0.055702040733111108 0.37218758017441378 0 -0.064552670311692345 0.37515636186377238 0 -0.061857004331358427 0.36398268425054048 0 -0.075346215913001779 0.36614725698566758 0 -0.064552670311692345 0.37515636186377238 0 -0.061857004331358427 0.36398268425054048 0 -0.075346215913001779 0.36614725698566758 0 -0.071567193326040071 0.35201254214462629 0 -0.075346215913001779 0.36614725698566758 0 -0.078072227327794189 0.38056351515562881 0 -0.064552670311692345 0.37515636186377238 0 -0.075346215913001779 0.36614725698566758 0 -0.090183414499929906 0.37165215038473071 0 -0.087963435586393204 0.35528915909755371 0 -0.075346215913001779 0.36614725698566758 0 -0.090183414499929906 0.37165215038473071 0 -0.078072227327794189 0.38056351515562881 0 -0.075346215913001779 0.36614725698566758 0 -0.087963435586393204 0.35528915909755371 0 -0.071567193326040071 0.35201254214462629 0 -0.087963435586393204 0.35528915909755371 0 -0.083076381794008752 0.33606943277870083 0 -0.099660887580474006 0.34250391459267587 0 -0.087963435586393204 0.35528915909755371 0 -0.071567193326040071 0.35201254214462629 0 -0.083076381794008752 0.33606943277870083 0 -0.059494835014858277 0.35416554241879478 0 -0.071567193326040071 0.35201254214462629 0 -0.064372510613797645 0.33731443924405491 0 -0.059494835014858277 0.35416554241879478 0 -0.061857004331358427 0.36398268425054048 0 -0.071567193326040071 0.35201254214462629 0 -0.064372510613797645 0.33731443924405491 0 -0.080168018616903688 0.31704203128194619 0 -0.083076381794008752 0.33606943277870083 0 -0.071567193326040071 0.35201254214462629 0 -0.064372510613797645 0.33731443924405491 0 -0.083076381794008752 0.33606943277870083 0 -0.064372510613797645 0.33731443924405491 0 -0.080168018616903688 0.31704203128194619 0 -0.064372510613797645 0.33731443924405491 0 -0.064864298737061885 0.31805670369247141 0 -0.080168018616903688 0.31704203128194619 0 -0.071910637466084337 0.30444270498077031 0 -0.064864298737061885 0.31805670369247141 0 -0.080168018616903688 0.31704203128194619 0 -0.080168018616903688 0.31704203128194619 0 -0.083076381794008752 0.33606943277870083 0 -0.098722635295951919 0.32030183241188193 0 -0.099660887580474006 0.34250391459267587 0 -0.098722635295951919 0.32030183241188193 0 -0.1160963406131106 0.32766670265155762 0 -0.083076381794008752 0.33606943277870083 0 -0.099660887580474006 0.34250391459267587 0 -0.098722635295951919 0.32030183241188193 0 -0.099660887580474006 0.34250391459267587 0 -0.1160963406131106 0.32766670265155762 0 -0.1123217857956757 0.3110253028666094 0 -0.098722635295951919 0.32030183241188193 0 -0.1160963406131106 0.32766670265155762 0 -0.13253179364574719 0.31282949071043931 0 -0.1123217857956757 0.3110253028666094 0 -0.1160963406131106 0.32766670265155762 0 -0.13253179364574719 0.31282949071043931 0 -0.1160963406131106 0.32766670265155762 0 -0.099660887580474006 0.34250391459267587 0 -0.1160963406131106 0.32766670265155762 0 -0.1172582106311677 0.34431557716721062 0 -0.13831219433664821 0.33161104637173239 0 -0.1160963406131106 0.32766670265155762 0 -0.1172582106311677 0.34431557716721062 0 -0.13318469579337719 0.3514936482335298 0 -0.1172582106311677 0.34431557716721062 0 -0.1108752042995866 0.36493926216963751 0 -0.090183414499929906 0.37165215038473071 0 -0.087963435586393204 0.35528915909755371 0 -0.1108752042995866 0.36493926216963751 0 -0.099660887580474006 0.34250391459267587 0 -0.1172582106311677 0.34431557716721062 0 -0.1108752042995866 0.36493926216963751 0 -0.087963435586393204 0.35528915909755371 0 -0.099660887580474006 0.34250391459267587 0 -0.1108752042995866 0.36493926216963751 0 -0.090183414499929906 0.37165215038473071 0 -0.1108752042995866 0.36493926216963751 0 -0.10254338363737051 0.39316009730409612 0 -0.13780983526100399 0.37761909849100239 0 -0.1108752042995866 0.36493926216963751 0 -0.11916959206772031 0.38337544894601627 0 -0.1108752042995866 0.36493926216963751 0 -0.10254338363737051 0.39316009730409612 0 -0.11916959206772031 0.38337544894601627 0 -0.10254338363737051 0.39316009730409612 0 -0.1247521518573156 0.39928047957912749 0 -0.1139246972013129 0.41328673204279132 0 -0.10254338363737051 0.39316009730409612 0 -0.11916959206772031 0.38337544894601627 0 -0.1247521518573156 0.39928047957912749 0 -0.12978557415322589 0.41426576889006111 0 -0.1139246972013129 0.41328673204279132 0 -0.1227193297556799 0.42476817897396668 0 -0.12978557415322589 0.41426576889006111 0 -0.1247521518573156 0.39928047957912749 0 -0.1139246972013129 0.41328673204279132 0 -0.1139246972013129 0.41328673204279132 0 -0.1227193297556799 0.42476817897396668 0 -0.11303687166995301 0.43406456449401032 0 -0.12582028798773601 0.43557595697160212 0 -0.1227193297556799 0.42476817897396668 0 -0.11303687166995301 0.43406456449401032 0 -0.11303687166995301 0.43406456449401032 0 -0.094048330652057061 0.43219851583660701 0 -0.10413493962868579 0.44357279825123702 0 -0.11303687166995301 0.43406456449401032 0 -0.094048330652057061 0.43219851583660701 0 -0.096577990517969628 0.41714987516756991 0 -0.10254338363737051 0.39316009730409612 0 -0.096577990517969628 0.41714987516756991 0 -0.083786302699806886 0.40868790117606318 0 -0.10254338363737051 0.39316009730409612 0 -0.1139246972013129 0.41328673204279132 0 -0.096577990517969628 0.41714987516756991 0 -0.1139246972013129 0.41328673204279132 0 -0.11303687166995301 0.43406456449401032 0 -0.096577990517969628 0.41714987516756991 0 -0.096577990517969628 0.41714987516756991 0 -0.083786302699806886 0.40868790117606318 0 -0.076005108007786273 0.42332334491644102 0 -0.094048330652057061 0.43219851583660701 0 -0.096577990517969628 0.41714987516756991 0 -0.076005108007786273 0.42332334491644102 0 -0.094048330652057061 0.43219851583660701 0 -0.076005108007786273 0.42332334491644102 0 -0.081159774486079611 0.44085646489599473 0 -0.076005108007786273 0.42332334491644102 0 -0.058184609343473387 0.43814013154075238 0 -0.081159774486079611 0.44085646489599473 0 -0.076005108007786273 0.42332334491644102 0 -0.05637301419504686 0.42028361376339352 0 -0.058184609343473387 0.43814013154075238 0 -0.076005108007786273 0.42332334491644102 0 -0.063582540621081443 0.40826344147684118 0 -0.05637301419504686 0.42028361376339352 0 -0.083786302699806886 0.40868790117606318 0 -0.076005108007786273 0.42332334491644102 0 -0.063582540621081443 0.40826344147684118 0 -0.083786302699806886 0.40868790117606318 0 -0.063582540621081443 0.40826344147684118 0 -0.075152883850784363 0.39604757635138021 0 -0.075152883850784363 0.39604757635138021 0 -0.065739555526460228 0.3854725384029577 0 -0.053921956160843228 0.39246980585327168 0 -0.10254338363737051 0.39316009730409612 0 -0.075152883850784363 0.39604757635138021 0 -0.10254338363737051 0.39316009730409612 0 -0.083786302699806886 0.40868790117606318 0 -0.075152883850784363 0.39604757635138021 0 -0.090183414499929906 0.37165215038473071 0 -0.10254338363737051 0.39316009730409612 0 -0.078072227327794189 0.38056351515562881 0 -0.10254338363737051 0.39316009730409612 0 -0.075152883850784363 0.39604757635138021 0 -0.078072227327794189 0.38056351515562881 0 -0.075152883850784363 0.39604757635138021 0 -0.078072227327794189 0.38056351515562881 0 -0.065739555526460228 0.3854725384029577 0 -0.078072227327794189 0.38056351515562881 0 -0.065739555526460228 0.3854725384029577 0 -0.064552670311692345 0.37515636186377238 0 -0.065739555526460228 0.3854725384029577 0 -0.064552670311692345 0.37515636186377238 0 -0.056197452063947599 0.38194656352895617 0 -0.055702040733111108 0.37218758017441378 0 -0.064552670311692345 0.37515636186377238 0 -0.056197452063947599 0.38194656352895617 0 -0.065739555526460228 0.3854725384029577 0 -0.056197452063947599 0.38194656352895617 0 -0.053921956160843228 0.39246980585327168 0 -0.056197452063947599 0.38194656352895617 0 -0.048237833279009032 0.39063670029458719 0 -0.053921956160843228 0.39246980585327168 0 -0.056197452063947599 0.38194656352895617 0 -0.048237833279009032 0.39063670029458719 0 -0.044802612766153493 0.37992109198021112 0 -0.055702040733111108 0.37218758017441378 0 -0.056197452063947599 0.38194656352895617 0 -0.044802612766153493 0.37992109198021112 0 -0.075152883850784363 0.39604757635138021 0 -0.053921956160843228 0.39246980585327168 0 -0.047762384064198297 0.39893505539866531 0 -0.063582540621081443 0.40826344147684118 0 -0.075152883850784363 0.39604757635138021 0 -0.047762384064198297 0.39893505539866531 0 -0.075152883850784363 0.39604757635138021 0 -0.047762384064198297 0.39893505539866531 0 -0.048237833279009032 0.39063670029458719 0 -0.053921956160843228 0.39246980585327168 0 -0.047762384064198297 0.39893505539866531 0 -0.053921956160843228 0.39246980585327168 0 -0.047762384064198297 0.39893505539866531 0 -0.038504761339902653 0.39991098471183312 0 -0.021335503111962029 0.4017209507137991 0 -0.034390239614443388 0.41297081136811731 0 -0.047762384064198297 0.39893505539866531 0 -0.034390239614443388 0.41297081136811731 0 -0.047762384064198297 0.39893505539866531 0 -0.038504761339902653 0.39991098471183312 0 -0.047762384064198297 0.39893505539866531 0 -0.038504761339902653 0.39991098471183312 0 -0.034390239614443388 0.41297081136811731 0 -0.048237833279009032 0.39063670029458719 0 -0.047762384064198297 0.39893505539866531 0 -0.038504761339902653 0.39991098471183312 0 -0.038504761339902653 0.39991098471183312 0 -0.034717879316504441 0.38777406565884692 0 -0.02887749648791044 0.39415738459073052 0 -0.038504761339902653 0.39991098471183312 0 -0.044802612766153493 0.37992109198021112 0 -0.048237833279009032 0.39063670029458719 0 -0.038504761339902653 0.39991098471183312 0 -0.044802612766153493 0.37992109198021112 0 -0.038504761339902653 0.39991098471183312 0 -0.044802612766153493 0.37992109198021112 0 -0.034717879316504441 0.38777406565884692 0 -0.034717879316504441 0.38777406565884692 0 -0.032781494607585539 0.37785925516827218 0 -0.028281955167591289 0.38499699438406237 0 -0.044802612766153493 0.37992109198021112 0 -0.034717879316504441 0.38777406565884692 0 -0.032781494607585539 0.37785925516827218 0 -0.026953383983103062 0.37319805800538342 0 -0.017715097700132229 0.3861914514949194 0 -0.028281955167591289 0.38499699438406237 0 -0.01695583758716919 0.36965860228360858 0 -0.026953383983103062 0.37319805800538342 0 -0.017715097700132229 0.3861914514949194 0 -0.026953383983103062 0.37319805800538342 0 -0.032781494607585539 0.37785925516827218 0 -0.028281955167591289 0.38499699438406237 0 -0.034717879316504441 0.38777406565884692 0 -0.028281955167591289 0.38499699438406237 0 -0.02887749648791044 0.39415738459073052 0 -0.017715097700132229 0.3861914514949194 0 -0.028281955167591289 0.38499699438406237 0 -0.02887749648791044 0.39415738459073052 0 -0.038504761339902653 0.39991098471183312 0 -0.021335503111962029 0.4017209507137991 0 -0.038504761339902653 0.39991098471183312 0 -0.02887749648791044 0.39415738459073052 0 -0.021335503111962029 0.4017209507137991 0 -0.017715097700132229 0.3861914514949194 0 -0.021335503111962029 0.4017209507137991 0 -0.0087168627113649987 0.40251728676190612 0 -0.021335503111962029 0.4017209507137991 0 -0.0087168627113649987 0.40251728676190612 0 -0.017908805179147631 0.41108471224343418 0 -0.017715097700132229 0.3861914514949194 0 -0.02887749648791044 0.39415738459073052 0 -0.021335503111962029 0.4017209507137991 0 -0.017715097700132229 0.3861914514949194 0 -0.0087168627113649987 0.40251728676190612 0 -0.0031489673224063719 0.38960846828497808 0 -0.0087168627113649987 0.40251728676190612 0 0.004045002064029652 0.41349201283743348 0 0.0039390635768207193 0.40024464438109503 0 -0.0087168627113649987 0.40251728676190612 0 -0.0031489673224063719 0.38960846828497808 0 0.0039390635768207193 0.40024464438109503 0 -0.002887011069696954 0.37316236348168991 0 -0.01695583758716919 0.36965860228360858 0 -0.017715097700132229 0.3861914514949194 0 -0.002887011069696954 0.37316236348168991 0 -0.017715097700132229 0.3861914514949194 0 -0.0031489673224063719 0.38960846828497808 0 -0.0001396583686269239 0.42894674625762558 0 -0.015473165968875449 0.42010393542558683 0 -0.016033395375402659 0.43223863988107353 0 -0.0001396583686269239 0.42894674625762558 0 -0.0088937313067571026 0.4152787673776841 0 0.004045002064029652 0.41349201283743348 0 -0.0087168627113649987 0.40251728676190612 0 -0.0088937313067571026 0.4152787673776841 0 0.004045002064029652 0.41349201283743348 0 -0.0087168627113649987 0.40251728676190612 0 -0.0088937313067571026 0.4152787673776841 0 -0.017908805179147631 0.41108471224343418 0 -0.015473165968875449 0.42010393542558683 0 -0.0088937313067571026 0.4152787673776841 0 -0.017908805179147631 0.41108471224343418 0 -0.0001396583686269239 0.42894674625762558 0 -0.015473165968875449 0.42010393542558683 0 -0.0088937313067571026 0.4152787673776841 0 -0.015473165968875449 0.42010393542558683 0 -0.017908805179147631 0.41108471224343418 0 -0.034390239614443388 0.41297081136811731 0 -0.021335503111962029 0.4017209507137991 0 -0.017908805179147631 0.41108471224343418 0 -0.034390239614443388 0.41297081136811731 0 -0.015473165968875449 0.42010393542558683 0 -0.016033395375402659 0.43223863988107353 0 -0.034390239614443388 0.41297081136811731 0 -0.016033395375402659 0.43223863988107353 0 -0.02753556426539025 0.43472810852608917 0 -0.034390239614443388 0.41297081136811731 0 -0.02753556426539025 0.43472810852608917 0 -0.034390239614443388 0.41297081136811731 0 -0.016033395375402659 0.43223863988107353 0 -0.034390239614443388 0.41297081136811731 0 -0.02753556426539025 0.43472810852608917 0 -0.043498409862833987 0.42589117085859601 0 -0.034390239614443388 0.41297081136811731 0 -0.02753556426539025 0.43472810852608917 0 -0.043498409862833987 0.42589117085859601 0 -0.041469100025778569 0.43784234296470559 0 -0.038504761339902653 0.39991098471183312 0 -0.034390239614443388 0.41297081136811731 0 -0.043498409862833987 0.42589117085859601 0 -0.034390239614443388 0.41297081136811731 0 -0.048124440952533501 0.41241871774239253 0 -0.047762384064198297 0.39893505539866531 0 -0.034390239614443388 0.41297081136811731 0 -0.048124440952533501 0.41241871774239253 0 -0.063582540621081443 0.40826344147684118 0 -0.047762384064198297 0.39893505539866531 0 -0.048124440952533501 0.41241871774239253 0 -0.043498409862833987 0.42589117085859601 0 -0.048124440952533501 0.41241871774239253 0 -0.05637301419504686 0.42028361376339352 0 -0.063582540621081443 0.40826344147684118 0 -0.048124440952533501 0.41241871774239253 0 -0.05637301419504686 0.42028361376339352 0 -0.043498409862833987 0.42589117085859601 0 -0.05637301419504686 0.42028361376339352 0 -0.058184609343473387 0.43814013154075238 0 -0.043498409862833987 0.42589117085859601 0 -0.058184609343473387 0.43814013154075238 0 -0.041469100025778569 0.43784234296470559 0 -0.058184609343473387 0.43814013154075238 0 -0.05929827010574195 0.45600138881903451 0 -0.04080872450692636 0.45086827881666403 0 -0.05929827010574195 0.45600138881903451 0 -0.04080872450692636 0.45086827881666403 0 -0.048522482928695203 0.47028939646773749 0 -0.05929827010574195 0.45600138881903451 0 -0.048522482928695203 0.47028939646773749 0 -0.069696574416503135 0.47722307499210209 0 -0.032039605188791828 0.46665098116835241 0 -0.04080872450692636 0.45086827881666403 0 -0.048522482928695203 0.47028939646773749 0 -0.02753556426539025 0.43472810852608917 0 -0.041469100025778569 0.43784234296470559 0 -0.04080872450692636 0.45086827881666403 0 -0.058184609343473387 0.43814013154075238 0 -0.041469100025778569 0.43784234296470559 0 -0.04080872450692636 0.45086827881666403 0 -0.016033395375402659 0.43223863988107353 0 -0.02753556426539025 0.43472810852608917 0 -0.020680888916336411 0.45648540568406099 0 -0.02753556426539025 0.43472810852608917 0 -0.04080872450692636 0.45086827881666403 0 -0.020680888916336411 0.45648540568406099 0 -0.02753556426539025 0.43472810852608917 0 -0.020680888916336411 0.45648540568406099 0 -0.032039605188791828 0.46665098116835241 0 -0.020680888916336411 0.45648540568406099 0 -0.013826213567282589 0.47824270284203269 0 -0.032039605188791828 0.46665098116835241 0 -0.04080872450692636 0.45086827881666403 0 -0.020680888916336411 0.45648540568406099 0 -0.020680888916336411 0.45648540568406099 0 -0.013826213567282589 0.47824270284203269 0 -0.020680888916336411 0.45648540568406099 0 -0.0010088918709907711 0.46772692835726898 0 -0.013826213567282589 0.47824270284203269 0 -0.020680888916336411 0.45648540568406099 0 -0.0010088918709907711 0.46772692835726898 0 0.002323448863637629 0.45150646839403008 0 -0.016033395375402659 0.43223863988107353 0 -0.020680888916336411 0.45648540568406099 0 0.002323448863637629 0.45150646839403008 0 -0.0001396583686269239 0.42894674625762558 0 -0.016033395375402659 0.43223863988107353 0 0.002323448863637629 0.45150646839403008 0 -0.016033395375402659 0.43223863988107353 0 0.002323448863637629 0.45150646839403008 0 -0.0069715382182276298 0.500000000000004 0 -0.013826213567282589 0.47824270284203269 0 0.0029393931019532859 0.48589719718991148 0 -0.0069715382182276298 0.500000000000004 0 -0.013826213567282589 0.47824270284203269 0 -0.0010088918709907711 0.46772692835726898 0 -0.013826213567282589 0.47824270284203269 0 0.0029393931019532859 0.48589719718991148 0 -0.032039605188791828 0.46665098116835241 0 -0.013826213567282589 0.47824270284203269 0 -0.032703277413622521 0.48093599743117138 0 -0.0069715382182276298 0.500000000000004 0 -0.013826213567282589 0.47824270284203269 0 -0.032301803555956472 0.5 0 -0.013826213567282589 0.47824270284203269 0 -0.032301803555956472 0.5 0 -0.032703277413622521 0.48093599743117138 0 -0.032301803555956472 0.5 0 -0.032703277413622521 0.48093599743117138 0 -0.05763206889368544 0.5 0 -0.032703277413622521 0.48093599743117138 0 -0.048522482928695203 0.47028939646773749 0 -0.05763206889368544 0.5 0 -0.032039605188791828 0.46665098116835241 0 -0.032703277413622521 0.48093599743117138 0 -0.048522482928695203 0.47028939646773749 0 -0.048522482928695203 0.47028939646773749 0 -0.05763206889368544 0.5 0 -0.069696574416503135 0.47722307499210209 0 -0.05763206889368544 0.5 0 -0.082962334231414303 0.5 0 -0.069696574416503135 0.47722307499210209 0 -0.082962334231414303 0.5 0 -0.092685629969541522 0.47901588822194752 0 -0.069696574416503135 0.47722307499210209 0 -0.092685629969541522 0.47901588822194752 0 -0.069696574416503135 0.47722307499210209 0 -0.077078660369940405 0.45803177644389359 0 -0.05929827010574195 0.45600138881903451 0 -0.069696574416503135 0.47722307499210209 0 -0.077078660369940405 0.45803177644389359 0 -0.05929827010574195 0.45600138881903451 0 -0.077078660369940405 0.45803177644389359 0 -0.081159774486079611 0.44085646489599473 0 -0.058184609343473387 0.43814013154075238 0 -0.081159774486079611 0.44085646489599473 0 -0.058184609343473387 0.43814013154075238 0 -0.05929827010574195 0.45600138881903451 0 -0.081159774486079611 0.44085646489599473 0 -0.077078660369940405 0.45803177644389359 0 -0.081159774486079611 0.44085646489599473 0 -0.09567527663695867 0.45814758617391022 0 -0.081159774486079611 0.44085646489599473 0 -0.09567527663695867 0.45814758617391022 0 -0.10413493962868579 0.44357279825123702 0 -0.094048330652057061 0.43219851583660701 0 -0.081159774486079611 0.44085646489599473 0 -0.10413493962868579 0.44357279825123702 0 -0.081159774486079611 0.44085646489599473 0 -0.10413493962868579 0.44357279825123702 0 -0.092685629969541522 0.47901588822194752 0 -0.077078660369940405 0.45803177644389359 0 -0.09567527663695867 0.45814758617391022 0 -0.092685629969541522 0.47901588822194752 0 -0.077078660369940405 0.45803177644389359 0 -0.092685629969541522 0.47901588822194752 0 -0.09567527663695867 0.45814758617391022 0 -0.1100799284683566 0.46889225312778371 0 -0.09567527663695867 0.45814758617391022 0 -0.1142199275909497 0.4561264262978349 0 -0.1100799284683566 0.46889225312778371 0 -0.09567527663695867 0.45814758617391022 0 -0.10413493962868579 0.44357279825123702 0 -0.1142199275909497 0.4561264262978349 0 -0.10413493962868579 0.44357279825123702 0 -0.1230046864836971 0.44912249390313519 0 -0.1142199275909497 0.4561264262978349 0 -0.127110104771292 0.44628913160647932 0 -0.11303687166995301 0.43406456449401032 0 -0.10413493962868579 0.44357279825123702 0 -0.127110104771292 0.44628913160647932 0 -0.10413493962868579 0.44357279825123702 0 -0.127110104771292 0.44628913160647932 0 -0.10413493962868579 0.44357279825123702 0 -0.1230046864836971 0.44912249390313519 0 -0.127110104771292 0.44628913160647932 0 -0.12582028798773601 0.43557595697160212 0 -0.11303687166995301 0.43406456449401032 0 -0.1142199275909497 0.4561264262978349 0 -0.122377696522578 0.46366266860828159 0 -0.1100799284683566 0.46889225312778371 0 -0.1142199275909497 0.4561264262978349 0 -0.1212787194279505 0.45611031657001838 0 -0.122377696522578 0.46366266860828159 0 -0.1230046864836971 0.44912249390313519 0 -0.1142199275909497 0.4561264262978349 0 -0.1212787194279505 0.45611031657001838 0 -0.12695833985532259 0.45756942101487302 0 -0.1230046864836971 0.44912249390313519 0 -0.1212787194279505 0.45611031657001838 0 -0.12695833985532259 0.45756942101487302 0 -0.1212787194279505 0.45611031657001838 0 -0.122377696522578 0.46366266860828159 0 -0.1202814620937747 0.47400449053672777 0 -0.1100799284683566 0.46889225312778371 0 -0.1149921912092071 0.48466225520027822 0 -0.122377696522578 0.46366266860828159 0 -0.1202814620937747 0.47400449053672777 0 -0.1100799284683566 0.46889225312778371 0 -0.13118830386020741 0.47279695520388898 0 -0.122377696522578 0.46366266860828159 0 -0.1202814620937747 0.47400449053672777 0 -0.13025054025300761 0.4826643573959446 0 -0.1202814620937747 0.47400449053672777 0 -0.1149921912092071 0.48466225520027822 0 -0.13072716435958551 0.5 0 -0.1149921912092071 0.48466225520027822 0 -0.1082925995691431 0.500000000000001 0 -0.092685629969541522 0.47901588822194752 0 -0.1149921912092071 0.48466225520027822 0 -0.1082925995691431 0.500000000000001 0 -0.082962334231414303 0.5 0 -0.092685629969541522 0.47901588822194752 0 -0.1082925995691431 0.500000000000001 0 -0.092685629969541522 0.47901588822194752 0 -0.1082925995691431 0.500000000000001 0 -0.092685629969541522 0.47901588822194752 0 -0.1100799284683566 0.46889225312778371 0 -0.1149921912092071 0.48466225520027822 0 -0.16551667938077999 0.082513341348645422 0 -0.18061203251984309 0.088411149822470045 0 -0.15845715010614481 0.1024475037244037 0 -0.16551667938077999 0.082513341348645422 0 -0.1779769976040485 0.070483681216973737 0 -0.15227507201302931 0.067704650908776975 0 -0.1779769976040485 0.070483681216973737 0 -0.15227507201302931 0.067704650908776975 0 -0.16551667938077999 0.082513341348645422 0 -0.1779769976040485 0.070483681216973737 0 -0.18046598584485901 0.079275229112162754 0 -0.1779769976040485 0.070483681216973737 0 -0.18046598584485901 0.079275229112162754 0 -0.18910017081947189 0.077161513519462682 0 -0.18046598584485901 0.079275229112162754 0 -0.18061203251984309 0.088411149822470045 0 -0.18910017081947189 0.077161513519462682 0 -0.16551667938077999 0.082513341348645422 0 -0.18046598584485901 0.079275229112162754 0 -0.18061203251984309 0.088411149822470045 0 -0.18061203251984309 0.088411149822470045 0 -0.18304777783487139 0.10237327216028309 0 -0.19093275783285291 0.088805127310320892 0 -0.18061203251984309 0.088411149822470045 0 -0.18304777783487139 0.10237327216028309 0 -0.15845715010614481 0.1024475037244037 0 -0.18304777783487139 0.10237327216028309 0 -0.18474758124021831 0.1190606682750298 0 -0.16651351196849409 0.11658148297790701 0 -0.18474758124021831 0.1190606682750298 0 -0.16651351196849409 0.11658148297790701 0 -0.16571361671932719 0.13582776304223659 0 -0.18061203251984309 0.088411149822470045 0 -0.15845715010614481 0.1024475037244037 0 -0.18304777783487139 0.10237327216028309 0 -0.16651351196849409 0.11658148297790701 0 -0.15845715010614481 0.1024475037244037 0 -0.15845715010614481 0.1024475037244037 0 -0.13630226769244641 0.1164838576263373 0 -0.14343982139728759 0.087265855055837865 0 -0.16651351196849409 0.11658148297790701 0 -0.13630226769244641 0.1164838576263373 0 -0.16571361671932719 0.13582776304223659 0 -0.16651351196849409 0.11658148297790701 0 -0.15845715010614481 0.1024475037244037 0 -0.13630226769244641 0.1164838576263373 0 -0.15845715010614481 0.1024475037244037 0 -0.13630226769244641 0.1164838576263373 0 -0.13630226769244641 0.1164838576263373 0 -0.1141473852787479 0.13052021152827101 0 -0.13630226769244641 0.1164838576263373 0 -0.14343982139728759 0.087265855055837865 0 -0.12224603600437969 0.092446361399098009 0 -0.14343982139728759 0.087265855055837865 0 -0.1265731464220102 0.064925620600580214 0 -0.12224603600437969 0.092446361399098009 0 -0.16551667938077999 0.082513341348645422 0 -0.15845715010614481 0.1024475037244037 0 -0.14343982139728759 0.087265855055837865 0 -0.16551667938077999 0.082513341348645422 0 -0.14343982139728759 0.087265855055837865 0 -0.15227507201302931 0.067704650908776975 0 -0.14343982139728759 0.087265855055837865 0 -0.15227507201302931 0.067704650908776975 0 -0.1265731464220102 0.064925620600580214 0 -0.15227507201302931 0.067704650908776975 0 -0.1265731464220102 0.064925620600580214 0 -0.1265731464220102 0.064925620600580214 0 -0.12528265127355759 0.04616558801098529 0 -0.1453167611995381 0.043175211335080017 0 -0.12528265127355759 0.04616558801098529 0 -0.1453167611995381 0.043175211335080017 0 -0.1303499436086531 0.02861210326272131 0 -0.15227507201302931 0.067704650908776975 0 -0.1453167611995381 0.043175211335080017 0 -0.17039428443984389 0.047793588559997248 0 -0.15227507201302931 0.067704650908776975 0 -0.1265731464220102 0.064925620600580214 0 -0.1453167611995381 0.043175211335080017 0 -0.13462794717459339 0.0001373875200551381 0 -0.1303499436086531 0.02861210326272131 0 -0.11854375220917759 0.012447116600704021 0 -0.13462794717459339 0.0001373875200551381 0 -0.1303499436086531 0.02861210326272131 0 -0.14662316452295349 0.016804825748710919 0 -0.1453167611995381 0.043175211335080017 0 -0.14662316452295349 0.016804825748710919 0 -0.16616568839751999 0.0215291544661559 0 -0.1453167611995381 0.043175211335080017 0 -0.1303499436086531 0.02861210326272131 0 -0.14662316452295349 0.016804825748710919 0 -0.162708168390197 -0.0035735325303842269 0 -0.13462794717459339 0.0001373875200551381 0 -0.14662316452295349 0.016804825748710919 0 -0.162708168390197 -0.0035735325303842269 0 -0.14662316452295349 0.016804825748710919 0 -0.16616568839751999 0.0215291544661559 0 -0.16616568839751999 0.0215291544661559 0 -0.18707532562806251 0.02852451165415288 0 -0.1903622337904419 0.00073110470842471559 0 -0.16616568839751999 0.0215291544661559 0 -0.18707532562806251 0.02852451165415288 0 -0.162708168390197 -0.0035735325303842269 0 -0.16616568839751999 0.0215291544661559 0 -0.1903622337904419 0.00073110470842471559 0 -0.1779769976040485 0.070483681216973737 0 -0.15227507201302931 0.067704650908776975 0 -0.17039428443984389 0.047793588559997248 0 -0.1453167611995381 0.043175211335080017 0 -0.16616568839751999 0.0215291544661559 0 -0.17039428443984389 0.047793588559997248 0 -0.16616568839751999 0.0215291544661559 0 -0.18707532562806251 0.02852451165415288 0 -0.17039428443984389 0.047793588559997248 0 -0.18707532562806251 0.02852451165415288 0 -0.17039428443984389 0.047793588559997248 0 -0.1942462450994826 0.052219746258991978 0 -0.1779769976040485 0.070483681216973737 0 -0.17039428443984389 0.047793588559997248 0 -0.1942462450994826 0.052219746258991978 0 -0.18707532562806251 0.02852451165415288 0 -0.20798496285860499 0.035519868842149853 0 -0.18707532562806251 0.02852451165415288 0 -0.1942462450994826 0.052219746258991978 0 -0.20798496285860499 0.035519868842149853 0 -0.20798496285860499 0.035519868842149853 0 -0.22889460008914761 0.042515226030146583 0 -0.1942462450994826 0.052219746258991978 0 -0.20798496285860499 0.035519868842149853 0 -0.2077857594558552 0.049070936282641038 0 -0.20798496285860499 0.035519868842149853 0 -0.2077857594558552 0.049070936282641038 0 -0.2207778955732668 0.047619569973713319 0 -0.1942462450994826 0.052219746258991978 0 -0.21373718892460361 0.060997866090993093 0 -0.2036789231950677 0.073262711525169888 0 -0.21373718892460361 0.060997866090993093 0 -0.2077857594558552 0.049070936282641038 0 -0.2207778955732668 0.047619569973713319 0 -0.1942462450994826 0.052219746258991978 0 -0.21373718892460361 0.060997866090993093 0 -0.2077857594558552 0.049070936282641038 0 -0.18707532562806251 0.02852451165415288 0 -0.1903622337904419 0.00073110470842471559 0 -0.2061439563615938 0.016424364768324901 0 -0.18707532562806251 0.02852451165415288 0 -0.20798496285860499 0.035519868842149853 0 -0.2061439563615938 0.016424364768324901 0 -0.2061439563615938 0.016424364768324901 0 -0.223604335263451 0.01343528149547835 0 -0.2205790199862411 0.032623206155060577 0 -0.20798496285860499 0.035519868842149853 0 -0.2061439563615938 0.016424364768324901 0 -0.2205790199862411 0.032623206155060577 0 -0.21530102755693351 -0.01197061959936772 0 -0.1903622337904419 0.00073110470842471559 0 -0.2061439563615938 0.016424364768324901 0 -0.21530102755693351 -0.01197061959936772 0 -0.2061439563615938 0.016424364768324901 0 -0.223604335263451 0.01343528149547835 0 -0.21530102755693351 -0.01197061959936772 0 -0.223604335263451 0.01343528149547835 0 -0.21530102755693351 -0.01197061959936772 0 -0.223604335263451 0.01343528149547835 0 -0.22989434843903819 0.00062340882394032373 0 -0.223604335263451 0.01343528149547835 0 -0.22989434843903819 0.00062340882394032373 0 -0.24396522868510681 0.011082239745400501 0 -0.223604335263451 0.01343528149547835 0 -0.23190764296996269 0.03884118259032647 0 -0.23418409884176331 0.03606531842484291 0 -0.223604335263451 0.01343528149547835 0 -0.23190764296996269 0.03884118259032647 0 -0.223604335263451 0.01343528149547835 0 -0.24396522868510681 0.011082239745400501 0 -0.23418409884176331 0.03606531842484291 0 -0.223604335263451 0.01343528149547835 0 -0.2205790199862411 0.032623206155060577 0 -0.23190764296996269 0.03884118259032647 0 -0.24712558119618661 0.020284737056821159 0 -0.23418409884176331 0.03606531842484291 0 -0.24411737960083171 0.037214195760142399 0 -0.24396522868510681 0.011082239745400501 0 -0.23418409884176331 0.03606531842484291 0 -0.24712558119618661 0.020284737056821159 0 -0.24396522868510681 0.011082239745400501 0 -0.23418409884176331 0.03606531842484291 0 -0.24712558119618661 0.020284737056821159 0 -0.23418409884176331 0.03606531842484291 0 -0.24712558119618661 0.020284737056821159 0 -0.24396522868510681 0.011082239745400501 0 -0.23670680225066101 -0.01005326634575009 0 -0.24396522868510681 0.011082239745400501 0 -0.23670680225066101 -0.01005326634575009 0 -0.22989434843903819 0.00062340882394032373 0 -0.24396522868510681 0.011082239745400501 0 -0.25244635663921139 -0.01058035858029167 0 -0.24396522868510681 0.011082239745400501 0 -0.2365299022825417 0.052984059993001507 0 -0.23212711339811479 0.064543631265989637 0 -0.22024123516086361 0.063303839265187317 0 -0.2365299022825417 0.052984059993001507 0 -0.22024123516086361 0.063303839265187317 0 -0.22379545465414211 0.048733020656818282 0 -0.2365299022825417 0.052984059993001507 0 -0.22024123516086361 0.063303839265187317 0 -0.2290225020661637 0.049249130563287002 0 -0.23362571704814589 0.044098029818737401 0 -0.2365299022825417 0.052984059993001507 0 -0.2290225020661637 0.049249130563287002 0 -0.22379545465414211 0.048733020656818282 0 -0.2365299022825417 0.052984059993001507 0 -0.22379545465414211 0.048733020656818282 0 -0.2365299022825417 0.052984059993001507 0 -0.21373718892460361 0.060997866090993093 0 -0.22379545465414211 0.048733020656818282 0 -0.21373718892460361 0.060997866090993093 0 -0.22379545465414211 0.048733020656818282 0 -0.22024123516086361 0.063303839265187317 0 -0.21373718892460361 0.060997866090993093 0 -0.22379545465414211 0.048733020656818282 0 -0.2207778955732668 0.047619569973713319 0 -0.22379545465414211 0.048733020656818282 0 -0.2207778955732668 0.047619569973713319 0 -0.22379545465414211 0.048733020656818282 0 -0.2207778955732668 0.047619569973713319 0 -0.22889460008914761 0.042515226030146583 0 -0.20798496285860499 0.035519868842149853 0 -0.2205790199862411 0.032623206155060577 0 -0.22889460008914761 0.042515226030146583 0 -0.20798496285860499 0.035519868842149853 0 -0.2207778955732668 0.047619569973713319 0 -0.22889460008914761 0.042515226030146583 0 -0.22379545465414211 0.048733020656818282 0 -0.22889460008914761 0.042515226030146583 0 -0.2205790199862411 0.032623206155060577 0 -0.23190764296996269 0.03884118259032647 0 -0.22889460008914761 0.042515226030146583 0 -0.23418409884176331 0.03606531842484291 0 -0.23244891775487481 0.040497338683369383 0 -0.23190764296996269 0.03884118259032647 0 -0.23418409884176331 0.03606531842484291 0 -0.23244891775487481 0.040497338683369383 0 -0.23190764296996269 0.03884118259032647 0 -0.23418409884176331 0.03606531842484291 0 -0.2290225020661637 0.049249130563287002 0 -0.22379545465414211 0.048733020656818282 0 -0.22889460008914761 0.042515226030146583 0 -0.2290225020661637 0.049249130563287002 0 -0.22889460008914761 0.042515226030146583 0 -0.23133875747473931 0.043332923331511182 0 -0.2290225020661637 0.049249130563287002 0 -0.23133875747473931 0.043332923331511182 0 -0.23190764296996269 0.03884118259032647 0 -0.22889460008914761 0.042515226030146583 0 -0.22889460008914761 0.042515226030146583 0 -0.23133875747473931 0.043332923331511182 0 -0.22889460008914761 0.042515226030146583 0 -0.23244891775487481 0.040497338683369383 0 -0.23133875747473931 0.043332923331511182 0 -0.23244891775487481 0.040497338683369383 0 -0.23133875747473931 0.043332923331511182 0 -0.23190764296996269 0.03884118259032647 0 -0.22889460008914761 0.042515226030146583 0 -0.23244891775487481 0.040497338683369383 0 -0.23190764296996269 0.03884118259032647 0 -0.23244891775487481 0.040497338683369383 0 -0.23244891775487481 0.040497338683369383 0 -0.23362571704814589 0.044098029818737401 0 -0.23244891775487481 0.040497338683369383 0 -0.23362571704814589 0.044098029818737401 0 -0.23133875747473931 0.043332923331511182 0 -0.2290225020661637 0.049249130563287002 0 -0.23362571704814589 0.044098029818737401 0 -0.23133875747473931 0.043332923331511182 0 -0.23362571704814589 0.044098029818737401 0 -0.23133875747473931 0.043332923331511182 0 -0.25445515451353462 0.041627412758430252 0 -0.24712558119618661 0.020284737056821159 0 -0.24411737960083171 0.037214195760142399 0 -0.23362571704814589 0.044098029818737401 0 -0.2447050572814031 0.047804643256565749 0 -0.23362571704814589 0.044098029818737401 0 -0.23878067565501501 0.040420605745962103 0 -0.2447050572814031 0.047804643256565749 0 -0.23244891775487481 0.040497338683369383 0 -0.23362571704814589 0.044098029818737401 0 -0.23878067565501501 0.040420605745962103 0 -0.23418409884176331 0.03606531842484291 0 -0.23878067565501501 0.040420605745962103 0 -0.24411737960083171 0.037214195760142399 0 -0.23418409884176331 0.03606531842484291 0 -0.23244891775487481 0.040497338683369383 0 -0.23878067565501501 0.040420605745962103 0 -0.25445515451353462 0.041627412758430252 0 -0.24411737960083171 0.037214195760142399 0 -0.2447050572814031 0.047804643256565749 0 -0.25445515451353462 0.041627412758430252 0 -0.2447050572814031 0.047804643256565749 0 -0.23878067565501501 0.040420605745962103 0 -0.24411737960083171 0.037214195760142399 0 -0.2447050572814031 0.047804643256565749 0 -0.26169845267323261 0.062718867463793793 0 -0.2365299022825417 0.052984059993001507 0 -0.25811756134856428 0.052291820901049349 0 -0.2447050572814031 0.047804643256565749 0 -0.2365299022825417 0.052984059993001507 0 -0.23362571704814589 0.044098029818737401 0 -0.2365299022825417 0.052984059993001507 0 -0.23362571704814589 0.044098029818737401 0 -0.2447050572814031 0.047804643256565749 0 -0.2365299022825417 0.052984059993001507 0 -0.2447050572814031 0.047804643256565749 0 -0.2365299022825417 0.052984059993001507 0 -0.2365299022825417 0.052984059993001507 0 -0.244603698784257 0.07768771817751037 0 -0.244603698784257 0.07768771817751037 0 -0.23212711339811479 0.064543631265989637 0 -0.22715220316245649 0.075800768692566828 0 -0.244603698784257 0.07768771817751037 0 -0.22715220316245649 0.075800768692566828 0 -0.2365299022825417 0.052984059993001507 0 -0.244603698784257 0.07768771817751037 0 -0.23212711339811479 0.064543631265989637 0 -0.26169845267323261 0.062718867463793793 0 -0.2365299022825417 0.052984059993001507 0 -0.244603698784257 0.07768771817751037 0 -0.25041198015142918 0.095459505898848926 0 -0.244603698784257 0.07768771817751037 0 -0.244603698784257 0.07768771817751037 0 -0.23878209165694411 0.085630137295706413 0 -0.22715220316245649 0.075800768692566828 0 -0.25041198015142918 0.095459505898848926 0 -0.244603698784257 0.07768771817751037 0 -0.23878209165694411 0.085630137295706413 0 -0.25041198015142918 0.095459505898848926 0 -0.23878209165694411 0.085630137295706413 0 -0.23005150519205089 0.1001529533237577 0 -0.25041198015142918 0.095459505898848926 0 -0.23878209165694411 0.085630137295706413 0 -0.23878209165694411 0.085630137295706413 0 -0.22232738478282671 0.087611245987071679 0 -0.23005150519205089 0.1001529533237577 0 -0.23878209165694411 0.085630137295706413 0 -0.22232738478282671 0.087611245987071679 0 -0.22715220316245649 0.075800768692566828 0 -0.23878209165694411 0.085630137295706413 0 -0.22715220316245649 0.075800768692566828 0 -0.22232738478282671 0.087611245987071679 0 -0.22715220316245649 0.075800768692566828 0 -0.21505853266560709 0.080962433262476985 0 -0.23212711339811479 0.064543631265989637 0 -0.22715220316245649 0.075800768692566828 0 -0.22578305267013729 0.067780797573285603 0 -0.22715220316245649 0.075800768692566828 0 -0.2231046497755646 0.072379850753457389 0 -0.22715220316245649 0.075800768692566828 0 -0.2231046497755646 0.072379850753457389 0 -0.22578305267013729 0.067780797573285603 0 -0.23212711339811479 0.064543631265989637 0 -0.22024123516086361 0.063303839265187317 0 -0.22578305267013729 0.067780797573285603 0 -0.2231046497755646 0.072379850753457389 0 -0.22024123516086361 0.063303839265187317 0 -0.22578305267013729 0.067780797573285603 0 -0.22715220316245649 0.075800768692566828 0 -0.2231046497755646 0.072379850753457389 0 -0.2036789231950677 0.073262711525169888 0 -0.22715220316245649 0.075800768692566828 0 -0.2036789231950677 0.073262711525169888 0 -0.22715220316245649 0.075800768692566828 0 -0.2036789231950677 0.073262711525169888 0 -0.21505853266560709 0.080962433262476985 0 -0.21373718892460361 0.060997866090993093 0 -0.22024123516086361 0.063303839265187317 0 -0.2036789231950677 0.073262711525169888 0 -0.22024123516086361 0.063303839265187317 0 -0.2036789231950677 0.073262711525169888 0 -0.2231046497755646 0.072379850753457389 0 -0.22024123516086361 0.063303839265187317 0 -0.2036789231950677 0.073262711525169888 0 -0.21373718892460361 0.060997866090993093 0 -0.2036789231950677 0.073262711525169888 0 -0.2036789231950677 0.073262711525169888 0 -0.2074189594356155 0.080497030347551582 0 -0.20375315101541619 0.078172072181257976 0 -0.22232738478282671 0.087611245987071679 0 -0.21505853266560709 0.080962433262476985 0 -0.2112980095145571 0.086733108060873462 0 -0.21505853266560709 0.080962433262476985 0 -0.2112980095145571 0.086733108060873462 0 -0.2074189594356155 0.080497030347551582 0 -0.22232738478282671 0.087611245987071679 0 -0.2112980095145571 0.086733108060873462 0 -0.21190264285907109 0.096316805323259091 0 -0.2112980095145571 0.086733108060873462 0 -0.20377037746341911 0.087265421738478441 0 -0.21190264285907109 0.096316805323259091 0 -0.20377037746341911 0.087265421738478441 0 -0.19945285021484571 0.094731556494637451 0 -0.21190264285907109 0.096316805323259091 0 -0.2036789231950677 0.073262711525169888 0 -0.21505853266560709 0.080962433262476985 0 -0.2074189594356155 0.080497030347551582 0 -0.2112980095145571 0.086733108060873462 0 -0.20377037746341911 0.087265421738478441 0 -0.2074189594356155 0.080497030347551582 0 -0.20377037746341911 0.087265421738478441 0 -0.2074189594356155 0.080497030347551582 0 -0.20078711137827959 0.08223609194224743 0 -0.2074189594356155 0.080497030347551582 0 -0.20375315101541619 0.078172072181257976 0 -0.20078711137827959 0.08223609194224743 0 -0.18061203251984309 0.088411149822470045 0 -0.2036789231950677 0.073262711525169888 0 -0.19093275783285291 0.088805127310320892 0 -0.18061203251984309 0.088411149822470045 0 -0.2036789231950677 0.073262711525169888 0 -0.2036789231950677 0.073262711525169888 0 -0.20078711137827959 0.08223609194224743 0 -0.19093275783285291 0.088805127310320892 0 -0.2036789231950677 0.073262711525169888 0 -0.19093275783285291 0.088805127310320892 0 -0.18061203251984309 0.088411149822470045 0 -0.2036789231950677 0.073262711525169888 0 -0.18910017081947189 0.077161513519462682 0 -0.20377037746341911 0.087265421738478441 0 -0.20078711137827959 0.08223609194224743 0 -0.19886775399102641 0.088262502963476611 0 -0.19886775399102641 0.088262502963476611 0 -0.19093275783285291 0.088805127310320892 0 -0.19945285021484571 0.094731556494637451 0 -0.20078711137827959 0.08223609194224743 0 -0.19886775399102641 0.088262502963476611 0 -0.19093275783285291 0.088805127310320892 0 -0.20377037746341911 0.087265421738478441 0 -0.19886775399102641 0.088262502963476611 0 -0.19945285021484571 0.094731556494637451 0 -0.1779769976040485 0.070483681216973737 0 -0.2036789231950677 0.073262711525169888 0 -0.1779769976040485 0.070483681216973737 0 -0.2036789231950677 0.073262711525169888 0 -0.18910017081947189 0.077161513519462682 0 -0.1779769976040485 0.070483681216973737 0 -0.1942462450994826 0.052219746258991978 0 -0.2036789231950677 0.073262711525169888 0 -0.2036789231950677 0.073262711525169888 0 -0.20375315101541619 0.078172072181257976 0 -0.20078711137827959 0.08223609194224743 0 -0.18474758124021831 0.1190606682750298 0 -0.20161024723001739 0.1234918147197808 0 -0.19919498225168841 0.10516477921956439 0 -0.18304777783487139 0.10237327216028309 0 -0.19093275783285291 0.088805127310320892 0 -0.19945285021484571 0.094731556494637451 0 -0.18304777783487139 0.10237327216028309 0 -0.19945285021484571 0.094731556494637451 0 -0.19919498225168841 0.10516477921956439 0 -0.18304777783487139 0.10237327216028309 0 -0.18474758124021831 0.1190606682750298 0 -0.19919498225168841 0.10516477921956439 0 -0.19919498225168841 0.10516477921956439 0 -0.21190264285907109 0.096316805323259091 0 -0.21537145973784311 0.1137864083821528 0 -0.19945285021484571 0.094731556494637451 0 -0.19919498225168841 0.10516477921956439 0 -0.21190264285907109 0.096316805323259091 0 -0.20161024723001739 0.1234918147197808 0 -0.19919498225168841 0.10516477921956439 0 -0.21537145973784311 0.1137864083821528 0 -0.21537145973784311 0.1137864083821528 0 -0.23005150519205089 0.1001529533237577 0 -0.23441766722934709 0.12163303467759309 0 -0.21190264285907109 0.096316805323259091 0 -0.21537145973784311 0.1137864083821528 0 -0.23005150519205089 0.1001529533237577 0 -0.22232738478282671 0.087611245987071679 0 -0.21190264285907109 0.096316805323259091 0 -0.23005150519205089 0.1001529533237577 0 -0.25041198015142918 0.095459505898848926 0 -0.23005150519205089 0.1001529533237577 0 -0.24365668353991851 0.1103158310452878 0 -0.23005150519205089 0.1001529533237577 0 -0.24365668353991851 0.1103158310452878 0 -0.23441766722934709 0.12163303467759309 0 -0.25974558158685063 0.1240178302809503 0 -0.24365668353991851 0.1103158310452878 0 -0.23441766722934709 0.12163303467759309 0 -0.25974558158685063 0.1240178302809503 0 -0.23441766722934709 0.12163303467759309 0 -0.2430235962010098 0.1436194546799206 0 -0.21537145973784311 0.1137864083821528 0 -0.23441766722934709 0.12163303467759309 0 -0.21725360304044899 0.1410222241340259 0 -0.23441766722934709 0.12163303467759309 0 -0.2430235962010098 0.1436194546799206 0 -0.21725360304044899 0.1410222241340259 0 -0.2430235962010098 0.1436194546799206 0 -0.21725360304044899 0.1410222241340259 0 -0.2430235962010098 0.1436194546799206 0 -0.23163065584569989 0.15671878317254051 0 -0.21725360304044899 0.1410222241340259 0 -0.23163065584569989 0.15671878317254051 0 -0.21686618610641339 0.16255438782047951 0 -0.21725360304044899 0.1410222241340259 0 -0.2430235962010098 0.1436194546799206 0 -0.24831344054178331 0.1637394002861367 0 -0.23163065584569989 0.15671878317254051 0 -0.24831344054178331 0.1637394002861367 0 -0.23269645333884359 0.17265844894214 0 -0.23163065584569989 0.15671878317254051 0 -0.24874787384898819 0.1830412972832951 0 -0.23269645333884359 0.17265844894214 0 -0.24831344054178331 0.1637394002861367 0 -0.24874787384898819 0.1830412972832951 0 -0.23269645333884359 0.17265844894214 0 -0.24874787384898819 0.1830412972832951 0 -0.23269645333884359 0.17265844894214 0 -0.2328730057025151 0.19163072600959261 0 -0.23269645333884359 0.17265844894214 0 -0.21686618610641339 0.16255438782047951 0 -0.2175106442814945 0.18045622608277151 0 -0.23269645333884359 0.17265844894214 0 -0.2175106442814945 0.18045622608277151 0 -0.2328730057025151 0.19163072600959261 0 -0.23269645333884359 0.17265844894214 0 -0.23163065584569989 0.15671878317254051 0 -0.21686618610641339 0.16255438782047951 0 -0.21686618610641339 0.16255438782047951 0 -0.2175106442814945 0.18045622608277151 0 -0.1993156649334524 0.1712286082868236 0 -0.21686618610641339 0.16255438782047951 0 -0.1993156649334524 0.1712286082868236 0 -0.20114155687020299 0.15454469316283859 0 -0.2175106442814945 0.18045622608277151 0 -0.1993156649334524 0.1712286082868236 0 -0.20366911463215759 0.189605459115015 0 -0.1993156649334524 0.1712286082868236 0 -0.20366911463215759 0.189605459115015 0 -0.18451317790993851 0.18579882756111329 0 -0.1993156649334524 0.1712286082868236 0 -0.18078872039081209 0.15949325198473299 0 -0.18451317790993851 0.18579882756111329 0 -0.1993156649334524 0.1712286082868236 0 -0.20114155687020299 0.15454469316283859 0 -0.18078872039081209 0.15949325198473299 0 -0.20114155687020299 0.15454469316283859 0 -0.19148360987988811 0.13842499358813129 0 -0.18078872039081209 0.15949325198473299 0 -0.18474758124021831 0.1190606682750298 0 -0.20161024723001739 0.1234918147197808 0 -0.19148360987988811 0.13842499358813129 0 -0.19148360987988811 0.13842499358813129 0 -0.21725360304044899 0.1410222241340259 0 -0.20161024723001739 0.1234918147197808 0 -0.21537145973784311 0.1137864083821528 0 -0.21725360304044899 0.1410222241340259 0 -0.20161024723001739 0.1234918147197808 0 -0.19148360987988811 0.13842499358813129 0 -0.21725360304044899 0.1410222241340259 0 -0.21686618610641339 0.16255438782047951 0 -0.20114155687020299 0.15454469316283859 0 -0.21725360304044899 0.1410222241340259 0 -0.20114155687020299 0.15454469316283859 0 -0.19148360987988811 0.13842499358813129 0 -0.21725360304044899 0.1410222241340259 0 -0.21756598056284651 0.25733161983562519 0 -0.22830434625702359 0.2468110332162354 0 -0.22010331165371061 0.2337737342241725 0 -0.22830434625702359 0.2468110332162354 0 -0.2358747505108218 0.2387511746591626 0 -0.22010331165371061 0.2337737342241725 0 -0.22830434625702359 0.2468110332162354 0 -0.23934874357292579 0.2480449370432222 0 -0.2358747505108218 0.2387511746591626 0 -0.25265335745042522 0.25109173675386448 0 -0.23934874357292579 0.2480449370432222 0 -0.24714809219953521 0.23907318359254359 0 -0.23934874357292579 0.2480449370432222 0 -0.24714809219953521 0.23907318359254359 0 -0.2358747505108218 0.2387511746591626 0 -0.26210488409125532 0.22149916584928939 0 -0.24543730221246171 0.22482866379383809 0 -0.23285429876042971 0.22226269782102931 0 -0.26210488409125532 0.22149916584928939 0 -0.23285429876042971 0.22226269782102931 0 -0.25542566316957921 0.23151948133455191 0 -0.24714809219953521 0.23907318359254359 0 -0.24543730221246171 0.22482866379383809 0 -0.24714809219953521 0.23907318359254359 0 -0.2358747505108218 0.2387511746591626 0 -0.24543730221246171 0.22482866379383809 0 -0.24543730221246171 0.22482866379383809 0 -0.22010331165371061 0.2337737342241725 0 -0.2358747505108218 0.2387511746591626 0 -0.24543730221246171 0.22482866379383809 0 -0.22010331165371061 0.2337737342241725 0 -0.24543730221246171 0.22482866379383809 0 -0.23285429876042971 0.22226269782102931 0 -0.22010331165371061 0.2337737342241725 0 -0.23285429876042971 0.22226269782102931 0 -0.22729759957767459 0.222407745088817 0 -0.22010331165371061 0.2337737342241725 0 -0.23285429876042971 0.22226269782102931 0 -0.22729759957767459 0.222407745088817 0 -0.23285429876042971 0.22226269782102931 0 -0.22010331165371061 0.2337737342241725 0 -0.22729759957767459 0.222407745088817 0 -0.21769626104938941 0.212227764667521 0 -0.2149329683533738 0.2230470200897548 0 -0.22729759957767459 0.222407745088817 0 -0.22010331165371061 0.2337737342241725 0 -0.2149329683533738 0.2230470200897548 0 -0.22729759957767459 0.222407745088817 0 -0.23032399180043189 0.20920425070046639 0 -0.21769626104938941 0.212227764667521 0 -0.23032399180043189 0.20920425070046639 0 -0.21891397653586331 0.19717162137630789 0 -0.21769626104938941 0.212227764667521 0 -0.23285429876042971 0.22226269782102931 0 -0.22729759957767459 0.222407745088817 0 -0.23032399180043189 0.20920425070046639 0 -0.23285429876042971 0.22226269782102931 0 -0.24882679655978021 0.20784342172274001 0 -0.23285429876042971 0.22226269782102931 0 -0.23032399180043189 0.20920425070046639 0 -0.24882679655978021 0.20784342172274001 0 -0.26210488409125532 0.22149916584928939 0 -0.23285429876042971 0.22226269782102931 0 -0.24882679655978021 0.20784342172274001 0 -0.23032399180043189 0.20920425070046639 0 -0.24882679655978021 0.20784342172274001 0 -0.2328730057025151 0.19163072600959261 0 -0.24874787384898819 0.1830412972832951 0 -0.24882679655978021 0.20784342172274001 0 -0.2328730057025151 0.19163072600959261 0 -0.2175106442814945 0.18045622608277151 0 -0.2328730057025151 0.19163072600959261 0 -0.21891397653586331 0.19717162137630789 0 -0.23032399180043189 0.20920425070046639 0 -0.2328730057025151 0.19163072600959261 0 -0.21891397653586331 0.19717162137630789 0 -0.2175106442814945 0.18045622608277151 0 -0.21891397653586331 0.19717162137630789 0 -0.20366911463215759 0.189605459115015 0 -0.21891397653586331 0.19717162137630789 0 -0.20366911463215759 0.189605459115015 0 -0.20779159837589939 0.20371229867637261 0 -0.20366911463215759 0.189605459115015 0 -0.19426220433264341 0.20262791676471059 0 -0.18451317790993851 0.18579882756111329 0 -0.20366911463215759 0.189605459115015 0 -0.19426220433264341 0.20262791676471059 0 -0.20779159837589939 0.20371229867637261 0 -0.19426220433264341 0.20262791676471059 0 -0.2055957059285205 0.21731052707077059 0 -0.20779159837589939 0.20371229867637261 0 -0.19426220433264341 0.20262791676471059 0 -0.1895106839374209 0.2151670456570319 0 -0.2055957059285205 0.21731052707077059 0 -0.2055957059285205 0.21731052707077059 0 -0.20779159837589939 0.20371229867637261 0 -0.21769626104938941 0.212227764667521 0 -0.21891397653586331 0.19717162137630789 0 -0.20779159837589939 0.20371229867637261 0 -0.21769626104938941 0.212227764667521 0 -0.2055957059285205 0.21731052707077059 0 -0.21769626104938941 0.212227764667521 0 -0.2149329683533738 0.2230470200897548 0 -0.22010331165371061 0.2337737342241725 0 -0.2149329683533738 0.2230470200897548 0 -0.2039719635575741 0.22951532939749339 0 -0.2055957059285205 0.21731052707077059 0 -0.2149329683533738 0.2230470200897548 0 -0.2039719635575741 0.22951532939749339 0 -0.1895106839374209 0.2151670456570319 0 -0.2055957059285205 0.21731052707077059 0 -0.19446508841384461 0.22511007809741701 0 -0.2055957059285205 0.21731052707077059 0 -0.2039719635575741 0.22951532939749339 0 -0.19446508841384461 0.22511007809741701 0 -0.1895106839374209 0.2151670456570319 0 -0.19446508841384461 0.22511007809741701 0 -0.18040207170674791 0.22473697629001929 0 -0.19446508841384461 0.22511007809741701 0 -0.19077138905781249 0.23388665280819221 0 -0.18040207170674791 0.22473697629001929 0 -0.2039719635575741 0.22951532939749339 0 -0.19446508841384461 0.22511007809741701 0 -0.19077138905781249 0.23388665280819221 0 -0.2039719635575741 0.22951532939749339 0 -0.19077138905781249 0.23388665280819221 0 -0.1964044414331278 0.2421414670040076 0 -0.19077138905781249 0.23388665280819221 0 -0.1964044414331278 0.2421414670040076 0 -0.18168704518393969 0.23817631751491711 0 -0.18897318159134591 0.25305656382600289 0 -0.1964044414331278 0.2421414670040076 0 -0.2021388689083978 0.24999125155618579 0 -0.22010331165371061 0.2337737342241725 0 -0.1964044414331278 0.2421414670040076 0 -0.22010331165371061 0.2337737342241725 0 -0.1964044414331278 0.2421414670040076 0 -0.2021388689083978 0.24999125155618579 0 -0.21756598056284651 0.25733161983562519 0 -0.22010331165371061 0.2337737342241725 0 -0.2021388689083978 0.24999125155618579 0 -0.22010331165371061 0.2337737342241725 0 -0.2021388689083978 0.24999125155618579 0 -0.22010331165371061 0.2337737342241725 0 -0.2039719635575741 0.22951532939749339 0 -0.1964044414331278 0.2421414670040076 0 -0.15772669448088769 0.25199779342224932 0 -0.1560650075342723 0.23138274364362829 0 -0.15772669448088769 0.25199779342224932 0 -0.16821426293324271 0.23761465524414241 0 -0.1560650075342723 0.23138274364362829 0 -0.1727055712125449 0.25050919978384217 0 -0.15772669448088769 0.25199779342224932 0 -0.16821426293324271 0.23761465524414241 0 -0.1727055712125449 0.25050919978384217 0 -0.1964044414331278 0.2421414670040076 0 -0.18897318159134591 0.25305656382600289 0 -0.1727055712125449 0.25050919978384217 0 -0.1964044414331278 0.2421414670040076 0 -0.1727055712125449 0.25050919978384217 0 -0.1964044414331278 0.2421414670040076 0 -0.18168704518393969 0.23817631751491711 0 -0.1727055712125449 0.25050919978384217 0 -0.16821426293324271 0.23761465524414241 0 -0.18168704518393969 0.23817631751491711 0 -0.16821426293324271 0.23761465524414241 0 -0.18168704518393969 0.23817631751491711 0 -0.18040207170674791 0.22473697629001929 0 -0.19077138905781249 0.23388665280819221 0 -0.18168704518393969 0.23817631751491711 0 -0.18040207170674791 0.22473697629001929 0 -0.16681116151336409 0.2199351272261236 0 -0.15440332058765691 0.21076769386500729 0 -0.1560650075342723 0.23138274364362829 0 -0.16821426293324271 0.23761465524414241 0 -0.18040207170674791 0.22473697629001929 0 -0.16681116151336409 0.2199351272261236 0 -0.16821426293324271 0.23761465524414241 0 -0.16681116151336409 0.2199351272261236 0 -0.1560650075342723 0.23138274364362829 0 -0.16681116151336409 0.2199351272261236 0 -0.174780947413059 0.2060943986577303 0 -0.15440332058765691 0.21076769386500729 0 -0.19426220433264341 0.20262791676471059 0 -0.1895106839374209 0.2151670456570319 0 -0.174780947413059 0.2060943986577303 0 -0.18040207170674791 0.22473697629001929 0 -0.16681116151336409 0.2199351272261236 0 -0.174780947413059 0.2060943986577303 0 -0.1895106839374209 0.2151670456570319 0 -0.18040207170674791 0.22473697629001929 0 -0.174780947413059 0.2060943986577303 0 -0.174780947413059 0.2060943986577303 0 -0.162933983354073 0.19243835525494321 0 -0.18451317790993851 0.18579882756111329 0 -0.19426220433264341 0.20262791676471059 0 -0.174780947413059 0.2060943986577303 0 -0.18451317790993851 0.18579882756111329 0 -0.174780947413059 0.2060943986577303 0 -0.162933983354073 0.19243835525494321 0 -0.15440332058765691 0.21076769386500729 0 -0.162933983354073 0.19243835525494321 0 -0.14425244667512299 0.1903859913767425 0 -0.15440332058765691 0.21076769386500729 0 -0.14425244667512299 0.1903859913767425 0 -0.13629435900140599 0.20647606999940171 0 -0.15440332058765691 0.21076769386500729 0 -0.14425244667512299 0.1903859913767425 0 -0.13629435900140599 0.20647606999940171 0 -0.1212007918498524 0.19439131334972931 0 -0.13629435900140599 0.20647606999940171 0 -0.12249216748170259 0.21953456427116191 0 -0.1212007918498524 0.19439131334972931 0 -0.13629435900140599 0.20647606999940171 0 -0.14080915201373481 0.2210776791387194 0 -0.12249216748170259 0.21953456427116191 0 -0.13629435900140599 0.20647606999940171 0 -0.15440332058765691 0.21076769386500729 0 -0.14080915201373481 0.2210776791387194 0 -0.14080915201373481 0.2210776791387194 0 -0.1560650075342723 0.23138274364362829 0 -0.1347909054636364 0.23722732391439791 0 -0.15440332058765691 0.21076769386500729 0 -0.14080915201373481 0.2210776791387194 0 -0.1560650075342723 0.23138274364362829 0 -0.15440332058765691 0.21076769386500729 0 -0.1560650075342723 0.23138274364362829 0 -0.1347909054636364 0.23722732391439791 0 -0.12249216748170259 0.21953456427116191 0 -0.1347909054636364 0.23722732391439791 0 -0.1203586633445525 0.2418752357480258 0 -0.12249216748170259 0.21953456427116191 0 -0.14080915201373481 0.2210776791387194 0 -0.1347909054636364 0.23722732391439791 0 -0.12249216748170259 0.21953456427116191 0 -0.1275545426262219 0.25622480739562009 0 -0.1470896434455701 0.25492008355763379 0 -0.1347909054636364 0.23722732391439791 0 -0.1275545426262219 0.25622480739562009 0 -0.1347909054636364 0.23722732391439791 0 -0.1203586633445525 0.2418752357480258 0 -0.1470896434455701 0.25492008355763379 0 -0.1347909054636364 0.23722732391439791 0 -0.1470896434455701 0.25492008355763379 0 -0.1347909054636364 0.23722732391439791 0 -0.14934226285266031 0.24229912948510379 0 -0.15772669448088769 0.25199779342224932 0 -0.1560650075342723 0.23138274364362829 0 -0.14934226285266031 0.24229912948510379 0 -0.1560650075342723 0.23138274364362829 0 -0.1347909054636364 0.23722732391439791 0 -0.14934226285266031 0.24229912948510379 0 -0.15772669448088769 0.25199779342224932 0 -0.1470896434455701 0.25492008355763379 0 -0.14934226285266031 0.24229912948510379 0 -0.16571361671932719 0.13582776304223659 0 -0.18078872039081209 0.15949325198473299 0 -0.15729487954557211 0.1579153615499321 0 -0.19148360987988811 0.13842499358813129 0 -0.16571361671932719 0.13582776304223659 0 -0.18474758124021831 0.1190606682750298 0 -0.19148360987988811 0.13842499358813129 0 -0.16571361671932719 0.13582776304223659 0 -0.19148360987988811 0.13842499358813129 0 -0.16571361671932719 0.13582776304223659 0 -0.18078872039081209 0.15949325198473299 0 -0.18078872039081209 0.15949325198473299 0 -0.18451317790993851 0.18579882756111329 0 -0.16771039925498121 0.17651173034938181 0 -0.162933983354073 0.19243835525494321 0 -0.18451317790993851 0.18579882756111329 0 -0.16771039925498121 0.17651173034938181 0 -0.162933983354073 0.19243835525494321 0 -0.16771039925498121 0.17651173034938181 0 -0.15253648976412759 0.17622788735773329 0 -0.16771039925498121 0.17651173034938181 0 -0.15729487954557211 0.1579153615499321 0 -0.15253648976412759 0.17622788735773329 0 -0.18078872039081209 0.15949325198473299 0 -0.16771039925498121 0.17651173034938181 0 -0.15729487954557211 0.1579153615499321 0 -0.15729487954557211 0.1579153615499321 0 -0.13093738241875089 0.16963061631317869 0 -0.13921114140409421 0.14409220003028569 0 -0.15729487954557211 0.1579153615499321 0 -0.15253648976412759 0.17622788735773329 0 -0.13093738241875089 0.16963061631317869 0 -0.162933983354073 0.19243835525494321 0 -0.14425244667512299 0.1903859913767425 0 -0.15253648976412759 0.17622788735773329 0 -0.14425244667512299 0.1903859913767425 0 -0.15253648976412759 0.17622788735773329 0 -0.13093738241875089 0.16963061631317869 0 -0.14425244667512299 0.1903859913767425 0 -0.13093738241875089 0.16963061631317869 0 -0.1212007918498524 0.19439131334972931 0 -0.13093738241875089 0.16963061631317869 0 -0.13921114140409421 0.14409220003028569 0 -0.1195858627225137 0.1504057794478888 0 -0.16571361671932719 0.13582776304223659 0 -0.15729487954557211 0.1579153615499321 0 -0.13921114140409421 0.14409220003028569 0 -0.13630226769244641 0.1164838576263373 0 -0.16571361671932719 0.13582776304223659 0 -0.13921114140409421 0.14409220003028569 0 -0.13630226769244641 0.1164838576263373 0 -0.13921114140409421 0.14409220003028569 0 -0.1141473852787479 0.13052021152827101 0 -0.1141473852787479 0.13052021152827101 0 -0.09199250286504948 0.1445565654302047 0 -0.1141473852787479 0.13052021152827101 0 -0.09199250286504948 0.1445565654302047 0 -0.09010436070795097 0.11865627084901099 0 -0.1056723960601989 0.1634775342494689 0 -0.090764288997167417 0.1595688300927055 0 -0.09199250286504948 0.1445565654302047 0 -0.1195858627225137 0.1504057794478888 0 -0.1056723960601989 0.1634775342494689 0 -0.09199250286504948 0.1445565654302047 0 -0.1141473852787479 0.13052021152827101 0 -0.1195858627225137 0.1504057794478888 0 -0.09199250286504948 0.1445565654302047 0 -0.13921114140409421 0.14409220003028569 0 -0.1141473852787479 0.13052021152827101 0 -0.1195858627225137 0.1504057794478888 0 -0.13093738241875089 0.16963061631317869 0 -0.1195858627225137 0.1504057794478888 0 -0.1056723960601989 0.1634775342494689 0 -0.13093738241875089 0.16963061631317869 0 -0.10641802271770499 0.1825018393973856 0 -0.1056723960601989 0.1634775342494689 0 -0.13093738241875089 0.16963061631317869 0 -0.10641802271770499 0.1825018393973856 0 -0.1212007918498524 0.19439131334972931 0 -0.10641802271770499 0.1825018393973856 0 -0.1056723960601989 0.1634775342494689 0 -0.093305039612713303 0.1742152740143528 0 -0.10641802271770499 0.1825018393973856 0 -0.093305039612713303 0.1742152740143528 0 -0.091806956472232651 0.18863986941764241 0 -0.1056723960601989 0.1634775342494689 0 -0.090764288997167417 0.1595688300927055 0 -0.093305039612713303 0.1742152740143528 0 -0.090764288997167417 0.1595688300927055 0 -0.081875896857390662 0.16948586836724319 0 -0.067987776932815491 0.1544024986497313 0 -0.090764288997167417 0.1595688300927055 0 -0.081875896857390662 0.16948586836724319 0 -0.093305039612713303 0.1742152740143528 0 -0.082989246851742415 0.17911715744910819 0 -0.091806956472232651 0.18863986941764241 0 -0.074234272839033291 0.18792239219699519 0 -0.093305039612713303 0.1742152740143528 0 -0.082989246851742415 0.17911715744910819 0 -0.091806956472232651 0.18863986941764241 0 -0.081875896857390662 0.16948586836724319 0 -0.093305039612713303 0.1742152740143528 0 -0.082989246851742415 0.17911715744910819 0 -0.081875896857390662 0.16948586836724319 0 -0.082989246851742415 0.17911715744910819 0 -0.07372406847734217 0.17532238324930741 0 -0.06268100584981437 0.17855074953619551 0 -0.074234272839033291 0.18792239219699519 0 -0.056661589205834001 0.1872049149763457 0 -0.082989246851742415 0.17911715744910819 0 -0.07372406847734217 0.17532238324930741 0 -0.074234272839033291 0.18792239219699519 0 -0.07372406847734217 0.17532238324930741 0 -0.06268100584981437 0.17855074953619551 0 -0.074234272839033291 0.18792239219699519 0 -0.06268100584981437 0.17855074953619551 0 -0.067987776932815491 0.1544024986497313 0 -0.059409102531965997 0.1792476853983779 0 -0.07372406847734217 0.17532238324930741 0 -0.06268100584981437 0.17855074953619551 0 -0.067987776932815491 0.1544024986497313 0 -0.081875896857390662 0.16948586836724319 0 -0.07372406847734217 0.17532238324930741 0 -0.067987776932815491 0.1544024986497313 0 -0.067987776932815491 0.1544024986497313 0 -0.059409102531965997 0.1792476853983779 0 -0.067987776932815491 0.1544024986497313 0 -0.076566451333664146 0.12955731190108441 0 -0.053198364938297042 0.14425746926138339 0 -0.067987776932815491 0.1544024986497313 0 -0.076566451333664146 0.12955731190108441 0 -0.076566451333664146 0.12955731190108441 0 -0.09199250286504948 0.1445565654302047 0 -0.09010436070795097 0.11865627084901099 0 -0.090764288997167417 0.1595688300927055 0 -0.067987776932815491 0.1544024986497313 0 -0.09199250286504948 0.1445565654302047 0 -0.067987776932815491 0.1544024986497313 0 -0.076566451333664146 0.12955731190108441 0 -0.09199250286504948 0.1445565654302047 0 -0.097486038469424191 0.26030024180295708 0 -0.10492096951598121 0.24065333376338199 0 -0.089445423833849957 0.24623243253668231 0 -0.10492096951598121 0.24065333376338199 0 -0.094537446095903116 0.22511715968134799 0 -0.089445423833849957 0.24623243253668231 0 -0.11203473163522031 0.25573614939556721 0 -0.10492096951598121 0.24065333376338199 0 -0.1203586633445525 0.2418752357480258 0 -0.10492096951598121 0.24065333376338199 0 -0.1203586633445525 0.2418752357480258 0 -0.12249216748170259 0.21953456427116191 0 -0.10492096951598121 0.24065333376338199 0 -0.12249216748170259 0.21953456427116191 0 -0.094537446095903116 0.22511715968134799 0 -0.12249216748170259 0.21953456427116191 0 -0.094537446095903116 0.22511715968134799 0 -0.099924254307433291 0.20244783009960121 0 -0.12249216748170259 0.21953456427116191 0 -0.1212007918498524 0.19439131334972931 0 -0.099924254307433291 0.20244783009960121 0 -0.10641802271770499 0.1825018393973856 0 -0.1212007918498524 0.19439131334972931 0 -0.099924254307433291 0.20244783009960121 0 -0.10641802271770499 0.1825018393973856 0 -0.099924254307433291 0.20244783009960121 0 -0.091806956472232651 0.18863986941764241 0 -0.091806956472232651 0.18863986941764241 0 -0.083152599421316836 0.19700668729764639 0 -0.074234272839033291 0.18792239219699519 0 -0.099924254307433291 0.20244783009960121 0 -0.091806956472232651 0.18863986941764241 0 -0.083152599421316836 0.19700668729764639 0 -0.091806956472232651 0.18863986941764241 0 -0.074234272839033291 0.18792239219699519 0 -0.083152599421316836 0.19700668729764639 0 -0.071657685746920607 0.19934600827005949 0 -0.080314945684993144 0.21080286169765289 0 -0.074234272839033291 0.18792239219699519 0 -0.056661589205834001 0.1872049149763457 0 -0.083152599421316836 0.19700668729764639 0 -0.074234272839033291 0.18792239219699519 0 -0.071657685746920607 0.19934600827005949 0 -0.074234272839033291 0.18792239219699519 0 -0.061151937365747047 0.1934304905081311 0 -0.056661589205834001 0.1872049149763457 0 -0.074234272839033291 0.18792239219699519 0 -0.071657685746920607 0.19934600827005949 0 -0.061151937365747047 0.1934304905081311 0 -0.071657685746920607 0.19934600827005949 0 -0.064563499423906309 0.20892257787241739 0 -0.061151937365747047 0.1934304905081311 0 -0.064563499423906309 0.20892257787241739 0 -0.080314945684993144 0.21080286169765289 0 -0.063539721874015978 0.22227791383735149 0 -0.071657685746920607 0.19934600827005949 0 -0.064563499423906309 0.20892257787241739 0 -0.080314945684993144 0.21080286169765289 0 -0.094537446095903116 0.22511715968134799 0 -0.099924254307433291 0.20244783009960121 0 -0.080314945684993144 0.21080286169765289 0 -0.099924254307433291 0.20244783009960121 0 -0.083152599421316836 0.19700668729764639 0 -0.080314945684993144 0.21080286169765289 0 -0.094537446095903116 0.22511715968134799 0 -0.080314945684993144 0.21080286169765289 0 -0.078213868630265942 0.2342128225184322 0 -0.080314945684993144 0.21080286169765289 0 -0.078213868630265942 0.2342128225184322 0 -0.078213868630265942 0.2342128225184322 0 -0.063539721874015978 0.22227791383735149 0 -0.058148371363961601 0.2362581113826567 0 -0.080314945684993144 0.21080286169765289 0 -0.078213868630265942 0.2342128225184322 0 -0.063539721874015978 0.22227791383735149 0 -0.076112791575538755 0.25762278333921151 0 -0.078213868630265942 0.2342128225184322 0 -0.078213868630265942 0.2342128225184322 0 -0.065193502800950487 0.24850912018109891 0 -0.058148371363961601 0.2362581113826567 0 -0.076112791575538755 0.25762278333921151 0 -0.078213868630265942 0.2342128225184322 0 -0.065193502800950487 0.24850912018109891 0 -0.094537446095903116 0.22511715968134799 0 -0.078213868630265942 0.2342128225184322 0 -0.089445423833849957 0.24623243253668231 0 -0.076112791575538755 0.25762278333921151 0 -0.078213868630265942 0.2342128225184322 0 -0.089445423833849957 0.24623243253668231 0 -0.02778340432653599 0.26386490528670109 0 -0.031830075697095631 0.24184151100741449 0 -0.039316470176893333 0.24038030446425521 0 -0.031830075697095631 0.24184151100741449 0 -0.035846002681948728 0.2277179277993466 0 -0.029419474288454699 0.23445740168245749 0 -0.039316470176893333 0.24038030446425521 0 -0.048192472845512938 0.24094223045964119 0 -0.049878989630919378 0.23220601941294891 0 -0.039316470176893333 0.24038030446425521 0 -0.04465905322569709 0.24829368723303011 0 -0.048192472845512938 0.24094223045964119 0 -0.039560235199694357 0.25517536691588882 0 -0.039316470176893333 0.24038030446425521 0 -0.04465905322569709 0.24829368723303011 0 -0.04465905322569709 0.24829368723303011 0 -0.05307390100616708 0.24678158754836091 0 -0.048192472845512938 0.24094223045964119 0 -0.065193502800950487 0.24850912018109891 0 -0.05307390100616708 0.24678158754836091 0 -0.058148371363961601 0.2362581113826567 0 -0.058148371363961601 0.2362581113826567 0 -0.048192472845512938 0.24094223045964119 0 -0.049878989630919378 0.23220601941294891 0 -0.05307390100616708 0.24678158754836091 0 -0.058148371363961601 0.2362581113826567 0 -0.048192472845512938 0.24094223045964119 0 -0.058148371363961601 0.2362581113826567 0 -0.049878989630919378 0.23220601941294891 0 -0.054945308329015299 0.22615802598790491 0 -0.063539721874015978 0.22227791383735149 0 -0.058148371363961601 0.2362581113826567 0 -0.054945308329015299 0.22615802598790491 0 -0.063539721874015978 0.22227791383735149 0 -0.054945308329015299 0.22615802598790491 0 -0.056140962165456963 0.22046796113382891 0 -0.063539721874015978 0.22227791383735149 0 -0.056140962165456963 0.22046796113382891 0 -0.058697155221278573 0.21712810830687601 0 -0.054945308329015299 0.22615802598790491 0 -0.056140962165456963 0.22046796113382891 0 -0.050849536027250682 0.21689570364180921 0 -0.049878989630919378 0.23220601941294891 0 -0.054945308329015299 0.22615802598790491 0 -0.050849536027250682 0.21689570364180921 0 -0.039316470176893333 0.24038030446425521 0 -0.049878989630919378 0.23220601941294891 0 -0.050849536027250682 0.21689570364180921 0 -0.039480679328800762 0.21992691859097871 0 -0.035846002681948728 0.2277179277993466 0 -0.046491006531421339 0.21763600075777281 0 -0.031830075697095631 0.24184151100741449 0 -0.035846002681948728 0.2277179277993466 0 -0.046491006531421339 0.21763600075777281 0 -0.039316470176893333 0.24038030446425521 0 -0.050849536027250682 0.21689570364180921 0 -0.031830075697095631 0.24184151100741449 0 -0.046491006531421339 0.21763600075777281 0 -0.039316470176893333 0.24038030446425521 0 -0.046491006531421339 0.21763600075777281 0 -0.050849536027250682 0.21689570364180921 0 -0.031830075697095631 0.24184151100741449 0 -0.039316470176893333 0.24038030446425521 0 -0.046491006531421339 0.21763600075777281 0 -0.035846002681948728 0.2277179277993466 0 -0.030136380373410779 0.2300209019951191 0 -0.029419474288454699 0.23445740168245749 0 -0.035846002681948728 0.2277179277993466 0 -0.031171147285321579 0.22489969448185479 0 -0.030136380373410779 0.2300209019951191 0 -0.035846002681948728 0.2277179277993466 0 -0.035487566908154987 0.22179307024827699 0 -0.031171147285321579 0.22489969448185479 0 -0.031470018115580423 0.21915173504707819 0 -0.035487566908154987 0.22179307024827699 0 -0.031171147285321579 0.22489969448185479 0 -0.031470018115580423 0.21915173504707819 0 -0.035487566908154987 0.22179307024827699 0 -0.037510501467162907 0.2165846373471568 0 -0.039480679328800762 0.21992691859097871 0 -0.035487566908154987 0.22179307024827699 0 -0.037510501467162907 0.2165846373471568 0 -0.039480679328800762 0.21992691859097871 0 -0.035846002681948728 0.2277179277993466 0 -0.035487566908154987 0.22179307024827699 0 -0.037510501467162907 0.2165846373471568 0 -0.032219964055545967 0.21042951792731901 0 -0.04205001128531341 0.21115287567794699 0 -0.031470018115580423 0.21915173504707819 0 -0.037510501467162907 0.2165846373471568 0 -0.032219964055545967 0.21042951792731901 0 -0.032219964055545967 0.21042951792731901 0 -0.038933788118388483 0.2050998722111988 0 -0.04205001128531341 0.21115287567794699 0 -0.032219964055545967 0.21042951792731901 0 -0.038933788118388483 0.2050998722111988 0 -0.03020233341840035 0.20042462808198269 0 -0.038933788118388483 0.2050998722111988 0 -0.04205001128531341 0.21115287567794699 0 -0.049375150592325209 0.20830758417978931 0 -0.04205001128531341 0.21115287567794699 0 -0.046491006531421339 0.21763600075777281 0 -0.049375150592325209 0.20830758417978931 0 -0.037510501467162907 0.2165846373471568 0 -0.04205001128531341 0.21115287567794699 0 -0.041818585308179793 0.21605680202505301 0 -0.039480679328800762 0.21992691859097871 0 -0.037510501467162907 0.2165846373471568 0 -0.041818585308179793 0.21605680202505301 0 -0.039480679328800762 0.21992691859097871 0 -0.041818585308179793 0.21605680202505301 0 -0.046491006531421339 0.21763600075777281 0 -0.04205001128531341 0.21115287567794699 0 -0.041818585308179793 0.21605680202505301 0 -0.046491006531421339 0.21763600075777281 0 -0.046491006531421339 0.21763600075777281 0 -0.061151937365747047 0.1934304905081311 0 -0.046491006531421339 0.21763600075777281 0 -0.049375150592325209 0.20830758417978931 0 -0.061151937365747047 0.1934304905081311 0 -0.046491006531421339 0.21763600075777281 0 -0.050849536027250682 0.21689570364180921 0 -0.061151937365747047 0.1934304905081311 0 -0.064563499423906309 0.20892257787241739 0 -0.050849536027250682 0.21689570364180921 0 -0.061151937365747047 0.1934304905081311 0 -0.056140962165456963 0.22046796113382891 0 -0.050849536027250682 0.21689570364180921 0 -0.058697155221278573 0.21712810830687601 0 -0.064563499423906309 0.20892257787241739 0 -0.063539721874015978 0.22227791383735149 0 -0.058697155221278573 0.21712810830687601 0 -0.064563499423906309 0.20892257787241739 0 -0.050849536027250682 0.21689570364180921 0 -0.058697155221278573 0.21712810830687601 0 -0.049375150592325209 0.20830758417978931 0 -0.056661589205834001 0.1872049149763457 0 -0.049375150592325209 0.20830758417978931 0 -0.04082148124035747 0.19518475518895589 0 -0.056661589205834001 0.1872049149763457 0 -0.049375150592325209 0.20830758417978931 0 -0.061151937365747047 0.1934304905081311 0 -0.056661589205834001 0.1872049149763457 0 -0.04082148124035747 0.19518475518895589 0 -0.056661589205834001 0.1872049149763457 0 -0.02761917486919583 0.1860191387366984 0 -0.038933788118388483 0.2050998722111988 0 -0.049375150592325209 0.20830758417978931 0 -0.04082148124035747 0.19518475518895589 0 -0.038933788118388483 0.2050998722111988 0 -0.04082148124035747 0.19518475518895589 0 -0.03020233341840035 0.20042462808198269 0 -0.04082148124035747 0.19518475518895589 0 -0.03020233341840035 0.20042462808198269 0 -0.02761917486919583 0.1860191387366984 0 -0.019109808615465001 0.19980996788063141 0 -0.0089116792856069396 0.19896598243067079 0 -0.02761917486919583 0.1860191387366984 0 -0.03020233341840035 0.20042462808198269 0 -0.019109808615465001 0.19980996788063141 0 -0.02202775215916122 0.20807125764150969 0 -0.03020233341840035 0.20042462808198269 0 -0.019109808615465001 0.19980996788063141 0 -0.02761917486919583 0.1860191387366984 0 -0.02761917486919583 0.1860191387366984 0 0.001135046813253004 0.19214396772240619 0 -0.0089116792856069396 0.19896598243067079 0 -0.02761917486919583 0.1860191387366984 0 0.001135046813253004 0.19214396772240619 0 -0.02761917486919583 0.1860191387366984 0 -9.6250850848612901e-05 0.18489540195061849 0 0.001135046813253004 0.19214396772240619 0 -0.0089116792856069396 0.19896598243067079 0 -0.0027563612058543931 0.20802313155596511 0 0.001220410428966507 0.20174375483235729 0 -0.0089116792856069396 0.19896598243067079 0 0.001220410428966507 0.20174375483235729 0 0.001135046813253004 0.19214396772240619 0 -0.019109808615465001 0.19980996788063141 0 -0.0089116792856069396 0.19896598243067079 0 -0.012898474622791759 0.20775133149546821 0 -0.012898474622791759 0.20775133149546821 0 -0.0027563612058543931 0.20802313155596511 0 -0.0078435771551563036 0.21606714853714939 0 -0.0089116792856069396 0.19896598243067079 0 -0.012898474622791759 0.20775133149546821 0 -0.0027563612058543931 0.20802313155596511 0 -0.0027563612058543931 0.20802313155596511 0 -0.0078435771551563036 0.21606714853714939 0 0.001294088956889376 0.21643972248792029 0 -0.012898474622791759 0.20775133149546821 0 -0.0078435771551563036 0.21606714853714939 0 -0.017061597809595552 0.21594001757100331 0 -0.0078435771551563036 0.21606714853714939 0 -0.017061597809595552 0.21594001757100331 0 -0.012685370985804609 0.22380802625329241 0 -0.017061597809595552 0.21594001757100331 0 -0.025137533864604981 0.21653495619585941 0 -0.021111905827366498 0.22305398955054309 0 -0.017061597809595552 0.21594001757100331 0 -0.02202775215916122 0.20807125764150969 0 -0.025137533864604981 0.21653495619585941 0 -0.012898474622791759 0.20775133149546821 0 -0.017061597809595552 0.21594001757100331 0 -0.02202775215916122 0.20807125764150969 0 -0.019109808615465001 0.19980996788063141 0 -0.012898474622791759 0.20775133149546821 0 -0.02202775215916122 0.20807125764150969 0 -0.032219964055545967 0.21042951792731901 0 -0.03020233341840035 0.20042462808198269 0 -0.02202775215916122 0.20807125764150969 0 -0.031470018115580423 0.21915173504707819 0 -0.032219964055545967 0.21042951792731901 0 -0.025137533864604981 0.21653495619585941 0 -0.032219964055545967 0.21042951792731901 0 -0.02202775215916122 0.20807125764150969 0 -0.025137533864604981 0.21653495619585941 0 -0.02696441570102158 0.22226743993837819 0 -0.025931473412234469 0.22769682441655531 0 -0.021111905827366498 0.22305398955054309 0 -0.025137533864604981 0.21653495619585941 0 -0.02696441570102158 0.22226743993837819 0 -0.021111905827366498 0.22305398955054309 0 -0.031470018115580423 0.21915173504707819 0 -0.025137533864604981 0.21653495619585941 0 -0.02696441570102158 0.22226743993837819 0 -0.031470018115580423 0.21915173504707819 0 -0.02696441570102158 0.22226743993837819 0 -0.031171147285321579 0.22489969448185479 0 -0.02696441570102158 0.22226743993837819 0 -0.031171147285321579 0.22489969448185479 0 -0.025931473412234469 0.22769682441655531 0 -0.030136380373410779 0.2300209019951191 0 -0.026061396499690029 0.2336682686242898 0 -0.025931473412234469 0.22769682441655531 0 -0.031171147285321579 0.22489969448185479 0 -0.030136380373410779 0.2300209019951191 0 -0.025931473412234469 0.22769682441655531 0 -0.030136380373410779 0.2300209019951191 0 -0.026061396499690029 0.2336682686242898 0 -0.029419474288454699 0.23445740168245749 0 -0.026061396499690029 0.2336682686242898 0 -0.025931473412234469 0.22769682441655531 0 -0.018742521880873109 0.2320328620848604 0 -0.025931473412234469 0.22769682441655531 0 -0.018742521880873109 0.2320328620848604 0 -0.021111905827366498 0.22305398955054309 0 -0.018742521880873109 0.2320328620848604 0 -0.021111905827366498 0.22305398955054309 0 -0.012685370985804609 0.22380802625329241 0 -0.017061597809595552 0.21594001757100331 0 -0.021111905827366498 0.22305398955054309 0 -0.012685370985804609 0.22380802625329241 0 -0.0078435771551563036 0.21606714853714939 0 -0.012685370985804609 0.22380802625329241 0 -0.0031338724421013401 0.22423756475342299 0 -0.0078435771551563036 0.21606714853714939 0 -0.0031338724421013401 0.22423756475342299 0 0.001294088956889376 0.21643972248792029 0 -0.0031338724421013401 0.22423756475342299 0 -0.006988397385861868 0.23292980338450189 0 0.0072484927199350652 0.23473677481809729 0 -0.012685370985804609 0.22380802625329241 0 -0.0031338724421013401 0.22423756475342299 0 -0.006988397385861868 0.23292980338450189 0 -0.018742521880873109 0.2320328620848604 0 -0.012685370985804609 0.22380802625329241 0 -0.006988397385861868 0.23292980338450189 0 -0.018742521880873109 0.2320328620848604 0 -0.006988397385861868 0.23292980338450189 0 -0.01303427139252235 0.2405344585210149 0 -0.006988397385861868 0.23292980338450189 0 -0.01303427139252235 0.2405344585210149 0 -0.0015828403338048729 0.242229133876323 0 -0.006988397385861868 0.23292980338450189 0 -0.0015828403338048729 0.242229133876323 0 0.0072484927199350652 0.23473677481809729 0 -0.0015828403338048729 0.242229133876323 0 -0.0084954783913720449 0.2490669269363194 0 0.00034173235196240039 0.25169171842839061 0 -0.01303427139252235 0.2405344585210149 0 -0.0015828403338048729 0.242229133876323 0 -0.0084954783913720449 0.2490669269363194 0 -0.01303427139252235 0.2405344585210149 0 -0.0084954783913720449 0.2490669269363194 0 -0.017992643477075129 0.24957489420802409 0 -0.01303427139252235 0.2405344585210149 0 -0.017992643477075129 0.24957489420802409 0 -0.02322351619012834 0.2390383989861177 0 -0.018742521880873109 0.2320328620848604 0 -0.01303427139252235 0.2405344585210149 0 -0.02322351619012834 0.2390383989861177 0 -0.026061396499690029 0.2336682686242898 0 -0.018742521880873109 0.2320328620848604 0 -0.02322351619012834 0.2390383989861177 0 -0.031830075697095631 0.24184151100741449 0 -0.02322351619012834 0.2390383989861177 0 -0.029419474288454699 0.23445740168245749 0 -0.026061396499690029 0.2336682686242898 0 -0.02322351619012834 0.2390383989861177 0 -0.029419474288454699 0.23445740168245749 0 -0.031830075697095631 0.24184151100741449 0 -0.017992643477075129 0.24957489420802409 0 -0.02322351619012834 0.2390383989861177 0 -0.034365375341992577 0.15297099806320841 0 -0.053198364938297042 0.14425746926138339 0 -0.047468622931702918 0.15936967398207411 0 -0.034365375341992577 0.15297099806320841 0 -0.03812414254089825 0.13855609070357941 0 -0.053198364938297042 0.14425746926138339 0 -0.03812414254089825 0.13855609070357941 0 -0.053368841312469932 0.12684784373345651 0 -0.030946144889315689 0.1177052101077596 0 -0.076566451333664146 0.12955731190108441 0 -0.053368841312469932 0.12684784373345651 0 -0.053198364938297042 0.14425746926138339 0 -0.03812414254089825 0.13855609070357941 0 -0.053368841312469932 0.12684784373345651 0 -0.053198364938297042 0.14425746926138339 0 -0.067987776932815491 0.1544024986497313 0 -0.053198364938297042 0.14425746926138339 0 -0.047468622931702918 0.15936967398207411 0 -0.067987776932815491 0.1544024986497313 0 -0.050033476570302063 0.1708331912634293 0 -0.059409102531965997 0.1792476853983779 0 -0.067987776932815491 0.1544024986497313 0 -0.050033476570302063 0.1708331912634293 0 -0.047468622931702918 0.15936967398207411 0 -0.056661589205834001 0.1872049149763457 0 -0.059409102531965997 0.1792476853983779 0 -0.043514138700580747 0.18263341206753739 0 -0.050033476570302063 0.1708331912634293 0 -0.059409102531965997 0.1792476853983779 0 -0.043514138700580747 0.18263341206753739 0 -0.059409102531965997 0.1792476853983779 0 -0.043514138700580747 0.18263341206753739 0 -0.056661589205834001 0.1872049149763457 0 -0.059409102531965997 0.1792476853983779 0 -0.06268100584981437 0.17855074953619551 0 -0.056661589205834001 0.1872049149763457 0 -0.059409102531965997 0.1792476853983779 0 -0.06268100584981437 0.17855074953619551 0 -0.059409102531965997 0.1792476853983779 0 -0.043514138700580747 0.18263341206753739 0 -0.033421931448990902 0.1698519804586687 0 -0.02761917486919583 0.1860191387366984 0 -0.056661589205834001 0.1872049149763457 0 -0.02761917486919583 0.1860191387366984 0 -0.043514138700580747 0.18263341206753739 0 -0.02761917486919583 0.1860191387366984 0 -0.050033476570302063 0.1708331912634293 0 -0.043514138700580747 0.18263341206753739 0 -0.033421931448990902 0.1698519804586687 0 -0.056661589205834001 0.1872049149763457 0 -0.043514138700580747 0.18263341206753739 0 -0.02761917486919583 0.1860191387366984 0 -0.050033476570302063 0.1708331912634293 0 -0.047468622931702918 0.15936967398207411 0 -0.033421931448990902 0.1698519804586687 0 -0.034365375341992577 0.15297099806320841 0 -0.047468622931702918 0.15936967398207411 0 -0.033421931448990902 0.1698519804586687 0 -0.034365375341992577 0.15297099806320841 0 -0.033421931448990902 0.1698519804586687 0 -0.01641827415476569 0.15973456629746199 0 -0.033421931448990902 0.1698519804586687 0 -0.01641827415476569 0.15973456629746199 0 -0.015760581385528698 0.1742609411148133 0 -0.033421931448990902 0.1698519804586687 0 -0.02761917486919583 0.1860191387366984 0 -0.015760581385528698 0.1742609411148133 0 -0.02761917486919583 0.1860191387366984 0 -9.6250850848612901e-05 0.18489540195061849 0 -0.015760581385528698 0.1742609411148133 0 -9.6250850848612901e-05 0.18489540195061849 0 -0.0033484118636922821 0.16714514987695139 0 -0.02761917486919583 0.1860191387366984 0 -0.015760581385528698 0.1742609411148133 0 -9.6250850848612901e-05 0.18489540195061849 0 -0.01641827415476569 0.15973456629746199 0 -0.0033484118636922821 0.16714514987695139 0 0.002038871722293605 0.14199914678203979 0 -0.01641827415476569 0.15973456629746199 0 -0.015760581385528698 0.1742609411148133 0 -0.0033484118636922821 0.16714514987695139 0 -0.01641827415476569 0.15973456629746199 0 -0.019141110321645029 0.1412457344550424 0 0.002038871722293605 0.14199914678203979 0 -0.034365375341992577 0.15297099806320841 0 -0.03812414254089825 0.13855609070357941 0 -0.019141110321645029 0.1412457344550424 0 -0.034365375341992577 0.15297099806320841 0 -0.01641827415476569 0.15973456629746199 0 -0.019141110321645029 0.1412457344550424 0 -0.03812414254089825 0.13855609070357941 0 -0.019141110321645029 0.1412457344550424 0 -0.030946144889315689 0.1177052101077596 0 -0.019141110321645029 0.1412457344550424 0 -0.0071803489418029087 0.1168992878872477 0 -0.030946144889315689 0.1177052101077596 0 -0.0071803489418029087 0.1168992878872477 0 0.002038871722293605 0.14199914678203979 0 -0.019141110321645029 0.1412457344550424 0 -0.0071803489418029087 0.1168992878872477 0 0.002038871722293605 0.14199914678203979 0 -0.0071803489418029087 0.1168992878872477 0 -0.01639956960589942 0.091799428992455662 0 0.0054611253166876716 0.10111680259554991 0 -0.0071803489418029087 0.1168992878872477 0 -0.01639956960589942 0.091799428992455662 0 -0.0071803489418029087 0.1168992878872477 0 -0.030946144889315689 0.1177052101077596 0 -0.01639956960589942 0.091799428992455662 0 -0.030946144889315689 0.1177052101077596 0 -0.01639956960589942 0.091799428992455662 0 -0.035861376062176147 0.097914189605880303 0 -0.02215807948477486 0.072141640980877761 0 -0.007206987701179909 0.059934811381104743 0 0.0069256189636152333 0.075945032919316008 0 -0.01639956960589942 0.091799428992455662 0 0.0069256189636152333 0.075945032919316008 0 0.0054611253166876716 0.10111680259554991 0 -0.01639956960589942 0.091799428992455662 0 -0.02215807948477486 0.072141640980877761 0 0.0069256189636152333 0.075945032919316008 0 -0.01639956960589942 0.091799428992455662 0 -0.038844877510550352 0.080473862319778044 0 -0.035861376062176147 0.097914189605880303 0 -0.01639956960589942 0.091799428992455662 0 -0.02215807948477486 0.072141640980877761 0 -0.038844877510550352 0.080473862319778044 0 -0.02215807948477486 0.072141640980877761 0 -0.038844877510550352 0.080473862319778044 0 -0.045921365724484922 0.056205116676672752 0 -0.038844877510550352 0.080473862319778044 0 -0.054768314155650803 0.068227394431761026 0 -0.045921365724484922 0.056205116676672752 0 -0.038844877510550352 0.080473862319778044 0 -0.055916403297359939 0.089716595434608942 0 -0.035861376062176147 0.097914189605880303 0 -0.055916403297359939 0.089716595434608942 0 -0.054768314155650803 0.068227394431761026 0 -0.066448486519243705 0.077521329686590423 0 -0.038844877510550352 0.080473862319778044 0 -0.055916403297359939 0.089716595434608942 0 -0.054768314155650803 0.068227394431761026 0 -0.053368841312469932 0.12684784373345651 0 -0.030946144889315689 0.1177052101077596 0 -0.050125746967941247 0.1086782721821104 0 -0.030946144889315689 0.1177052101077596 0 -0.035861376062176147 0.097914189605880303 0 -0.050125746967941247 0.1086782721821104 0 -0.055916403297359939 0.089716595434608942 0 -0.050125746967941247 0.1086782721821104 0 -0.071759214985949463 0.10149383725740289 0 -0.055916403297359939 0.089716595434608942 0 -0.035861376062176147 0.097914189605880303 0 -0.050125746967941247 0.1086782721821104 0 -0.053368841312469932 0.12684784373345651 0 -0.050125746967941247 0.1086782721821104 0 -0.068384923061595146 0.11704670718461301 0 -0.068384923061595146 0.11704670718461301 0 -0.09010436070795097 0.11865627084901099 0 -0.071759214985949463 0.10149383725740289 0 -0.076566451333664146 0.12955731190108441 0 -0.053368841312469932 0.12684784373345651 0 -0.068384923061595146 0.11704670718461301 0 -0.076566451333664146 0.12955731190108441 0 -0.068384923061595146 0.11704670718461301 0 -0.09010436070795097 0.11865627084901099 0 -0.071759214985949463 0.10149383725740289 0 -0.077293146615080868 0.087693374986267669 0 -0.096131059224466575 0.097904564387326698 0 -0.09010436070795097 0.11865627084901099 0 -0.071759214985949463 0.10149383725740289 0 -0.096131059224466575 0.097904564387326698 0 -0.050125746967941247 0.1086782721821104 0 -0.068384923061595146 0.11704670718461301 0 -0.071759214985949463 0.10149383725740289 0 -0.077293146615080868 0.087693374986267669 0 -0.066448486519243705 0.077521329686590423 0 -0.086380252701166144 0.075924702114904458 0 -0.055916403297359939 0.089716595434608942 0 -0.071759214985949463 0.10149383725740289 0 -0.077293146615080868 0.087693374986267669 0 -0.055916403297359939 0.089716595434608942 0 -0.077293146615080868 0.087693374986267669 0 -0.066448486519243705 0.077521329686590423 0 -0.054768314155650803 0.068227394431761026 0 -0.066448486519243705 0.077521329686590423 0 -0.068227614897451119 0.061773644939723663 0 -0.066448486519243705 0.077521329686590423 0 -0.075169295239972581 0.059367559984180737 0 -0.068227614897451119 0.061773644939723663 0 -0.066448486519243705 0.077521329686590423 0 -0.075169295239972581 0.059367559984180737 0 -0.066448486519243705 0.077521329686590423 0 -0.086380252701166144 0.075924702114904458 0 -0.075169295239972581 0.059367559984180737 0 -0.054768314155650803 0.068227394431761026 0 -0.067993616264576617 0.058591687013738833 0 -0.068227614897451119 0.061773644939723663 0 -0.086380252701166144 0.075924702114904458 0 -0.10087122083099111 0.062146590292383473 0 -0.075169295239972581 0.059367559984180737 0 -0.077293146615080868 0.087693374986267669 0 -0.086380252701166144 0.075924702114904458 0 -0.096131059224466575 0.097904564387326698 0 -0.086380252701166144 0.075924702114904458 0 -0.10530656755889339 0.08132082351450616 0 -0.096131059224466575 0.097904564387326698 0 -0.10530656755889339 0.08132082351450616 0 -0.12224603600437969 0.092446361399098009 0 -0.096131059224466575 0.097904564387326698 0 -0.086380252701166144 0.075924702114904458 0 -0.10530656755889339 0.08132082351450616 0 -0.10087122083099111 0.062146590292383473 0 -0.1265731464220102 0.064925620600580214 0 -0.10087122083099111 0.062146590292383473 0 -0.1265731464220102 0.064925620600580214 0 -0.10530656755889339 0.08132082351450616 0 -0.10087122083099111 0.062146590292383473 0 -0.1265731464220102 0.064925620600580214 0 -0.10530656755889339 0.08132082351450616 0 -0.12224603600437969 0.092446361399098009 0 -0.12224603600437969 0.092446361399098009 0 -0.11238875331129521 0.11052962865485801 0 -0.096131059224466575 0.097904564387326698 0 -0.13630226769244641 0.1164838576263373 0 -0.12224603600437969 0.092446361399098009 0 -0.11238875331129521 0.11052962865485801 0 -0.13630226769244641 0.1164838576263373 0 -0.1141473852787479 0.13052021152827101 0 -0.11238875331129521 0.11052962865485801 0 -0.1141473852787479 0.13052021152827101 0 -0.09010436070795097 0.11865627084901099 0 -0.11238875331129521 0.11052962865485801 0 -0.09010436070795097 0.11865627084901099 0 -0.11238875331129521 0.11052962865485801 0 -0.096131059224466575 0.097904564387326698 0 -0.098615549841269828 0.010560400000904821 0 -0.11854375220917759 0.012447116600704021 0 -0.1103403318784663 0.032472985748714649 0 -0.098615549841269828 0.010560400000904821 0 -0.1103403318784663 0.032472985748714649 0 -0.086892422540620295 0.034963979992542367 0 -0.11033867714191931 -0.01384317999073272 0 -0.098615549841269828 0.010560400000904821 0 -0.11854375220917759 0.012447116600704021 0 -0.1303499436086531 0.02861210326272131 0 -0.11854375220917759 0.012447116600704021 0 -0.1103403318784663 0.032472985748714649 0 -0.12528265127355759 0.04616558801098529 0 -0.1303499436086531 0.02861210326272131 0 -0.1103403318784663 0.032472985748714649 0 -0.12528265127355759 0.04616558801098529 0 -0.1103403318784663 0.032472985748714649 0 -0.10087122083099111 0.062146590292383473 0 -0.1265731464220102 0.064925620600580214 0 -0.12528265127355759 0.04616558801098529 0 -0.10087122083099111 0.062146590292383473 0 -0.1103403318784663 0.032472985748714649 0 -0.10087122083099111 0.062146590292383473 0 -0.086892422540620295 0.034963979992542367 0 -0.086892422540620295 0.034963979992542367 0 -0.075169295239972581 0.059367559984180737 0 -0.10087122083099111 0.062146590292383473 0 -0.086892422540620295 0.034963979992542367 0 -0.075169295239972581 0.059367559984180737 0 -0.10087122083099111 0.062146590292383473 0 -0.075169295239972581 0.059367559984180737 0 -0.075169295239972581 0.059367559984180737 0 -0.067993616264576617 0.058591687013738833 0 -0.06622586813910751 0.034553511704725447 0 -0.075169295239972581 0.059367559984180737 0 -0.067993616264576617 0.058591687013738833 0 -0.068227614897451119 0.061773644939723663 0 -0.075169295239972581 0.059367559984180737 0 -0.067993616264576617 0.058591687013738833 0 -0.067993616264576617 0.058591687013738833 0 -0.068227614897451119 0.061773644939723663 0 -0.067993616264576617 0.058591687013738833 0 -0.06622586813910751 0.034553511704725447 0 -0.086892422540620295 0.034963979992542367 0 -0.075169295239972581 0.059367559984180737 0 -0.06622586813910751 0.034553511704725447 0 -0.06622586813910751 0.034553511704725447 0 -0.064458120013633824 0.0105153363957124 0 -0.06622586813910751 0.034553511704725447 0 -0.081527822273885636 0.01736930302101166 0 -0.064458120013633824 0.0105153363957124 0 -0.098615549841269828 0.010560400000904821 0 -0.086892422540620295 0.034963979992542367 0 -0.081527822273885636 0.01736930302101166 0 -0.086892422540620295 0.034963979992542367 0 -0.06622586813910751 0.034553511704725447 0 -0.081527822273885636 0.01736930302101166 0 -0.098615549841269828 0.010560400000904821 0 -0.086892422540620295 0.034963979992542367 0 -0.086027716256106931 -0.01022087334676958 0 -0.098615549841269828 0.010560400000904821 0 -0.081527822273885636 0.01736930302101166 0 -0.086027716256106931 -0.01022087334676958 0 -0.081527822273885636 0.01736930302101166 0 -0.064458120013633824 0.0105153363957124 0 -0.044855184916723648 -0.0020500068189094819 0 -0.064458120013633824 0.0105153363957124 0 -0.038070442299092573 0.022490473952852329 0 -0.06622586813910751 0.034553511704725447 0 -0.064458120013633824 0.0105153363957124 0 -0.038070442299092573 0.022490473952852329 0 -0.044855184916723648 -0.0020500068189094819 0 -0.02145552275097698 -0.0043143944003012219 0 -0.038070442299092573 0.022490473952852329 0 -0.067993616264576617 0.058591687013738833 0 -0.050902639885251059 0.042750109560558462 0 -0.045921365724484922 0.056205116676672752 0 -0.054768314155650803 0.068227394431761026 0 -0.067993616264576617 0.058591687013738833 0 -0.045921365724484922 0.056205116676672752 0 -0.067993616264576617 0.058591687013738833 0 -0.045921365724484922 0.056205116676672752 0 -0.067993616264576617 0.058591687013738833 0 -0.06622586813910751 0.034553511704725447 0 -0.050902639885251059 0.042750109560558462 0 -0.06622586813910751 0.034553511704725447 0 -0.038070442299092573 0.022490473952852329 0 -0.050902639885251059 0.042750109560558462 0 -0.038070442299092573 0.022490473952852329 0 -0.050902639885251059 0.042750109560558462 0 -0.03486823792189634 0.041891215516118852 0 -0.050902639885251059 0.042750109560558462 0 -0.03486823792189634 0.041891215516118852 0 -0.045921365724484922 0.056205116676672752 0 -0.03486823792189634 0.041891215516118852 0 -0.045921365724484922 0.056205116676672752 0 -0.023849115184393199 0.053818546339605838 0 -0.045921365724484922 0.056205116676672752 0 -0.023849115184393199 0.053818546339605838 0 -0.02215807948477486 0.072141640980877761 0 -0.045921365724484922 0.056205116676672752 0 -0.023849115184393199 0.053818546339605838 0 -0.02215807948477486 0.072141640980877761 0 -0.023849115184393199 0.053818546339605838 0 -0.007206987701179909 0.059934811381104743 0 -0.03486823792189634 0.041891215516118852 0 -0.023849115184393199 0.053818546339605838 0 -0.01273028836206507 0.034154745173538267 0 -0.038070442299092573 0.022490473952852329 0 -0.03486823792189634 0.041891215516118852 0 -0.01273028836206507 0.034154745173538267 0 -0.023849115184393199 0.053818546339605838 0 -0.01273028836206507 0.034154745173538267 0 -0.007206987701179909 0.059934811381104743 0 -0.01273028836206507 0.034154745173538267 0 -0.007206987701179909 0.059934811381104743 0 0.0071147227162497951 0.047742363960188307 0 -0.02145552275097698 -0.0043143944003012219 0 -0.038070442299092573 0.022490473952852329 0 -0.0079842835926580199 0.01140056467584467 0 -0.038070442299092573 0.022490473952852329 0 -0.01273028836206507 0.034154745173538267 0 -0.0079842835926580199 0.01140056467584467 0 -0.01273028836206507 0.034154745173538267 0 -0.0079842835926580199 0.01140056467584467 0 0.01205655053747481 0.016577358142274429 0 -0.0079842835926580199 0.01140056467584467 0 0.01205655053747481 0.016577358142274429 0 0.011402600186323291 -0.0064230577428618721 0 0.01205655053747481 0.016577358142274429 0 0.02363017307694127 0.03427264371887833 0 0.034887215593471882 0.0131116840908784 0 0.01205655053747481 0.016577358142274429 0 0.027753781738422491 -0.0028387788095733798 0 0.011402600186323291 -0.0064230577428618721 0 0.01205655053747481 0.016577358142274429 0 0.034887215593471882 0.0131116840908784 0 0.027753781738422491 -0.0028387788095733798 0 0.0071147227162497951 0.047742363960188307 0 0.023569085907819091 0.058285935330947551 0 0.0069256189636152333 0.075945032919316008 0 -0.007206987701179909 0.059934811381104743 0 0.0071147227162497951 0.047742363960188307 0 0.0069256189636152333 0.075945032919316008 0 -0.01273028836206507 0.034154745173538267 0 0.01205655053747481 0.016577358142274429 0 0.0071147227162497951 0.047742363960188307 0 0.01205655053747481 0.016577358142274429 0 0.0071147227162497951 0.047742363960188307 0 0.02363017307694127 0.03427264371887833 0 0.0071147227162497951 0.047742363960188307 0 0.02363017307694127 0.03427264371887833 0 0.023569085907819091 0.058285935330947551 0 0.02363017307694127 0.03427264371887833 0 0.023569085907819091 0.058285935330947551 0 0.038609782608763438 0.04580833908645536 0 0.038609782608763438 0.04580833908645536 0 0.057380227962237379 0.057949454817418547 0 0.035067696219657073 0.074087673405819454 0 0.023569085907819091 0.058285935330947551 0 0.038609782608763438 0.04580833908645536 0 0.035067696219657073 0.074087673405819454 0 0.038609782608763438 0.04580833908645536 0 0.035067696219657073 0.074087673405819454 0 0.02363017307694127 0.03427264371887833 0 0.038609782608763438 0.04580833908645536 0 0.051863021560815827 0.026335610043729269 0 0.058473161862572988 0.041810225322979573 0 0.051863021560815827 0.026335610043729269 0 0.073043426321556748 0.032455519420111677 0 0.038609782608763438 0.04580833908645536 0 0.058473161862572988 0.041810225322979573 0 0.051863021560815827 0.026335610043729269 0 0.058473161862572988 0.041810225322979573 0 0.057380227962237379 0.057949454817418547 0 0.071469350859491507 0.046502203247182967 0 0.038609782608763438 0.04580833908645536 0 0.058473161862572988 0.041810225322979573 0 0.057380227962237379 0.057949454817418547 0 0.034887215593471882 0.0131116840908784 0 0.027753781738422491 -0.0028387788095733798 0 0.042758899614098268 -0.0044006763941964993 0 0.034887215593471882 0.0131116840908784 0 0.053411873635760179 0.0086377678972853547 0 0.042758899614098268 -0.0044006763941964993 0 0.034887215593471882 0.0131116840908784 0 0.051863021560815827 0.026335610043729269 0 0.053411873635760179 0.0086377678972853547 0 0.02363017307694127 0.03427264371887833 0 0.034887215593471882 0.0131116840908784 0 0.051863021560815827 0.026335610043729269 0 0.051863021560815827 0.026335610043729269 0 0.053411873635760179 0.0086377678972853547 0 0.066432280463712079 0.017762850482581902 0 0.051863021560815827 0.026335610043729269 0 0.073043426321556748 0.032455519420111677 0 0.053411873635760179 0.0086377678972853547 0 0.070357783949645841 0.0021354467124046661 0 0.055050956031401199 -0.0040217381168727107 0 0.053411873635760179 0.0086377678972853547 0 0.055050956031401199 -0.0040217381168727107 0 0.042758899614098268 -0.0044006763941964993 0 0.053411873635760179 0.0086377678972853547 0 0.070357783949645841 0.0021354467124046661 0 0.066432280463712079 0.017762850482581902 0 0.070357783949645841 0.0021354467124046661 0 0.08348529685078182 0.019249908339378521 0 0.066432280463712079 0.017762850482581902 0 0.09061825243524696 0.00077075998008834803 0 0.08348529685078182 0.019249908339378521 0 0.10162602060754861 0.011808159270382959 0 0.070357783949645841 0.0021354467124046661 0 0.09061825243524696 0.00077075998008834803 0 0.08348529685078182 0.019249908339378521 0 0.08348529685078182 0.019249908339378521 0 0.073043426321556748 0.032455519420111677 0 0.094223831082297649 0.038575428796494331 0 0.08348529685078182 0.019249908339378521 0 0.094223831082297649 0.038575428796494331 0 0.10162602060754861 0.011808159270382959 0 0.051863021560815827 0.026335610043729269 0 0.066432280463712079 0.017762850482581902 0 0.073043426321556748 0.032455519420111677 0 0.08348529685078182 0.019249908339378521 0 0.066432280463712079 0.017762850482581902 0 0.073043426321556748 0.032455519420111677 0 0.058473161862572988 0.041810225322979573 0 0.071469350859491507 0.046502203247182967 0 0.073043426321556748 0.032455519420111677 0 0.071469350859491507 0.046502203247182967 0 0.073043426321556748 0.032455519420111677 0 0.082184694973150216 0.042843660977074198 0 0.057380227962237379 0.057949454817418547 0 0.071469350859491507 0.046502203247182967 0 0.07458975829211989 0.062546595781285602 0 0.071469350859491507 0.046502203247182967 0 0.090002171629254973 0.053841492444507831 0 0.071469350859491507 0.046502203247182967 0 0.090002171629254973 0.053841492444507831 0 0.07458975829211989 0.062546595781285602 0 0.071469350859491507 0.046502203247182967 0 0.090002171629254973 0.053841492444507831 0 0.082184694973150216 0.042843660977074198 0 0.073043426321556748 0.032455519420111677 0 0.082184694973150216 0.042843660977074198 0 0.094223831082297649 0.038575428796494331 0 0.073043426321556748 0.032455519420111677 0 0.094223831082297649 0.038575428796494331 0 0.090002171629254973 0.053841492444507831 0 0.094223831082297649 0.038575428796494331 0 0.090002171629254973 0.053841492444507831 0 0.082184694973150216 0.042843660977074198 0 0.094223831082297649 0.038575428796494331 0 0.094223831082297649 0.038575428796494331 0 0.114527613217331 0.044442045042399542 0 0.1113921735516398 0.028714183356283791 0 0.094223831082297649 0.038575428796494331 0 0.1036322889524562 0.050226779719078407 0 0.114527613217331 0.044442045042399542 0 0.094223831082297649 0.038575428796494331 0 0.114527613217331 0.044442045042399542 0 0.090002171629254973 0.053841492444507831 0 0.1036322889524562 0.050226779719078407 0 0.1157755398809414 0.064048152592911939 0 0.090002171629254973 0.053841492444507831 0 0.1157755398809414 0.064048152592911939 0 0.09810154211106413 0.06875729311973014 0 0.090002171629254973 0.053841492444507831 0 0.1157755398809414 0.064048152592911939 0 0.090002171629254973 0.053841492444507831 0 0.094223831082297649 0.038575428796494331 0 0.1036322889524562 0.050226779719078407 0 0.1036322889524562 0.050226779719078407 0 0.114527613217331 0.044442045042399542 0 0.1157755398809414 0.064048152592911939 0 0.114527613217331 0.044442045042399542 0 0.1157755398809414 0.064048152592911939 0 0.13483139535236419 0.050308661288304968 0 0.114527613217331 0.044442045042399542 0 0.13483139535236419 0.050308661288304968 0 0.114527613217331 0.044442045042399542 0 0.1113921735516398 0.028714183356283791 0 0.1280894398752403 0.034384763065047598 0 0.1113921735516398 0.028714183356283791 0 0.1247498606019375 0.015686863915607519 0 0.10162602060754861 0.011808159270382959 0 0.1113921735516398 0.028714183356283791 0 0.1247498606019375 0.015686863915607519 0 0.1280894398752403 0.034384763065047598 0 0.1247498606019375 0.015686863915607519 0 0.1198239109624907 0.00097693126500603697 0 0.10162602060754861 0.011808159270382959 0 0.094223831082297649 0.038575428796494331 0 0.10162602060754861 0.011808159270382959 0 0.094223831082297649 0.038575428796494331 0 0.1113921735516398 0.028714183356283791 0 0.10162602060754861 0.011808159270382959 0 0.1075782117675307 0.1011198955841079 0 0.086276814996566337 0.093546778172253153 0 0.09147385895897589 0.1154861844687308 0 0.1075782117675307 0.1011198955841079 0 0.1091945847924595 0.12033795575518209 0 0.09147385895897589 0.1154861844687308 0 0.1091945847924595 0.12033795575518209 0 0.09147385895897589 0.1154861844687308 0 0.098025290014896807 0.1358081322443534 0 0.1075782117675307 0.1011198955841079 0 0.1091945847924595 0.12033795575518209 0 0.1255444050648197 0.1126100827025043 0 0.1091945847924595 0.12033795575518209 0 0.1233511581560747 0.1366654837762144 0 0.1255444050648197 0.1126100827025043 0 0.1075782117675307 0.1011198955841079 0 0.12321624606941151 0.08917479816440807 0 0.1255444050648197 0.1126100827025043 0 0.1075782117675307 0.1011198955841079 0 0.12321624606941151 0.08917479816440807 0 0.1027706258541919 0.081079309174786868 0 0.12321624606941151 0.08917479816440807 0 0.1157755398809414 0.064048152592911939 0 0.1027706258541919 0.081079309174786868 0 0.09810154211106413 0.06875729311973014 0 0.1027706258541919 0.081079309174786868 0 0.083857831079868328 0.076060218266713941 0 0.1157755398809414 0.064048152592911939 0 0.09810154211106413 0.06875729311973014 0 0.1027706258541919 0.081079309174786868 0 0.1075782117675307 0.1011198955841079 0 0.1027706258541919 0.081079309174786868 0 0.086276814996566337 0.093546778172253153 0 0.1027706258541919 0.081079309174786868 0 0.086276814996566337 0.093546778172253153 0 0.083857831079868328 0.076060218266713941 0 0.090002171629254973 0.053841492444507831 0 0.083857831079868328 0.076060218266713941 0 0.07458975829211989 0.062546595781285602 0 0.090002171629254973 0.053841492444507831 0 0.083857831079868328 0.076060218266713941 0 0.090002171629254973 0.053841492444507831 0 0.09810154211106413 0.06875729311973014 0 0.083857831079868328 0.076060218266713941 0 0.057380227962237379 0.057949454817418547 0 0.07458975829211989 0.062546595781285602 0 0.06312383715802522 0.081251758178506245 0 0.083857831079868328 0.076060218266713941 0 0.07458975829211989 0.062546595781285602 0 0.06312383715802522 0.081251758178506245 0 0.086276814996566337 0.093546778172253153 0 0.083857831079868328 0.076060218266713941 0 0.06312383715802522 0.081251758178506245 0 0.086276814996566337 0.093546778172253153 0 0.06312383715802522 0.081251758178506245 0 0.068856525160806134 0.1062833033606732 0 0.06312383715802522 0.081251758178506245 0 0.068856525160806134 0.1062833033606732 0 0.086276814996566337 0.093546778172253153 0 0.068856525160806134 0.1062833033606732 0 0.09147385895897589 0.1154861844687308 0 0.068856525160806134 0.1062833033606732 0 0.09147385895897589 0.1154861844687308 0 0.07458921316358702 0.1313148485428402 0 0.068856525160806134 0.1062833033606732 0 0.07458921316358702 0.1313148485428402 0 0.068856525160806134 0.1062833033606732 0 0.051851216540576381 0.11878116333251609 0 0.07458921316358702 0.1313148485428402 0 0.06312383715802522 0.081251758178506245 0 0.068856525160806134 0.1062833033606732 0 0.050715194636839538 0.097042978695316029 0 0.068856525160806134 0.1062833033606732 0 0.051851216540576381 0.11878116333251609 0 0.050715194636839538 0.097042978695316029 0 0.051851216540576381 0.11878116333251609 0 0.050715194636839538 0.097042978695316029 0 0.031525609830550687 0.1023670077251837 0 0.051851216540576381 0.11878116333251609 0 0.031525609830550687 0.1023670077251837 0 0.027983523441444311 0.13064634204454789 0 0.057380227962237379 0.057949454817418547 0 0.06312383715802522 0.081251758178506245 0 0.035067696219657073 0.074087673405819454 0 0.06312383715802522 0.081251758178506245 0 0.050715194636839538 0.097042978695316029 0 0.035067696219657073 0.074087673405819454 0 0.050715194636839538 0.097042978695316029 0 0.031525609830550687 0.1023670077251837 0 0.035067696219657073 0.074087673405819454 0 0.031525609830550687 0.1023670077251837 0 0.035067696219657073 0.074087673405819454 0 0.023569085907819091 0.058285935330947551 0 0.035067696219657073 0.074087673405819454 0 0.0069256189636152333 0.075945032919316008 0 0.031525609830550687 0.1023670077251837 0 0.035067696219657073 0.074087673405819454 0 0.0069256189636152333 0.075945032919316008 0 0.031525609830550687 0.1023670077251837 0 0.0069256189636152333 0.075945032919316008 0 0.0054611253166876716 0.10111680259554991 0 0.031525609830550687 0.1023670077251837 0 0.01226355829647181 0.11858508561147919 0 0.027983523441444311 0.13064634204454789 0 0.031525609830550687 0.1023670077251837 0 0.027983523441444311 0.13064634204454789 0 0.031525609830550687 0.1023670077251837 0 0.0054611253166876716 0.10111680259554991 0 0.01226355829647181 0.11858508561147919 0 -0.0071803489418029087 0.1168992878872477 0 0.0054611253166876716 0.10111680259554991 0 0.01226355829647181 0.11858508561147919 0 0.01226355829647181 0.11858508561147919 0 0.027983523441444311 0.13064634204454789 0 0.002038871722293605 0.14199914678203979 0 -0.0071803489418029087 0.1168992878872477 0 0.01226355829647181 0.11858508561147919 0 0.002038871722293605 0.14199914678203979 0 0.027983523441444311 0.13064634204454789 0 0.020527268583099039 0.15055031788307621 0 0.002038871722293605 0.14199914678203979 0 0.027983523441444311 0.13064634204454789 0 0.020527268583099039 0.15055031788307621 0 0.041387971336499962 0.15792274174355261 0 0.002038871722293605 0.14199914678203979 0 0.01125809238639012 0.16709900567683189 0 0.020527268583099039 0.15055031788307621 0 0.002038871722293605 0.14199914678203979 0 0.01125809238639012 0.16709900567683189 0 -0.0033484118636922821 0.16714514987695139 0 0.002038871722293605 0.14199914678203979 0 0.01125809238639012 0.16709900567683189 0 -9.6250850848612901e-05 0.18489540195061849 0 0.01125809238639012 0.16709900567683189 0 0.0274266731674986 0.18377166516453891 0 -9.6250850848612901e-05 0.18489540195061849 0 -0.0033484118636922821 0.16714514987695139 0 0.01125809238639012 0.16709900567683189 0 -9.6250850848612901e-05 0.18489540195061849 0 0.0274266731674986 0.18377166516453891 0 -9.6250850848612901e-05 0.18489540195061849 0 0.0274266731674986 0.18377166516453891 0 0.001135046813253004 0.19214396772240619 0 0.01125809238639012 0.16709900567683189 0 0.0274266731674986 0.18377166516453891 0 0.029885389696946651 0.16833591000178361 0 0.020527268583099039 0.15055031788307621 0 0.01125809238639012 0.16709900567683189 0 0.029885389696946651 0.16833591000178361 0 0.020527268583099039 0.15055031788307621 0 0.029885389696946651 0.16833591000178361 0 0.041387971336499962 0.15792274174355261 0 0.029885389696946651 0.16833591000178361 0 0.041387971336499962 0.15792274174355261 0 0.054949597185845828 0.18264792837845931 0 0.0274266731674986 0.18377166516453891 0 0.029885389696946651 0.16833591000178361 0 0.054949597185845828 0.18264792837845931 0 0.0274266731674986 0.18377166516453891 0 0.054949597185845828 0.18264792837845931 0 0.041387971336499962 0.15792274174355261 0 0.054949597185845828 0.18264792837845931 0 0.067615773906901197 0.16947789150685469 0 0.041387971336499962 0.15792274174355261 0 0.057215450333247111 0.14486048474239441 0 0.067615773906901197 0.16947789150685469 0 0.051851216540576381 0.11878116333251609 0 0.057215450333247111 0.14486048474239441 0 0.07458921316358702 0.1313148485428402 0 0.051851216540576381 0.11878116333251609 0 0.027983523441444311 0.13064634204454789 0 0.057215450333247111 0.14486048474239441 0 0.027983523441444311 0.13064634204454789 0 0.041387971336499962 0.15792274174355261 0 0.057215450333247111 0.14486048474239441 0 0.028103711665830412 0.24675520846442439 0 0.0072484927199350652 0.23473677481809729 0 0.01949975190749657 0.2264695624851914 0 0.028103711665830412 0.24675520846442439 0 0.01949975190749657 0.2264695624851914 0 0.035333564930855398 0.23142430047745721 0 0.028103711665830412 0.24675520846442439 0 0.0072484927199350652 0.23473677481809729 0 0.0099949212797765703 0.25006588645034589 0 -0.0015828403338048729 0.242229133876323 0 0.0099949212797765703 0.25006588645034589 0 0.00034173235196240039 0.25169171842839061 0 -0.0015828403338048729 0.242229133876323 0 0.0072484927199350652 0.23473677481809729 0 0.0099949212797765703 0.25006588645034589 0 0.0072484927199350652 0.23473677481809729 0 0.0057287259398629241 0.22392284164175891 0 0.01949975190749657 0.2264695624851914 0 -0.0031338724421013401 0.22423756475342299 0 0.0072484927199350652 0.23473677481809729 0 0.0057287259398629241 0.22392284164175891 0 0.0057287259398629241 0.22392284164175891 0 0.01072258914361926 0.21732117331569109 0 0.001294088956889376 0.21643972248792029 0 -0.0031338724421013401 0.22423756475342299 0 0.0057287259398629241 0.22392284164175891 0 0.001294088956889376 0.21643972248792029 0 0.0057287259398629241 0.22392284164175891 0 0.01949975190749657 0.2264695624851914 0 0.01072258914361926 0.21732117331569109 0 0.01949975190749657 0.2264695624851914 0 0.0307266276769264 0.21923987267645609 0 0.035333564930855398 0.23142430047745721 0 0.01949975190749657 0.2264695624851914 0 0.02058027426345943 0.21032509078543191 0 0.01072258914361926 0.21732117331569109 0 0.01949975190749657 0.2264695624851914 0 0.0307266276769264 0.21923987267645609 0 0.02058027426345943 0.21032509078543191 0 0.0307266276769264 0.21923987267645609 0 0.02058027426345943 0.21032509078543191 0 0.036034982513469219 0.20805313590996261 0 0.02058027426345943 0.21032509078543191 0 0.029889268495701921 0.1982687967081139 0 0.036034982513469219 0.20805313590996261 0 0.02058027426345943 0.21032509078543191 0 0.01541601065997465 0.20089117998925529 0 0.029889268495701921 0.1982687967081139 0 0.02058027426345943 0.21032509078543191 0 0.01072258914361926 0.21732117331569109 0 0.0068534091090940719 0.20944662295307251 0 -0.0027563612058543931 0.20802313155596511 0 0.001294088956889376 0.21643972248792029 0 0.0068534091090940719 0.20944662295307251 0 0.01072258914361926 0.21732117331569109 0 0.001294088956889376 0.21643972248792029 0 0.0068534091090940719 0.20944662295307251 0 0.0068534091090940719 0.20944662295307251 0 0.010059453067484261 0.20282686474106931 0 0.001220410428966507 0.20174375483235729 0 -0.0027563612058543931 0.20802313155596511 0 0.0068534091090940719 0.20944662295307251 0 0.001220410428966507 0.20174375483235729 0 0.02058027426345943 0.21032509078543191 0 0.01541601065997465 0.20089117998925529 0 0.010059453067484261 0.20282686474106931 0 0.02058027426345943 0.21032509078543191 0 0.0068534091090940719 0.20944662295307251 0 0.010059453067484261 0.20282686474106931 0 0.01541601065997465 0.20089117998925529 0 0.001135046813253004 0.19214396772240619 0 0.029889268495701921 0.1982687967081139 0 0.01541601065997465 0.20089117998925529 0 0.010059453067484261 0.20282686474106931 0 0.001135046813253004 0.19214396772240619 0 0.001135046813253004 0.19214396772240619 0 0.029889268495701921 0.1982687967081139 0 0.010059453067484261 0.20282686474106931 0 0.001220410428966507 0.20174375483235729 0 0.001135046813253004 0.19214396772240619 0 0.0274266731674986 0.18377166516453891 0 0.001135046813253004 0.19214396772240619 0 0.029889268495701921 0.1982687967081139 0 0.0274266731674986 0.18377166516453891 0 0.054949597185845828 0.18264792837845931 0 0.043184516321896543 0.19611457156647499 0 0.0274266731674986 0.18377166516453891 0 0.029889268495701921 0.1982687967081139 0 0.043184516321896543 0.19611457156647499 0 0.029889268495701921 0.1982687967081139 0 0.043184516321896543 0.19611457156647499 0 0.036034982513469219 0.20805313590996261 0 0.054949597185845828 0.18264792837845931 0 0.057756057480001122 0.20118261676709981 0 0.069157214966575259 0.1930134511263234 0 0.054949597185845828 0.18264792837845931 0 0.043184516321896543 0.19611457156647499 0 0.057756057480001122 0.20118261676709981 0 0.043184516321896543 0.19611457156647499 0 0.057756057480001122 0.20118261676709981 0 0.048261670666118743 0.20784461548485439 0 0.057756057480001122 0.20118261676709981 0 0.048261670666118743 0.20784461548485439 0 0.0573231563361132 0.21746098628559621 0 0.048261670666118743 0.20784461548485439 0 0.0573231563361132 0.21746098628559621 0 0.042180696531236572 0.21783747511181131 0 0.048261670666118743 0.20784461548485439 0 0.042180696531236572 0.21783747511181131 0 0.036034982513469219 0.20805313590996261 0 0.043184516321896543 0.19611457156647499 0 0.048261670666118743 0.20784461548485439 0 0.036034982513469219 0.20805313590996261 0 0.0307266276769264 0.21923987267645609 0 0.042180696531236572 0.21783747511181131 0 0.036034982513469219 0.20805313590996261 0 0.0307266276769264 0.21923987267645609 0 0.042180696531236572 0.21783747511181131 0 0.035333564930855398 0.23142430047745721 0 0.035333564930855398 0.23142430047745721 0 0.048320771817031503 0.22762707453107489 0 0.049761650523897492 0.24189179653921669 0 0.042180696531236572 0.21783747511181131 0 0.035333564930855398 0.23142430047745721 0 0.048320771817031503 0.22762707453107489 0 0.0573231563361132 0.21746098628559621 0 0.048320771817031503 0.22762707453107489 0 0.064847857602721257 0.23850410392939789 0 0.0573231563361132 0.21746098628559621 0 0.042180696531236572 0.21783747511181131 0 0.048320771817031503 0.22762707453107489 0 0.048320771817031503 0.22762707453107489 0 0.049761650523897492 0.24189179653921669 0 0.064847857602721257 0.23850410392939789 0 0.048320771817031503 0.22762707453107489 0 0.049761650523897492 0.24189179653921669 0 0.049761650523897492 0.24189179653921669 0 0.064847857602721257 0.23850410392939789 0 0.059032674099789531 0.25730438594969879 0 0.064847857602721257 0.23850410392939789 0 0.059032674099789531 0.25730438594969879 0 0.049761650523897492 0.24189179653921669 0 0.064847857602721257 0.23850410392939789 0 0.028103711665830412 0.24675520846442439 0 0.049761650523897492 0.24189179653921669 0 0.028103711665830412 0.24675520846442439 0 0.035333564930855398 0.23142430047745721 0 0.049761650523897492 0.24189179653921669 0 0.028103711665830412 0.24675520846442439 0 0.049761650523897492 0.24189179653921669 0 0.051489570560377278 0.25899823225460827 0 0.088716207372424527 0.24898629068107231 0 0.084912548657308712 0.23399846475523839 0 0.1007534187769229 0.2441628226740673 0 0.088716207372424527 0.24898629068107231 0 0.077348978834584664 0.24724533421638889 0 0.084912548657308712 0.23399846475523839 0 0.077348978834584664 0.24724533421638889 0 0.064847857602721257 0.23850410392939789 0 0.059032674099789531 0.25730438594969879 0 0.077348978834584664 0.24724533421638889 0 0.064847857602721257 0.23850410392939789 0 0.084912548657308712 0.23399846475523839 0 0.064847857602721257 0.23850410392939789 0 0.084912548657308712 0.23399846475523839 0 0.064847857602721257 0.23850410392939789 0 0.073660189403457171 0.21001414776089039 0 0.064847857602721257 0.23850410392939789 0 0.081417369599867159 0.22100653695116071 0 0.084912548657308712 0.23399846475523839 0 0.064847857602721257 0.23850410392939789 0 0.081417369599867159 0.22100653695116071 0 0.073660189403457171 0.21001414776089039 0 0.0573231563361132 0.21746098628559621 0 0.064847857602721257 0.23850410392939789 0 0.073660189403457171 0.21001414776089039 0 0.081417369599867159 0.22100653695116071 0 0.084912548657308712 0.23399846475523839 0 0.093762639377853743 0.21698887561636779 0 0.081417369599867159 0.22100653695116071 0 0.084989031737905091 0.20327938820560859 0 0.093762639377853743 0.21698887561636779 0 0.084989031737905091 0.20327938820560859 0 0.095020464738845942 0.2009418358846379 0 0.093762639377853743 0.21698887561636779 0 0.081417369599867159 0.22100653695116071 0 0.084989031737905091 0.20327938820560859 0 0.073660189403457171 0.21001414776089039 0 0.057756057480001122 0.20118261676709981 0 0.0573231563361132 0.21746098628559621 0 0.073660189403457171 0.21001414776089039 0 0.057756057480001122 0.20118261676709981 0 0.073660189403457171 0.21001414776089039 0 0.069157214966575259 0.1930134511263234 0 0.073660189403457171 0.21001414776089039 0 0.069157214966575259 0.1930134511263234 0 0.0824725212041931 0.18152419159238281 0 0.073660189403457171 0.21001414776089039 0 0.0824725212041931 0.18152419159238281 0 0.084989031737905091 0.20327938820560859 0 0.088369370262854241 0.19148533486275471 0 0.0824725212041931 0.18152419159238281 0 0.084989031737905091 0.20327938820560859 0 0.073660189403457171 0.21001414776089039 0 0.0824725212041931 0.18152419159238281 0 0.084989031737905091 0.20327938820560859 0 0.088369370262854241 0.19148533486275471 0 0.095020464738845942 0.2009418358846379 0 0.088369370262854241 0.19148533486275471 0 0.1006933591997444 0.19130111558022669 0 0.097360234456834199 0.1860970321547516 0 0.088369370262854241 0.19148533486275471 0 0.1006933591997444 0.19130111558022669 0 0.095020464738845942 0.2009418358846379 0 0.1006933591997444 0.19130111558022669 0 0.095020464738845942 0.2009418358846379 0 0.1031007736003344 0.19710856248363409 0 0.1031007736003344 0.19710856248363409 0 0.10718767698245869 0.20250368221813209 0 0.1104146916326737 0.19200356635130689 0 0.095020464738845942 0.2009418358846379 0 0.1031007736003344 0.19710856248363409 0 0.10718767698245869 0.20250368221813209 0 0.1006933591997444 0.19130111558022669 0 0.1031007736003344 0.19710856248363409 0 0.1104146916326737 0.19200356635130689 0 0.1006933591997444 0.19130111558022669 0 0.1104146916326737 0.19200356635130689 0 0.114323619195589 0.1802237392688511 0 0.1104146916326737 0.19200356635130689 0 0.1179419435330159 0.20844740403766071 0 0.1104146916326737 0.19200356635130689 0 0.1206563178133447 0.19742714247245799 0 0.1179419435330159 0.20844740403766071 0 0.10718767698245869 0.20250368221813209 0 0.1104146916326737 0.19200356635130689 0 0.1179419435330159 0.20844740403766071 0 0.1104146916326737 0.19200356635130689 0 0.1222222247617321 0.18851696813185151 0 0.1206563178133447 0.19742714247245799 0 0.1222222247617321 0.18851696813185151 0 0.1206563178133447 0.19742714247245799 0 0.12914915774173211 0.19412774280310019 0 0.1206563178133447 0.19742714247245799 0 0.1179419435330159 0.20844740403766071 0 0.12707562676191811 0.20304441100876139 0 0.1179419435330159 0.20844740403766071 0 0.1100311977526644 0.21296451114577569 0 0.12546919543335869 0.2248912417240142 0 0.1179419435330159 0.20844740403766071 0 0.12546919543335869 0.2248912417240142 0 0.10718767698245869 0.20250368221813209 0 0.1179419435330159 0.20844740403766071 0 0.1100311977526644 0.21296451114577569 0 0.1179419435330159 0.20844740403766071 0 0.12546919543335869 0.2248912417240142 0 0.13054360790201319 0.21184354371865499 0 0.095020464738845942 0.2009418358846379 0 0.1100311977526644 0.21296451114577569 0 0.093762639377853743 0.21698887561636779 0 0.095020464738845942 0.2009418358846379 0 0.10718767698245869 0.20250368221813209 0 0.1100311977526644 0.21296451114577569 0 0.095020464738845942 0.2009418358846379 0 0.1100311977526644 0.21296451114577569 0 0.084912548657308712 0.23399846475523839 0 0.093762639377853743 0.21698887561636779 0 0.1049772397118957 0.22949282558107689 0 0.1100311977526644 0.21296451114577569 0 0.093762639377853743 0.21698887561636779 0 0.1049772397118957 0.22949282558107689 0 0.084912548657308712 0.23399846475523839 0 0.1049772397118957 0.22949282558107689 0 0.1100311977526644 0.21296451114577569 0 0.1049772397118957 0.22949282558107689 0 0.12546919543335869 0.2248912417240142 0 0.1049772397118957 0.22949282558107689 0 0.12166476526168921 0.22996603486705219 0 0.12546919543335869 0.2248912417240142 0 0.1049772397118957 0.22949282558107689 0 0.12166476526168921 0.22996603486705219 0 0.1165767351652687 0.23693382695201959 0 0.1049772397118957 0.22949282558107689 0 0.12546919543335869 0.2248912417240142 0 0.1100311977526644 0.21296451114577569 0 0.12546919543335869 0.2248912417240142 0 0.12166476526168921 0.22996603486705219 0 0.1238540496931634 0.23766027325822309 0 0.12546919543335869 0.2248912417240142 0 0.1186654333941437 0.24666043126619891 0 0.10935882715834599 0.23882878742933311 0 0.1007534187769229 0.2441628226740673 0 0.1165767351652687 0.23693382695201959 0 0.1186654333941437 0.24666043126619891 0 0.10935882715834599 0.23882878742933311 0 0.1186654333941437 0.24666043126619891 0 0.1007534187769229 0.2441628226740673 0 0.1049772397118957 0.22949282558107689 0 0.1165767351652687 0.23693382695201959 0 0.10935882715834599 0.23882878742933311 0 0.12166476526168921 0.22996603486705219 0 0.1165767351652687 0.23693382695201959 0 0.1238540496931634 0.23766027325822309 0 0.1165767351652687 0.23693382695201959 0 0.1238540496931634 0.23766027325822309 0 0.1186654333941437 0.24666043126619891 0 0.084912548657308712 0.23399846475523839 0 0.1049772397118957 0.22949282558107689 0 0.1007534187769229 0.2441628226740673 0 0.1186654333941437 0.24666043126619891 0 0.1007534187769229 0.2441628226740673 0 0.1084587161834779 0.25707980777683931 0 0.1049772397118957 0.22949282558107689 0 0.10935882715834599 0.23882878742933311 0 0.1007534187769229 0.2441628226740673 0 0.07458921316358702 0.1313148485428402 0 0.080321901166367921 0.15634639372500711 0 0.098025290014896807 0.1358081322443534 0 0.09147385895897589 0.1154861844687308 0 0.07458921316358702 0.1313148485428402 0 0.098025290014896807 0.1358081322443534 0 0.07458921316358702 0.1313148485428402 0 0.080321901166367921 0.15634639372500711 0 0.057215450333247111 0.14486048474239441 0 0.07458921316358702 0.1313148485428402 0 0.080321901166367921 0.15634639372500711 0 0.057215450333247111 0.14486048474239441 0 0.067615773906901197 0.16947789150685469 0 0.080321901166367921 0.15634639372500711 0 0.067615773906901197 0.16947789150685469 0 0.083297619998284098 0.17885667645452291 0 0.080321901166367921 0.15634639372500711 0 0.054949597185845828 0.18264792837845931 0 0.067615773906901197 0.16947789150685469 0 0.0824725212041931 0.18152419159238281 0 0.054949597185845828 0.18264792837845931 0 0.069157214966575259 0.1930134511263234 0 0.0824725212041931 0.18152419159238281 0 0.067615773906901197 0.16947789150685469 0 0.0824725212041931 0.18152419159238281 0 0.083297619998284098 0.17885667645452291 0 0.054949597185845828 0.18264792837845931 0 0.0824725212041931 0.18152419159238281 0 0.083297619998284098 0.17885667645452291 0 0.086054589169149195 0.18137793890717391 0 0.080321901166367921 0.15634639372500711 0 0.088369370262854241 0.19148533486275471 0 0.0824725212041931 0.18152419159238281 0 0.086054589169149195 0.18137793890717391 0 0.0824725212041931 0.18152419159238281 0 0.083297619998284098 0.17885667645452291 0 0.0824725212041931 0.18152419159238281 0 0.083297619998284098 0.17885667645452291 0 0.086054589169149195 0.18137793890717391 0 0.0824725212041931 0.18152419159238281 0 0.086054589169149195 0.18137793890717391 0 0.088369370262854241 0.19148533486275471 0 0.086054589169149195 0.18137793890717391 0 0.088369370262854241 0.19148533486275471 0 0.086054589169149195 0.18137793890717391 0 0.097360234456834199 0.1860970321547516 0 0.086054589169149195 0.18137793890717391 0 0.080321901166367921 0.15634639372500711 0 0.086054589169149195 0.18137793890717391 0 0.080321901166367921 0.15634639372500711 0 0.1003990157211098 0.16717659093073159 0 0.080321901166367921 0.15634639372500711 0 0.1003990157211098 0.16717659093073159 0 0.1074496575357191 0.15202201414816621 0 0.1003990157211098 0.16717659093073159 0 0.11515123844097119 0.16504875193407151 0 0.1074496575357191 0.15202201414816621 0 0.086054589169149195 0.18137793890717391 0 0.097360234456834199 0.1860970321547516 0 0.114323619195589 0.1802237392688511 0 0.086054589169149195 0.18137793890717391 0 0.114323619195589 0.1802237392688511 0 0.086054589169149195 0.18137793890717391 0 0.1003990157211098 0.16717659093073159 0 0.114323619195589 0.1802237392688511 0 0.1006933591997444 0.19130111558022669 0 0.097360234456834199 0.1860970321547516 0 0.114323619195589 0.1802237392688511 0 0.1104146916326737 0.19200356635130689 0 0.1222222247617321 0.18851696813185151 0 0.114323619195589 0.1802237392688511 0 0.11515123844097119 0.16504875193407151 0 0.1247039481840663 0.15477443382819039 0 0.1074496575357191 0.15202201414816621 0 0.1003990157211098 0.16717659093073159 0 0.114323619195589 0.1802237392688511 0 0.11515123844097119 0.16504875193407151 0 0.114323619195589 0.1802237392688511 0 0.11515123844097119 0.16504875193407151 0 0.12876764372259769 0.16855038907340561 0 0.11515123844097119 0.16504875193407151 0 0.1247039481840663 0.15477443382819039 0 0.12876764372259769 0.16855038907340561 0 0.1074496575357191 0.15202201414816621 0 0.098025290014896807 0.1358081322443534 0 0.1233511581560747 0.1366654837762144 0 0.1247039481840663 0.15477443382819039 0 0.1074496575357191 0.15202201414816621 0 0.1233511581560747 0.1366654837762144 0 0.080321901166367921 0.15634639372500711 0 0.1074496575357191 0.15202201414816621 0 0.098025290014896807 0.1358081322443534 0 0.1091945847924595 0.12033795575518209 0 0.098025290014896807 0.1358081322443534 0 0.1233511581560747 0.1366654837762144 0 0.1233511581560747 0.1366654837762144 0 0.1431420410933934 0.1266470635083399 0 0.1255444050648197 0.1126100827025043 0 0.1233511581560747 0.1366654837762144 0 0.1431420410933934 0.1266470635083399 0 0.14652768591061779 0.1516518370845242 0 0.1431420410933934 0.1266470635083399 0 0.14652768591061779 0.1516518370845242 0 0.16726690090553689 0.12714263669739839 0 0.1247039481840663 0.15477443382819039 0 0.1233511581560747 0.1366654837762144 0 0.14652768591061779 0.1516518370845242 0 0.14652768591061779 0.1516518370845242 0 0.12876764372259769 0.16855038907340561 0 0.14259264922202891 0.1790695396305306 0 0.1247039481840663 0.15477443382819039 0 0.14652768591061779 0.1516518370845242 0 0.12876764372259769 0.16855038907340561 0 0.114323619195589 0.1802237392688511 0 0.14259264922202891 0.1790695396305306 0 0.1222222247617321 0.18851696813185151 0 0.14259264922202891 0.1790695396305306 0 0.12914915774173211 0.19412774280310019 0 0.1222222247617321 0.18851696813185151 0 0.114323619195589 0.1802237392688511 0 0.14259264922202891 0.1790695396305306 0 0.114323619195589 0.1802237392688511 0 0.12876764372259769 0.16855038907340561 0 0.14259264922202891 0.1790695396305306 0 0.14259264922202891 0.1790695396305306 0 0.16421944746490119 0.16657246833333461 0 0.1609421441738316 0.1838352199740195 0 0.14259264922202891 0.1790695396305306 0 0.1609421441738316 0.1838352199740195 0 0.15252371725801001 0.19915306155084131 0 0.14652768591061779 0.1516518370845242 0 0.14259264922202891 0.1790695396305306 0 0.16421944746490119 0.16657246833333461 0 0.16421944746490119 0.16657246833333461 0 0.1609421441738316 0.1838352199740195 0 0.17589141504079109 0.17873890114092031 0 0.1609421441738316 0.1838352199740195 0 0.17589141504079109 0.17873890114092031 0 0.1694834918834269 0.19564212921447069 0 0.17589141504079109 0.17873890114092031 0 0.18746589689593041 0.1908940063130522 0 0.19524183566723341 0.17384325265330439 0 0.17589141504079109 0.17873890114092031 0 0.18056524651764649 0.16538379467633529 0 0.19524183566723341 0.17384325265330439 0 0.18056524651764649 0.16538379467633529 0 0.17459525583378921 0.1496817188626485 0 0.19287827858151749 0.15808263239146839 0 0.16421944746490119 0.16657246833333461 0 0.18056524651764649 0.16538379467633529 0 0.17459525583378921 0.1496817188626485 0 0.16421944746490119 0.16657246833333461 0 0.17589141504079109 0.17873890114092031 0 0.18056524651764649 0.16538379467633529 0 0.17459525583378921 0.1496817188626485 0 0.18859764539697829 0.13523258894305301 0 0.19287827858151749 0.15808263239146839 0 0.17459525583378921 0.1496817188626485 0 0.16726690090553689 0.12714263669739839 0 0.18859764539697829 0.13523258894305301 0 0.16726690090553689 0.12714263669739839 0 0.18859764539697829 0.13523258894305301 0 0.18911009081401309 0.11766526874516001 0 0.14652768591061779 0.1516518370845242 0 0.16421944746490119 0.16657246833333461 0 0.17459525583378921 0.1496817188626485 0 0.14652768591061779 0.1516518370845242 0 0.17459525583378921 0.1496817188626485 0 0.16726690090553689 0.12714263669739839 0 0.15510602634524509 0.2490666805815501 0 0.13657744801136459 0.24915803985833099 0 0.1404459464892977 0.23732485696453229 0 0.15510602634524509 0.2490666805815501 0 0.1404459464892977 0.23732485696453229 0 0.15510237646769359 0.2340485130572135 0 0.15510602634524509 0.2490666805815501 0 0.1404459464892977 0.23732485696453229 0 0.13657744801136459 0.24915803985833099 0 0.1404459464892977 0.23732485696453229 0 0.12546919543335869 0.2248912417240142 0 0.13657744801136459 0.24915803985833099 0 0.12546919543335869 0.2248912417240142 0 0.1238540496931634 0.23766027325822309 0 0.13657744801136459 0.24915803985833099 0 0.12546919543335869 0.2248912417240142 0 0.1186654333941437 0.24666043126619891 0 0.13657744801136459 0.24915803985833099 0 0.1238540496931634 0.23766027325822309 0 0.1186654333941437 0.24666043126619891 0 0.13657744801136459 0.24915803985833099 0 0.1404459464892977 0.23732485696453229 0 0.12546919543335869 0.2248912417240142 0 0.12546919543335869 0.2248912417240142 0 0.14463476749629489 0.2205875047740096 0 0.12546919543335869 0.2248912417240142 0 0.14463476749629489 0.2205875047740096 0 0.13054360790201319 0.21184354371865499 0 0.1404459464892977 0.23732485696453229 0 0.13408394401307541 0.22709665920251759 0 0.14463476749629489 0.2205875047740096 0 0.1404459464892977 0.23732485696453229 0 0.13408394401307541 0.22709665920251759 0 0.12546919543335869 0.2248912417240142 0 0.13408394401307541 0.22709665920251759 0 0.12546919543335869 0.2248912417240142 0 0.14463476749629489 0.2205875047740096 0 0.1404459464892977 0.23732485696453229 0 0.14463476749629489 0.2205875047740096 0 0.15510237646769359 0.2340485130572135 0 0.14463476749629489 0.2205875047740096 0 0.15510237646769359 0.2340485130572135 0 0.16380033955923179 0.2162837678240084 0 0.14463476749629489 0.2205875047740096 0 0.15252371725801001 0.19915306155084131 0 0.16380033955923179 0.2162837678240084 0 0.14463476749629489 0.2205875047740096 0 0.13810590575147341 0.20111809208572509 0 0.15252371725801001 0.19915306155084131 0 0.14463476749629489 0.2205875047740096 0 0.16380033955923179 0.2162837678240084 0 0.14463476749629489 0.2205875047740096 0 0.13054360790201319 0.21184354371865499 0 0.13810590575147341 0.20111809208572509 0 0.13054360790201319 0.21184354371865499 0 0.13810590575147341 0.20111809208572509 0 0.12707562676191811 0.20304441100876139 0 0.1179419435330159 0.20844740403766071 0 0.13054360790201319 0.21184354371865499 0 0.12707562676191811 0.20304441100876139 0 0.14259264922202891 0.1790695396305306 0 0.13810590575147341 0.20111809208572509 0 0.12914915774173211 0.19412774280310019 0 0.13810590575147341 0.20111809208572509 0 0.12707562676191811 0.20304441100876139 0 0.12914915774173211 0.19412774280310019 0 0.1206563178133447 0.19742714247245799 0 0.12707562676191811 0.20304441100876139 0 0.12914915774173211 0.19412774280310019 0 0.14259264922202891 0.1790695396305306 0 0.13810590575147341 0.20111809208572509 0 0.15252371725801001 0.19915306155084131 0 0.1609421441738316 0.1838352199740195 0 0.15252371725801001 0.19915306155084131 0 0.1694834918834269 0.19564212921447069 0 0.17589141504079109 0.17873890114092031 0 0.1694834918834269 0.19564212921447069 0 0.18746589689593041 0.1908940063130522 0 0.1694834918834269 0.19564212921447069 0 0.18746589689593041 0.1908940063130522 0 0.1802938541878335 0.20813387888407639 0 0.1802938541878335 0.20813387888407639 0 0.16380033955923179 0.2162837678240084 0 0.1764176963352857 0.21965023722592761 0 0.1802938541878335 0.20813387888407639 0 0.1764176963352857 0.21965023722592761 0 0.19165978085343241 0.22260013014587021 0 0.1694834918834269 0.19564212921447069 0 0.1802938541878335 0.20813387888407639 0 0.16380033955923179 0.2162837678240084 0 0.15252371725801001 0.19915306155084131 0 0.1694834918834269 0.19564212921447069 0 0.16380033955923179 0.2162837678240084 0 0.15510237646769359 0.2340485130572135 0 0.16380033955923179 0.2162837678240084 0 0.16991681074064491 0.23158317204975551 0 0.16380033955923179 0.2162837678240084 0 0.16991681074064491 0.23158317204975551 0 0.1764176963352857 0.21965023722592761 0 0.16991681074064491 0.23158317204975551 0 0.1764176963352857 0.21965023722592761 0 0.19165978085343241 0.22260013014587021 0 0.16991681074064491 0.23158317204975551 0 0.1895424315401518 0.2369878626917907 0 0.19165978085343241 0.22260013014587021 0 0.16991681074064491 0.23158317204975551 0 0.19165978085343241 0.22260013014587021 0 0.17541479570916349 0.24394271450933411 0 0.1895424315401518 0.2369878626917907 0 0.19046502565329271 0.25667199514498079 0 0.16991681074064491 0.23158317204975551 0 0.17541479570916349 0.24394271450933411 0 0.1895424315401518 0.2369878626917907 0 0.17541479570916349 0.24394271450933411 0 0.1636284737793996 0.2415555251584868 0 0.16352123683232861 0.25291501750165601 0 0.16991681074064491 0.23158317204975551 0 0.17541479570916349 0.24394271450933411 0 0.1636284737793996 0.2415555251584868 0 0.15510602634524509 0.2490666805815501 0 0.15510237646769359 0.2340485130572135 0 0.1636284737793996 0.2415555251584868 0 0.15510237646769359 0.2340485130572135 0 0.16991681074064491 0.23158317204975551 0 0.1636284737793996 0.2415555251584868 0 0.15510602634524509 0.2490666805815501 0 0.1636284737793996 0.2415555251584868 0 0.16352123683232861 0.25291501750165601 0 0.20485045957174261 0.24407632231641579 0 0.22015769701587909 0.23805805360523119 0 0.22046961193007161 0.25132333339345397 0 0.20485045957174261 0.24407632231641579 0 0.20759023016684899 0.22974822922412569 0 0.22015769701587909 0.23805805360523119 0 0.1895424315401518 0.2369878626917907 0 0.19046502565329271 0.25667199514498079 0 0.20485045957174261 0.24407632231641579 0 0.1895424315401518 0.2369878626917907 0 0.20759023016684899 0.22974822922412569 0 0.20485045957174261 0.24407632231641579 0 0.1895424315401518 0.2369878626917907 0 0.19046502565329271 0.25667199514498079 0 0.1895424315401518 0.2369878626917907 0 0.19165978085343241 0.22260013014587021 0 0.20759023016684899 0.22974822922412569 0 0.20759023016684899 0.22974822922412569 0 0.21340275096621991 0.213617088241985 0 0.2259282610536687 0.22314991834346151 0 0.20759023016684899 0.22974822922412569 0 0.2259282610536687 0.22314991834346151 0 0.22015769701587909 0.23805805360523119 0 0.19165978085343241 0.22260013014587021 0 0.20759023016684899 0.22974822922412569 0 0.21340275096621991 0.213617088241985 0 0.21340275096621991 0.213617088241985 0 0.19850516785476541 0.2030357907590499 0 0.21718626403589861 0.19856736536916919 0 0.1802938541878335 0.20813387888407639 0 0.19165978085343241 0.22260013014587021 0 0.19850516785476541 0.2030357907590499 0 0.19165978085343241 0.22260013014587021 0 0.21340275096621991 0.213617088241985 0 0.19165978085343241 0.22260013014587021 0 0.21340275096621991 0.213617088241985 0 0.19850516785476541 0.2030357907590499 0 0.18746589689593041 0.1908940063130522 0 0.1802938541878335 0.20813387888407639 0 0.19850516785476541 0.2030357907590499 0 0.18746589689593041 0.1908940063130522 0 0.19850516785476541 0.2030357907590499 0 0.2063198847281256 0.18827551734548831 0 0.19850516785476541 0.2030357907590499 0 0.2063198847281256 0.18827551734548831 0 0.21718626403589861 0.19856736536916919 0 0.2063198847281256 0.18827551734548831 0 0.21718626403589861 0.19856736536916919 0 0.22922647956130429 0.1871106940620017 0 0.21718626403589861 0.19856736536916919 0 0.23514572107900569 0.20463404633809559 0 0.22922647956130429 0.1871106940620017 0 0.23514572107900569 0.20463404633809559 0 0.22922647956130429 0.1871106940620017 0 0.2455343681789513 0.20034200841782551 0 0.22922647956130429 0.1871106940620017 0 0.25029606846190422 0.1797913926751768 0 0.2455343681789513 0.20034200841782551 0 0.23514572107900569 0.20463404633809559 0 0.22922647956130429 0.1871106940620017 0 0.2455343681789513 0.20034200841782551 0 0.2489395075411904 0.199104654813124 0 0.25029606846190422 0.1797913926751768 0 0.2455343681789513 0.20034200841782551 0 0.23514572107900569 0.20463404633809559 0 0.2455343681789513 0.20034200841782551 0 0.23514572107900569 0.20463404633809559 0 0.2433306236985262 0.2097309642497619 0 0.23514572107900569 0.20463404633809559 0 0.2433306236985262 0.2097309642497619 0 0.24165121181977739 0.2238929337544161 0 0.23514572107900569 0.20463404633809559 0 0.24165121181977739 0.2238929337544161 0 0.2455343681789513 0.20034200841782551 0 0.2489395075411904 0.199104654813124 0 0.25099119371637069 0.21005486848871019 0 0.2455343681789513 0.20034200841782551 0 0.2433306236985262 0.2097309642497619 0 0.25099119371637069 0.21005486848871019 0 0.2433306236985262 0.2097309642497619 0 0.24165121181977739 0.2238929337544161 0 0.25099119371637069 0.21005486848871019 0 0.23514572107900569 0.20463404633809559 0 0.2259282610536687 0.22314991834346151 0 0.24165121181977739 0.2238929337544161 0 0.21340275096621991 0.213617088241985 0 0.21718626403589861 0.19856736536916919 0 0.23514572107900569 0.20463404633809559 0 0.21340275096621991 0.213617088241985 0 0.23514572107900569 0.20463404633809559 0 0.21340275096621991 0.213617088241985 0 0.23514572107900569 0.20463404633809559 0 0.2259282610536687 0.22314991834346151 0 0.2259282610536687 0.22314991834346151 0 0.24165121181977739 0.2238929337544161 0 0.23290805933619019 0.23498867540770371 0 0.2259282610536687 0.22314991834346151 0 0.23290805933619019 0.23498867540770371 0 0.22015769701587909 0.23805805360523119 0 0.24165121181977739 0.2238929337544161 0 0.24815670256054939 0.24315182117073661 0 0.24165121181977739 0.2238929337544161 0 0.24815670256054939 0.24315182117073661 0 0.25736741807393598 0.2249699039431817 0 0.24165121181977739 0.2238929337544161 0 0.24815670256054939 0.24315182117073661 0 0.23290805933619019 0.23498867540770371 0 0.24815670256054939 0.24315182117073661 0 0.23349475274929751 0.24834420182182129 0 0.23290805933619019 0.23498867540770371 0 0.24815670256054939 0.24315182117073661 0 0.23349475274929751 0.24834420182182129 0 0.24424659163407689 0.25463765965546259 0 0.23349475274929751 0.24834420182182129 0 0.23290805933619019 0.23498867540770371 0 0.22015769701587909 0.23805805360523119 0 0.23349475274929751 0.24834420182182129 0 0.22015769701587909 0.23805805360523119 0 0.22046961193007161 0.25132333339345397 0 0.21506900685485689 0.14519884085709761 0 0.2000659090221478 0.14491015142488339 0 0.2080927583125588 0.16383498708868979 0 0.21506900685485689 0.14519884085709761 0 0.2327915686165446 0.13361188979296371 0 0.20683077566611061 0.1208103399282876 0 0.21506900685485689 0.14519884085709761 0 0.20683077566611061 0.1208103399282876 0 0.21506900685485689 0.14519884085709761 0 0.2000659090221478 0.14491015142488339 0 0.20683077566611061 0.1208103399282876 0 0.18859764539697829 0.13523258894305301 0 0.2000659090221478 0.14491015142488339 0 0.20683077566611061 0.1208103399282876 0 0.2000659090221478 0.14491015142488339 0 0.19287827858151749 0.15808263239146839 0 0.2080927583125588 0.16383498708868979 0 0.18859764539697829 0.13523258894305301 0 0.2000659090221478 0.14491015142488339 0 0.19287827858151749 0.15808263239146839 0 0.18056524651764649 0.16538379467633529 0 0.19287827858151749 0.15808263239146839 0 0.19524183566723341 0.17384325265330439 0 0.19287827858151749 0.15808263239146839 0 0.19524183566723341 0.17384325265330439 0 0.2080927583125588 0.16383498708868979 0 0.19287827858151749 0.15808263239146839 0 0.2080927583125588 0.16383498708868979 0 0.18746589689593041 0.1908940063130522 0 0.2063198847281256 0.18827551734548831 0 0.19524183566723341 0.17384325265330439 0 0.2063198847281256 0.18827551734548831 0 0.21241074565061671 0.17572085903798301 0 0.22922647956130429 0.1871106940620017 0 0.2063198847281256 0.18827551734548831 0 0.19524183566723341 0.17384325265330439 0 0.21241074565061671 0.17572085903798301 0 0.19524183566723341 0.17384325265330439 0 0.21241074565061671 0.17572085903798301 0 0.2080927583125588 0.16383498708868979 0 0.21506900685485689 0.14519884085709761 0 0.2080927583125588 0.16383498708868979 0 0.22330723804360131 0.16958734178590831 0 0.2080927583125588 0.16383498708868979 0 0.22330723804360131 0.16958734178590831 0 0.21241074565061671 0.17572085903798301 0 0.2080927583125588 0.16383498708868979 0 0.22330723804360131 0.16958734178590831 0 0.21506900685485689 0.14519884085709761 0 0.22330723804360131 0.16958734178590831 0 0.22330723804360131 0.16958734178590831 0 0.24160161585879761 0.1624254570726936 0 0.23071444992939041 0.15303654851325191 0 0.22330723804360131 0.16958734178590831 0 0.22922647956130429 0.1871106940620017 0 0.21241074565061671 0.17572085903798301 0 0.22330723804360131 0.16958734178590831 0 0.22922647956130429 0.1871106940620017 0 0.22330723804360131 0.16958734178590831 0 0.22922647956130429 0.1871106940620017 0 0.25029606846190422 0.1797913926751768 0 0.22330723804360131 0.16958734178590831 0 0.25029606846190422 0.1797913926751768 0 0.22330723804360131 0.16958734178590831 0 0.24160161585879761 0.1624254570726936 0 0.25029606846190422 0.1797913926751768 0 0.24469027036577351 0.14880694978056691 0 0.23071444992939041 0.15303654851325191 0 0.2327915686165446 0.13361188979296371 0 0.24160161585879761 0.1624254570726936 0 0.24469027036577351 0.14880694978056691 0 0.26053074556048611 0.1537619508775305 0 0.24160161585879761 0.1624254570726936 0 0.24469027036577351 0.14880694978056691 0 0.23071444992939041 0.15303654851325191 0 0.21506900685485689 0.14519884085709761 0 0.23071444992939041 0.15303654851325191 0 0.2327915686165446 0.13361188979296371 0 0.21506900685485689 0.14519884085709761 0 0.22330723804360131 0.16958734178590831 0 0.23071444992939041 0.15303654851325191 0 0.2327915686165446 0.13361188979296371 0 0.24969331874114301 0.1206973613509984 0 0.25277366156233982 0.13657867635417301 0 0.24469027036577351 0.14880694978056691 0 0.2327915686165446 0.13361188979296371 0 0.25277366156233982 0.13657867635417301 0 0.2327915686165446 0.13361188979296371 0 0.24969331874114301 0.1206973613509984 0 0.23079751925312511 0.10957284422267149 0 0.24969331874114301 0.1206973613509984 0 0.23079751925312511 0.10957284422267149 0 0.24969331874114301 0.1206973613509984 0 0.24533759262594271 0.097680445434891128 0 0.23079751925312511 0.10957284422267149 0 0.24533759262594271 0.097680445434891128 0 0.2221557412918895 0.094157897966338902 0 0.23079751925312511 0.10957284422267149 0 0.2221557412918895 0.094157897966338902 0 0.23079751925312511 0.10957284422267149 0 0.20683077566611061 0.1208103399282876 0 0.2327915686165446 0.13361188979296371 0 0.23079751925312511 0.10957284422267149 0 0.20683077566611061 0.1208103399282876 0 0.2221557412918895 0.094157897966338902 0 0.20683077566611061 0.1208103399282876 0 0.19859254447736449 0.096421838999477719 0 0.20683077566611061 0.1208103399282876 0 0.19859254447736449 0.096421838999477719 0 0.19859254447736449 0.096421838999477719 0 0.18911009081401309 0.11766526874516001 0 0.17618464761673711 0.1059151980247104 0 0.18859764539697829 0.13523258894305301 0 0.20683077566611061 0.1208103399282876 0 0.18911009081401309 0.11766526874516001 0 0.20683077566611061 0.1208103399282876 0 0.19859254447736449 0.096421838999477719 0 0.18911009081401309 0.11766526874516001 0 0.19035431328861829 0.072033338070667752 0 0.21319562374408799 0.074390838382907942 0 0.2040652153755306 0.056242319205839407 0 0.19859254447736449 0.096421838999477719 0 0.19035431328861829 0.072033338070667752 0 0.21319562374408799 0.074390838382907942 0 0.19859254447736449 0.096421838999477719 0 0.19035431328861829 0.072033338070667752 0 0.2221557412918895 0.094157897966338902 0 0.19859254447736449 0.096421838999477719 0 0.21319562374408799 0.074390838382907942 0 0.21319562374408799 0.074390838382907942 0 0.2275313509427897 0.066770963088263552 0 0.2177238518798599 0.056290017415601759 0 0.21319562374408799 0.074390838382907942 0 0.2275313509427897 0.066770963088263552 0 0.23355580563351649 0.080747391561967197 0 0.2275313509427897 0.066770963088263552 0 0.24070418106599559 0.0689998304384567 0 0.2340921907718358 0.052096021675621912 0 0.2275313509427897 0.066770963088263552 0 0.23355580563351649 0.080747391561967197 0 0.24070418106599559 0.0689998304384567 0 0.2221557412918895 0.094157897966338902 0 0.21319562374408799 0.074390838382907942 0 0.23355580563351649 0.080747391561967197 0 0.24533759262594271 0.097680445434891128 0 0.2221557412918895 0.094157897966338902 0 0.23355580563351649 0.080747391561967197 0 0.24533759262594271 0.097680445434891128 0 0.23355580563351649 0.080747391561967197 0 0.24899324599662889 0.0805272582694566 0 0.24899324599662889 0.0805272582694566 0 0.24070418106599559 0.0689998304384567 0 0.25772420685117792 0.064535895225650619 0 0.23355580563351649 0.080747391561967197 0 0.24899324599662889 0.0805272582694566 0 0.24070418106599559 0.0689998304384567 0 0.24780396989584361 0.038399061764983873 0 0.2340921907718358 0.052096021675621912 0 0.25772420685117792 0.064535895225650619 0 0.24070418106599559 0.0689998304384567 0 0.2340921907718358 0.052096021675621912 0 0.25772420685117792 0.064535895225650619 0 0.24780396989584361 0.038399061764983873 0 0.23710700531568851 0.035648296650527822 0 0.2340921907718358 0.052096021675621912 0 0.23050010646102539 0.042089958714353233 0 0.2208387494451633 0.041934324772725837 0 0.2340921907718358 0.052096021675621912 0 0.23710700531568851 0.035648296650527822 0 0.23050010646102539 0.042089958714353233 0 0.2340921907718358 0.052096021675621912 0 0.23710700531568851 0.035648296650527822 0 0.23050010646102539 0.042089958714353233 0 0.22796667648380309 0.03335834656281144 0 0.22796667648380309 0.03335834656281144 0 0.2208387494451633 0.041934324772725837 0 0.2207859242391039 0.030783003971013391 0 0.2208387494451633 0.041934324772725837 0 0.2207859242391039 0.030783003971013391 0 0.2153079131795749 0.037245147359630373 0 0.23050010646102539 0.042089958714353233 0 0.22796667648380309 0.03335834656281144 0 0.2208387494451633 0.041934324772725837 0 0.2275313509427897 0.066770963088263552 0 0.2340921907718358 0.052096021675621912 0 0.2177238518798599 0.056290017415601759 0 0.2208387494451633 0.041934324772725837 0 0.2340921907718358 0.052096021675621912 0 0.2177238518798599 0.056290017415601759 0 0.23523197393933601 0.001266284315027872 0 0.23742980598779839 0.0053654840043204227 0 0.23364524442137249 0.0039929165900209861 0 0.23523197393933601 0.001266284315027872 0 0.23742980598779839 0.0053654840043204227 0 0.23755874239717911 -0.0021774944839035399 0 0.23742980598779839 0.0053654840043204227 0 0.23325402127503631 0.0069939857146891441 0 0.23364524442137249 0.0039929165900209861 0 0.23742980598779839 0.0053654840043204227 0 0.24206868320973049 0.0058705376878152894 0 0.24444698731800479 0.0019398011864187759 0 0.24444698731800479 0.0019398011864187759 0 0.2462448439675437 0.0082486099570689524 0 0.2498818982516218 -0.002271085465629063 0 0.24206868320973049 0.0058705376878152894 0 0.24444698731800479 0.0019398011864187759 0 0.2462448439675437 0.0082486099570689524 0 0.2462448439675437 0.0082486099570689524 0 0.24752713428859591 0.02033042166504687 0 0.25296504279947712 0.01531873922705225 0 0.2462448439675437 0.0082486099570689524 0 0.23788373294050949 0.012262228304317221 0 0.24752713428859591 0.02033042166504687 0 0.24206868320973049 0.0058705376878152894 0 0.2462448439675437 0.0082486099570689524 0 0.23788373294050949 0.012262228304317221 0 0.23742980598779839 0.0053654840043204227 0 0.24206868320973049 0.0058705376878152894 0 0.23788373294050949 0.012262228304317221 0 0.23742980598779839 0.0053654840043204227 0 0.23256623666786741 0.01116266195670591 0 0.23325402127503631 0.0069939857146891441 0 0.24780396989584361 0.038399061764983873 0 0.24752713428859591 0.02033042166504687 0 0.25378409553581782 0.027753119939855849 0 0.22796667648380309 0.03335834656281144 0 0.23742980598779839 0.0053654840043204227 0 0.23788373294050949 0.012262228304317221 0 0.24780396989584361 0.038399061764983873 0 0.23788373294050949 0.012262228304317221 0 0.24780396989584361 0.038399061764983873 0 0.23788373294050949 0.012262228304317221 0 0.24752713428859591 0.02033042166504687 0 0.24780396989584361 0.038399061764983873 0 0.23710700531568851 0.035648296650527822 0 0.23788373294050949 0.012262228304317221 0 0.22796667648380309 0.03335834656281144 0 0.23742980598779839 0.0053654840043204227 0 0.22796667648380309 0.03335834656281144 0 0.23742980598779839 0.0053654840043204227 0 0.23048394740949241 0.018613361998082251 0 0.23710700531568851 0.035648296650527822 0 0.22796667648380309 0.03335834656281144 0 0.23788373294050949 0.012262228304317221 0 0.22796667648380309 0.03335834656281144 0 0.22526229424862451 0.024913275046830739 0 0.23048394740949241 0.018613361998082251 0 0.22796667648380309 0.03335834656281144 0 0.2207859242391039 0.030783003971013391 0 0.22526229424862451 0.024913275046830739 0 0.2207859242391039 0.030783003971013391 0 0.22526229424862451 0.024913275046830739 0 0.21853926555826339 0.020048720982081471 0 0.22526229424862451 0.024913275046830739 0 0.22468554854987921 0.018404263647896671 0 0.21853926555826339 0.020048720982081471 0 0.22468554854987921 0.018404263647896671 0 0.2216808620376364 0.0149432478269761 0 0.21853926555826339 0.020048720982081471 0 0.22468554854987921 0.018404263647896671 0 0.23048394740949241 0.018613361998082251 0 0.22746137349537909 0.01350271238551278 0 0.22526229424862451 0.024913275046830739 0 0.22468554854987921 0.018404263647896671 0 0.23048394740949241 0.018613361998082251 0 0.22755342436700099 0.0061065467241540987 0 0.23364524442137249 0.0039929165900209861 0 0.21687420696145621 -0.0072733456321549686 0 0.23742980598779839 0.0053654840043204227 0 0.23048394740949241 0.018613361998082251 0 0.23256623666786741 0.01116266195670591 0 0.23256623666786741 0.01116266195670591 0 0.22755342436700099 0.0061065467241540987 0 0.23325402127503631 0.0069939857146891441 0 0.23256623666786741 0.01116266195670591 0 0.22746137349537909 0.01350271238551278 0 0.22755342436700099 0.0061065467241540987 0 0.23048394740949241 0.018613361998082251 0 0.23256623666786741 0.01116266195670591 0 0.22746137349537909 0.01350271238551278 0 0.22468554854987921 0.018404263647896671 0 0.22746137349537909 0.01350271238551278 0 0.2216808620376364 0.0149432478269761 0 0.22746137349537909 0.01350271238551278 0 0.2216808620376364 0.0149432478269761 0 0.2203811048458286 0.0074176408404287748 0 0.22746137349537909 0.01350271238551278 0 0.2203811048458286 0.0074176408404287748 0 0.22755342436700099 0.0061065467241540987 0 0.2203811048458286 0.0074176408404287748 0 0.22755342436700099 0.0061065467241540987 0 0.21687420696145621 -0.0072733456321549686 0 0.22755342436700099 0.0061065467241540987 0 0.23325402127503631 0.0069939857146891441 0 0.23364524442137249 0.0039929165900209861 0 0.23523197393933601 0.001266284315027872 0 0.23364524442137249 0.0039929165900209861 0 0.231198015316505 -0.0037995837078741539 0 0.21080235957480761 0.0029961693591693392 0 0.1997982568441673 0.0073950566886211424 0 0.20206600855890791 -0.0054183217517912224 0 0.21080235957480761 0.0029961693591693392 0 0.21323331636592191 0.01255782733261197 0 0.1997982568441673 0.0073950566886211424 0 0.2203811048458286 0.0074176408404287748 0 0.21080235957480761 0.0029961693591693392 0 0.21687420696145621 -0.0072733456321549686 0 0.2203811048458286 0.0074176408404287748 0 0.21080235957480761 0.0029961693591693392 0 0.21323331636592191 0.01255782733261197 0 0.2216808620376364 0.0149432478269761 0 0.2203811048458286 0.0074176408404287748 0 0.21323331636592191 0.01255782733261197 0 0.21323331636592191 0.01255782733261197 0 0.20961559546058181 0.018612538649711699 0 0.1997982568441673 0.0073950566886211424 0 0.2207859242391039 0.030783003971013391 0 0.20961559546058181 0.018612538649711699 0 0.19572121429545289 0.022278084274230552 0 0.2207859242391039 0.030783003971013391 0 0.19572121429545289 0.022278084274230552 0 0.2077655687747689 0.03337512706897626 0 0.2207859242391039 0.030783003971013391 0 0.19572121429545289 0.022278084274230552 0 0.2207859242391039 0.030783003971013391 0 0.20961559546058181 0.018612538649711699 0 0.21853926555826339 0.020048720982081471 0 0.21323331636592191 0.01255782733261197 0 0.20961559546058181 0.018612538649711699 0 0.21853926555826339 0.020048720982081471 0 0.2216808620376364 0.0149432478269761 0 0.21323331636592191 0.01255782733261197 0 0.21853926555826339 0.020048720982081471 0 0.19881648773429361 0.030642507522492458 0 0.19572121429545289 0.022278084274230552 0 0.2077655687747689 0.03337512706897626 0 0.19881648773429361 0.030642507522492458 0 0.19572121429545289 0.022278084274230552 0 0.19881648773429361 0.030642507522492458 0 0.1899608681732719 0.029035660686670021 0 0.19572121429545289 0.022278084274230552 0 0.1899608681732719 0.029035660686670021 0 0.19572121429545289 0.022278084274230552 0 0.1833576853704087 0.025312056056364961 0 0.20961559546058181 0.018612538649711699 0 0.19572121429545289 0.022278084274230552 0 0.1997982568441673 0.0073950566886211424 0 0.19572121429545289 0.022278084274230552 0 0.1997982568441673 0.0073950566886211424 0 0.1866740650559835 -0.0021702195426568541 0 0.19572121429545289 0.022278084274230552 0 0.1866740650559835 -0.0021702195426568541 0 0.19572121429545289 0.022278084274230552 0 0.1829193625644622 0.0099818215471483597 0 0.1866740650559835 -0.0021702195426568541 0 0.21319562374408799 0.074390838382907942 0 0.2040652153755306 0.056242319205839407 0 0.2177238518798599 0.056290017415601759 0 0.2040652153755306 0.056242319205839407 0 0.2177238518798599 0.056290017415601759 0 0.21184141025926359 0.042888133625806048 0 0.2208387494451633 0.041934324772725837 0 0.2177238518798599 0.056290017415601759 0 0.21184141025926359 0.042888133625806048 0 0.2208387494451633 0.041934324772725837 0 0.21184141025926359 0.042888133625806048 0 0.2153079131795749 0.037245147359630373 0 0.21184141025926359 0.042888133625806048 0 0.2153079131795749 0.037245147359630373 0 0.2077655687747689 0.03337512706897626 0 0.2207859242391039 0.030783003971013391 0 0.2153079131795749 0.037245147359630373 0 0.2077655687747689 0.03337512706897626 0 0.2040652153755306 0.056242319205839407 0 0.21184141025926359 0.042888133625806048 0 0.20072399627642509 0.041444877777261233 0 0.21184141025926359 0.042888133625806048 0 0.2077655687747689 0.03337512706897626 0 0.20072399627642509 0.041444877777261233 0 0.19881648773429361 0.030642507522492458 0 0.2077655687747689 0.03337512706897626 0 0.20072399627642509 0.041444877777261233 0 0.19881648773429361 0.030642507522492458 0 0.20072399627642509 0.041444877777261233 0 0.19144744038975919 0.037502388016692728 0 0.1899608681732719 0.029035660686670021 0 0.19144744038975919 0.037502388016692728 0 0.18334591452856941 0.031665390873331971 0 0.19881648773429361 0.030642507522492458 0 0.1899608681732719 0.029035660686670021 0 0.19144744038975919 0.037502388016692728 0 0.20072399627642509 0.041444877777261233 0 0.19144744038975919 0.037502388016692728 0 0.19055209680492899 0.050406709962791757 0 0.19035431328861829 0.072033338070667752 0 0.2040652153755306 0.056242319205839407 0 0.19055209680492899 0.050406709962791757 0 0.2040652153755306 0.056242319205839407 0 0.20072399627642509 0.041444877777261233 0 0.19055209680492899 0.050406709962791757 0 0.17434215678209661 0.060556619944299693 0 0.179578954776515 0.041217079916224211 0 0.16343581257876219 0.042218267723869232 0 0.19035431328861829 0.072033338070667752 0 0.19055209680492899 0.050406709962791757 0 0.17434215678209661 0.060556619944299693 0 0.19055209680492899 0.050406709962791757 0 0.17434215678209661 0.060556619944299693 0 0.179578954776515 0.041217079916224211 0 0.19144744038975919 0.037502388016692728 0 0.19055209680492899 0.050406709962791757 0 0.179578954776515 0.041217079916224211 0 0.19144744038975919 0.037502388016692728 0 0.18334591452856941 0.031665390873331971 0 0.179578954776515 0.041217079916224211 0 0.18334591452856941 0.031665390873331971 0 0.179578954776515 0.041217079916224211 0 0.17223639687864151 0.02815633737499515 0 0.179578954776515 0.041217079916224211 0 0.16343581257876219 0.042218267723869232 0 0.17223639687864151 0.02815633737499515 0 0.16343581257876219 0.042218267723869232 0 0.17223639687864151 0.02815633737499515 0 0.15853370882112791 0.02918386366297188 0 0.17434215678209661 0.060556619944299693 0 0.16343581257876219 0.042218267723869232 0 0.15513517748739741 0.056175277534210401 0 0.17375813793030459 0.0043946143844226342 0 0.1829193625644622 0.0099818215471483597 0 0.1866740650559835 -0.0021702195426568541 0 0.17375813793030459 0.0043946143844226342 0 0.1829193625644622 0.0099818215471483597 0 0.17552403297610791 0.015424807072597109 0 0.19572121429545289 0.022278084274230552 0 0.17552403297610791 0.015424807072597109 0 0.1833576853704087 0.025312056056364961 0 0.19572121429545289 0.022278084274230552 0 0.1829193625644622 0.0099818215471483597 0 0.17552403297610791 0.015424807072597109 0 0.19572121429545289 0.022278084274230552 0 0.17552403297610791 0.015424807072597109 0 0.17552403297610791 0.015424807072597109 0 0.1833576853704087 0.025312056056364961 0 0.17223639687864151 0.02815633737499515 0 0.1899608681732719 0.029035660686670021 0 0.18334591452856941 0.031665390873331971 0 0.1833576853704087 0.025312056056364961 0 0.18334591452856941 0.031665390873331971 0 0.1833576853704087 0.025312056056364961 0 0.17223639687864151 0.02815633737499515 0 0.17223639687864151 0.02815633737499515 0 0.15853370882112791 0.02918386366297188 0 0.16244297978957151 0.020475836501463719 0 0.15853370882112791 0.02918386366297188 0 0.16244297978957151 0.020475836501463719 0 0.15059390861521721 0.021042644525791049 0 0.17552403297610791 0.015424807072597109 0 0.17223639687864151 0.02815633737499515 0 0.16244297978957151 0.020475836501463719 0 0.17552403297610791 0.015424807072597109 0 0.15532685165676299 0.0085715298709634034 0 0.17552403297610791 0.015424807072597109 0 0.163728894867116 0.0093137423183691226 0 0.15532685165676299 0.0085715298709634034 0 0.17552403297610791 0.015424807072597109 0 0.16244297978957151 0.020475836501463719 0 0.15532685165676299 0.0085715298709634034 0 0.17375813793030459 0.0043946143844226342 0 0.17552403297610791 0.015424807072597109 0 0.163728894867116 0.0093137423183691226 0 0.163728894867116 0.0093137423183691226 0 0.16564291486384611 0.0018645766637211451 0 0.15936098325540399 -0.0025009147929627188 0 0.17375813793030459 0.0043946143844226342 0 0.163728894867116 0.0093137423183691226 0 0.16564291486384611 0.0018645766637211451 0 0.17375813793030459 0.0043946143844226342 0 0.16564291486384611 0.0018645766637211451 0 0.1672401945816864 -0.0043526949116711048 0 0.15532685165676299 0.0085715298709634034 0 0.1351296703374181 0.001718252669329701 0 0.14796272979742839 -0.0076996317150342612 0 0.163728894867116 0.0093137423183691226 0 0.15532685165676299 0.0085715298709634034 0 0.14796272979742839 -0.0076996317150342612 0 0.15532685165676299 0.0085715298709634034 0 0.1351296703374181 0.001718252669329701 0 0.15532685165676299 0.0085715298709634034 0 0.14151120714593329 0.01313105139809637 0 0.1351296703374181 0.001718252669329701 0 0.163728894867116 0.0093137423183691226 0 0.14796272979742839 -0.0076996317150342612 0 0.15532685165676299 0.0085715298709634034 0 0.14151120714593329 0.01313105139809637 0 0.15059390861521721 0.021042644525791049 0 0.15853370882112791 0.02918386366297188 0 0.15059390861521721 0.021042644525791049 0 0.1466812844586477 0.036742598011128863 0 0.15059390861521721 0.021042644525791049 0 0.13799294127421499 0.023788644852391679 0 0.1466812844586477 0.036742598011128863 0 0.14151120714593329 0.01313105139809637 0 0.15059390861521721 0.021042644525791049 0 0.13799294127421499 0.023788644852391679 0 0.16244297978957151 0.020475836501463719 0 0.15532685165676299 0.0085715298709634034 0 0.15059390861521721 0.021042644525791049 0 0.1247498606019375 0.015686863915607519 0 0.14151120714593329 0.01313105139809637 0 0.13799294127421499 0.023788644852391679 0 0.1247498606019375 0.015686863915607519 0 0.13799294127421499 0.023788644852391679 0 0.1280894398752403 0.034384763065047598 0 0.1247498606019375 0.015686863915607519 0 0.14151120714593329 0.01313105139809637 0 0.1351296703374181 0.001718252669329701 0 0.1247498606019375 0.015686863915607519 0 0.1198239109624907 0.00097693126500603697 0 0.1351296703374181 0.001718252669329701 0 0.15513517748739741 0.056175277534210401 0 0.1466812844586477 0.036742598011128863 0 0.13483139535236419 0.050308661288304968 0 0.15513517748739741 0.056175277534210401 0 0.13483139535236419 0.050308661288304968 0 0.14154890813262769 0.074254812741316401 0 0.15513517748739741 0.056175277534210401 0 0.13483139535236419 0.050308661288304968 0 0.16343581257876219 0.042218267723869232 0 0.15853370882112791 0.02918386366297188 0 0.1466812844586477 0.036742598011128863 0 0.16343581257876219 0.042218267723869232 0 0.15513517748739741 0.056175277534210401 0 0.1466812844586477 0.036742598011128863 0 0.1466812844586477 0.036742598011128863 0 0.1280894398752403 0.034384763065047598 0 0.13483139535236419 0.050308661288304968 0 0.13799294127421499 0.023788644852391679 0 0.1466812844586477 0.036742598011128863 0 0.1280894398752403 0.034384763065047598 0 0.114527613217331 0.044442045042399542 0 0.1280894398752403 0.034384763065047598 0 0.13483139535236419 0.050308661288304968 0 0.1157755398809414 0.064048152592911939 0 0.14154890813262769 0.074254812741316401 0 0.1157755398809414 0.064048152592911939 0 0.13483139535236419 0.050308661288304968 0 0.14154890813262769 0.074254812741316401 0 0.12321624606941151 0.08917479816440807 0 0.1157755398809414 0.064048152592911939 0 0.14154890813262769 0.074254812741316401 0 0.15513517748739741 0.056175277534210401 0 0.14154890813262769 0.074254812741316401 0 0.1673222763843138 0.084461472889720765 0 0.14154890813262769 0.074254812741316401 0 0.1673222763843138 0.084461472889720765 0 0.14154890813262769 0.074254812741316401 0 0.14577709536284189 0.1040708904793913 0 0.1673222763843138 0.084461472889720765 0 0.12321624606941151 0.08917479816440807 0 0.14154890813262769 0.074254812741316401 0 0.14577709536284189 0.1040708904793913 0 0.12321624606941151 0.08917479816440807 0 0.1255444050648197 0.1126100827025043 0 0.14577709536284189 0.1040708904793913 0 0.1431420410933934 0.1266470635083399 0 0.1255444050648197 0.1126100827025043 0 0.14577709536284189 0.1040708904793913 0 0.1431420410933934 0.1266470635083399 0 0.16726690090553689 0.12714263669739839 0 0.14577709536284189 0.1040708904793913 0 0.19859254447736449 0.096421838999477719 0 0.17618464761673711 0.1059151980247104 0 0.1673222763843138 0.084461472889720765 0 0.14577709536284189 0.1040708904793913 0 0.17618464761673711 0.1059151980247104 0 0.1673222763843138 0.084461472889720765 0 0.16726690090553689 0.12714263669739839 0 0.14577709536284189 0.1040708904793913 0 0.17618464761673711 0.1059151980247104 0 0.16726690090553689 0.12714263669739839 0 0.18911009081401309 0.11766526874516001 0 0.17618464761673711 0.1059151980247104 0 0.19859254447736449 0.096421838999477719 0 0.19035431328861829 0.072033338070667752 0 0.1673222763843138 0.084461472889720765 0 0.19035431328861829 0.072033338070667752 0 0.17434215678209661 0.060556619944299693 0 0.1673222763843138 0.084461472889720765 0 0.17434215678209661 0.060556619944299693 0 0.15513517748739741 0.056175277534210401 0 0.1673222763843138 0.084461472889720765 0 0.09859519969026298 0.47859209008689768 0 0.1133610510383634 0.48618214433224533 0 0.1100055864796564 0.47543055067234291 0 0.09859519969026298 0.47859209008689768 0 0.1100055864796564 0.47543055067234291 0 0.1013327464622026 0.46579593203007053 0 0.1100055864796564 0.47543055067234291 0 0.11051154127162779 0.46524655459198061 0 0.1013327464622026 0.46579593203007053 0 0.09859519969026298 0.47859209008689768 0 0.1013327464622026 0.46579593203007053 0 0.09140940641740794 0.4641124265491075 0 0.09859519969026298 0.47859209008689768 0 0.098073852068806255 0.5 0 0.1133610510383634 0.48618214433224533 0 0.098073852068806255 0.5 0 0.1133610510383634 0.48618214433224533 0 0.1240228377307865 0.5 0 0.1133610510383634 0.48618214433224533 0 0.1240228377307865 0.5 0 0.12940570966067871 0.48596164779372059 0 0.12006312059998971 0.47710857744051061 0 0.12317291711346121 0.46735625202091868 0 0.12940570966067871 0.48596164779372059 0 0.1133610510383634 0.48618214433224533 0 0.12006312059998971 0.47710857744051061 0 0.12940570966067871 0.48596164779372059 0 0.1133610510383634 0.48618214433224533 0 0.12006312059998971 0.47710857744051061 0 0.1100055864796564 0.47543055067234291 0 0.12006312059998971 0.47710857744051061 0 0.11051154127162779 0.46524655459198061 0 0.12006312059998971 0.47710857744051061 0 0.1100055864796564 0.47543055067234291 0 0.11051154127162779 0.46524655459198061 0 0.12006312059998971 0.47710857744051061 0 0.12317291711346121 0.46735625202091868 0 0.11051154127162779 0.46524655459198061 0 0.12317291711346121 0.46735625202091868 0 0.1162226567036536 0.45691867645419559 0 0.10095996194326511 0.45338453174345128 0 0.12317291711346121 0.46735625202091868 0 0.11051154127162779 0.46524655459198061 0 0.10095996194326511 0.45338453174345128 0 0.12317291711346121 0.46735625202091868 0 0.10095996194326511 0.45338453174345128 0 0.12317291711346121 0.46735625202091868 0 0.1162226567036536 0.45691867645419559 0 0.12587963789640139 0.45880865186226139 0 0.1207328101979997 0.45378397564714601 0 0.1162226567036536 0.45691867645419559 0 0.12587963789640139 0.45880865186226139 0 0.1207328101979997 0.45378397564714601 0 0.12592032292020519 0.45120362635656092 0 0.12587963789640139 0.45880865186226139 0 0.1207328101979997 0.45378397564714601 0 0.1162226567036536 0.45691867645419559 0 0.11607221195289021 0.45250478170048952 0 0.1162226567036536 0.45691867645419559 0 0.11607221195289021 0.45250478170048952 0 0.1104672411257451 0.45267027834903611 0 0.1179945138133435 0.43901772211504991 0 0.1241892659923521 0.43795447681914851 0 0.1244383211291837 0.44418630497657252 0 0.1179945138133435 0.43901772211504991 0 0.1244383211291837 0.44418630497657252 0 0.11682749202221469 0.44458800313912211 0 0.1244383211291837 0.44418630497657252 0 0.11956922151684821 0.44948414186222269 0 0.11682749202221469 0.44458800313912211 0 0.1244383211291837 0.44418630497657252 0 0.11956922151684821 0.44948414186222269 0 0.12592032292020519 0.45120362635656092 0 0.1207328101979997 0.45378397564714601 0 0.11956922151684821 0.44948414186222269 0 0.12592032292020519 0.45120362635656092 0 0.1207328101979997 0.45378397564714601 0 0.11956922151684821 0.44948414186222269 0 0.11607221195289021 0.45250478170048952 0 0.11956922151684821 0.44948414186222269 0 0.11607221195289021 0.45250478170048952 0 0.1129009322642911 0.44860743816149989 0 0.1094145490602869 0.44941105176773588 0 0.1104672411257451 0.45267027834903611 0 0.1129009322642911 0.44860743816149989 0 0.11607221195289021 0.45250478170048952 0 0.1104672411257451 0.45267027834903611 0 0.1129009322642911 0.44860743816149989 0 0.1094145490602869 0.44941105176773588 0 0.1129009322642911 0.44860743816149989 0 0.10832998306712931 0.44509566827676422 0 0.11956922151684821 0.44948414186222269 0 0.1129009322642911 0.44860743816149989 0 0.11682749202221469 0.44458800313912211 0 0.1129009322642911 0.44860743816149989 0 0.11682749202221469 0.44458800313912211 0 0.1112343056862921 0.44069384846031379 0 0.1129009322642911 0.44860743816149989 0 0.1112343056862921 0.44069384846031379 0 0.10832998306712931 0.44509566827676422 0 0.1179945138133435 0.43901772211504991 0 0.11682749202221469 0.44458800313912211 0 0.1112343056862921 0.44069384846031379 0 0.1179945138133435 0.43901772211504991 0 0.1112343056862921 0.44069384846031379 0 0.1134227394947951 0.43329419883437359 0 0.098994473826607143 0.45214825993881319 0 0.10095996194326511 0.45338453174345128 0 0.085717426311124223 0.43445496002318901 0 0.096153357491028255 0.44165331285199078 0 0.10095996194326511 0.45338453174345128 0 0.085717426311124223 0.43445496002318901 0 0.1112343056862921 0.44069384846031379 0 0.1029239212466142 0.44072304646553773 0 0.10832998306712931 0.44509566827676422 0 0.1112343056862921 0.44069384846031379 0 0.1029239212466142 0.44072304646553773 0 0.10624055789565701 0.43353086222984988 0 0.1029239212466142 0.44072304646553773 0 0.10832998306712931 0.44509566827676422 0 0.1045215082638303 0.44568340331419398 0 0.1029239212466142 0.44072304646553773 0 0.1045215082638303 0.44568340331419398 0 0.10145077536112811 0.44650469245765539 0 0.1104672411257451 0.45267027834903611 0 0.1057895205828617 0.45000691436304108 0 0.10095996194326511 0.45338453174345128 0 0.1045215082638303 0.44568340331419398 0 0.1057895205828617 0.45000691436304108 0 0.10145077536112811 0.44650469245765539 0 0.1094145490602869 0.44941105176773588 0 0.10832998306712931 0.44509566827676422 0 0.1057895205828617 0.45000691436304108 0 0.10832998306712931 0.44509566827676422 0 0.1045215082638303 0.44568340331419398 0 0.1057895205828617 0.45000691436304108 0 0.1094145490602869 0.44941105176773588 0 0.1104672411257451 0.45267027834903611 0 0.1057895205828617 0.45000691436304108 0 0.1057895205828617 0.45000691436304108 0 0.10145077536112811 0.44650469245765539 0 0.10095996194326511 0.45338453174345128 0 0.10145077536112811 0.44650469245765539 0 0.096153357491028255 0.44165331285199078 0 0.10095996194326511 0.45338453174345128 0 0.098994473826607143 0.45214825993881319 0 0.10095996194326511 0.45338453174345128 0 0.1029239212466142 0.44072304646553773 0 0.096153357491028255 0.44165331285199078 0 0.096452979773370168 0.43205126533884269 0 0.1029239212466142 0.44072304646553773 0 0.10145077536112811 0.44650469245765539 0 0.096153357491028255 0.44165331285199078 0 0.11051154127162779 0.46524655459198061 0 0.10095996194326511 0.45338453174345128 0 0.1013327464622026 0.46579593203007053 0 0.1162226567036536 0.45691867645419559 0 0.1104672411257451 0.45267027834903611 0 0.10095996194326511 0.45338453174345128 0 0.11051154127162779 0.46524655459198061 0 0.10095996194326511 0.45338453174345128 0 0.10095996194326511 0.45338453174345128 0 0.096514782970995347 0.4580094385366425 0 0.1013327464622026 0.46579593203007053 0 0.098994473826607143 0.45214825993881319 0 0.096514782970995347 0.4580094385366425 0 0.090148589775436327 0.45266193104342423 0 0.098994473826607143 0.45214825993881319 0 0.10095996194326511 0.45338453174345128 0 0.096514782970995347 0.4580094385366425 0 0.096514782970995347 0.4580094385366425 0 0.1013327464622026 0.46579593203007053 0 0.09140940641740794 0.4641124265491075 0 0.09140940641740794 0.4641124265491075 0 0.08228150047324724 0.44858486977801892 0 0.077203183440036738 0.47429243488901029 0 0.08228150047324724 0.44858486977801892 0 0.077203183440036738 0.47429243488901029 0 0.096514782970995347 0.4580094385366425 0 0.09140940641740794 0.4641124265491075 0 0.090148589775436327 0.45266193104342423 0 0.09140940641740794 0.4641124265491075 0 0.090148589775436327 0.45266193104342423 0 0.08228150047324724 0.44858486977801892 0 0.090148589775436327 0.45266193104342423 0 0.08228150047324724 0.44858486977801892 0 0.085717426311124223 0.43445496002318901 0 0.10095996194326511 0.45338453174345128 0 0.085717426311124223 0.43445496002318901 0 0.098994473826607143 0.45214825993881319 0 0.090148589775436327 0.45266193104342423 0 0.085717426311124223 0.43445496002318901 0 0.08228150047324724 0.44858486977801892 0 0.076666724752330981 0.43934265799221189 0 0.085717426311124223 0.43445496002318901 0 0.08228150047324724 0.44858486977801892 0 0.068212470680361001 0.44520187109887721 0 0.063891137780274943 0.45971296739621142 0 0.08228150047324724 0.44858486977801892 0 0.076666724752330981 0.43934265799221189 0 0.068212470680361001 0.44520187109887721 0 0.068212470680361001 0.44520187109887721 0 0.063891137780274943 0.45971296739621142 0 0.058469010457983722 0.44921275429021901 0 0.068212470680361001 0.44520187109887721 0 0.065387503491722537 0.43995823465661132 0 0.058469010457983722 0.44921275429021901 0 0.076666724752330981 0.43934265799221189 0 0.068212470680361001 0.44520187109887721 0 0.065387503491722537 0.43995823465661132 0 0.08228150047324724 0.44858486977801892 0 0.063891137780274943 0.45971296739621142 0 0.077203183440036738 0.47429243488901029 0 0.063891137780274943 0.45971296739621142 0 0.077203183440036738 0.47429243488901029 0 0.058220500749413852 0.48066810448718872 0 0.09859519969026298 0.47859209008689768 0 0.098073852068806255 0.5 0 0.077203183440036738 0.47429243488901029 0 0.09859519969026298 0.47859209008689768 0 0.09140940641740794 0.4641124265491075 0 0.077203183440036738 0.47429243488901029 0 0.098073852068806255 0.5 0 0.077203183440036738 0.47429243488901029 0 0.072124866406825971 0.50000000000000155 0 0.077203183440036738 0.47429243488901029 0 0.072124866406825971 0.50000000000000155 0 0.077203183440036738 0.47429243488901029 0 0.072124866406825971 0.50000000000000155 0 0.058220500749413852 0.48066810448718872 0 0.052357385163958332 0.5 0 0.058220500749413852 0.48066810448718872 0 0.042512890822307581 0.48475818575929253 0 0.072124866406825971 0.50000000000000155 0 0.052357385163958332 0.5 0 0.058220500749413852 0.48066810448718872 0 0.058220500749413852 0.48066810448718872 0 0.042512890822307581 0.48475818575929253 0 0.041272787162864748 0.4624758909630054 0 0.042512890822307581 0.48475818575929253 0 0.028123877114210841 0.48064693334626529 0 0.041272787162864748 0.4624758909630054 0 0.042512890822307581 0.48475818575929253 0 0.032589903921090728 0.50000000000000289 0 0.028123877114210841 0.48064693334626529 0 0.052357385163958332 0.5 0 0.042512890822307581 0.48475818575929253 0 0.032589903921090728 0.50000000000000289 0 0.032589903921090728 0.50000000000000289 0 0.017736055007694471 0.48799514045696929 0 0.01280918285143157 0.5 0 0.032589903921090728 0.50000000000000289 0 0.017736055007694471 0.48799514045696929 0 0.028123877114210841 0.48064693334626529 0 0.032589903921090728 0.50000000000000289 0 0.028123877114210841 0.48064693334626529 0 0.028123877114210841 0.48064693334626529 0 0.023657850307330381 0.46129386669252798 0 0.017736055007694471 0.48799514045696929 0 0.028123877114210841 0.48064693334626529 0 0.01221791804978657 0.4734315717486669 0 0.028123877114210841 0.48064693334626529 0 0.01221791804978657 0.4734315717486669 0 0.023657850307330381 0.46129386669252798 0 -0.0010088918709907711 0.46772692835726898 0 0.01221791804978657 0.4734315717486669 0 0.0029393931019532859 0.48589719718991148 0 0.017736055007694471 0.48799514045696929 0 0.01221791804978657 0.4734315717486669 0 0.0029393931019532859 0.48589719718991148 0 -0.0069715382182276298 0.500000000000004 0 0.0029393931019532859 0.48589719718991148 0 0.01280918285143157 0.5 0 0.017736055007694471 0.48799514045696929 0 0.0029393931019532859 0.48589719718991148 0 0.01280918285143157 0.5 0 0.002323448863637629 0.45150646839403008 0 0.011050013813579829 0.46036845325305681 0 0.019154080410923899 0.44177724425219322 0 -0.0001396583686269239 0.42894674625762558 0 0.002323448863637629 0.45150646839403008 0 0.019154080410923899 0.44177724425219322 0 -0.0010088918709907711 0.46772692835726898 0 0.002323448863637629 0.45150646839403008 0 0.011050013813579829 0.46036845325305681 0 -0.0010088918709907711 0.46772692835726898 0 0.01221791804978657 0.4734315717486669 0 0.011050013813579829 0.46036845325305681 0 0.028123877114210841 0.48064693334626529 0 0.023657850307330381 0.46129386669252798 0 0.041272787162864748 0.4624758909630054 0 0.011050013813579829 0.46036845325305681 0 0.023657850307330381 0.46129386669252798 0 0.019154080410923899 0.44177724425219322 0 0.023657850307330381 0.46129386669252798 0 0.038698421581549382 0.44533590349025931 0 0.01221791804978657 0.4734315717486669 0 0.011050013813579829 0.46036845325305681 0 0.023657850307330381 0.46129386669252798 0 0.01221791804978657 0.4734315717486669 0 0.023657850307330381 0.46129386669252798 0 0.023657850307330381 0.46129386669252798 0 0.019154080410923899 0.44177724425219322 0 0.023657850307330381 0.46129386669252798 0 0.019154080410923899 0.44177724425219322 0 0.038698421581549382 0.44533590349025931 0 0.038698421581549382 0.44533590349025931 0 0.041272787162864748 0.4624758909630054 0 0.055873838920923388 0.43900063963296643 0 0.023657850307330381 0.46129386669252798 0 0.038698421581549382 0.44533590349025931 0 0.041272787162864748 0.4624758909630054 0 0.063891137780274943 0.45971296739621142 0 0.041272787162864748 0.4624758909630054 0 0.058469010457983722 0.44921275429021901 0 0.063891137780274943 0.45971296739621142 0 0.058220500749413852 0.48066810448718872 0 0.041272787162864748 0.4624758909630054 0 0.041272787162864748 0.4624758909630054 0 0.055873838920923388 0.43900063963296643 0 0.041272787162864748 0.4624758909630054 0 0.058469010457983722 0.44921275429021901 0 0.055873838920923388 0.43900063963296643 0 0.038698421581549382 0.44533590349025931 0 0.055873838920923388 0.43900063963296643 0 0.053738992855768837 0.42937794028799098 0 0.065387503491722537 0.43995823465661132 0 0.058469010457983722 0.44921275429021901 0 0.055873838920923388 0.43900063963296643 0 0.055873838920923388 0.43900063963296643 0 0.053738992855768837 0.42937794028799098 0 0.070474890678982188 0.41552538830292762 0 0.053738992855768837 0.42937794028799098 0 0.053159998844107728 0.41529771706485208 0 0.034654726442279127 0.42320216498139518 0 0.053738992855768837 0.42937794028799098 0 0.053159998844107728 0.41529771706485208 0 0.068779564129987925 0.41341997708572231 0 0.053738992855768837 0.42937794028799098 0 0.068779564129987925 0.41341997708572231 0 0.034654726442279127 0.42320216498139518 0 0.021987499191714641 0.40358008609638651 0 0.041193781697373262 0.40478564186622618 0 0.053159998844107728 0.41529771706485208 0 0.034654726442279127 0.42320216498139518 0 0.041193781697373262 0.40478564186622618 0 0.038698421581549382 0.44533590349025931 0 0.053738992855768837 0.42937794028799098 0 0.038698421581549382 0.44533590349025931 0 0.053738992855768837 0.42937794028799098 0 0.034654726442279127 0.42320216498139518 0 0.019154080410923899 0.44177724425219322 0 0.0146503105145162 0.42226062181185858 0 0.019154080410923899 0.44177724425219322 0 0.034654726442279127 0.42320216498139518 0 0.0146503105145162 0.42226062181185858 0 0.019154080410923899 0.44177724425219322 0 0.038698421581549382 0.44533590349025931 0 0.034654726442279127 0.42320216498139518 0 0.034654726442279127 0.42320216498139518 0 0.0146503105145162 0.42226062181185858 0 0.021987499191714641 0.40358008609638651 0 0.004045002064029652 0.41349201283743348 0 0.0146503105145162 0.42226062181185858 0 0.021987499191714641 0.40358008609638651 0 -0.0001396583686269239 0.42894674625762558 0 0.004045002064029652 0.41349201283743348 0 0.0146503105145162 0.42226062181185858 0 -0.0001396583686269239 0.42894674625762558 0 0.019154080410923899 0.44177724425219322 0 0.0146503105145162 0.42226062181185858 0 -0.002887011069696954 0.37316236348168991 0 -0.0031489673224063719 0.38960846828497808 0 0.010114474414274389 0.38537519082002741 0 -0.0031489673224063719 0.38960846828497808 0 0.010114474414274389 0.38537519082002741 0 0.0039390635768207193 0.40024464438109503 0 0.004045002064029652 0.41349201283743348 0 0.0039390635768207193 0.40024464438109503 0 0.021987499191714641 0.40358008609638651 0 0.010114474414274389 0.38537519082002741 0 0.0039390635768207193 0.40024464438109503 0 0.021987499191714641 0.40358008609638651 0 0.021987499191714641 0.40358008609638651 0 0.02690900552223283 0.38213107571493993 0 0.039711002578779242 0.39044668308850822 0 0.010114474414274389 0.38537519082002741 0 0.02690900552223283 0.38213107571493993 0 0.016296863437872278 0.36296498950499712 0 0.010114474414274389 0.38537519082002741 0 0.021987499191714641 0.40358008609638651 0 0.02690900552223283 0.38213107571493993 0 0.039711002578779242 0.39044668308850822 0 0.05613550930885837 0.38707457250526439 0 0.041474578474532717 0.36286906225562282 0 0.02690900552223283 0.38213107571493993 0 0.039711002578779242 0.39044668308850822 0 0.041474578474532717 0.36286906225562282 0 0.021987499191714641 0.40358008609638651 0 0.039711002578779242 0.39044668308850822 0 0.041193781697373262 0.40478564186622618 0 0.039711002578779242 0.39044668308850822 0 0.041193781697373262 0.40478564186622618 0 0.05613550930885837 0.38707457250526439 0 0.053159998844107728 0.41529771706485208 0 0.041193781697373262 0.40478564186622618 0 0.05613550930885837 0.38707457250526439 0 0.053159998844107728 0.41529771706485208 0 0.05613550930885837 0.38707457250526439 0 0.066395393410792466 0.41045909631683691 0 0.05613550930885837 0.38707457250526439 0 0.065532867602378794 0.3771357696288351 0 0.041474578474532717 0.36286906225562282 0 0.05613550930885837 0.38707457250526439 0 0.065532867602378794 0.3771357696288351 0 0.070655748592652834 0.39284520529803207 0 0.065532867602378794 0.3771357696288351 0 0.075788932991875058 0.38395124992971308 0 0.070655748592652834 0.39284520529803207 0 0.075788932991875058 0.38395124992971308 0 0.078065652754947756 0.393584022799713 0 0.070655748592652834 0.39284520529803207 0 0.065532867602378794 0.3771357696288351 0 0.075788932991875058 0.38395124992971308 0 0.078198943150330949 0.37274125341614622 0 0.075788932991875058 0.38395124992971308 0 0.082414789628991153 0.38260610818027913 0 0.078198943150330949 0.37274125341614622 0 0.091806632828344545 0.38898838414654152 0 0.087250007417343123 0.38855472289819581 0 0.096884926080006317 0.3730639116266265 0 0.082414789628991153 0.38260610818027913 0 0.086276591403890088 0.37814191664028751 0 0.078198943150330949 0.37274125341614622 0 0.075788932991875058 0.38395124992971308 0 0.080879845698289266 0.38717402595197531 0 0.078065652754947756 0.393584022799713 0 0.080879845698289266 0.38717402595197531 0 0.087250007417343123 0.38855472289819581 0 0.078065652754947756 0.393584022799713 0 0.075788932991875058 0.38395124992971308 0 0.082414789628991153 0.38260610818027913 0 0.080879845698289266 0.38717402595197531 0 0.082414789628991153 0.38260610818027913 0 0.087250007417343123 0.38855472289819581 0 0.086276591403890088 0.37814191664028751 0 0.082414789628991153 0.38260610818027913 0 0.080879845698289266 0.38717402595197531 0 0.087250007417343123 0.38855472289819581 0 0.087250007417343123 0.38855472289819581 0 0.089901850717377274 0.37756878189728582 0 0.086276591403890088 0.37814191664028751 0 0.087250007417343123 0.38855472289819581 0 0.089901850717377274 0.37756878189728582 0 0.096884926080006317 0.3730639116266265 0 0.087250007417343123 0.38855472289819581 0 0.096884926080006317 0.3730639116266265 0 0.089901850717377274 0.37756878189728582 0 0.086276591403890088 0.37814191664028751 0 0.089195877968269555 0.37051457642403318 0 0.091806632828344545 0.38898838414654152 0 0.077615088754679915 0.40404553416976507 0 0.093276084670186943 0.40789240566663998 0 0.091806632828344545 0.38898838414654152 0 0.077615088754679915 0.40404553416976507 0 0.087250007417343123 0.38855472289819581 0 0.077615088754679915 0.40404553416976507 0 0.091806632828344545 0.38898838414654152 0 0.087250007417343123 0.38855472289819581 0 0.077615088754679915 0.40404553416976507 0 0.087250007417343123 0.38855472289819581 0 0.077615088754679915 0.40404553416976507 0 0.078065652754947756 0.393584022799713 0 0.05613550930885837 0.38707457250526439 0 0.066395393410792466 0.41045909631683691 0 0.070796440143182399 0.41128008275490702 0 0.05613550930885837 0.38707457250526439 0 0.070796440143182399 0.41128008275490702 0 0.05613550930885837 0.38707457250526439 0 0.070655748592652834 0.39284520529803207 0 0.070796440143182399 0.41128008275490702 0 0.077615088754679915 0.40404553416976507 0 0.070655748592652834 0.39284520529803207 0 0.070796440143182399 0.41128008275490702 0 0.077615088754679915 0.40404553416976507 0 0.078065652754947756 0.393584022799713 0 0.070655748592652834 0.39284520529803207 0 0.053738992855768837 0.42937794028799098 0 0.068779564129987925 0.41341997708572231 0 0.070474890678982188 0.41552538830292762 0 0.053159998844107728 0.41529771706485208 0 0.068779564129987925 0.41341997708572231 0 0.066395393410792466 0.41045909631683691 0 0.068779564129987925 0.41341997708572231 0 0.066395393410792466 0.41045909631683691 0 0.070796440143182399 0.41128008275490702 0 0.068779564129987925 0.41341997708572231 0 0.070474890678982188 0.41552538830292762 0 0.070796440143182399 0.41128008275490702 0 0.068779564129987925 0.41341997708572231 0 0.070796440143182399 0.41128008275490702 0 0.068779564129987925 0.41341997708572231 0 0.066395393410792466 0.41045909631683691 0 0.068779564129987925 0.41341997708572231 0 0.070474890678982188 0.41552538830292762 0 0.077615088754679915 0.40404553416976507 0 0.070474890678982188 0.41552538830292762 0 0.077615088754679915 0.40404553416976507 0 0.070474890678982188 0.41552538830292762 0 0.070796440143182399 0.41128008275490702 0 0.077615088754679915 0.40404553416976507 0 0.070474890678982188 0.41552538830292762 0 0.082294240961091988 0.411906404775983 0 0.077615088754679915 0.40404553416976507 0 0.070796440143182399 0.41128008275490702 0 0.076666724752330981 0.43934265799221189 0 0.070000695958368761 0.43150883068617468 0 0.085717426311124223 0.43445496002318901 0 0.055873838920923388 0.43900063963296643 0 0.070474890678982188 0.41552538830292762 0 0.070000695958368761 0.43150883068617468 0 0.055873838920923388 0.43900063963296643 0 0.070474890678982188 0.41552538830292762 0 0.070474890678982188 0.41552538830292762 0 0.070000695958368761 0.43150883068617468 0 0.085717426311124223 0.43445496002318901 0 0.070474890678982188 0.41552538830292762 0 0.085717426311124223 0.43445496002318901 0 0.065387503491722537 0.43995823465661132 0 0.055873838920923388 0.43900063963296643 0 0.070000695958368761 0.43150883068617468 0 0.076666724752330981 0.43934265799221189 0 0.065387503491722537 0.43995823465661132 0 0.070000695958368761 0.43150883068617468 0 0.070474890678982188 0.41552538830292762 0 0.085717426311124223 0.43445496002318901 0 0.087810899740519116 0.42016229096459962 0 0.085717426311124223 0.43445496002318901 0 0.087810899740519116 0.42016229096459962 0 0.096452979773370168 0.43205126533884269 0 0.096153357491028255 0.44165331285199078 0 0.085717426311124223 0.43445496002318901 0 0.096452979773370168 0.43205126533884269 0 0.070474890678982188 0.41552538830292762 0 0.082294240961091988 0.411906404775983 0 0.087810899740519116 0.42016229096459962 0 0.077615088754679915 0.40404553416976507 0 0.082294240961091988 0.411906404775983 0 0.093276084670186943 0.40789240566663998 0 0.087810899740519116 0.42016229096459962 0 0.093276084670186943 0.40789240566663998 0 0.09987171595527819 0.42178311949788938 0 0.082294240961091988 0.411906404775983 0 0.087810899740519116 0.42016229096459962 0 0.093276084670186943 0.40789240566663998 0 0.093276084670186943 0.40789240566663998 0 0.09987171595527819 0.42178311949788938 0 0.1095325134342347 0.41264089148000049 0 0.09987171595527819 0.42178311949788938 0 0.1081738418960117 0.42475169043699851 0 0.1095325134342347 0.41264089148000049 0 0.09987171595527819 0.42178311949788938 0 0.096452979773370168 0.43205126533884269 0 0.10624055789565701 0.43353086222984988 0 0.087810899740519116 0.42016229096459962 0 0.09987171595527819 0.42178311949788938 0 0.096452979773370168 0.43205126533884269 0 0.09987171595527819 0.42178311949788938 0 0.1081738418960117 0.42475169043699851 0 0.10624055789565701 0.43353086222984988 0 0.1029239212466142 0.44072304646553773 0 0.096452979773370168 0.43205126533884269 0 0.10624055789565701 0.43353086222984988 0 0.1081738418960117 0.42475169043699851 0 0.10624055789565701 0.43353086222984988 0 0.1134227394947951 0.43329419883437359 0 0.1134227394947951 0.43329419883437359 0 0.1164474069230471 0.42485019601383139 0 0.1205636234554269 0.4324895135874946 0 0.1112343056862921 0.44069384846031379 0 0.10624055789565701 0.43353086222984988 0 0.1134227394947951 0.43329419883437359 0 0.1081738418960117 0.42475169043699851 0 0.1134227394947951 0.43329419883437359 0 0.1164474069230471 0.42485019601383139 0 0.1164474069230471 0.42485019601383139 0 0.12486695022230131 0.42603986674334487 0 0.121637541881659 0.41716908408952041 0 0.1164474069230471 0.42485019601383139 0 0.12486695022230131 0.42603986674334487 0 0.1205636234554269 0.4324895135874946 0 0.12486695022230131 0.42603986674334487 0 0.1205636234554269 0.4324895135874946 0 0.12775715340285629 0.43310596898077769 0 0.1241892659923521 0.43795447681914851 0 0.1205636234554269 0.4324895135874946 0 0.12775715340285629 0.43310596898077769 0 0.1179945138133435 0.43901772211504991 0 0.1134227394947951 0.43329419883437359 0 0.1205636234554269 0.4324895135874946 0 0.1179945138133435 0.43901772211504991 0 0.1241892659923521 0.43795447681914851 0 0.1205636234554269 0.4324895135874946 0 0.1095325134342347 0.41264089148000049 0 0.121637541881659 0.41716908408952041 0 0.12023168011692 0.4091382947491633 0 0.1095325134342347 0.41264089148000049 0 0.12023168011692 0.4091382947491633 0 0.11567087968494209 0.40107869959097098 0 0.1081738418960117 0.42475169043699851 0 0.1164474069230471 0.42485019601383139 0 0.1095325134342347 0.41264089148000049 0 0.1164474069230471 0.42485019601383139 0 0.1095325134342347 0.41264089148000049 0 0.121637541881659 0.41716908408952041 0 0.121637541881659 0.41716908408952041 0 0.12023168011692 0.4091382947491633 0 0.12708872060208859 0.40965213795514882 0 0.12023168011692 0.4091382947491633 0 0.1252266694359985 0.39909083766307202 0 0.12708872060208859 0.40965213795514882 0 0.11567087968494209 0.40107869959097098 0 0.12383568054059919 0.38658687262498997 0 0.10705429620025229 0.39460908526013022 0 0.1095325134342347 0.41264089148000049 0 0.11567087968494209 0.40107869959097098 0 0.10705429620025229 0.39460908526013022 0 0.12023168011692 0.4091382947491633 0 0.11567087968494209 0.40107869959097098 0 0.1252266694359985 0.39909083766307202 0 0.11567087968494209 0.40107869959097098 0 0.12383568054059919 0.38658687262498997 0 0.1252266694359985 0.39909083766307202 0 0.12383568054059919 0.38658687262498997 0 0.1059981769020088 0.37393123412331758 0 0.12383568054059919 0.38658687262498997 0 0.10705429620025229 0.39460908526013022 0 0.1059981769020088 0.37393123412331758 0 0.12383568054059919 0.38658687262498997 0 0.1059981769020088 0.37393123412331758 0 0.1207712551413805 0.37247672491497419 0 0.091806632828344545 0.38898838414654152 0 0.10705429620025229 0.39460908526013022 0 0.1059981769020088 0.37393123412331758 0 0.091806632828344545 0.38898838414654152 0 0.096884926080006317 0.3730639116266265 0 0.1059981769020088 0.37393123412331758 0 0.091806632828344545 0.38898838414654152 0 0.1059981769020088 0.37393123412331758 0 0.091806632828344545 0.38898838414654152 0 0.093276084670186943 0.40789240566663998 0 0.10705429620025229 0.39460908526013022 0 0.093276084670186943 0.40789240566663998 0 0.1095325134342347 0.41264089148000049 0 0.10705429620025229 0.39460908526013022 0 0.098483688132943725 0.35028744230212 0 0.10804431945710059 0.36075596643365548 0 0.1144652715056851 0.34480518684660783 0 0.098483688132943725 0.35028744230212 0 0.1144652715056851 0.34480518684660783 0 0.10424305531394649 0.33835317288585931 0 0.098483688132943725 0.35028744230212 0 0.099151963334829785 0.36038438935775141 0 0.10804431945710059 0.36075596643365548 0 0.098483688132943725 0.35028744230212 0 0.099151963334829785 0.36038438935775141 0 0.088483844006187251 0.35988800406541632 0 0.096284551186802264 0.36703945497736268 0 0.099151963334829785 0.36038438935775141 0 0.088483844006187251 0.35988800406541632 0 0.096284551186802264 0.36703945497736268 0 0.099151963334829785 0.36038438935775141 0 0.10236975272018541 0.36552776122302189 0 0.096284551186802264 0.36703945497736268 0 0.1059981769020088 0.37393123412331758 0 0.10236975272018541 0.36552776122302189 0 0.096284551186802264 0.36703945497736268 0 0.1059981769020088 0.37393123412331758 0 0.096284551186802264 0.36703945497736268 0 0.096884926080006317 0.3730639116266265 0 0.1059981769020088 0.37393123412331758 0 0.096284551186802264 0.36703945497736268 0 0.096884926080006317 0.3730639116266265 0 0.089195877968269555 0.37051457642403318 0 0.099151963334829785 0.36038438935775141 0 0.10804431945710059 0.36075596643365548 0 0.10236975272018541 0.36552776122302189 0 0.1059981769020088 0.37393123412331758 0 0.10804431945710059 0.36075596643365548 0 0.10236975272018541 0.36552776122302189 0 0.1059981769020088 0.37393123412331758 0 0.1207712551413805 0.37247672491497419 0 0.12107552442819509 0.35793425152046321 0 0.1059981769020088 0.37393123412331758 0 0.12107552442819509 0.35793425152046321 0 0.1059981769020088 0.37393123412331758 0 0.10804431945710059 0.36075596643365548 0 0.12107552442819509 0.35793425152046321 0 0.10804431945710059 0.36075596643365548 0 0.12107552442819509 0.35793425152046321 0 0.1144652715056851 0.34480518684660783 0 0.12107552442819509 0.35793425152046321 0 0.1144652715056851 0.34480518684660783 0 0.12923214107289341 0.3489225491329116 0 0.1144652715056851 0.34480518684660783 0 0.1133758425356407 0.32579367644790141 0 0.10424305531394649 0.33835317288585931 0 0.1144652715056851 0.34480518684660783 0 0.1342274078696957 0.33784155257848808 0 0.1144652715056851 0.34480518684660783 0 0.1245359080047571 0.33070698122850961 0 0.1133758425356407 0.32579367644790141 0 0.1144652715056851 0.34480518684660783 0 0.1245359080047571 0.33070698122850961 0 0.1342274078696957 0.33784155257848808 0 0.1133758425356407 0.32579367644790141 0 0.1185435201949019 0.31297732835421199 0 0.133106114647882 0.32064364023774311 0 0.1133758425356407 0.32579367644790141 0 0.1185435201949019 0.31297732835421199 0 0.1018223941140298 0.31212573649168462 0 0.1133758425356407 0.32579367644790141 0 0.133106114647882 0.32064364023774311 0 0.1245359080047571 0.33070698122850961 0 0.1133758425356407 0.32579367644790141 0 0.133106114647882 0.32064364023774311 0 0.1133758425356407 0.32579367644790141 0 0.093645570423399493 0.33094371265805961 0 0.1018223941140298 0.31212573649168462 0 0.098483688132943725 0.35028744230212 0 0.10424305531394649 0.33835317288585931 0 0.093645570423399493 0.33094371265805961 0 0.1133758425356407 0.32579367644790141 0 0.10424305531394649 0.33835317288585931 0 0.093645570423399493 0.33094371265805961 0 0.1133758425356407 0.32579367644790141 0 0.093645570423399493 0.33094371265805961 0 0.098483688132943725 0.35028744230212 0 0.093645570423399493 0.33094371265805961 0 0.078962359671089291 0.34682097253125882 0 0.093645570423399493 0.33094371265805961 0 0.073441147155143785 0.32574428671422401 0 0.078962359671089291 0.34682097253125882 0 0.093645570423399493 0.33094371265805961 0 0.073441147155143785 0.32574428671422401 0 0.079357077576761151 0.31157037862388998 0 0.093645570423399493 0.33094371265805961 0 0.079357077576761151 0.31157037862388998 0 0.1018223941140298 0.31212573649168462 0 0.073441147155143785 0.32574428671422401 0 0.059087988537360338 0.33422269051527442 0 0.056152739567108659 0.30516367924263699 0 0.073441147155143785 0.32574428671422401 0 0.056152739567108659 0.30516367924263699 0 0.079357077576761151 0.31157037862388998 0 0.073441147155143785 0.32574428671422401 0 0.078962359671089291 0.34682097253125882 0 0.059087988537360338 0.33422269051527442 0 0.078962359671089291 0.34682097253125882 0 0.077490885418188743 0.36140172299360979 0 0.062023237507612003 0.36328170178791153 0 0.078962359671089291 0.34682097253125882 0 0.062023237507612003 0.36328170178791153 0 0.059087988537360338 0.33422269051527442 0 0.098483688132943725 0.35028744230212 0 0.078962359671089291 0.34682097253125882 0 0.088483844006187251 0.35988800406541632 0 0.078962359671089291 0.34682097253125882 0 0.088483844006187251 0.35988800406541632 0 0.077490885418188743 0.36140172299360979 0 0.089901850717377274 0.37756878189728582 0 0.096884926080006317 0.3730639116266265 0 0.089195877968269555 0.37051457642403318 0 0.089195877968269555 0.37051457642403318 0 0.088483844006187251 0.35988800406541632 0 0.083300357084053769 0.36610050845774322 0 0.096284551186802264 0.36703945497736268 0 0.089195877968269555 0.37051457642403318 0 0.088483844006187251 0.35988800406541632 0 0.088483844006187251 0.35988800406541632 0 0.083300357084053769 0.36610050845774322 0 0.077490885418188743 0.36140172299360979 0 0.083300357084053769 0.36610050845774322 0 0.078198943150330949 0.37274125341614622 0 0.077490885418188743 0.36140172299360979 0 0.089195877968269555 0.37051457642403318 0 0.083300357084053769 0.36610050845774322 0 0.078198943150330949 0.37274125341614622 0 0.086276591403890088 0.37814191664028751 0 0.089195877968269555 0.37051457642403318 0 0.078198943150330949 0.37274125341614622 0 0.078198943150330949 0.37274125341614622 0 0.077490885418188743 0.36140172299360979 0 0.062023237507612003 0.36328170178791153 0 0.065532867602378794 0.3771357696288351 0 0.078198943150330949 0.37274125341614622 0 0.062023237507612003 0.36328170178791153 0 0.05613550930885837 0.38707457250526439 0 0.041474578474532717 0.36286906225562282 0 0.041474578474532717 0.36286906225562282 0 0.02681364764020704 0.33866355200598108 0 0.059087988537360338 0.33422269051527442 0 0.065532867602378794 0.3771357696288351 0 0.062023237507612003 0.36328170178791153 0 0.041474578474532717 0.36286906225562282 0 0.062023237507612003 0.36328170178791153 0 0.059087988537360338 0.33422269051527442 0 0.062023237507612003 0.36328170178791153 0 0.041474578474532717 0.36286906225562282 0 0.059087988537360338 0.33422269051527442 0 0.041474578474532717 0.36286906225562282 0 0.02681364764020704 0.33866355200598108 0 0.02690900552223283 0.38213107571493993 0 0.041474578474532717 0.36286906225562282 0 0.016296863437872278 0.36296498950499712 0 0.016296863437872278 0.36296498950499712 0 0.010554275878121621 0.34169214711298279 0 0.02681364764020704 0.33866355200598108 0 0.041474578474532717 0.36286906225562282 0 0.016296863437872278 0.36296498950499712 0 0.02681364764020704 0.33866355200598108 0 0.016296863437872278 0.36296498950499712 0 0.00087227386193678216 0.35450451783256998 0 0.010554275878121621 0.34169214711298279 0 -0.002887011069696954 0.37316236348168991 0 0.010114474414274389 0.38537519082002741 0 0.016296863437872278 0.36296498950499712 0 -0.002887011069696954 0.37316236348168991 0 0.016296863437872278 0.36296498950499712 0 0.00087227386193678216 0.35450451783256998 0 -0.0026857519243812899 0.33314825634734441 0 -0.0050279189580847783 0.31667723503137363 0 0.01215271680588139 0.31445804175633951 0 -0.0026857519243812899 0.33314825634734441 0 0.00087227386193678216 0.35450451783256998 0 0.010554275878121621 0.34169214711298279 0 -0.0026857519243812899 0.33314825634734441 0 0.01215271680588139 0.31445804175633951 0 0.010554275878121621 0.34169214711298279 0 0.01215271680588139 0.31445804175633951 0 0.010554275878121621 0.34169214711298279 0 0.02681364764020704 0.33866355200598108 0 0.01215271680588139 0.31445804175633951 0 0.02681364764020704 0.33866355200598108 0 0.01215271680588139 0.31445804175633951 0 0.02681364764020704 0.33866355200598108 0 0.033750228131773967 0.3189760442079082 0 0.02681364764020704 0.33866355200598108 0 0.033750228131773967 0.3189760442079082 0 0.059087988537360338 0.33422269051527442 0 0.033750228131773967 0.3189760442079082 0 0.059087988537360338 0.33422269051527442 0 0.045210197403694058 0.3108952566128132 0 0.059087988537360338 0.33422269051527442 0 0.056152739567108659 0.30516367924263699 0 0.045210197403694058 0.3108952566128132 0 0.059087988537360338 0.33422269051527442 0 0.056152739567108659 0.30516367924263699 0 0.056152739567108659 0.30516367924263699 0 0.046878379764856773 0.29659878846327797 0 0.045210197403694058 0.3108952566128132 0 0.056152739567108659 0.30516367924263699 0 0.053217490596857889 0.27610466796999972 0 0.070527632116029054 0.28813130237620638 0 0.046878379764856773 0.29659878846327797 0 0.053217490596857889 0.27610466796999972 0 0.056152739567108659 0.30516367924263699 0 0.053217490596857889 0.27610466796999972 0 0.056152739567108659 0.30516367924263699 0 0.046878379764856773 0.29659878846327797 0 0.053217490596857889 0.27610466796999972 0 0.046878379764856773 0.29659878846327797 0 0.039111444908691249 0.282968922695851 0 0.053217490596857889 0.27610466796999972 0 0.046878379764856773 0.29659878846327797 0 0.039111444908691249 0.282968922695851 0 0.030181651017370571 0.29951508063496851 0 0.033750228131773967 0.3189760442079082 0 0.045210197403694058 0.3108952566128132 0 0.030181651017370571 0.29951508063496851 0 0.046878379764856773 0.29659878846327797 0 0.045210197403694058 0.3108952566128132 0 0.030181651017370571 0.29951508063496851 0 0.01215271680588139 0.31445804175633951 0 0.030181651017370571 0.29951508063496851 0 0.014423766391059269 0.29300785108068023 0 0.01215271680588139 0.31445804175633951 0 0.033750228131773967 0.3189760442079082 0 0.030181651017370571 0.29951508063496851 0 0.030181651017370571 0.29951508063496851 0 0.014423766391059269 0.29300785108068023 0 0.023498030288463478 0.27895463707901902 0 0.039111444908691249 0.282968922695851 0 0.030181651017370571 0.29951508063496851 0 0.023498030288463478 0.27895463707901902 0 -0.0025082140284442898 0.29025253150669778 0 0.014423766391059269 0.29300785108068023 0 0.0087946478720252134 0.28185896442637648 0 -0.0030242111910691451 0.27415784458153852 0 -0.0025082140284442898 0.29025253150669778 0 0.0087946478720252134 0.28185896442637648 0 0.014423766391059269 0.29300785108068023 0 0.0087946478720252134 0.28185896442637648 0 0.023498030288463478 0.27895463707901902 0 -0.0066953893168378471 0.30245822206907802 0 -0.0025082140284442898 0.29025253150669778 0 0.01215271680588139 0.31445804175633951 0 -0.0025082140284442898 0.29025253150669778 0 0.01215271680588139 0.31445804175633951 0 0.014423766391059269 0.29300785108068023 0 -0.0066953893168378471 0.30245822206907802 0 -0.0050279189580847783 0.31667723503137363 0 0.01215271680588139 0.31445804175633951 0 -0.0025082140284442898 0.29025253150669778 0 0.01215271680588139 0.31445804175633951 0 0.003905588941896832 0.26182209175970711 0 0.01238557026296472 0.27139423001031893 0 0.020203579006178481 0.26315707226009089 0 0.0099949212797765703 0.25006588645034589 0 0.003905588941896832 0.26182209175970711 0 0.020203579006178481 0.26315707226009089 0 0.0099949212797765703 0.25006588645034589 0 0.00034173235196240039 0.25169171842839061 0 0.003905588941896832 0.26182209175970711 0 -0.0030242111910691451 0.27415784458153852 0 0.003905588941896832 0.26182209175970711 0 0.01238557026296472 0.27139423001031893 0 -0.0030242111910691451 0.27415784458153852 0 0.0087946478720252134 0.28185896442637648 0 0.01238557026296472 0.27139423001031893 0 0.0087946478720252134 0.28185896442637648 0 0.01238557026296472 0.27139423001031893 0 0.023498030288463478 0.27895463707901902 0 0.01238557026296472 0.27139423001031893 0 0.023498030288463478 0.27895463707901902 0 0.020203579006178481 0.26315707226009089 0 0.023498030288463478 0.27895463707901902 0 0.020203579006178481 0.26315707226009089 0 0.036117726824151493 0.26789255364358588 0 0.028103711665830412 0.24675520846442439 0 0.0099949212797765703 0.25006588645034589 0 0.020203579006178481 0.26315707226009089 0 0.028103711665830412 0.24675520846442439 0 0.020203579006178481 0.26315707226009089 0 0.036117726824151493 0.26789255364358588 0 0.028103711665830412 0.24675520846442439 0 0.036117726824151493 0.26789255364358588 0 0.051489570560377278 0.25899823225460827 0 0.039111444908691249 0.282968922695851 0 0.036117726824151493 0.26789255364358588 0 0.053217490596857889 0.27610466796999972 0 0.039111444908691249 0.282968922695851 0 0.023498030288463478 0.27895463707901902 0 0.036117726824151493 0.26789255364358588 0 0.036117726824151493 0.26789255364358588 0 0.053217490596857889 0.27610466796999972 0 0.051489570560377278 0.25899823225460827 0 0.053217490596857889 0.27610466796999972 0 0.059032674099789531 0.25730438594969879 0 0.053217490596857889 0.27610466796999972 0 0.051489570560377278 0.25899823225460827 0 0.053217490596857889 0.27610466796999972 0 0.059032674099789531 0.25730438594969879 0 0.069819589527510287 0.27195443624382992 0 0.053217490596857889 0.27610466796999972 0 0.051489570560377278 0.25899823225460827 0 0.059032674099789531 0.25730438594969879 0 0.049761650523897492 0.24189179653921669 0 0.051489570560377278 0.25899823225460827 0 0.049761650523897492 0.24189179653921669 0 0.051489570560377278 0.25899823225460827 0 0.059032674099789531 0.25730438594969879 0 0.077348978834584664 0.24724533421638889 0 0.059032674099789531 0.25730438594969879 0 0.083227960371578216 0.26132101235535171 0 0.059032674099789531 0.25730438594969879 0 0.083227960371578216 0.26132101235535171 0 0.069819589527510287 0.27195443624382992 0 0.088716207372424527 0.24898629068107231 0 0.077348978834584664 0.24724533421638889 0 0.083227960371578216 0.26132101235535171 0 0.083227960371578216 0.26132101235535171 0 0.085329657056914116 0.27519914064431927 0 0.097338130221728172 0.25820381940431508 0 0.088716207372424527 0.24898629068107231 0 0.083227960371578216 0.26132101235535171 0 0.097338130221728172 0.25820381940431508 0 0.085329657056914116 0.27519914064431927 0 0.091576862916833618 0.29082998456614612 0 0.1035159141548662 0.27118890261054213 0 0.083227960371578216 0.26132101235535171 0 0.085329657056914116 0.27519914064431927 0 0.069819589527510287 0.27195443624382992 0 0.085329657056914116 0.27519914064431927 0 0.069819589527510287 0.27195443624382992 0 0.070527632116029054 0.28813130237620638 0 0.053217490596857889 0.27610466796999972 0 0.069819589527510287 0.27195443624382992 0 0.070527632116029054 0.28813130237620638 0 0.056152739567108659 0.30516367924263699 0 0.070527632116029054 0.28813130237620638 0 0.072965650665167942 0.29994969354246598 0 0.056152739567108659 0.30516367924263699 0 0.072965650665167942 0.29994969354246598 0 0.079357077576761151 0.31157037862388998 0 0.079357077576761151 0.31157037862388998 0 0.091576862916833618 0.29082998456614612 0 0.1018223941140298 0.31212573649168462 0 0.072965650665167942 0.29994969354246598 0 0.079357077576761151 0.31157037862388998 0 0.091576862916833618 0.29082998456614612 0 0.070527632116029054 0.28813130237620638 0 0.072965650665167942 0.29994969354246598 0 0.091576862916833618 0.29082998456614612 0 0.085329657056914116 0.27519914064431927 0 0.070527632116029054 0.28813130237620638 0 0.091576862916833618 0.29082998456614612 0 0.091576862916833618 0.29082998456614612 0 0.1136349711066008 0.28342289177795921 0 0.1035159141548662 0.27118890261054213 0 0.091576862916833618 0.29082998456614612 0 0.1119967041979302 0.29905119105329231 0 0.091576862916833618 0.29082998456614612 0 0.1119967041979302 0.29905119105329231 0 0.1136349711066008 0.28342289177795921 0 0.091576862916833618 0.29082998456614612 0 0.1018223941140298 0.31212573649168462 0 0.1119967041979302 0.29905119105329231 0 0.1185435201949019 0.31297732835421199 0 0.1119967041979302 0.29905119105329231 0 0.1324165454790267 0.30727239754043861 0 0.1185435201949019 0.31297732835421199 0 0.1018223941140298 0.31212573649168462 0 0.1119967041979302 0.29905119105329231 0 0.1119967041979302 0.29905119105329231 0 0.1324165454790267 0.30727239754043861 0 0.1119967041979302 0.29905119105329231 0 0.1136349711066008 0.28342289177795921 0 0.1290161345054254 0.28663964001213549 0 0.1136349711066008 0.28342289177795921 0 0.12202068436972829 0.26518306292907329 0 0.1290161345054254 0.28663964001213549 0 0.1136349711066008 0.28342289177795921 0 0.12202068436972829 0.26518306292907329 0 0.1035159141548662 0.27118890261054213 0 0.1186654333941437 0.24666043126619891 0 0.12202068436972829 0.26518306292907329 0 0.1084587161834779 0.25707980777683931 0 0.12202068436972829 0.26518306292907329 0 0.1084587161834779 0.25707980777683931 0 0.1035159141548662 0.27118890261054213 0 0.1084587161834779 0.25707980777683931 0 0.097338130221728172 0.25820381940431508 0 0.1035159141548662 0.27118890261054213 0 0.1007534187769229 0.2441628226740673 0 0.1084587161834779 0.25707980777683931 0 0.097338130221728172 0.25820381940431508 0 0.088716207372424527 0.24898629068107231 0 0.1007534187769229 0.2441628226740673 0 0.097338130221728172 0.25820381940431508 0 0.085329657056914116 0.27519914064431927 0 0.097338130221728172 0.25820381940431508 0 0.1035159141548662 0.27118890261054213 0 0.14415366254785689 0.26570884003939249 0 0.15172987708434951 0.28225964022045408 0 0.14415366254785689 0.26570884003939249 0 0.1290161345054254 0.28663964001213549 0 0.15172987708434951 0.28225964022045408 0 0.14415366254785689 0.26570884003939249 0 0.15172987708434951 0.28225964022045408 0 0.16010258993135179 0.26864884926440069 0 0.14415366254785689 0.26570884003939249 0 0.16010258993135179 0.26864884926440069 0 0.16352123683232861 0.25291501750165601 0 0.15510602634524509 0.2490666805815501 0 0.13657744801136459 0.24915803985833099 0 0.16352123683232861 0.25291501750165601 0 0.13657744801136459 0.24915803985833099 0 0.14415366254785689 0.26570884003939249 0 0.16352123683232861 0.25291501750165601 0 0.13657744801136459 0.24915803985833099 0 0.16352123683232861 0.25291501750165601 0 0.13657744801136459 0.24915803985833099 0 0.14415366254785689 0.26570884003939249 0 0.1186654333941437 0.24666043126619891 0 0.13657744801136459 0.24915803985833099 0 0.12202068436972829 0.26518306292907329 0 0.13657744801136459 0.24915803985833099 0 0.12202068436972829 0.26518306292907329 0 0.14415366254785689 0.26570884003939249 0 0.12202068436972829 0.26518306292907329 0 0.14415366254785689 0.26570884003939249 0 0.1290161345054254 0.28663964001213549 0 0.1290161345054254 0.28663964001213549 0 0.15172987708434951 0.28225964022045408 0 0.1119967041979302 0.29905119105329231 0 0.1290161345054254 0.28663964001213549 0 0.13507741550521829 0.29623728551871131 0 0.1290161345054254 0.28663964001213549 0 0.13507741550521829 0.29623728551871131 0 0.1439174607907866 0.29187582465390233 0 0.1119967041979302 0.29905119105329231 0 0.13507741550521829 0.29623728551871131 0 0.1324165454790267 0.30727239754043861 0 0.13507741550521829 0.29623728551871131 0 0.1324165454790267 0.30727239754043861 0 0.14720005746242951 0.30142281331575033 0 0.1324165454790267 0.30727239754043861 0 0.15283638676012321 0.31549360402758481 0 0.1324165454790267 0.30727239754043861 0 0.14720005746242951 0.30142281331575033 0 0.15283638676012321 0.31549360402758481 0 0.14720005746242951 0.30142281331575033 0 0.15656381939651029 0.29281974420246049 0 0.16028174711874049 0.3030196196812181 0 0.14720005746242951 0.30142281331575033 0 0.16028174711874049 0.3030196196812181 0 0.15283638676012321 0.31549360402758481 0 0.1290161345054254 0.28663964001213549 0 0.1439174607907866 0.29187582465390233 0 0.15172987708434951 0.28225964022045408 0 0.13507741550521829 0.29623728551871131 0 0.14720005746242951 0.30142281331575033 0 0.1439174607907866 0.29187582465390233 0 0.14720005746242951 0.30142281331575033 0 0.1439174607907866 0.29187582465390233 0 0.15656381939651029 0.29281974420246049 0 0.15172987708434951 0.28225964022045408 0 0.15656381939651029 0.29281974420246049 0 0.1439174607907866 0.29187582465390233 0 0.15172987708434951 0.28225964022045408 0 0.15656381939651029 0.29281974420246049 0 0.15656381939651029 0.29281974420246049 0 0.17183897735861861 0.29512351805727499 0 0.17151824671322299 0.27844375410873118 0 0.15172987708434951 0.28225964022045408 0 0.15656381939651029 0.29281974420246049 0 0.17151824671322299 0.27844375410873118 0 0.16028174711874049 0.3030196196812181 0 0.1729694946160211 0.31023841880301989 0 0.15283638676012321 0.31549360402758481 0 0.15656381939651029 0.29281974420246049 0 0.17183897735861861 0.29512351805727499 0 0.16028174711874049 0.3030196196812181 0 0.17183897735861861 0.29512351805727499 0 0.16028174711874049 0.3030196196812181 0 0.1729694946160211 0.31023841880301989 0 0.1729694946160211 0.31023841880301989 0 0.19230026538980091 0.29582800269152099 0 0.19329391443751021 0.31702813738604091 0 0.17183897735861861 0.29512351805727499 0 0.1729694946160211 0.31023841880301989 0 0.19230026538980091 0.29582800269152099 0 0.17151824671322299 0.27844375410873118 0 0.19130661634209509 0.27462786799700101 0 0.19230026538980091 0.29582800269152099 0 0.17183897735861861 0.29512351805727499 0 0.17151824671322299 0.27844375410873118 0 0.19230026538980091 0.29582800269152099 0 0.17538274309445809 0.26626149680335409 0 0.17151824671322299 0.27844375410873118 0 0.19130661634209509 0.27462786799700101 0 0.17538274309445809 0.26626149680335409 0 0.19046502565329271 0.25667199514498079 0 0.19130661634209509 0.27462786799700101 0 0.17151824671322299 0.27844375410873118 0 0.19130661634209509 0.27462786799700101 0 0.15172987708434951 0.28225964022045408 0 0.17151824671322299 0.27844375410873118 0 0.16010258993135179 0.26864884926440069 0 0.15172987708434951 0.28225964022045408 0 0.17151824671322299 0.27844375410873118 0 0.17538274309445809 0.26626149680335409 0 0.17151824671322299 0.27844375410873118 0 0.16010258993135179 0.26864884926440069 0 0.17538274309445809 0.26626149680335409 0 0.16010258993135179 0.26864884926440069 0 0.16352123683232861 0.25291501750165601 0 0.17541479570916349 0.24394271450933411 0 0.16352123683232861 0.25291501750165601 0 0.19046502565329271 0.25667199514498079 0 0.16352123683232861 0.25291501750165601 0 0.19046502565329271 0.25667199514498079 0 0.17538274309445809 0.26626149680335409 0 0.16352123683232861 0.25291501750165601 0 0.19046502565329271 0.25667199514498079 0 0.19046502565329271 0.25667199514498079 0 0.20762981486763341 0.25906541240931591 0 0.19046502565329271 0.25667199514498079 0 0.19991650467169381 0.26522402916783588 0 0.20762981486763341 0.25906541240931591 0 0.19046502565329271 0.25667199514498079 0 0.19991650467169381 0.26522402916783588 0 0.19130661634209509 0.27462786799700101 0 0.20485045957174261 0.24407632231641579 0 0.19046502565329271 0.25667199514498079 0 0.20762981486763341 0.25906541240931591 0 0.19991650467169381 0.26522402916783588 0 0.19130661634209509 0.27462786799700101 0 0.21331660557633941 0.27038357633411242 0 0.19130661634209509 0.27462786799700101 0 0.21331660557633941 0.27038357633411242 0 0.19046502565329271 0.25667199514498079 0 0.19130661634209509 0.27462786799700101 0 0.19130661634209509 0.27462786799700101 0 0.21331660557633941 0.27038357633411242 0 0.20627604292596571 0.28701620748485168 0 0.20762981486763341 0.25906541240931591 0 0.2247946040819743 0.26145882967365019 0 0.21331660557633941 0.27038357633411242 0 0.20762981486763341 0.25906541240931591 0 0.2247946040819743 0.26145882967365019 0 0.20762981486763341 0.25906541240931591 0 0.22046961193007161 0.25132333339345397 0 0.2247946040819743 0.26145882967365019 0 0.19991650467169381 0.26522402916783588 0 0.21331660557633941 0.27038357633411242 0 0.20762981486763341 0.25906541240931591 0 0.20485045957174261 0.24407632231641579 0 0.20762981486763341 0.25906541240931591 0 0.22046961193007161 0.25132333339345397 0 0.22046961193007161 0.25132333339345397 0 0.23150131107463259 0.2581549984685666 0 0.2247946040819743 0.26145882967365019 0 0.23349475274929751 0.24834420182182129 0 0.22046961193007161 0.25132333339345397 0 0.23150131107463259 0.2581549984685666 0 0.23349475274929751 0.24834420182182129 0 0.23150131107463259 0.2581549984685666 0 0.23700326713291531 0.25668110642687109 0 0.23150131107463259 0.2581549984685666 0 0.2247946040819743 0.26145882967365019 0 0.2353265948105823 0.266139284671216 0 0.21331660557633941 0.27038357633411242 0 0.2353265948105823 0.266139284671216 0 0.22322886518685139 0.28844103753447059 0 0.21331660557633941 0.27038357633411242 0 0.2353265948105823 0.266139284671216 0 0.21331660557633941 0.27038357633411242 0 0.2247946040819743 0.26145882967365019 0 0.2353265948105823 0.266139284671216 0 0.2353265948105823 0.266139284671216 0 0.22322886518685139 0.28844103753447059 0 0.2353265948105823 0.266139284671216 0 0.24482817571085241 0.27603777433509602 0 0.22322886518685139 0.28844103753447059 0 0.2353265948105823 0.266139284671216 0 0.24482817571085241 0.27603777433509602 0 0.254662193301321 0.26241070858705712 0 0.2353265948105823 0.266139284671216 0 0.23650007352512109 0.26397601659564018 0 0.254662193301321 0.26241070858705712 0 0.2353265948105823 0.266139284671216 0 0.254662193301321 0.26241070858705712 0 0.24424659163407689 0.25463765965546259 0 0.23650007352512109 0.26397601659564018 0 0.254662193301321 0.26241070858705712 0 0.24815670256054939 0.24315182117073661 0 0.24424659163407689 0.25463765965546259 0 0.254662193301321 0.26241070858705712 0 0.23349475274929751 0.24834420182182129 0 0.24424659163407689 0.25463765965546259 0 0.23700326713291531 0.25668110642687109 0 0.24424659163407689 0.25463765965546259 0 0.23700326713291531 0.25668110642687109 0 0.23650007352512109 0.26397601659564018 0 0.23150131107463259 0.2581549984685666 0 0.23700326713291531 0.25668110642687109 0 0.23650007352512109 0.26397601659564018 0 0.23150131107463259 0.2581549984685666 0 0.2353265948105823 0.266139284671216 0 0.23650007352512109 0.26397601659564018 0 0.2353265948105823 0.266139284671216 0 0.23650007352512109 0.26397601659564018 0 0.24727529996386621 0.29433480603965467 0 0.229369325327269 0.30586426482163581 0 0.2446011947163689 0.31609853100590518 0 0.24482817571085241 0.27603777433509602 0 0.24727529996386621 0.29433480603965467 0 0.22322886518685139 0.28844103753447059 0 0.24727529996386621 0.29433480603965467 0 0.22322886518685139 0.28844103753447059 0 0.229369325327269 0.30586426482163581 0 0.229369325327269 0.30586426482163581 0 0.21113113556312271 0.31074279039772651 0 0.2211247370844778 0.31501973355023472 0 0.22322886518685139 0.28844103753447059 0 0.229369325327269 0.30586426482163581 0 0.21113113556312271 0.31074279039772651 0 0.21113113556312271 0.31074279039772651 0 0.20627604292596571 0.28701620748485168 0 0.19230026538980091 0.29582800269152099 0 0.22322886518685139 0.28844103753447059 0 0.21113113556312271 0.31074279039772651 0 0.22322886518685139 0.28844103753447059 0 0.21113113556312271 0.31074279039772651 0 0.20627604292596571 0.28701620748485168 0 0.21331660557633941 0.27038357633411242 0 0.22322886518685139 0.28844103753447059 0 0.20627604292596571 0.28701620748485168 0 0.19130661634209509 0.27462786799700101 0 0.20627604292596571 0.28701620748485168 0 0.19230026538980091 0.29582800269152099 0 0.19130661634209509 0.27462786799700101 0 0.19230026538980091 0.29582800269152099 0 0.21113113556312271 0.31074279039772651 0 0.19230026538980091 0.29582800269152099 0 0.19329391443751021 0.31702813738604091 0 0.19230026538980091 0.29582800269152099 0 0.19329391443751021 0.31702813738604091 0 0.19329391443751021 0.31702813738604091 0 0.19399873463963219 0.33206592487742959 0 0.19856664307428681 0.33390500471838719 0 0.21113113556312271 0.31074279039772651 0 0.19329391443751021 0.31702813738604091 0 0.21113113556312271 0.31074279039772651 0 0.19329391443751021 0.31702813738604091 0 0.19856664307428681 0.33390500471838719 0 0.19329391443751021 0.31702813738604091 0 0.19399873463963219 0.33206592487742959 0 0.19399873463963219 0.33206592487742959 0 0.19505625176395089 0.35462872562592179 0 0.19399873463963219 0.33206592487742959 0 0.19505625176395089 0.35462872562592179 0 0.18054622150100799 0.33881236601417608 0 0.19399873463963219 0.33206592487742959 0 0.19856664307428681 0.33390500471838719 0 0.19505625176395089 0.35462872562592179 0 0.19399873463963219 0.33206592487742959 0 0.19856664307428681 0.33390500471838719 0 0.19856664307428681 0.33390500471838719 0 0.2213124379032726 0.34306266042340328 0 0.20549052824428821 0.34634015487684922 0 0.19856664307428681 0.33390500471838719 0 0.21502896340270511 0.32119208455053683 0 0.2213124379032726 0.34306266042340328 0 0.19856664307428681 0.33390500471838719 0 0.2213124379032726 0.34306266042340328 0 0.21113113556312271 0.31074279039772651 0 0.19856664307428681 0.33390500471838719 0 0.21502896340270511 0.32119208455053683 0 0.21113113556312271 0.31074279039772651 0 0.19856664307428681 0.33390500471838719 0 0.21113113556312271 0.31074279039772651 0 0.21502896340270511 0.32119208455053683 0 0.2211247370844778 0.31501973355023472 0 0.229369325327269 0.30586426482163581 0 0.2211247370844778 0.31501973355023472 0 0.22858562452117659 0.32241507008287479 0 0.21502896340270511 0.32119208455053683 0 0.2211247370844778 0.31501973355023472 0 0.22858562452117659 0.32241507008287479 0 0.229369325327269 0.30586426482163581 0 0.22858562452117659 0.32241507008287479 0 0.2446011947163689 0.31609853100590518 0 0.21502896340270511 0.32119208455053683 0 0.22858562452117659 0.32241507008287479 0 0.2213124379032726 0.34306266042340328 0 0.22858562452117659 0.32241507008287479 0 0.2213124379032726 0.34306266042340328 0 0.24170864177338369 0.33507419302134078 0 0.2213124379032726 0.34306266042340328 0 0.24170864177338369 0.33507419302134078 0 0.2440582327322583 0.35222031612841931 0 0.22858562452117659 0.32241507008287479 0 0.24170864177338369 0.33507419302134078 0 0.2446011947163689 0.31609853100590518 0 0.24747677625636461 0.37455452473917239 0 0.23092523554958469 0.3633124534467066 0 0.2271879382114449 0.38170543982519117 0 0.24747677625636461 0.37455452473917239 0 0.2440582327322583 0.35222031612841931 0 0.23092523554958469 0.3633124534467066 0 0.24170864177338369 0.33507419302134078 0 0.2440582327322583 0.35222031612841931 0 0.25971692118216738 0.34615409171956241 0 0.2213124379032726 0.34306266042340328 0 0.2440582327322583 0.35222031612841931 0 0.23092523554958469 0.3633124534467066 0 0.2213124379032726 0.34306266042340328 0 0.23092523554958469 0.3633124534467066 0 0.21459079264458331 0.36501932611734672 0 0.2213124379032726 0.34306266042340328 0 0.2440582327322583 0.35222031612841931 0 0.23092523554958469 0.3633124534467066 0 0.21459079264458331 0.36501932611734672 0 0.2271879382114449 0.38170543982519117 0 0.21459079264458331 0.36501932611734672 0 0.20549052824428821 0.34634015487684922 0 0.19505625176395089 0.35462872562592179 0 0.2213124379032726 0.34306266042340328 0 0.21459079264458331 0.36501932611734672 0 0.20549052824428821 0.34634015487684922 0 0.19856664307428681 0.33390500471838719 0 0.20549052824428821 0.34634015487684922 0 0.19505625176395089 0.35462872562592179 0 0.19505625176395089 0.35462872562592179 0 0.19611376888827059 0.37719152637441389 0 0.19505625176395089 0.35462872562592179 0 0.17958692951971941 0.36667132357098242 0 0.19611376888827059 0.37719152637441389 0 0.21459079264458331 0.36501932611734672 0 0.19505625176395089 0.35462872562592179 0 0.19611376888827059 0.37719152637441389 0 0.17958692951971941 0.36667132357098242 0 0.15849263196125549 0.36876271624149631 0 0.1725496324360962 0.35116573920433058 0 0.17958692951971941 0.36667132357098242 0 0.15849263196125549 0.36876271624149631 0 0.17640617275405401 0.38424537276040183 0 0.15849263196125549 0.36876271624149631 0 0.1725496324360962 0.35116573920433058 0 0.15520576226840621 0.34682095357354309 0 0.1725496324360962 0.35116573920433058 0 0.16722368092195561 0.33776997078275239 0 0.15520576226840621 0.34682095357354309 0 0.19505625176395089 0.35462872562592179 0 0.17958692951971941 0.36667132357098242 0 0.1725496324360962 0.35116573920433058 0 0.19505625176395089 0.35462872562592179 0 0.1725496324360962 0.35116573920433058 0 0.18054622150100799 0.33881236601417608 0 0.19399873463963219 0.33206592487742959 0 0.18054622150100799 0.33881236601417608 0 0.17375168059771531 0.32391428404224459 0 0.18054622150100799 0.33881236601417608 0 0.17375168059771531 0.32391428404224459 0 0.16722368092195561 0.33776997078275239 0 0.1725496324360962 0.35116573920433058 0 0.18054622150100799 0.33881236601417608 0 0.16722368092195561 0.33776997078275239 0 0.19399873463963219 0.33206592487742959 0 0.17375168059771531 0.32391428404224459 0 0.19329391443751021 0.31702813738604091 0 0.19399873463963219 0.33206592487742959 0 0.17375168059771531 0.32391428404224459 0 0.19329391443751021 0.31702813738604091 0 0.17375168059771531 0.32391428404224459 0 0.1729694946160211 0.31023841880301989 0 0.19329391443751021 0.31702813738604091 0 0.17375168059771531 0.32391428404224459 0 0.1729694946160211 0.31023841880301989 0 0.17375168059771531 0.32391428404224459 0 0.15283638676012321 0.31549360402758481 0 0.1729694946160211 0.31023841880301989 0 0.15283638676012321 0.31549360402758481 0 0.17375168059771531 0.32391428404224459 0 0.15283638676012321 0.31549360402758481 0 0.17375168059771531 0.32391428404224459 0 0.15398954423370631 0.33087791831036861 0 0.17375168059771531 0.32391428404224459 0 0.15398954423370631 0.33087791831036861 0 0.15283638676012321 0.31549360402758481 0 0.17375168059771531 0.32391428404224459 0 0.16722368092195561 0.33776997078275239 0 0.15398954423370631 0.33087791831036861 0 0.16722368092195561 0.33776997078275239 0 0.15398954423370631 0.33087791831036861 0 0.15520576226840621 0.34682095357354309 0 0.15398954423370631 0.33087791831036861 0 0.1342274078696957 0.33784155257848808 0 0.15398954423370631 0.33087791831036861 0 0.1342274078696957 0.33784155257848808 0 0.15520576226840621 0.34682095357354309 0 0.15398954423370631 0.33087791831036861 0 0.14380895401282001 0.32554019080229318 0 0.1342274078696957 0.33784155257848808 0 0.15283638676012321 0.31549360402758481 0 0.133106114647882 0.32064364023774311 0 0.15283638676012321 0.31549360402758481 0 0.14380895401282001 0.32554019080229318 0 0.133106114647882 0.32064364023774311 0 0.15398954423370631 0.33087791831036861 0 0.15283638676012321 0.31549360402758481 0 0.14380895401282001 0.32554019080229318 0 0.14380895401282001 0.32554019080229318 0 0.133106114647882 0.32064364023774311 0 0.1342274078696957 0.33784155257848808 0 0.1324165454790267 0.30727239754043861 0 0.15283638676012321 0.31549360402758481 0 0.133106114647882 0.32064364023774311 0 0.1185435201949019 0.31297732835421199 0 0.1324165454790267 0.30727239754043861 0 0.133106114647882 0.32064364023774311 0 0.1245359080047571 0.33070698122850961 0 0.133106114647882 0.32064364023774311 0 0.1342274078696957 0.33784155257848808 0 0.12107552442819509 0.35793425152046321 0 0.12923214107289341 0.3489225491329116 0 0.14057909116845699 0.3532800597225908 0 0.1144652715056851 0.34480518684660783 0 0.1342274078696957 0.33784155257848808 0 0.12923214107289341 0.3489225491329116 0 0.1342274078696957 0.33784155257848808 0 0.12923214107289341 0.3489225491329116 0 0.14057909116845699 0.3532800597225908 0 0.12107552442819509 0.35793425152046321 0 0.14057909116845699 0.3532800597225908 0 0.13592149644392509 0.37306993102140562 0 0.1207712551413805 0.37247672491497419 0 0.12107552442819509 0.35793425152046321 0 0.13592149644392509 0.37306993102140562 0 0.15849263196125549 0.36876271624149631 0 0.14057909116845699 0.3532800597225908 0 0.15849263196125549 0.36876271624149631 0 0.14057909116845699 0.3532800597225908 0 0.13592149644392509 0.37306993102140562 0 0.1342274078696957 0.33784155257848808 0 0.14057909116845699 0.3532800597225908 0 0.15520576226840621 0.34682095357354309 0 0.15849263196125549 0.36876271624149631 0 0.14057909116845699 0.3532800597225908 0 0.15520576226840621 0.34682095357354309 0 0.14167318417918681 0.39924251112666631 0 0.14456768884762569 0.40624631742267953 0 0.15837814101268269 0.41109461213554549 0 0.14167318417918681 0.39924251112666631 0 0.15837814101268269 0.41109461213554549 0 0.16799644886301979 0.39948527020298641 0 0.14167318417918681 0.39924251112666631 0 0.1553694456900121 0.38605952845327418 0 0.16799644886301979 0.39948527020298641 0 0.14167318417918681 0.39924251112666631 0 0.16799644886301979 0.39948527020298641 0 0.14167318417918681 0.39924251112666631 0 0.15837814101268269 0.41109461213554549 0 0.13592149644392509 0.37306993102140562 0 0.14167318417918681 0.39924251112666631 0 0.1553694456900121 0.38605952845327418 0 0.15849263196125549 0.36876271624149631 0 0.13592149644392509 0.37306993102140562 0 0.1553694456900121 0.38605952845327418 0 0.12383568054059919 0.38658687262498997 0 0.13592149644392509 0.37306993102140562 0 0.14167318417918681 0.39924251112666631 0 0.12383568054059919 0.38658687262498997 0 0.1207712551413805 0.37247672491497419 0 0.13592149644392509 0.37306993102140562 0 0.14167318417918681 0.39924251112666631 0 0.1252266694359985 0.39909083766307202 0 0.13520970449003991 0.40846119142794018 0 0.12383568054059919 0.38658687262498997 0 0.14167318417918681 0.39924251112666631 0 0.12383568054059919 0.38658687262498997 0 0.14167318417918681 0.39924251112666631 0 0.1252266694359985 0.39909083766307202 0 0.14167318417918681 0.39924251112666631 0 0.1252266694359985 0.39909083766307202 0 0.14167318417918681 0.39924251112666631 0 0.14456768884762569 0.40624631742267953 0 0.13520970449003991 0.40846119142794018 0 0.1252266694359985 0.39909083766307202 0 0.12708872060208859 0.40965213795514882 0 0.13520970449003991 0.40846119142794018 0 0.12708872060208859 0.40965213795514882 0 0.12981012617728921 0.41641870939150699 0 0.13520970449003991 0.40846119142794018 0 0.12981012617728921 0.41641870939150699 0 0.1354353241074055 0.41963070627553761 0 0.13246924620873091 0.42587313247347358 0 0.121637541881659 0.41716908408952041 0 0.12708872060208859 0.40965213795514882 0 0.12981012617728921 0.41641870939150699 0 0.12486695022230131 0.42603986674334487 0 0.121637541881659 0.41716908408952041 0 0.12981012617728921 0.41641870939150699 0 0.1354353241074055 0.41963070627553761 0 0.141151727868112 0.42705123846528897 0 0.1411458910462427 0.4164211084671906 0 0.1354353241074055 0.41963070627553761 0 0.13520970449003991 0.40846119142794018 0 0.1411458910462427 0.4164211084671906 0 0.12981012617728921 0.41641870939150699 0 0.1354353241074055 0.41963070627553761 0 0.13520970449003991 0.40846119142794018 0 0.14456768884762569 0.40624631742267953 0 0.13520970449003991 0.40846119142794018 0 0.1411458910462427 0.4164211084671906 0 0.12775715340285629 0.43310596898077769 0 0.13401189206520159 0.43243824053187419 0 0.13156178823478881 0.44006597154671129 0 0.1241892659923521 0.43795447681914851 0 0.12775715340285629 0.43310596898077769 0 0.13156178823478881 0.44006597154671129 0 0.12775715340285629 0.43310596898077769 0 0.13246924620873091 0.42587313247347358 0 0.13401189206520159 0.43243824053187419 0 0.12486695022230131 0.42603986674334487 0 0.12981012617728921 0.41641870939150699 0 0.13246924620873091 0.42587313247347358 0 0.12486695022230131 0.42603986674334487 0 0.12775715340285629 0.43310596898077769 0 0.13246924620873091 0.42587313247347358 0 0.1354353241074055 0.41963070627553761 0 0.13246924620873091 0.42587313247347358 0 0.141151727868112 0.42705123846528897 0 0.13246924620873091 0.42587313247347358 0 0.13401189206520159 0.43243824053187419 0 0.141151727868112 0.42705123846528897 0 0.13401189206520159 0.43243824053187419 0 0.1392884892309712 0.43605529901346318 0 0.141151727868112 0.42705123846528897 0 0.13401189206520159 0.43243824053187419 0 0.1392884892309712 0.43605529901346318 0 0.13156178823478881 0.44006597154671129 0 0.141151727868112 0.42705123846528897 0 0.15077662926315069 0.42942447093722919 0 0.14794817073882591 0.43797540064049317 0 0.1392884892309712 0.43605529901346318 0 0.141151727868112 0.42705123846528897 0 0.14794817073882591 0.43797540064049317 0 0.141151727868112 0.42705123846528897 0 0.15077662926315069 0.42942447093722919 0 0.14710019416146961 0.42036963587877002 0 0.15077662926315069 0.42942447093722919 0 0.14710019416146961 0.42036963587877002 0 0.1586284049151882 0.42403483968949468 0 0.15077662926315069 0.42942447093722919 0 0.15905464863215771 0.43769124001209903 0 0.14794817073882591 0.43797540064049317 0 0.15077662926315069 0.42942447093722919 0 0.1586284049151882 0.42403483968949468 0 0.15905464863215771 0.43769124001209903 0 0.14456768884762569 0.40624631742267953 0 0.14710019416146961 0.42036963587877002 0 0.1586284049151882 0.42403483968949468 0 0.14456768884762569 0.40624631742267953 0 0.15837814101268269 0.41109461213554549 0 0.1586284049151882 0.42403483968949468 0 0.14456768884762569 0.40624631742267953 0 0.1586284049151882 0.42403483968949468 0 0.14456768884762569 0.40624631742267953 0 0.1411458910462427 0.4164211084671906 0 0.14710019416146961 0.42036963587877002 0 0.141151727868112 0.42705123846528897 0 0.1411458910462427 0.4164211084671906 0 0.14710019416146961 0.42036963587877002 0 0.16932632393375391 0.41403414954433571 0 0.1586284049151882 0.42403483968949468 0 0.17593794838579449 0.42284181302237162 0 0.15837814101268269 0.41109461213554549 0 0.16932632393375391 0.41403414954433571 0 0.1586284049151882 0.42403483968949468 0 0.15837814101268269 0.41109461213554549 0 0.16932632393375391 0.41403414954433571 0 0.16799644886301979 0.39948527020298641 0 0.1586284049151882 0.42403483968949468 0 0.17268912098275069 0.44182336195630989 0 0.1586284049151882 0.42403483968949468 0 0.17467084343895339 0.4323128626198427 0 0.17268912098275069 0.44182336195630989 0 0.1586284049151882 0.42403483968949468 0 0.17268912098275069 0.44182336195630989 0 0.15905464863215771 0.43769124001209903 0 0.1586284049151882 0.42403483968949468 0 0.17467084343895339 0.4323128626198427 0 0.17593794838579449 0.42284181302237162 0 0.17593794838579449 0.42284181302237162 0 0.18734331002712429 0.43098081638075908 0 0.18569067649208421 0.41271421267128011 0 0.17467084343895339 0.4323128626198427 0 0.17593794838579449 0.42284181302237162 0 0.18734331002712429 0.43098081638075908 0 0.17467084343895339 0.4323128626198427 0 0.18734331002712429 0.43098081638075908 0 0.1787554328839093 0.44188348205027839 0 0.16932632393375391 0.41403414954433571 0 0.17593794838579449 0.42284181302237162 0 0.18569067649208421 0.41271421267128011 0 0.16932632393375391 0.41403414954433571 0 0.18569067649208421 0.41271421267128011 0 0.16799644886301979 0.39948527020298641 0 0.16799644886301979 0.39948527020298641 0 0.17640617275405401 0.38424537276040183 0 0.19431971354685279 0.39972802927930667 0 0.16799644886301979 0.39948527020298641 0 0.19431971354685279 0.39972802927930667 0 0.17640617275405401 0.38424537276040183 0 0.19431971354685279 0.39972802927930667 0 0.18569067649208421 0.41271421267128011 0 0.16799644886301979 0.39948527020298641 0 0.19431971354685279 0.39972802927930667 0 0.1553694456900121 0.38605952845327418 0 0.16799644886301979 0.39948527020298641 0 0.17640617275405401 0.38424537276040183 0 0.15849263196125549 0.36876271624149631 0 0.17640617275405401 0.38424537276040183 0 0.15849263196125549 0.36876271624149631 0 0.1553694456900121 0.38605952845327418 0 0.17640617275405401 0.38424537276040183 0 0.17958692951971941 0.36667132357098242 0 0.17640617275405401 0.38424537276040183 0 0.19611376888827059 0.37719152637441389 0 0.19611376888827059 0.37719152637441389 0 0.1971712860125899 0.39975432712290598 0 0.20358239557654911 0.39018646966091508 0 0.19611376888827059 0.37719152637441389 0 0.1971712860125899 0.39975432712290598 0 0.17640617275405401 0.38424537276040183 0 0.19611376888827059 0.37719152637441389 0 0.19431971354685279 0.39972802927930667 0 0.19611376888827059 0.37719152637441389 0 0.19431971354685279 0.39972802927930667 0 0.1971712860125899 0.39975432712290598 0 0.18569067649208421 0.41271421267128011 0 0.19431971354685279 0.39972802927930667 0 0.19729039467351911 0.40229558619300593 0 0.1971712860125899 0.39975432712290598 0 0.19729039467351911 0.40229558619300593 0 0.2104661863941725 0.3998769356889515 0 0.19431971354685279 0.39972802927930667 0 0.1971712860125899 0.39975432712290598 0 0.19431971354685279 0.39972802927930667 0 0.19729039467351911 0.40229558619300593 0 0.19431971354685279 0.39972802927930667 0 0.1971712860125899 0.39975432712290598 0 0.19729039467351911 0.40229558619300593 0 0.1971712860125899 0.39975432712290598 0 0.19729039467351911 0.40229558619300593 0 0.2104661863941725 0.3998769356889515 0 0.20358239557654911 0.39018646966091508 0 0.21057834101116321 0.38392308945738912 0 0.2104661863941725 0.3998769356889515 0 0.21057834101116321 0.38392308945738912 0 0.22394152475704809 0.39553804288233357 0 0.1971712860125899 0.39975432712290598 0 0.2104661863941725 0.3998769356889515 0 0.19729039467351911 0.40229558619300593 0 0.2104661863941725 0.3998769356889515 0 0.21150652904816811 0.41458257780986069 0 0.1971712860125899 0.39975432712290598 0 0.2104661863941725 0.3998769356889515 0 0.20358239557654911 0.39018646966091508 0 0.2104661863941725 0.3998769356889515 0 0.22394152475704809 0.39553804288233357 0 0.2212883010401572 0.40823308815147358 0 0.21459079264458331 0.36501932611734672 0 0.21057834101116321 0.38392308945738912 0 0.2271879382114449 0.38170543982519117 0 0.21459079264458331 0.36501932611734672 0 0.19611376888827059 0.37719152637441389 0 0.21057834101116321 0.38392308945738912 0 0.19611376888827059 0.37719152637441389 0 0.20358239557654911 0.39018646966091508 0 0.21057834101116321 0.38392308945738912 0 0.2271879382114449 0.38170543982519117 0 0.22394152475704809 0.39553804288233357 0 0.24070228162109181 0.39236703738690831 0 0.21057834101116321 0.38392308945738912 0 0.2271879382114449 0.38170543982519117 0 0.22394152475704809 0.39553804288233357 0 0.22394152475704809 0.39553804288233357 0 0.24070228162109181 0.39236703738690831 0 0.23376042079623049 0.40756537664452658 0 0.22394152475704809 0.39553804288233357 0 0.23376042079623049 0.40756537664452658 0 0.2212883010401572 0.40823308815147358 0 0.24070228162109181 0.39236703738690831 0 0.24595955872236991 0.40515242132340629 0 0.23376042079623049 0.40756537664452658 0 0.24070228162109181 0.39236703738690831 0 0.24595955872236991 0.40515242132340629 0 0.25359543541968949 0.39757942206892227 0 0.24070228162109181 0.39236703738690831 0 0.2539855950671086 0.38568147745874742 0 0.25359543541968949 0.39757942206892227 0 0.24747677625636461 0.37455452473917239 0 0.24070228162109181 0.39236703738690831 0 0.2539855950671086 0.38568147745874742 0 0.24747677625636461 0.37455452473917239 0 0.2271879382114449 0.38170543982519117 0 0.24070228162109181 0.39236703738690831 0 0.24647964254932581 0.4188459769869205 0 0.22676684420516671 0.42360250773169539 0 0.24225466589910971 0.44338981674991412 0 0.24647964254932581 0.4188459769869205 0 0.24225466589910971 0.44338981674991412 0 0.25521426548875908 0.43109769416194271 0 0.24647964254932581 0.4188459769869205 0 0.23376042079623049 0.40756537664452658 0 0.22676684420516671 0.42360250773169539 0 0.24595955872236991 0.40515242132340629 0 0.24647964254932581 0.4188459769869205 0 0.25526001322551162 0.40940429352975349 0 0.24595955872236991 0.40515242132340629 0 0.24647964254932581 0.4188459769869205 0 0.23376042079623049 0.40756537664452658 0 0.23376042079623049 0.40756537664452658 0 0.2212883010401572 0.40823308815147358 0 0.22676684420516671 0.42360250773169539 0 0.2212883010401572 0.40823308815147358 0 0.22676684420516671 0.42360250773169539 0 0.21150652904816811 0.41458257780986069 0 0.22676684420516671 0.42360250773169539 0 0.21154637135046059 0.42979584878023008 0 0.220711619650762 0.44287877060716813 0 0.22676684420516671 0.42360250773169539 0 0.220711619650762 0.44287877060716813 0 0.24225466589910971 0.44338981674991412 0 0.22676684420516671 0.42360250773169539 0 0.21154637135046059 0.42979584878023008 0 0.21150652904816811 0.41458257780986069 0 0.21154637135046059 0.42979584878023008 0 0.21150652904816811 0.41458257780986069 0 0.198229484037967 0.42233165532871181 0 0.2104661863941725 0.3998769356889515 0 0.2212883010401572 0.40823308815147358 0 0.21150652904816811 0.41458257780986069 0 0.19729039467351911 0.40229558619300593 0 0.21150652904816811 0.41458257780986069 0 0.19729039467351911 0.40229558619300593 0 0.198229484037967 0.42233165532871181 0 0.19729039467351911 0.40229558619300593 0 0.21150652904816811 0.41458257780986069 0 0.198229484037967 0.42233165532871181 0 0.18569067649208421 0.41271421267128011 0 0.19729039467351911 0.40229558619300593 0 0.198229484037967 0.42233165532871181 0 0.198229484037967 0.42233165532871181 0 0.1991685734024144 0.44236772446441758 0 0.18734331002712429 0.43098081638075908 0 0.18569067649208421 0.41271421267128011 0 0.198229484037967 0.42233165532871181 0 0.18734331002712429 0.43098081638075908 0 0.198229484037967 0.42233165532871181 0 0.1991685734024144 0.44236772446441758 0 0.21154637135046059 0.42979584878023008 0 0.198229484037967 0.42233165532871181 0 0.1991685734024144 0.44236772446441758 0 0.1991685734024144 0.44236772446441758 0 0.1896764267744942 0.44907699419998182 0 0.1787554328839093 0.44188348205027839 0 0.18734331002712429 0.43098081638075908 0 0.1991685734024144 0.44236772446441758 0 0.1787554328839093 0.44188348205027839 0 0.1991685734024144 0.44236772446441758 0 0.19998956326014139 0.45988406547718058 0 0.1991685734024144 0.44236772446441758 0 0.1787554328839093 0.44188348205027839 0 0.1991685734024144 0.44236772446441758 0 0.1896764267744942 0.44907699419998182 0 0.19998956326014139 0.45988406547718058 0 0.2008105531178721 0.47740040648994347 0 0.18674983705031331 0.45961188422312521 0 0.19998956326014139 0.45988406547718058 0 0.2008105531178721 0.47740040648994347 0 0.18674983705031331 0.45961188422312521 0 0.19998956326014139 0.45988406547718058 0 0.2008105531178721 0.47740040648994347 0 0.1896764267744942 0.44907699419998182 0 0.19998956326014139 0.45988406547718058 0 0.18674983705031331 0.45961188422312521 0 0.19998956326014139 0.45988406547718058 0 0.21421699274433489 0.46601110180519761 0 0.2008105531178721 0.47740040648994347 0 0.19998956326014139 0.45988406547718058 0 0.2121578696265782 0.45351256300781562 0 0.21421699274433489 0.46601110180519761 0 0.2121578696265782 0.45351256300781562 0 0.21421699274433489 0.46601110180519761 0 0.22670259907523821 0.45642115268511391 0 0.21154637135046059 0.42979584878023008 0 0.1991685734024144 0.44236772446441758 0 0.220711619650762 0.44287877060716813 0 0.1991685734024144 0.44236772446441758 0 0.19998956326014139 0.45988406547718058 0 0.2121578696265782 0.45351256300781562 0 0.1991685734024144 0.44236772446441758 0 0.220711619650762 0.44287877060716813 0 0.1991685734024144 0.44236772446441758 0 0.2121578696265782 0.45351256300781562 0 0.220711619650762 0.44287877060716813 0 0.220711619650762 0.44287877060716813 0 0.24225466589910971 0.44338981674991412 0 0.220711619650762 0.44287877060716813 0 0.22670259907523821 0.45642115268511391 0 0.24225466589910971 0.44338981674991412 0 0.2121578696265782 0.45351256300781562 0 0.220711619650762 0.44287877060716813 0 0.22670259907523821 0.45642115268511391 0 0.21421699274433489 0.46601110180519761 0 0.22670259907523821 0.45642115268511391 0 0.2286034934058547 0.47243463880921022 0 0.22670259907523821 0.45642115268511391 0 0.2429412429911996 0.46104567599380519 0 0.2286034934058547 0.47243463880921022 0 0.22670259907523821 0.45642115268511391 0 0.2429412429911996 0.46104567599380519 0 0.24225466589910971 0.44338981674991412 0 0.2429412429911996 0.46104567599380519 0 0.24225466589910971 0.44338981674991412 0 0.2637977121474574 0.4439008628926599 0 0.24289798333523721 0.48536007973676382 0 0.22951165013507541 0.5 0 0.25715350555342342 0.5 0 0.2429412429911996 0.46104567599380519 0 0.24289798333523721 0.48536007973676382 0 0.2286034934058547 0.47243463880921022 0 0.2429412429911996 0.46104567599380519 0 0.24289798333523721 0.48536007973676382 0 0.2587220803023107 0.47201055050805613 0 0.24289798333523721 0.48536007973676382 0 0.2286034934058547 0.47243463880921022 0 0.22913241478293539 0.48621323353640677 0 0.21421699274433489 0.46601110180519761 0 0.2286034934058547 0.47243463880921022 0 0.21785754086567111 0.4798679064528093 0 0.2286034934058547 0.47243463880921022 0 0.22913241478293539 0.48621323353640677 0 0.21785754086567111 0.4798679064528093 0 0.22913241478293539 0.48621323353640677 0 0.21652425027736219 0.4972801516232882 0 0.21785754086567111 0.4798679064528093 0 0.24289798333523721 0.48536007973676382 0 0.22913241478293539 0.48621323353640677 0 0.22951165013507541 0.5 0 0.22913241478293539 0.48621323353640677 0 0.22951165013507541 0.5 0 0.21652425027736219 0.4972801516232882 0 0.21652425027736219 0.4972801516232882 0 0.2008105531178721 0.47740040648994347 0 0.21652425027736219 0.4972801516232882 0 0.21785754086567111 0.4798679064528093 0 0.2008105531178721 0.47740040648994347 0 0.22951165013507541 0.5 0 0.21652425027736219 0.4972801516232882 0 0.20186979471672739 0.50000000000001377 0 0.21652425027736219 0.4972801516232882 0 0.2008105531178721 0.47740040648994347 0 0.20186979471672739 0.50000000000001377 0 0.21421699274433489 0.46601110180519761 0 0.21785754086567111 0.4798679064528093 0 0.2008105531178721 0.47740040648994347 0 0.2008105531178721 0.47740040648994347 0 0.18598629570437869 0.4740287026246286 0 0.18674983705031331 0.45961188422312521 0 0.2008105531178721 0.47740040648994347 0 0.18778868009711661 0.48799787722198212 0 0.18598629570437869 0.4740287026246286 0 0.2008105531178721 0.47740040648994347 0 0.20186979471672739 0.50000000000001377 0 0.18778868009711661 0.48799787722198212 0 0.20186979471672739 0.50000000000001377 0 0.18778868009711661 0.48799787722198212 0 0.17592080905474711 0.5 0 0.2008105531178721 0.47740040648994347 0 0.20186979471672739 0.50000000000001377 0 0.18778868009711661 0.48799787722198212 0 0.17669302067608461 0.48891551976778241 0 0.17592080905474711 0.5 0 0.18778868009711661 0.48799787722198212 0 0.17669302067608461 0.48891551976778241 0 0.17784476956092141 0.47882710636729792 0 0.17669302067608461 0.48891551976778241 0 0.17592080905474711 0.5 0 0.1675988274538544 0.49529969257585182 0 0.1675988274538544 0.49529969257585182 0 0.1607733847527742 0.48116130241286198 0 0.14538587228365779 0.4813279722983852 0 0.1675988274538544 0.49529969257585182 0 0.14538587228365779 0.4813279722983852 0 0.17592080905474711 0.5 0 0.1675988274538544 0.49529969257585182 0 0.1499718233927668 0.5 0 0.17669302067608461 0.48891551976778241 0 0.1675988274538544 0.49529969257585182 0 0.17007637652943849 0.48363808540118453 0 0.1675988274538544 0.49529969257585182 0 0.1607733847527742 0.48116130241286198 0 0.17007637652943849 0.48363808540118453 0 0.1607733847527742 0.48116130241286198 0 0.16747188020355799 0.47398680588212821 0 0.15622292689938819 0.46946473569601138 0 0.1607733847527742 0.48116130241286198 0 0.17007637652943849 0.48363808540118453 0 0.16747188020355799 0.47398680588212821 0 0.17007637652943849 0.48363808540118453 0 0.16747188020355799 0.47398680588212821 0 0.17784476956092141 0.47882710636729792 0 0.16747188020355799 0.47398680588212821 0 0.17784476956092141 0.47882710636729792 0 0.17673763869567419 0.46630623882079442 0 0.17669302067608461 0.48891551976778241 0 0.17007637652943849 0.48363808540118453 0 0.17784476956092141 0.47882710636729792 0 0.18778868009711661 0.48799787722198212 0 0.17784476956092141 0.47882710636729792 0 0.18598629570437869 0.4740287026246286 0 0.17784476956092141 0.47882710636729792 0 0.18598629570437869 0.4740287026246286 0 0.17673763869567419 0.46630623882079442 0 0.18598629570437869 0.4740287026246286 0 0.18674983705031331 0.45961188422312521 0 0.17673763869567419 0.46630623882079442 0 0.18674983705031331 0.45961188422312521 0 0.17302381846757139 0.45582203237416619 0 0.17673763869567419 0.46630623882079442 0 0.18674983705031331 0.45961188422312521 0 0.17268912098275069 0.44182336195630989 0 0.1896764267744942 0.44907699419998182 0 0.18674983705031331 0.45961188422312521 0 0.1787554328839093 0.44188348205027839 0 0.18674983705031331 0.45961188422312521 0 0.17302381846757139 0.45582203237416619 0 0.17268912098275069 0.44182336195630989 0 0.18674983705031331 0.45961188422312521 0 0.17268912098275069 0.44182336195630989 0 0.1787554328839093 0.44188348205027839 0 0.17467084343895339 0.4323128626198427 0 0.17268912098275069 0.44182336195630989 0 0.1787554328839093 0.44188348205027839 0 0.17268912098275069 0.44182336195630989 0 0.1636480343868259 0.44974127581121098 0 0.15905464863215771 0.43769124001209903 0 0.17302381846757139 0.45582203237416619 0 0.17268912098275069 0.44182336195630989 0 0.1636480343868259 0.44974127581121098 0 0.1636480343868259 0.44974127581121098 0 0.15333015222799939 0.45585179661497199 0 0.1558481457686052 0.44537500939350422 0 0.1636480343868259 0.44974127581121098 0 0.15905464863215771 0.43769124001209903 0 0.1558481457686052 0.44537500939350422 0 0.16747188020355799 0.47398680588212821 0 0.17673763869567419 0.46630623882079442 0 0.16516039727050141 0.46182838827967199 0 0.17302381846757139 0.45582203237416619 0 0.17673763869567419 0.46630623882079442 0 0.16516039727050141 0.46182838827967199 0 0.17302381846757139 0.45582203237416619 0 0.1636480343868259 0.44974127581121098 0 0.16516039727050141 0.46182838827967199 0 0.1636480343868259 0.44974127581121098 0 0.16516039727050141 0.46182838827967199 0 0.15333015222799939 0.45585179661497199 0 0.16747188020355799 0.47398680588212821 0 0.16516039727050141 0.46182838827967199 0 0.15622292689938819 0.46946473569601138 0 0.16516039727050141 0.46182838827967199 0 0.15333015222799939 0.45585179661497199 0 0.15622292689938819 0.46946473569601138 0 0.15333015222799939 0.45585179661497199 0 0.14366258218207281 0.46385371109438972 0 0.15622292689938819 0.46946473569601138 0 0.15333015222799939 0.45585179661497199 0 0.14366258218207281 0.46385371109438972 0 0.14239685659163959 0.45249743901219758 0 0.1485869003156787 0.44661942991376408 0 0.1558481457686052 0.44537500939350422 0 0.14794817073882591 0.43797540064049317 0 0.15905464863215771 0.43769124001209903 0 0.1558481457686052 0.44537500939350422 0 0.14794817073882591 0.43797540064049317 0 0.15333015222799939 0.45585179661497199 0 0.1485869003156787 0.44661942991376408 0 0.1558481457686052 0.44537500939350422 0 0.1485869003156787 0.44661942991376408 0 0.14239685659163959 0.45249743901219758 0 0.14071957243827141 0.44428908239151721 0 0.15333015222799939 0.45585179661497199 0 0.1485869003156787 0.44661942991376408 0 0.14239685659163959 0.45249743901219758 0 0.1485869003156787 0.44661942991376408 0 0.14071957243827141 0.44428908239151721 0 0.14794817073882591 0.43797540064049317 0 0.1392884892309712 0.43605529901346318 0 0.14071957243827141 0.44428908239151721 0 0.14794817073882591 0.43797540064049317 0 0.14071957243827141 0.44428908239151721 0 0.13329555745070559 0.44810315765154463 0 0.13156178823478881 0.44006597154671129 0 0.1392884892309712 0.43605529901346318 0 0.14071957243827141 0.44428908239151721 0 0.13156178823478881 0.44006597154671129 0 0.14239685659163959 0.45249743901219758 0 0.14071957243827141 0.44428908239151721 0 0.13329555745070559 0.44810315765154463 0 0.14239685659163959 0.45249743901219758 0 0.13329555745070559 0.44810315765154463 0 0.1342815649590286 0.45663933316654598 0 0.13329555745070559 0.44810315765154463 0 0.12592032292020519 0.45120362635656092 0 0.1342815649590286 0.45663933316654598 0 0.1244383211291837 0.44418630497657252 0 0.13329555745070559 0.44810315765154463 0 0.12592032292020519 0.45120362635656092 0 0.1244383211291837 0.44418630497657252 0 0.13329555745070559 0.44810315765154463 0 0.13156178823478881 0.44006597154671129 0 0.1241892659923521 0.43795447681914851 0 0.1244383211291837 0.44418630497657252 0 0.13156178823478881 0.44006597154671129 0 0.14366258218207281 0.46385371109438972 0 0.13453443271314691 0.46536941302232232 0 0.1342815649590286 0.45663933316654598 0 0.14366258218207281 0.46385371109438972 0 0.14239685659163959 0.45249743901219758 0 0.1342815649590286 0.45663933316654598 0 0.12592032292020519 0.45120362635656092 0 0.1342815649590286 0.45663933316654598 0 0.12587963789640139 0.45880865186226139 0 0.13453443271314691 0.46536941302232232 0 0.1342815649590286 0.45663933316654598 0 0.12587963789640139 0.45880865186226139 0 0.12317291711346121 0.46735625202091868 0 0.13453443271314691 0.46536941302232232 0 0.12587963789640139 0.45880865186226139 0 0.12317291711346121 0.46735625202091868 0 0.12940570966067871 0.48596164779372059 0 0.14538587228365779 0.4813279722983852 0 0.12317291711346121 0.46735625202091868 0 0.13453443271314691 0.46536941302232232 0 0.14538587228365779 0.4813279722983852 0 0.12317291711346121 0.46735625202091868 0 0.14538587228365779 0.4813279722983852 0 0.1240228377307865 0.5 0 0.12940570966067871 0.48596164779372059 0 0.1499718233927668 0.5 0 0.12940570966067871 0.48596164779372059 0 0.1499718233927668 0.5 0 0.14538587228365779 0.4813279722983852 0 0.1675988274538544 0.49529969257585182 0 0.1499718233927668 0.5 0 0.14538587228365779 0.4813279722983852 0 0.14366258218207281 0.46385371109438972 0 0.15622292689938819 0.46946473569601138 0 0.14538587228365779 0.4813279722983852 0 0.14366258218207281 0.46385371109438972 0 0.13453443271314691 0.46536941302232232 0 0.14538587228365779 0.4813279722983852 0 0.1607733847527742 0.48116130241286198 0 0.15622292689938819 0.46946473569601138 0 0.14538587228365779 0.4813279722983852 0 0.35380320428690232 0.47603775199402121 0 0.36772092722681587 0.5 0 0.34007907180846769 0.5 0 0.35380320428690232 0.47603775199402121 0 0.3375978015078217 0.4826675755500871 0 0.34007907180846769 0.5 0 0.35380320428690232 0.47603775199402121 0 0.36772092722681587 0.5 0 0.38084110746588401 0.47081429291344751 0 0.35380320428690232 0.47603775199402121 0 0.35257934467941782 0.45394923531080061 0 0.38084110746588401 0.47081429291344751 0 0.37153426722683081 0.44145995112857528 0 0.35257934467941782 0.45394923531080061 0 0.38084110746588401 0.47081429291344751 0 0.37153426722683081 0.44145995112857528 0 0.35257934467941782 0.45394923531080061 0 0.35605279144683571 0.43195958489967562 0 0.35257934467941782 0.45394923531080061 0 0.33972944642830533 0.43593482544988721 0 0.35605279144683571 0.43195958489967562 0 0.35380320428690232 0.47603775199402121 0 0.35257934467941782 0.45394923531080061 0 0.33023109772317222 0.46165383966344142 0 0.35257934467941782 0.45394923531080061 0 0.33023109772317222 0.46165383966344142 0 0.33972944642830533 0.43593482544988721 0 0.33023109772317222 0.46165383966344142 0 0.31917073256277129 0.44486866517001411 0 0.33972944642830533 0.43593482544988721 0 0.33023109772317222 0.46165383966344142 0 0.33972944642830533 0.43593482544988721 0 0.33023109772317222 0.46165383966344142 0 0.31917073256277129 0.44486866517001411 0 0.30476170579472089 0.46310592236736869 0 0.33023109772317222 0.46165383966344142 0 0.31765702293657178 0.47382820643449958 0 0.30476170579472089 0.46310592236736869 0 0.33023109772317222 0.46165383966344142 0 0.31765702293657178 0.47382820643449958 0 0.320732749018039 0.48737285387699558 0 0.31765702293657178 0.47382820643449958 0 0.320732749018039 0.48737285387699558 0 0.31346536119395929 0.49111545867082718 0 0.33023109772317222 0.46165383966344142 0 0.320732749018039 0.48737285387699558 0 0.35380320428690232 0.47603775199402121 0 0.33023109772317222 0.46165383966344142 0 0.3375978015078217 0.4826675755500871 0 0.33023109772317222 0.46165383966344142 0 0.3375978015078217 0.4826675755500871 0 0.320732749018039 0.48737285387699558 0 0.3375978015078217 0.4826675755500871 0 0.32771170968111202 0.4925101073567707 0 0.320732749018039 0.48737285387699558 0 0.3375978015078217 0.4826675755500871 0 0.34007907180846769 0.5 0 0.32771170968111202 0.4925101073567707 0 0.34007907180846769 0.5 0 0.32771170968111202 0.4925101073567707 0 0.31243721639011951 0.5 0 0.320732749018039 0.48737285387699558 0 0.31346536119395929 0.49111545867082718 0 0.31243721639011951 0.5 0 0.32771170968111202 0.4925101073567707 0 0.320732749018039 0.48737285387699558 0 0.31243721639011951 0.5 0 0.31346536119395929 0.49111545867082718 0 0.31243721639011951 0.5 0 0.29513769965874448 0.48312900053340802 0 0.31243721639011951 0.5 0 0.29513769965874448 0.48312900053340802 0 0.28479536097177138 0.5 0 0.31765702293657178 0.47382820643449958 0 0.31346536119395929 0.49111545867082718 0 0.30476170579472089 0.46310592236736869 0 0.31346536119395929 0.49111545867082718 0 0.29513769965874448 0.48312900053340802 0 0.30476170579472089 0.46310592236736869 0 0.31346536119395929 0.49111545867082718 0 0.30476170579472089 0.46310592236736869 0 0.29513769965874448 0.48312900053340802 0 0.28082480526555209 0.46262460621950691 0 0.30476170579472089 0.46310592236736869 0 0.29513769965874448 0.48312900053340802 0 0.27510242120349848 0.48308859844949448 0 0.28082480526555209 0.46262460621950691 0 0.29513769965874448 0.48312900053340802 0 0.28479536097177138 0.5 0 0.27510242120349848 0.48308859844949448 0 0.28479536097177138 0.5 0 0.27510242120349848 0.48308859844949448 0 0.25715350555342342 0.5 0 0.27510242120349848 0.48308859844949448 0 0.2587220803023107 0.47201055050805613 0 0.28082480526555209 0.46262460621950691 0 0.24289798333523721 0.48536007973676382 0 0.2587220803023107 0.47201055050805613 0 0.25715350555342342 0.5 0 0.27510242120349848 0.48308859844949448 0 0.2587220803023107 0.47201055050805613 0 0.25715350555342342 0.5 0 0.2637977121474574 0.4439008628926599 0 0.28082480526555209 0.46262460621950691 0 0.29605805039548239 0.43509638606391021 0 0.24225466589910971 0.44338981674991412 0 0.2637977121474574 0.4439008628926599 0 0.24225466589910971 0.44338981674991412 0 0.2637977121474574 0.4439008628926599 0 0.25521426548875908 0.43109769416194271 0 0.2429412429911996 0.46104567599380519 0 0.2587220803023107 0.47201055050805613 0 0.2637977121474574 0.4439008628926599 0 0.2587220803023107 0.47201055050805613 0 0.2637977121474574 0.4439008628926599 0 0.28082480526555209 0.46262460621950691 0 0.28082480526555209 0.46262460621950691 0 0.30476170579472089 0.46310592236736869 0 0.29605805039548239 0.43509638606391021 0 0.30476170579472089 0.46310592236736869 0 0.29605805039548239 0.43509638606391021 0 0.31917073256277129 0.44486866517001411 0 0.30476170579472089 0.46310592236736869 0 0.29605805039548239 0.43509638606391021 0 0.30314469751179712 0.40774533054147449 0 0.29605805039548239 0.43509638606391021 0 0.31866992912841757 0.41363596016689053 0 0.30314469751179712 0.40774533054147449 0 0.28735439499624399 0.40708684976045167 0 0.29605805039548239 0.43509638606391021 0 0.28735439499624399 0.40708684976045167 0 0.29605805039548239 0.43509638606391021 0 0.28735439499624399 0.40708684976045167 0 0.29605805039548239 0.43509638606391021 0 0.28015632214269209 0.42374351643264202 0 0.2637977121474574 0.4439008628926599 0 0.28015632214269209 0.42374351643264202 0 0.26572709958525531 0.41919167230164872 0 0.2637977121474574 0.4439008628926599 0 0.29605805039548239 0.43509638606391021 0 0.28015632214269209 0.42374351643264202 0 0.28015632214269209 0.42374351643264202 0 0.27621506526866901 0.4125573754827393 0 0.26572709958525531 0.41919167230164872 0 0.28735439499624399 0.40708684976045167 0 0.28015632214269209 0.42374351643264202 0 0.27621506526866901 0.4125573754827393 0 0.27621506526866901 0.4125573754827393 0 0.26572709958525531 0.41919167230164872 0 0.26600886320432299 0.4058763558184228 0 0.24647964254932581 0.4188459769869205 0 0.26572709958525531 0.41919167230164872 0 0.25526001322551162 0.40940429352975349 0 0.26572709958525531 0.41919167230164872 0 0.25526001322551162 0.40940429352975349 0 0.26600886320432299 0.4058763558184228 0 0.24647964254932581 0.4188459769869205 0 0.26572709958525531 0.41919167230164872 0 0.25521426548875908 0.43109769416194271 0 0.2637977121474574 0.4439008628926599 0 0.26572709958525531 0.41919167230164872 0 0.25521426548875908 0.43109769416194271 0 0.2539855950671086 0.38568147745874742 0 0.25359543541968949 0.39757942206892227 0 0.26634018858182201 0.386991364753204 0 0.26181329345657522 0.37691503834552981 0 0.2539855950671086 0.38568147745874742 0 0.26634018858182201 0.386991364753204 0 0.26181329345657522 0.37691503834552981 0 0.26634018858182201 0.386991364753204 0 0.26837172319450731 0.3769461401335874 0 0.24747677625636461 0.37455452473917239 0 0.26181329345657522 0.37691503834552981 0 0.2539855950671086 0.38568147745874742 0 0.25359543541968949 0.39757942206892227 0 0.27692193790611291 0.39313109414263969 0 0.26600886320432299 0.4058763558184228 0 0.25359543541968949 0.39757942206892227 0 0.27692193790611291 0.39313109414263969 0 0.26634018858182201 0.386991364753204 0 0.25359543541968949 0.39757942206892227 0 0.27692193790611291 0.39313109414263969 0 0.24595955872236991 0.40515242132340629 0 0.25526001322551162 0.40940429352975349 0 0.25359543541968949 0.39757942206892227 0 0.25526001322551162 0.40940429352975349 0 0.25359543541968949 0.39757942206892227 0 0.26600886320432299 0.4058763558184228 0 0.28735439499624399 0.40708684976045167 0 0.27621506526866901 0.4125573754827393 0 0.27692193790611291 0.39313109414263969 0 0.27621506526866901 0.4125573754827393 0 0.27692193790611291 0.39313109414263969 0 0.26600886320432299 0.4058763558184228 0 0.26634018858182201 0.386991364753204 0 0.29141355465642949 0.37128598243035221 0 0.27591901341692238 0.37441650510354701 0 0.26634018858182201 0.386991364753204 0 0.28549180718274703 0.38467055355169211 0 0.29141355465642949 0.37128598243035221 0 0.26634018858182201 0.386991364753204 0 0.29141355465642949 0.37128598243035221 0 0.27692193790611291 0.39313109414263969 0 0.26634018858182201 0.386991364753204 0 0.28549180718274703 0.38467055355169211 0 0.26634018858182201 0.386991364753204 0 0.26837172319450731 0.3769461401335874 0 0.27591901341692238 0.37441650510354701 0 0.28549180718274703 0.38467055355169211 0 0.30024844039253618 0.388682766216357 0 0.29141355465642949 0.37128598243035221 0 0.27692193790611291 0.39313109414263969 0 0.28549180718274703 0.38467055355169211 0 0.30024844039253618 0.388682766216357 0 0.28735439499624399 0.40708684976045167 0 0.27692193790611291 0.39313109414263969 0 0.30024844039253618 0.388682766216357 0 0.27692193790611291 0.39313109414263969 0 0.30024844039253618 0.388682766216357 0 0.30314469751179712 0.40774533054147449 0 0.28735439499624399 0.40708684976045167 0 0.30024844039253618 0.388682766216357 0 0.30314469751179712 0.40774533054147449 0 0.30024844039253618 0.388682766216357 0 0.3157304246029734 0.39903630108512089 0 0.30749424876769399 0.37776021036021368 0 0.30024844039253618 0.388682766216357 0 0.29141355465642949 0.37128598243035221 0 0.30749424876769399 0.37776021036021368 0 0.30024844039253618 0.388682766216357 0 0.32357494287895933 0.38423443829007331 0 0.30024844039253618 0.388682766216357 0 0.32357494287895933 0.38423443829007331 0 0.30749424876769399 0.37776021036021368 0 0.32357494287895933 0.38423443829007331 0 0.30749424876769399 0.37776021036021368 0 0.32357494287895933 0.38423443829007331 0 0.31888637851447282 0.3656947337742919 0 0.32357494287895933 0.38423443829007331 0 0.35084184615539599 0.39521233175235648 0 0.32357494287895933 0.38423443829007331 0 0.35261866408483361 0.37869584560141778 0 0.32357494287895933 0.38423443829007331 0 0.35261866408483361 0.37869584560141778 0 0.33337172129639098 0.37290727123995998 0 0.32357494287895933 0.38423443829007331 0 0.35261866408483361 0.37869584560141778 0 0.35084184615539599 0.39521233175235648 0 0.32357494287895933 0.38423443829007331 0 0.33301411310315637 0.40088301021081019 0 0.35084184615539599 0.39521233175235648 0 0.34345181400093833 0.40410765142702532 0 0.33301411310315637 0.40088301021081019 0 0.35084184615539599 0.39521233175235648 0 0.34345181400093833 0.40410765142702532 0 0.33301411310315637 0.40088301021081019 0 0.34043196636004791 0.40897916692127001 0 0.32357494287895933 0.38423443829007331 0 0.33301411310315637 0.40088301021081019 0 0.3157304246029734 0.39903630108512089 0 0.33301411310315637 0.40088301021081019 0 0.3157304246029734 0.39903630108512089 0 0.31866992912841757 0.41363596016689053 0 0.30024844039253618 0.388682766216357 0 0.32357494287895933 0.38423443829007331 0 0.3157304246029734 0.39903630108512089 0 0.30314469751179712 0.40774533054147449 0 0.3157304246029734 0.39903630108512089 0 0.31866992912841757 0.41363596016689053 0 0.31866992912841757 0.41363596016689053 0 0.32507336247217522 0.4285523523054629 0 0.3349146478360735 0.41633149815555798 0 0.31917073256277129 0.44486866517001411 0 0.29605805039548239 0.43509638606391021 0 0.32507336247217522 0.4285523523054629 0 0.31917073256277129 0.44486866517001411 0 0.32507336247217522 0.4285523523054629 0 0.33972944642830533 0.43593482544988721 0 0.29605805039548239 0.43509638606391021 0 0.31866992912841757 0.41363596016689053 0 0.32507336247217522 0.4285523523054629 0 0.32507336247217522 0.4285523523054629 0 0.33972944642830533 0.43593482544988721 0 0.3349146478360735 0.41633149815555798 0 0.33972944642830533 0.43593482544988721 0 0.3349146478360735 0.41633149815555798 0 0.34922779513343799 0.41021581123633288 0 0.33301411310315637 0.40088301021081019 0 0.31866992912841757 0.41363596016689053 0 0.3349146478360735 0.41633149815555798 0 0.33301411310315637 0.40088301021081019 0 0.3349146478360735 0.41633149815555798 0 0.34043196636004791 0.40897916692127001 0 0.3349146478360735 0.41633149815555798 0 0.34043196636004791 0.40897916692127001 0 0.34922779513343799 0.41021581123633288 0 0.34345181400093833 0.40410765142702532 0 0.34043196636004791 0.40897916692127001 0 0.34922779513343799 0.41021581123633288 0 0.33972944642830533 0.43593482544988721 0 0.34922779513343799 0.41021581123633288 0 0.34882740021158759 0.41393769915297068 0 0.34922779513343799 0.41021581123633288 0 0.34882740021158759 0.41393769915297068 0 0.35503911932382692 0.41282594449000909 0 0.34922779513343799 0.41021581123633288 0 0.34882740021158759 0.41393769915297068 0 0.35766912864971068 0.42058398261626639 0 0.35503911932382692 0.41282594449000909 0 0.3619933853757541 0.41266079206244838 0 0.34882740021158759 0.41393769915297068 0 0.35766912864971068 0.42058398261626639 0 0.35503911932382692 0.41282594449000909 0 0.34922779513343799 0.41021581123633288 0 0.35665550929014728 0.40766554977985181 0 0.35232269257337728 0.40183564814500938 0 0.35665550929014728 0.40766554977985181 0 0.35503911932382692 0.41282594449000909 0 0.3619933853757541 0.41266079206244838 0 0.34922779513343799 0.41021581123633288 0 0.35665550929014728 0.40766554977985181 0 0.35503911932382692 0.41282594449000909 0 0.33972944642830533 0.43593482544988721 0 0.34922779513343799 0.41021581123633288 0 0.33972944642830533 0.43593482544988721 0 0.34882740021158759 0.41393769915297068 0 0.35605279144683571 0.43195958489967562 0 0.34882740021158759 0.41393769915297068 0 0.35766912864971068 0.42058398261626639 0 0.35605279144683571 0.43195958489967562 0 0.37153426722683081 0.44145995112857528 0 0.35605279144683571 0.43195958489967562 0 0.36635025959555351 0.42317876603293569 0 0.37153426722683081 0.44145995112857528 0 0.36635025959555351 0.42317876603293569 0 0.37861464761577213 0.42097987718444929 0 0.35766912864971068 0.42058398261626639 0 0.35605279144683571 0.43195958489967562 0 0.36635025959555351 0.42317876603293569 0 0.3619933853757541 0.41266079206244838 0 0.37223151748821831 0.41084020965450402 0 0.36469455404433998 0.40078955296545909 0 0.35665550929014728 0.40766554977985181 0 0.3619933853757541 0.41266079206244838 0 0.36469455404433998 0.40078955296545909 0 0.36635025959555351 0.42317876603293569 0 0.3619933853757541 0.41266079206244838 0 0.37223151748821831 0.41084020965450402 0 0.35766912864971068 0.42058398261626639 0 0.36635025959555351 0.42317876603293569 0 0.3619933853757541 0.41266079206244838 0 0.36635025959555351 0.42317876603293569 0 0.37223151748821831 0.41084020965450402 0 0.37861464761577213 0.42097987718444929 0 0.37223151748821831 0.41084020965450402 0 0.36469455404433998 0.40078955296545909 0 0.38600726411445169 0.40252307422266809 0 0.36469455404433998 0.40078955296545909 0 0.36061262841252939 0.38644131952317812 0 0.37675792062718638 0.37815384277833602 0 0.36277156894779422 0.37986115901420608 0 0.36061262841252939 0.38644131952317812 0 0.37675792062718638 0.37815384277833602 0 0.36393955273918932 0.37528768725162948 0 0.36277156894779422 0.37986115901420608 0 0.37675792062718638 0.37815384277833602 0 0.36277156894779422 0.37986115901420608 0 0.36061262841252939 0.38644131952317812 0 0.35529163836958227 0.37818611354175619 0 0.36393955273918932 0.37528768725162948 0 0.36277156894779422 0.37986115901420608 0 0.36017231089785989 0.37712452852947692 0 0.36393955273918932 0.37528768725162948 0 0.36017231089785989 0.37712452852947692 0 0.35868648353487409 0.37516315431031549 0 0.36277156894779422 0.37986115901420608 0 0.36017231089785989 0.37712452852947692 0 0.35529163836958227 0.37818611354175619 0 0.36061262841252939 0.38644131952317812 0 0.35261866408483361 0.37869584560141778 0 0.35084184615539599 0.39521233175235648 0 0.35261866408483361 0.37869584560141778 0 0.35084184615539599 0.39521233175235648 0 0.36061262841252939 0.38644131952317812 0 0.35529163836958227 0.37818611354175619 0 0.35261866408483361 0.37869584560141778 0 0.36017231089785989 0.37712452852947692 0 0.35868648353487409 0.37516315431031549 0 0.35529163836958227 0.37818611354175619 0 0.35868648353487409 0.37516315431031549 0 0.35529163836958227 0.37818611354175619 0 0.35261866408483361 0.37869584560141778 0 0.35529163836958227 0.37818611354175619 0 0.35261866408483361 0.37869584560141778 0 0.34345181400093833 0.40410765142702532 0 0.34922779513343799 0.41021581123633288 0 0.35084184615539599 0.39521233175235648 0 0.34922779513343799 0.41021581123633288 0 0.35084184615539599 0.39521233175235648 0 0.35232269257337728 0.40183564814500938 0 0.34922779513343799 0.41021581123633288 0 0.35084184615539599 0.39521233175235648 0 0.34922779513343799 0.41021581123633288 0 0.35232269257337728 0.40183564814500938 0 0.36469455404433998 0.40078955296545909 0 0.35084184615539599 0.39521233175235648 0 0.35232269257337728 0.40183564814500938 0 0.35665550929014728 0.40766554977985181 0 0.36469455404433998 0.40078955296545909 0 0.35232269257337728 0.40183564814500938 0 0.36469455404433998 0.40078955296545909 0 0.36061262841252939 0.38644131952317812 0 0.35084184615539599 0.39521233175235648 0 0.36469455404433998 0.40078955296545909 0 0.35084184615539599 0.39521233175235648 0 0.35261866408483361 0.37869584560141778 0 0.35525717317196592 0.35416947287929601 0 0.36176585287231028 0.36616847762762178 0 0.35261866408483361 0.37869584560141778 0 0.35525717317196592 0.35416947287929601 0 0.35261866408483361 0.37869584560141778 0 0.35525717317196592 0.35416947287929601 0 0.3384068997072982 0.36300406729405571 0 0.35868648353487409 0.37516315431031549 0 0.35261866408483361 0.37869584560141778 0 0.36176585287231028 0.36616847762762178 0 0.36750857713992108 0.3537846113340038 0 0.37675792062718638 0.37815384277833602 0 0.36176585287231028 0.36616847762762178 0 0.36750857713992108 0.3537846113340038 0 0.37675792062718638 0.37815384277833602 0 0.36393955273918932 0.37528768725162948 0 0.35868648353487409 0.37516315431031549 0 0.36176585287231028 0.36616847762762178 0 0.36393955273918932 0.37528768725162948 0 0.36176585287231028 0.36616847762762178 0 0.37675792062718638 0.37815384277833602 0 0.35525717317196592 0.35416947287929601 0 0.36750857713992108 0.3537846113340038 0 0.35799505733488929 0.32871935494058979 0 0.35525717317196592 0.35416947287929601 0 0.36176585287231028 0.36616847762762178 0 0.36750857713992108 0.3537846113340038 0 0.36750857713992108 0.3537846113340038 0 0.35799505733488929 0.32871935494058979 0 0.38420205096489068 0.33725307481449718 0 0.36750857713992108 0.3537846113340038 0 0.35799505733488929 0.32871935494058979 0 0.35875390306228438 0.32166547241297411 0 0.36474864726438883 0.30779131183543151 0 0.37947273115930158 0.31612773084583762 0 0.35799505733488929 0.32871935494058979 0 0.37947273115930158 0.31612773084583762 0 0.35799505733488929 0.32871935494058979 0 0.37947273115930158 0.31612773084583762 0 0.38420205096489068 0.33725307481449718 0 0.35875390306228438 0.32166547241297411 0 0.35799505733488929 0.32871935494058979 0 0.37947273115930158 0.31612773084583762 0 0.35875390306228438 0.32166547241297411 0 0.35799505733488929 0.32871935494058979 0 0.35044737974941947 0.30883350010118948 0 0.35799505733488929 0.32871935494058979 0 0.35044737974941947 0.30883350010118948 0 0.35799505733488929 0.32871935494058979 0 0.34089489585500948 0.32734696404219982 0 0.35044737974941947 0.30883350010118948 0 0.35875390306228438 0.32166547241297411 0 0.35044737974941947 0.30883350010118948 0 0.36474864726438883 0.30779131183543151 0 0.35875390306228438 0.32166547241297411 0 0.35799505733488929 0.32871935494058979 0 0.35525717317196592 0.35416947287929601 0 0.35799505733488929 0.32871935494058979 0 0.35525717317196592 0.35416947287929601 0 0.35799505733488929 0.32871935494058979 0 0.33554130491425049 0.34364537020522617 0 0.35799505733488929 0.32871935494058979 0 0.33554130491425049 0.34364537020522617 0 0.35799505733488929 0.32871935494058979 0 0.33554130491425049 0.34364537020522617 0 0.34089489585500948 0.32734696404219982 0 0.33554130491425049 0.34364537020522617 0 0.34089489585500948 0.32734696404219982 0 0.31637042485622829 0.33755144864420961 0 0.34089489585500948 0.32734696404219982 0 0.32729565910061981 0.30380007860725577 0 0.35044737974941947 0.30883350010118948 0 0.34089489585500948 0.32734696404219982 0 0.31637042485622829 0.33755144864420961 0 0.31169161603729217 0.31865251195272248 0 0.34089489585500948 0.32734696404219982 0 0.31169161603729217 0.31865251195272248 0 0.32729565910061981 0.30380007860725577 0 0.33554130491425049 0.34364537020522617 0 0.31318692756940181 0.35764764025327728 0 0.31888637851447282 0.3656947337742919 0 0.33554130491425049 0.34364537020522617 0 0.31318692756940181 0.35764764025327728 0 0.33554130491425049 0.34364537020522617 0 0.31637042485622829 0.33755144864420961 0 0.31318692756940181 0.35764764025327728 0 0.33554130491425049 0.34364537020522617 0 0.3384068997072982 0.36300406729405571 0 0.31888637851447282 0.3656947337742919 0 0.35525717317196592 0.35416947287929601 0 0.33554130491425049 0.34364537020522617 0 0.3384068997072982 0.36300406729405571 0 0.35261866408483361 0.37869584560141778 0 0.3384068997072982 0.36300406729405571 0 0.33337172129639098 0.37290727123995998 0 0.3384068997072982 0.36300406729405571 0 0.33337172129639098 0.37290727123995998 0 0.31888637851447282 0.3656947337742919 0 0.32357494287895933 0.38423443829007331 0 0.33337172129639098 0.37290727123995998 0 0.31888637851447282 0.3656947337742919 0 0.30749424876769399 0.37776021036021368 0 0.31318692756940181 0.35764764025327728 0 0.31888637851447282 0.3656947337742919 0 0.31318692756940181 0.35764764025327728 0 0.31888637851447282 0.3656947337742919 0 0.30749424876769399 0.37776021036021368 0 0.29141355465642949 0.37128598243035221 0 0.31318692756940181 0.35764764025327728 0 0.29141355465642949 0.37128598243035221 0 0.31318692756940181 0.35764764025327728 0 0.29580212613284329 0.35323999666502609 0 0.29141355465642949 0.37128598243035221 0 0.30749424876769399 0.37776021036021368 0 0.31318692756940181 0.35764764025327728 0 0.29141355465642949 0.37128598243035221 0 0.31318692756940181 0.35764764025327728 0 0.29580212613284329 0.35323999666502609 0 0.29608757297396748 0.33350494529819191 0 0.31318692756940181 0.35764764025327728 0 0.29608757297396748 0.33350494529819191 0 0.29580212613284329 0.35323999666502609 0 0.28144580026760568 0.34744145856581499 0 0.29608757297396748 0.33350494529819191 0 0.29580212613284329 0.35323999666502609 0 0.28144580026760568 0.34744145856581499 0 0.29141355465642949 0.37128598243035221 0 0.29141355465642949 0.37128598243035221 0 0.27591901341692238 0.37441650510354701 0 0.26680402756124322 0.36137797183343717 0 0.28144580026760568 0.34744145856581499 0 0.29141355465642949 0.37128598243035221 0 0.26680402756124322 0.36137797183343717 0 0.29141355465642949 0.37128598243035221 0 0.26680402756124322 0.36137797183343717 0 0.27591901341692238 0.37441650510354701 0 0.26941439732270939 0.36946165233206879 0 0.26680402756124322 0.36137797183343717 0 0.26837172319450731 0.3769461401335874 0 0.27591901341692238 0.37441650510354701 0 0.26941439732270939 0.36946165233206879 0 0.26181329345657522 0.37691503834552981 0 0.26837172319450731 0.3769461401335874 0 0.26941439732270939 0.36946165233206879 0 0.26941439732270939 0.36946165233206879 0 0.26680402756124322 0.36137797183343717 0 0.26645843804256558 0.36580672261547981 0 0.28144580026760568 0.34744145856581499 0 0.26680402756124322 0.36137797183343717 0 0.28144580026760568 0.34744145856581499 0 0.26680402756124322 0.36137797183343717 0 0.25971692118216738 0.34615409171956241 0 0.2440582327322583 0.35222031612841931 0 0.26680402756124322 0.36137797183343717 0 0.2440582327322583 0.35222031612841931 0 0.26680402756124322 0.36137797183343717 0 0.25971692118216738 0.34615409171956241 0 0.24747677625636461 0.37455452473917239 0 0.2440582327322583 0.35222031612841931 0 0.25930002668088348 0.36686812741821723 0 0.2440582327322583 0.35222031612841931 0 0.26680402756124322 0.36137797183343717 0 0.25930002668088348 0.36686812741821723 0 0.24747677625636461 0.37455452473917239 0 0.26181329345657522 0.37691503834552981 0 0.25930002668088348 0.36686812741821723 0 0.26181329345657522 0.37691503834552981 0 0.26941439732270939 0.36946165233206879 0 0.25930002668088348 0.36686812741821723 0 0.26941439732270939 0.36946165233206879 0 0.26645843804256558 0.36580672261547981 0 0.25930002668088348 0.36686812741821723 0 0.26680402756124322 0.36137797183343717 0 0.26645843804256558 0.36580672261547981 0 0.25930002668088348 0.36686812741821723 0 0.2446011947163689 0.31609853100590518 0 0.26487335329619371 0.32987524543359009 0 0.26222012181745041 0.31157493719799878 0 0.24170864177338369 0.33507419302134078 0 0.2446011947163689 0.31609853100590518 0 0.26487335329619371 0.32987524543359009 0 0.24170864177338369 0.33507419302134078 0 0.25971692118216738 0.34615409171956241 0 0.26487335329619371 0.32987524543359009 0 0.28144580026760568 0.34744145856581499 0 0.25971692118216738 0.34615409171956241 0 0.26487335329619371 0.32987524543359009 0 0.28144580026760568 0.34744145856581499 0 0.26487335329619371 0.32987524543359009 0 0.28058430854568811 0.33187675333166411 0 0.26487335329619371 0.32987524543359009 0 0.28192927647178379 0.31351475025145897 0 0.26222012181745041 0.31157493719799878 0 0.26487335329619371 0.32987524543359009 0 0.28058430854568811 0.33187675333166411 0 0.28192927647178379 0.31351475025145897 0 0.28192927647178379 0.31351475025145897 0 0.29608757297396748 0.33350494529819191 0 0.28192927647178379 0.31351475025145897 0 0.29608757297396748 0.33350494529819191 0 0.29741194508904639 0.30941548135862912 0 0.28058430854568811 0.33187675333166411 0 0.28192927647178379 0.31351475025145897 0 0.29608757297396748 0.33350494529819191 0 0.28144580026760568 0.34744145856581499 0 0.29608757297396748 0.33350494529819191 0 0.28144580026760568 0.34744145856581499 0 0.28058430854568811 0.33187675333166411 0 0.29608757297396748 0.33350494529819191 0 0.31637042485622829 0.33755144864420961 0 0.29608757297396748 0.33350494529819191 0 0.31169161603729217 0.31865251195272248 0 0.31637042485622829 0.33755144864420961 0 0.31318692756940181 0.35764764025327728 0 0.29608757297396748 0.33350494529819191 0 0.29608757297396748 0.33350494529819191 0 0.31169161603729217 0.31865251195272248 0 0.29741194508904639 0.30941548135862912 0 0.29608757297396748 0.33350494529819191 0 0.31169161603729217 0.31865251195272248 0 0.31169161603729217 0.31865251195272248 0 0.29741194508904639 0.30941548135862912 0 0.30527952754144649 0.29241556647412748 0 0.30527952754144649 0.29241556647412748 0 0.28659742013731793 0.29293925805606641 0 0.29239440064035382 0.27262844354298282 0 0.28192927647178379 0.31351475025145897 0 0.29741194508904639 0.30941548135862912 0 0.28659742013731793 0.29293925805606641 0 0.29741194508904639 0.30941548135862912 0 0.30527952754144649 0.29241556647412748 0 0.28659742013731793 0.29293925805606641 0 0.28192927647178379 0.31351475025145897 0 0.28659742013731793 0.29293925805606641 0 0.26777097996959959 0.29352455520472642 0 0.28192927647178379 0.31351475025145897 0 0.26777097996959959 0.29352455520472642 0 0.26222012181745041 0.31157493719799878 0 0.28192927647178379 0.31351475025145897 0 0.26777097996959959 0.29352455520472642 0 0.28659742013731793 0.29293925805606641 0 0.26777097996959959 0.29352455520472642 0 0.27417060300577939 0.27658969017871859 0 0.26777097996959959 0.29352455520472642 0 0.25977796481637089 0.28206959852345359 0 0.27417060300577939 0.27658969017871859 0 0.24482817571085241 0.27603777433509602 0 0.24727529996386621 0.29433480603965467 0 0.25977796481637089 0.28206959852345359 0 0.24727529996386621 0.29433480603965467 0 0.26777097996959959 0.29352455520472642 0 0.25977796481637089 0.28206959852345359 0 0.24727529996386621 0.29433480603965467 0 0.26777097996959959 0.29352455520472642 0 0.26222012181745041 0.31157493719799878 0 0.24727529996386621 0.29433480603965467 0 0.2446011947163689 0.31609853100590518 0 0.26222012181745041 0.31157493719799878 0 0.254662193301321 0.26241070858705712 0 0.27732307966824282 0.25804090131194718 0 0.26414982602066872 0.24857322833329409 0 0.24815670256054939 0.24315182117073661 0 0.254662193301321 0.26241070858705712 0 0.26414982602066872 0.24857322833329409 0 0.24815670256054939 0.24315182117073661 0 0.254662193301321 0.26241070858705712 0 0.254662193301321 0.26241070858705712 0 0.25743959003744238 0.27063292781429749 0 0.27732307966824282 0.25804090131194718 0 0.25977796481637089 0.28206959852345359 0 0.25743959003744238 0.27063292781429749 0 0.27417060300577939 0.27658969017871859 0 0.254662193301321 0.26241070858705712 0 0.25743959003744238 0.27063292781429749 0 0.24482817571085241 0.27603777433509602 0 0.254662193301321 0.26241070858705712 0 0.25743959003744238 0.27063292781429749 0 0.24482817571085241 0.27603777433509602 0 0.25977796481637089 0.28206959852345359 0 0.25743959003744238 0.27063292781429749 0 0.25743959003744238 0.27063292781429749 0 0.27417060300577939 0.27658969017871859 0 0.27732307966824282 0.25804090131194718 0 0.254662193301321 0.26241070858705712 0 0.27732307966824282 0.25804090131194718 0 0.27732307966824282 0.25804090131194718 0 0.29998396603516408 0.25367109403683469 0 0.27732307966824282 0.25804090131194718 0 0.29998396603516408 0.25367109403683469 0 0.28730261761608678 0.2401147541676211 0 0.27732307966824282 0.25804090131194718 0 0.29239440064035382 0.27262844354298282 0 0.29998396603516408 0.25367109403683469 0 0.28659742013731793 0.29293925805606641 0 0.27417060300577939 0.27658969017871859 0 0.29239440064035382 0.27262844354298282 0 0.27417060300577939 0.27658969017871859 0 0.27732307966824282 0.25804090131194718 0 0.29239440064035382 0.27262844354298282 0 0.30527952754144649 0.29241556647412748 0 0.29239440064035382 0.27262844354298282 0 0.31238282707830961 0.26692545538212981 0 0.31238282707830961 0.26692545538212981 0 0.29998396603516408 0.25367109403683469 0 0.319878312741532 0.24983477185757469 0 0.29239440064035382 0.27262844354298282 0 0.31238282707830961 0.26692545538212981 0 0.29998396603516408 0.25367109403683469 0 0.29998396603516408 0.25367109403683469 0 0.319878312741532 0.24983477185757469 0 0.31238282707830961 0.26692545538212981 0 0.29998396603516408 0.25367109403683469 0 0.31238282707830961 0.26692545538212981 0 0.32362715348194332 0.26166790106302301 0 0.319878312741532 0.24983477185757469 0 0.32362715348194332 0.26166790106302301 0 0.319878312741532 0.24983477185757469 0 0.32647148921477381 0.24566425718927959 0 0.33468559568936168 0.2673059512255343 0 0.32647148921477381 0.24566425718927959 0 0.3417052103372209 0.25064254883263209 0 0.33468559568936168 0.2673059512255343 0 0.32647148921477381 0.24566425718927959 0 0.3417052103372209 0.25064254883263209 0 0.33468559568936168 0.2673059512255343 0 0.34922072153091338 0.2609775492369788 0 0.32362715348194332 0.26166790106302301 0 0.33468559568936168 0.2673059512255343 0 0.32647148921477381 0.24566425718927959 0 0.33468559568936168 0.2673059512255343 0 0.32436174417593788 0.28017709966897653 0 0.34289970216394772 0.28894764526178979 0 0.33468559568936168 0.2673059512255343 0 0.34522328268426822 0.28673598610006851 0 0.34846970544956279 0.27504800600357399 0 0.33468559568936168 0.2673059512255343 0 0.34289970216394772 0.28894764526178979 0 0.33468559568936168 0.2673059512255343 0 0.34289970216394772 0.28894764526178979 0 0.34522328268426822 0.28673598610006851 0 0.32362715348194332 0.26166790106302301 0 0.33468559568936168 0.2673059512255343 0 0.32436174417593788 0.28017709966897653 0 0.30527952754144649 0.29241556647412748 0 0.31238282707830961 0.26692545538212981 0 0.32436174417593788 0.28017709966897653 0 0.31238282707830961 0.26692545538212981 0 0.32362715348194332 0.26166790106302301 0 0.32436174417593788 0.28017709966897653 0 0.30527952754144649 0.29241556647412748 0 0.32436174417593788 0.28017709966897653 0 0.32729565910061981 0.30380007860725577 0 0.31169161603729217 0.31865251195272248 0 0.30527952754144649 0.29241556647412748 0 0.32729565910061981 0.30380007860725577 0 0.31169161603729217 0.31865251195272248 0 0.32729565910061981 0.30380007860725577 0 0.32729565910061981 0.30380007860725577 0 0.34289970216394772 0.28894764526178979 0 0.35044737974941947 0.30883350010118948 0 0.32436174417593788 0.28017709966897653 0 0.32729565910061981 0.30380007860725577 0 0.34289970216394772 0.28894764526178979 0 0.32729565910061981 0.30380007860725577 0 0.34289970216394772 0.28894764526178979 0 0.35081213470634531 0.28252991009512352 0 0.34522328268426822 0.28673598610006851 0 0.34846970544956279 0.27504800600357399 0 0.34289970216394772 0.28894764526178979 0 0.34522328268426822 0.28673598610006851 0 0.35258797950912768 0.28802597536276542 0 0.35081213470634531 0.28252991009512352 0 0.34522328268426822 0.28673598610006851 0 0.35258797950912768 0.28802597536276542 0 0.34289970216394772 0.28894764526178979 0 0.34522328268426822 0.28673598610006851 0 0.34289970216394772 0.28894764526178979 0 0.35258797950912768 0.28802597536276542 0 0.35505401293201128 0.29726042232628902 0 0.35258797950912768 0.28802597536276542 0 0.35505401293201128 0.29726042232628902 0 0.36361781506205909 0.29152376882599462 0 0.35258797950912768 0.28802597536276542 0 0.36361781506205909 0.29152376882599462 0 0.35696757118242223 0.28030967291408587 0 0.35081213470634531 0.28252991009512352 0 0.35258797950912768 0.28802597536276542 0 0.35696757118242223 0.28030967291408587 0 0.34289970216394772 0.28894764526178979 0 0.35044737974941947 0.30883350010118948 0 0.35505401293201128 0.29726042232628902 0 0.34289970216394772 0.28894764526178979 0 0.35044737974941947 0.30883350010118948 0 0.35044737974941947 0.30883350010118948 0 0.35505401293201128 0.29726042232628902 0 0.36474864726438883 0.30779131183543151 0 0.35505401293201128 0.29726042232628902 0 0.36474864726438883 0.30779131183543151 0 0.36361781506205909 0.29152376882599462 0 0.36474864726438883 0.30779131183543151 0 0.37351704282998233 0.30111727788419629 0 0.36361781506205909 0.29152376882599462 0 0.36474864726438883 0.30779131183543151 0 0.37351704282998233 0.30111727788419629 0 0.37947273115930158 0.31612773084583762 0 0.36361781506205909 0.29152376882599462 0 0.36761525543515522 0.27850014778505988 0 0.35696757118242223 0.28030967291408587 0 0.37351704282998233 0.30111727788419629 0 0.36361781506205909 0.29152376882599462 0 0.37366945645780941 0.28879187505770099 0 0.37366945645780941 0.28879187505770099 0 0.36761525543515522 0.27850014778505988 0 0.3789118174431978 0.27717644893189469 0 0.36361781506205909 0.29152376882599462 0 0.37366945645780941 0.28879187505770099 0 0.36761525543515522 0.27850014778505988 0 0.36761525543515522 0.27850014778505988 0 0.37196738214050218 0.26483261290147492 0 0.3789118174431978 0.27717644893189469 0 0.36761525543515522 0.27850014778505988 0 0.35696757118242223 0.28030967291408587 0 0.35873279296246419 0.26900052412775688 0 0.36761525543515522 0.27850014778505988 0 0.37196738214050218 0.26483261290147492 0 0.35873279296246419 0.26900052412775688 0 0.37196738214050218 0.26483261290147492 0 0.36238086709329498 0.25833936142174968 0 0.37620184814355162 0.25053821619171168 0 0.36238086709329498 0.25833936142174968 0 0.37620184814355162 0.25053821619171168 0 0.3557815906890433 0.24634790465082609 0 0.37196738214050218 0.26483261290147492 0 0.36238086709329498 0.25833936142174968 0 0.35873279296246419 0.26900052412775688 0 0.36238086709329498 0.25833936142174968 0 0.34922072153091338 0.2609775492369788 0 0.35873279296246419 0.26900052412775688 0 0.36238086709329498 0.25833936142174968 0 0.34922072153091338 0.2609775492369788 0 0.3557815906890433 0.24634790465082609 0 0.3417052103372209 0.25064254883263209 0 0.34922072153091338 0.2609775492369788 0 0.3557815906890433 0.24634790465082609 0 0.33468559568936168 0.2673059512255343 0 0.34922072153091338 0.2609775492369788 0 0.34846970544956279 0.27504800600357399 0 0.34846970544956279 0.27504800600357399 0 0.35696757118242223 0.28030967291408587 0 0.35873279296246419 0.26900052412775688 0 0.35081213470634531 0.28252991009512352 0 0.34846970544956279 0.27504800600357399 0 0.35696757118242223 0.28030967291408587 0 0.34922072153091338 0.2609775492369788 0 0.34846970544956279 0.27504800600357399 0 0.35873279296246419 0.26900052412775688 0 0.39116263683550778 0.2755901868848657 0 0.39927167776821948 0.2717737920461839 0 0.4000301351931943 0.28843099269507261 0 0.39927167776821948 0.2717737920461839 0 0.4000301351931943 0.28843099269507261 0 0.39927167776821948 0.2717737920461839 0 0.4000301351931943 0.28843099269507261 0 0.41181653281371838 0.28049066678628659 0 0.39116263683550778 0.2755901868848657 0 0.39927167776821948 0.2717737920461839 0 0.38643691693741861 0.26497951386631169 0 0.39927167776821948 0.2717737920461839 0 0.39662210559805988 0.25472852773259741 0 0.38643691693741861 0.26497951386631169 0 0.3985132203432426 0.25511659139729542 0 0.39841345742274581 0.25292560357210431 0 0.42132370389524187 0.25979738607846348 0 0.39927167776821948 0.2717737920461839 0 0.3985132203432426 0.25511659139729542 0 0.39662210559805988 0.25472852773259741 0 0.39927167776821948 0.2717737920461839 0 0.3985132203432426 0.25511659139729542 0 0.3985132203432426 0.25511659139729542 0 0.39841345742274581 0.25292560357210431 0 0.39841345742274581 0.25292560357210431 0 0.39662210559805988 0.25472852773259741 0 0.3890583669794983 0.24542194912678009 0 0.39841345742274581 0.25292560357210431 0 0.39662210559805988 0.25472852773259741 0 0.3985132203432426 0.25511659139729542 0 0.39841345742274581 0.25292560357210431 0 0.39662210559805988 0.25472852773259741 0 0.3985132203432426 0.25511659139729542 0 0.39662210559805988 0.25472852773259741 0 0.39662210559805988 0.25472852773259741 0 0.38643691693741861 0.26497951386631169 0 0.39662210559805988 0.25472852773259741 0 0.38643691693741861 0.26497951386631169 0 0.37620184814355162 0.25053821619171168 0 0.39662210559805988 0.25472852773259741 0 0.37620184814355162 0.25053821619171168 0 0.39662210559805988 0.25472852773259741 0 0.37620184814355162 0.25053821619171168 0 0.3890583669794983 0.24542194912678009 0 0.37196738214050218 0.26483261290147492 0 0.38643691693741861 0.26497951386631169 0 0.37620184814355162 0.25053821619171168 0 0.39116263683550778 0.2755901868848657 0 0.3789118174431978 0.27717644893189469 0 0.4000301351931943 0.28843099269507261 0 0.37196738214050218 0.26483261290147492 0 0.38643691693741861 0.26497951386631169 0 0.3789118174431978 0.27717644893189469 0 0.39116263683550778 0.2755901868848657 0 0.38643691693741861 0.26497951386631169 0 0.3789118174431978 0.27717644893189469 0 0.3789118174431978 0.27717644893189469 0 0.4000301351931943 0.28843099269507261 0 0.3789118174431978 0.27717644893189469 0 0.38468535151865291 0.29564173186135928 0 0.4000301351931943 0.28843099269507261 0 0.37366945645780941 0.28879187505770099 0 0.3789118174431978 0.27717644893189469 0 0.38468535151865291 0.29564173186135928 0 0.37351704282998233 0.30111727788419629 0 0.37366945645780941 0.28879187505770099 0 0.38468535151865291 0.29564173186135928 0 0.38468535151865291 0.29564173186135928 0 0.40068622866595588 0.30284008180200472 0 0.37947273115930158 0.31612773084583762 0 0.37351704282998233 0.30111727788419629 0 0.38468535151865291 0.29564173186135928 0 0.37947273115930158 0.31612773084583762 0 0.40068622866595588 0.30284008180200472 0 0.37947273115930158 0.31612773084583762 0 0.40068622866595588 0.30284008180200472 0 0.40116360651699168 0.31332422816026012 0 0.37947273115930158 0.31612773084583762 0 0.40068622866595588 0.30284008180200472 0 0.40116360651699168 0.31332422816026012 0 0.40068622866595588 0.30284008180200472 0 0.41142841305581079 0.30984461132358138 0 0.40116360651699168 0.31332422816026012 0 0.38468535151865291 0.29564173186135928 0 0.40068622866595588 0.30284008180200472 0 0.4000301351931943 0.28843099269507261 0 0.40068622866595588 0.30284008180200472 0 0.4000301351931943 0.28843099269507261 0 0.40068622866595588 0.30284008180200472 0 0.4000301351931943 0.28843099269507261 0 0.41281369879437718 0.29524371223562013 0 0.4000301351931943 0.28843099269507261 0 0.41281369879437718 0.29524371223562013 0 0.41181653281371838 0.28049066678628659 0 0.4000301351931943 0.28843099269507261 0 0.41281369879437718 0.29524371223562013 0 0.41281369879437718 0.29524371223562013 0 0.42564344841755969 0.28720745087609262 0 0.41281369879437718 0.29524371223562013 0 0.42564344841755969 0.28720745087609262 0 0.41181653281371838 0.28049066678628659 0 0.41281369879437718 0.29524371223562013 0 0.41142841305581079 0.30984461132358138 0 0.42820240383763569 0.30344478470826042 0 0.41142841305581079 0.30984461132358138 0 0.42820240383763569 0.30344478470826042 0 0.41756553408125352 0.32287271157873498 0 0.40068622866595588 0.30284008180200472 0 0.41281369879437718 0.29524371223562013 0 0.41142841305581079 0.30984461132358138 0 0.40068622866595588 0.30284008180200472 0 0.41281369879437718 0.29524371223562013 0 0.41281369879437718 0.29524371223562013 0 0.42820240383763569 0.30344478470826042 0 0.41281369879437718 0.29524371223562013 0 0.42820240383763569 0.30344478470826042 0 0.42564344841755969 0.28720745087609262 0 0.42820240383763569 0.30344478470826042 0 0.42564344841755969 0.28720745087609262 0 0.44084719607201039 0.29447384543304178 0 0.42564344841755969 0.28720745087609262 0 0.44560545288826442 0.27470370841047648 0 0.44084719607201039 0.29447384543304178 0 0.42820240383763569 0.30344478470826042 0 0.42564344841755969 0.28720745087609262 0 0.42564344841755969 0.28720745087609262 0 0.42132370389524187 0.25979738607846348 0 0.43330983429563569 0.26225698389005858 0 0.42564344841755969 0.28720745087609262 0 0.42132370389524187 0.25979738607846348 0 0.42564344841755969 0.28720745087609262 0 0.43330983429563569 0.26225698389005858 0 0.44560545288826442 0.27470370841047648 0 0.42564344841755969 0.28720745087609262 0 0.44560545288826442 0.27470370841047648 0 0.42564344841755969 0.28720745087609262 0 0.41181653281371838 0.28049066678628659 0 0.42132370389524187 0.25979738607846348 0 0.39927167776821948 0.2717737920461839 0 0.41181653281371838 0.28049066678628659 0 0.42132370389524187 0.25979738607846348 0 0.3985132203432426 0.25511659139729542 0 0.42132370389524187 0.25979738607846348 0 0.39927167776821948 0.2717737920461839 0 0.3985132203432426 0.25511659139729542 0 0.42132370389524187 0.25979738607846348 0 0.42132370389524187 0.25979738607846348 0 0.43330983429563569 0.26225698389005858 0 0.42703560437835469 0.24566011175496391 0 0.43330983429563569 0.26225698389005858 0 0.42703560437835469 0.24566011175496391 0 0.442195627131173 0.24729168846505481 0 0.42132370389524187 0.25979738607846348 0 0.43330983429563569 0.26225698389005858 0 0.44666959291851049 0.26161308667761263 0 0.46556745735896921 0.26219996594486039 0 0.442195627131173 0.24729168846505481 0 0.43330983429563569 0.26225698389005858 0 0.44666959291851049 0.26161308667761263 0 0.442195627131173 0.24729168846505481 0 0.44666959291851049 0.26161308667761263 0 0.44560545288826442 0.27470370841047648 0 0.46556745735896921 0.26219996594486039 0 0.43330983429563569 0.26225698389005858 0 0.44666959291851049 0.26161308667761263 0 0.44560545288826442 0.27470370841047648 0 0.46391349439845292 0.27798786848918239 0 0.46556745735896921 0.26219996594486039 0 0.47496927843754982 0.26819714100940789 0 0.44560545288826442 0.27470370841047648 0 0.46391349439845292 0.27798786848918239 0 0.46556745735896921 0.26219996594486039 0 0.44560545288826442 0.27470370841047648 0 0.46556745735896921 0.26219996594486039 0 0.46556745735896921 0.26219996594486039 0 0.45740662195574372 0.24845115420521979 0 0.442195627131173 0.24729168846505481 0 0.46556745735896921 0.26219996594486039 0 0.46719891760118343 0.24306283654326999 0 0.45740662195574372 0.24845115420521979 0 0.46556745735896921 0.26219996594486039 0 0.442195627131173 0.24729168846505481 0 0.46556745735896921 0.26219996594486039 0 0.48040344773885341 0.25290704131874492 0 0.48040344773885341 0.25290704131874492 0 0.47496927843754982 0.26819714100940789 0 0.48552205068712873 0.27292070596303603 0 0.48040344773885341 0.25290704131874492 0 0.48552205068712873 0.27292070596303603 0 0.46556745735896921 0.26219996594486039 0 0.48040344773885341 0.25290704131874492 0 0.46719891760118343 0.24306283654326999 0 0.46556745735896921 0.26219996594486039 0 0.48040344773885341 0.25290704131874492 0 0.47496927843754982 0.26819714100940789 0 0.46556745735896921 0.26219996594486039 0 0.47496927843754982 0.26819714100940789 0 0.46391349439845292 0.27798786848918239 0 0.47496927843754982 0.26819714100940789 0 0.47629332017556708 0.27938873541322279 0 0.47629332017556708 0.27938873541322279 0 0.48552205068712873 0.27292070596303603 0 0.48573656010562 0.28718545968085168 0 0.47496927843754982 0.26819714100940789 0 0.47629332017556708 0.27938873541322279 0 0.48552205068712873 0.27292070596303603 0 0.48552205068712873 0.27292070596303603 0 0.5 0.26405331248097341 0 0.50000000000000155 0.2874744152136921 0 0.48040344773885341 0.25290704131874492 0 0.5 0.26405331248097341 0 0.49999999999999512 0.24063220974825469 0 0.48040344773885341 0.25290704131874492 0 0.48552205068712873 0.27292070596303603 0 0.5 0.26405331248097341 0 0.48725593367059372 0.30483171909648488 0 0.50000000000000155 0.2874744152136921 0 0.5 0.3143423395860625 0 0.48725593367059372 0.30483171909648488 0 0.50000000000000155 0.2874744152136921 0 0.48573656010562 0.28718545968085168 0 0.48725593367059372 0.30483171909648488 0 0.50000000000000155 0.2874744152136921 0 0.48552205068712873 0.27292070596303603 0 0.50000000000000155 0.2874744152136921 0 0.48573656010562 0.28718545968085168 0 0.48725593367059372 0.30483171909648488 0 0.48573656010562 0.28718545968085168 0 0.47209295363110088 0.29063199843061988 0 0.47629332017556708 0.27938873541322279 0 0.48573656010562 0.28718545968085168 0 0.47209295363110088 0.29063199843061988 0 0.46391349439845292 0.27798786848918239 0 0.47629332017556708 0.27938873541322279 0 0.47209295363110088 0.29063199843061988 0 0.48725593367059372 0.30483171909648488 0 0.46772908597189428 0.30493320473535229 0 0.47451186734118472 0.32218902297927687 0 0.48725593367059372 0.30483171909648488 0 0.47209295363110088 0.29063199843061988 0 0.46772908597189428 0.30493320473535229 0 0.46772908597189428 0.30493320473535229 0 0.45648772313758512 0.29285955018029503 0 0.44829695207900683 0.31415373299008448 0 0.44560545288826442 0.27470370841047648 0 0.46391349439845292 0.27798786848918239 0 0.45648772313758512 0.29285955018029503 0 0.46391349439845292 0.27798786848918239 0 0.47209295363110088 0.29063199843061988 0 0.45648772313758512 0.29285955018029503 0 0.47209295363110088 0.29063199843061988 0 0.46772908597189428 0.30493320473535229 0 0.45648772313758512 0.29285955018029503 0 0.44560545288826442 0.27470370841047648 0 0.45648772313758512 0.29285955018029503 0 0.44084719607201039 0.29447384543304178 0 0.45648772313758512 0.29285955018029503 0 0.44084719607201039 0.29447384543304178 0 0.44829695207900683 0.31415373299008448 0 0.42820240383763569 0.30344478470826042 0 0.44084719607201039 0.29447384543304178 0 0.44829695207900683 0.31415373299008448 0 0.42820240383763569 0.30344478470826042 0 0.44829695207900683 0.31415373299008448 0 0.44829695207900683 0.31415373299008448 0 0.44850879420790091 0.33031081036512339 0 0.4323579913070591 0.32981322414272318 0 0.44850879420790091 0.33031081036512339 0 0.46176780101177572 0.33954632686206893 0 0.43651357877648173 0.35618166357718589 0 0.44850879420790091 0.33031081036512339 0 0.43651357877648173 0.35618166357718589 0 0.4323579913070591 0.32981322414272318 0 0.46176780101177572 0.33954632686206893 0 0.47451186734118472 0.32218902297927687 0 0.44850879420790091 0.33031081036512339 0 0.46176780101177572 0.33954632686206893 0 0.47451186734118472 0.32218902297927687 0 0.44829695207900683 0.31415373299008448 0 0.44850879420790091 0.33031081036512339 0 0.47451186734118472 0.32218902297927687 0 0.46772908597189428 0.30493320473535229 0 0.44829695207900683 0.31415373299008448 0 0.47451186734118472 0.32218902297927687 0 0.48725593367059372 0.30483171909648488 0 0.47451186734118472 0.32218902297927687 0 0.49018383854513481 0.32777630177224781 0 0.48725593367059372 0.30483171909648488 0 0.47451186734118472 0.32218902297927687 0 0.46176780101177572 0.33954632686206893 0 0.47451186734118472 0.32218902297927687 0 0.47933379756785699 0.34140498900125238 0 0.47451186734118472 0.32218902297927687 0 0.47933379756785699 0.34140498900125238 0 0.49018383854513481 0.32777630177224781 0 0.47933379756785699 0.34140498900125238 0 0.5 0.3412102639584329 0 0.49018383854513481 0.32777630177224781 0 0.48725593367059372 0.30483171909648488 0 0.5 0.3143423395860625 0 0.49018383854513481 0.32777630177224781 0 0.5 0.3412102639584329 0 0.5 0.3143423395860625 0 0.49018383854513481 0.32777630177224781 0 0.5 0.3680781883308033 0 0.48179370240608688 0.3629921830593057 0 0.49019210403728508 0.37868934532509452 0 0.47933379756785699 0.34140498900125238 0 0.5 0.3412102639584329 0 0.48179370240608688 0.3629921830593057 0 0.5 0.3412102639584329 0 0.5 0.3680781883308033 0 0.48179370240608688 0.3629921830593057 0 0.47933379756785699 0.34140498900125238 0 0.48179370240608688 0.3629921830593057 0 0.46290963333413088 0.35784388956971241 0 0.48179370240608688 0.3629921830593057 0 0.46764620460662831 0.37423555507086709 0 0.46290963333413088 0.35784388956971241 0 0.46764620460662831 0.37423555507086709 0 0.46290963333413088 0.35784388956971241 0 0.4504027156359558 0.37270261984759462 0 0.46176780101177572 0.33954632686206893 0 0.47933379756785699 0.34140498900125238 0 0.46290963333413088 0.35784388956971241 0 0.46176780101177572 0.33954632686206893 0 0.46290963333413088 0.35784388956971241 0 0.43651357877648173 0.35618166357718589 0 0.46290963333413088 0.35784388956971241 0 0.4504027156359558 0.37270261984759462 0 0.43651357877648173 0.35618166357718589 0 0.4504027156359558 0.37270261984759462 0 0.43289124818501051 0.37055541554951571 0 0.43651357877648173 0.35618166357718589 0 0.43289124818501051 0.37055541554951571 0 0.42019433440197951 0.36253599769418338 0 0.43651357877648173 0.35618166357718589 0 0.43289124818501051 0.37055541554951571 0 0.42019433440197951 0.36253599769418338 0 0.42114120199463029 0.37534822865782402 0 0.42019433440197951 0.36253599769418338 0 0.40936083689448038 0.37223343162551892 0 0.40268609966258462 0.35450168846517688 0 0.42019433440197951 0.36253599769418338 0 0.40936083689448038 0.37223343162551892 0 0.42114120199463029 0.37534822865782402 0 0.42019433440197951 0.36253599769418338 0 0.41952270440878631 0.34354354319870672 0 0.40268609966258462 0.35450168846517688 0 0.42019433440197951 0.36253599769418338 0 0.43651357877648173 0.35618166357718589 0 0.41952270440878631 0.34354354319870672 0 0.43651357877648173 0.35618166357718589 0 0.4323579913070591 0.32981322414272318 0 0.43651357877648173 0.35618166357718589 0 0.4323579913070591 0.32981322414272318 0 0.41952270440878631 0.34354354319870672 0 0.4323579913070591 0.32981322414272318 0 0.41756553408125352 0.32287271157873498 0 0.41952270440878631 0.34354354319870672 0 0.42820240383763569 0.30344478470826042 0 0.4323579913070591 0.32981322414272318 0 0.41756553408125352 0.32287271157873498 0 0.42820240383763569 0.30344478470826042 0 0.44829695207900683 0.31415373299008448 0 0.4323579913070591 0.32981322414272318 0 0.42820240383763569 0.30344478470826042 0 0.4323579913070591 0.32981322414272318 0 0.41756553408125352 0.32287271157873498 0 0.40748753845972319 0.32110409161248671 0 0.40507707840378748 0.33151897915406098 0 0.41142841305581079 0.30984461132358138 0 0.41756553408125352 0.32287271157873498 0 0.40748753845972319 0.32110409161248671 0 0.41142841305581079 0.30984461132358138 0 0.40748753845972319 0.32110409161248671 0 0.40116360651699168 0.31332422816026012 0 0.41952270440878631 0.34354354319870672 0 0.40507707840378748 0.33151897915406098 0 0.40268609966258462 0.35450168846517688 0 0.41756553408125352 0.32287271157873498 0 0.41952270440878631 0.34354354319870672 0 0.40507707840378748 0.33151897915406098 0 0.40507707840378748 0.33151897915406098 0 0.38420205096489068 0.33725307481449718 0 0.40268609966258462 0.35450168846517688 0 0.40507707840378748 0.33151897915406098 0 0.39294700319615061 0.32457760199648261 0 0.38420205096489068 0.33725307481449718 0 0.40116360651699168 0.31332422816026012 0 0.39294700319615061 0.32457760199648261 0 0.37947273115930158 0.31612773084583762 0 0.40748753845972319 0.32110409161248671 0 0.40116360651699168 0.31332422816026012 0 0.39294700319615061 0.32457760199648261 0 0.40748753845972319 0.32110409161248671 0 0.40507707840378748 0.33151897915406098 0 0.39294700319615061 0.32457760199648261 0 0.39294700319615061 0.32457760199648261 0 0.37947273115930158 0.31612773084583762 0 0.38420205096489068 0.33725307481449718 0 0.38420205096489068 0.33725307481449718 0 0.38399294558121178 0.36311017513897292 0 0.40268609966258462 0.35450168846517688 0 0.36750857713992108 0.3537846113340038 0 0.38420205096489068 0.33725307481449718 0 0.38399294558121178 0.36311017513897292 0 0.38399294558121178 0.36311017513897292 0 0.38394527534659573 0.37939005855574393 0 0.37675792062718638 0.37815384277833602 0 0.36750857713992108 0.3537846113340038 0 0.38399294558121178 0.36311017513897292 0 0.37675792062718638 0.37815384277833602 0 0.38399294558121178 0.36311017513897292 0 0.39180289836404403 0.3727101372459497 0 0.38394527534659573 0.37939005855574393 0 0.40936083689448038 0.37223343162551892 0 0.39874247428427162 0.36816120712171779 0 0.40268609966258462 0.35450168846517688 0 0.38399294558121178 0.36311017513897292 0 0.39874247428427162 0.36816120712171779 0 0.40268609966258462 0.35450168846517688 0 0.39180289836404403 0.3727101372459497 0 0.39874247428427162 0.36816120712171779 0 0.39989146187639513 0.37666384620650623 0 0.38399294558121178 0.36311017513897292 0 0.39180289836404403 0.3727101372459497 0 0.39874247428427162 0.36816120712171779 0 0.40936083689448038 0.37223343162551892 0 0.39874247428427162 0.36816120712171779 0 0.39989146187639513 0.37666384620650623 0 0.40075116002139921 0.40058682939362261 0 0.40364585118876362 0.3868239537593221 0 0.41203738480301011 0.40897831989642458 0 0.40075116002139921 0.40058682939362261 0 0.39022149425967928 0.38949555174193862 0 0.38600726411445169 0.40252307422266809 0 0.40075116002139921 0.40058682939362261 0 0.40364585118876362 0.3868239537593221 0 0.39022149425967928 0.38949555174193862 0 0.39989146187639513 0.37666384620650623 0 0.38394527534659573 0.37939005855574393 0 0.40906828861275901 0.3836021189918819 0 0.38394527534659573 0.37939005855574393 0 0.40906828861275901 0.3836021189918819 0 0.40364585118876362 0.3868239537593221 0 0.39022149425967928 0.38949555174193862 0 0.38394527534659573 0.37939005855574393 0 0.39180289836404403 0.3727101372459497 0 0.39989146187639513 0.37666384620650623 0 0.38394527534659573 0.37939005855574393 0 0.40364585118876362 0.3868239537593221 0 0.38394527534659573 0.37939005855574393 0 0.40906828861275901 0.3836021189918819 0 0.40936083689448038 0.37223343162551892 0 0.39989146187639513 0.37666384620650623 0 0.40906828861275901 0.3836021189918819 0 0.37675792062718638 0.37815384277833602 0 0.38600726411445169 0.40252307422266809 0 0.39022149425967928 0.38949555174193862 0 0.37675792062718638 0.37815384277833602 0 0.38600726411445169 0.40252307422266809 0 0.39022149425967928 0.38949555174193862 0 0.38394527534659573 0.37939005855574393 0 0.37675792062718638 0.37815384277833602 0 0.36469455404433998 0.40078955296545909 0 0.37675792062718638 0.37815384277833602 0 0.38600726411445169 0.40252307422266809 0 0.37223151748821831 0.41084020965450402 0 0.38600726411445169 0.40252307422266809 0 0.37861464761577213 0.42097987718444929 0 0.38600726411445169 0.40252307422266809 0 0.37861464761577213 0.42097987718444929 0 0.3952566076017171 0.42689230566700059 0 0.37153426722683081 0.44145995112857528 0 0.37861464761577213 0.42097987718444929 0 0.3952566076017171 0.42689230566700059 0 0.40075116002139921 0.40058682939362261 0 0.38600726411445169 0.40252307422266809 0 0.3952566076017171 0.42689230566700059 0 0.38600726411445169 0.40252307422266809 0 0.3952566076017171 0.42689230566700059 0 0.40075116002139921 0.40058682939362261 0 0.3952566076017171 0.42689230566700059 0 0.41203738480301011 0.40897831989642458 0 0.41203738480301011 0.40897831989642458 0 0.4204289184172566 0.43113268603352722 0 0.3952566076017171 0.42689230566700059 0 0.41203738480301011 0.40897831989642458 0 0.4204289184172566 0.43113268603352722 0 0.3952566076017171 0.42689230566700059 0 0.4204289184172566 0.43113268603352722 0 0.41726953345889739 0.44499582122076953 0 0.4204289184172566 0.43113268603352722 0 0.43875867615916969 0.41158190630590308 0 0.44459887638100892 0.44035457189871541 0 0.41203738480301011 0.40897831989642458 0 0.4204289184172566 0.43113268603352722 0 0.43875867615916969 0.41158190630590308 0 0.41954030052852498 0.39576009567631038 0 0.43419130187892241 0.38781417942801988 0 0.43875867615916969 0.41158190630590308 0 0.41203738480301011 0.40897831989642458 0 0.41954030052852498 0.39576009567631038 0 0.43875867615916969 0.41158190630590308 0 0.40364585118876362 0.3868239537593221 0 0.41203738480301011 0.40897831989642458 0 0.41954030052852498 0.39576009567631038 0 0.40364585118876362 0.3868239537593221 0 0.41203738480301011 0.40897831989642458 0 0.40906828861275901 0.3836021189918819 0 0.42114120199463029 0.37534822865782402 0 0.43419130187892241 0.38781417942801988 0 0.41954030052852498 0.39576009567631038 0 0.40906828861275901 0.3836021189918819 0 0.43419130187892241 0.38781417942801988 0 0.40906828861275901 0.3836021189918819 0 0.43419130187892241 0.38781417942801988 0 0.40364585118876362 0.3868239537593221 0 0.41954030052852498 0.39576009567631038 0 0.40906828861275901 0.3836021189918819 0 0.40936083689448038 0.37223343162551892 0 0.40906828861275901 0.3836021189918819 0 0.42114120199463029 0.37534822865782402 0 0.43289124818501051 0.37055541554951571 0 0.42114120199463029 0.37534822865782402 0 0.43419130187892241 0.38781417942801988 0 0.4504027156359558 0.37270261984759462 0 0.43419130187892241 0.38781417942801988 0 0.45931431514508581 0.39202623986415791 0 0.43419130187892241 0.38781417942801988 0 0.45931431514508581 0.39202623986415791 0 0.4504027156359558 0.37270261984759462 0 0.43289124818501051 0.37055541554951571 0 0.43419130187892241 0.38781417942801988 0 0.43419130187892241 0.38781417942801988 0 0.45931431514508581 0.39202623986415791 0 0.43875867615916969 0.41158190630590308 0 0.45931431514508581 0.39202623986415791 0 0.45907954035807741 0.40974717780342601 0 0.43875867615916969 0.41158190630590308 0 0.46838107358155961 0.40125098155739142 0 0.45931431514508581 0.39202623986415791 0 0.45907954035807741 0.40974717780342601 0 0.46764620460662831 0.37423555507086709 0 0.4504027156359558 0.37270261984759462 0 0.45931431514508581 0.39202623986415791 0 0.46764620460662831 0.37423555507086709 0 0.45931431514508581 0.39202623986415791 0 0.47897471374305278 0.38874089720709509 0 0.48179370240608688 0.3629921830593057 0 0.46764620460662831 0.37423555507086709 0 0.47897471374305278 0.38874089720709509 0 0.48179370240608688 0.3629921830593057 0 0.47897471374305278 0.38874089720709509 0 0.49019210403728508 0.37868934532509452 0 0.48179370240608688 0.3629921830593057 0 0.47897471374305278 0.38874089720709509 0 0.46838107358155961 0.40125098155739142 0 0.47897471374305278 0.38874089720709509 0 0.47615572508002107 0.41448961135488488 0 0.47897471374305278 0.38874089720709509 0 0.4880778625400114 0.40471786202903021 0 0.47615572508002107 0.41448961135488488 0 0.46838107358155961 0.40125098155739142 0 0.45931431514508581 0.39202623986415791 0 0.47897471374305278 0.38874089720709509 0 0.47897471374305278 0.38874089720709509 0 0.47615572508002107 0.41448961135488488 0 0.47897471374305278 0.38874089720709509 0 0.4880778625400114 0.40471786202903021 0 0.50000000000000044 0.3949461127031737 0 0.4880778625400114 0.40471786202903021 0 0.50000000000000044 0.3949461127031737 0 0.5 0.3680781883308033 0 0.50000000000000044 0.3949461127031737 0 0.49019210403728508 0.37868934532509452 0 0.47897471374305278 0.38874089720709509 0 0.50000000000000044 0.3949461127031737 0 0.49019210403728508 0.37868934532509452 0 0.4880778625400114 0.40471786202903021 0 0.47615572508002107 0.41448961135488488 0 0.48320913007945399 0.44186785395643502 0 0.4880778625400114 0.40471786202903021 0 0.48320913007945399 0.44186785395643502 0 0.5 0.45550734412508948 0 0.4880778625400114 0.40471786202903021 0 0.50000000000000044 0.3949461127031737 0 0.5 0.45550734412508948 0 0.4880778625400114 0.40471786202903021 0 0.47615572508002107 0.41448961135488488 0 0.47615572508002107 0.41448961135488488 0 0.47380170877347211 0.43599125617216539 0 0.46037730073051553 0.42742209162680089 0 0.47615572508002107 0.41448961135488488 0 0.47380170877347211 0.43599125617216539 0 0.47615572508002107 0.41448961135488488 0 0.47380170877347211 0.43599125617216539 0 0.48320913007945399 0.44186785395643502 0 0.47380170877347211 0.43599125617216539 0 0.46037730073051553 0.42742209162680089 0 0.46225000952420342 0.44343581095276419 0 0.46037730073051553 0.42742209162680089 0 0.44875452350996292 0.44084062142860481 0 0.46225000952420342 0.44343581095276419 0 0.46838107358155961 0.40125098155739142 0 0.47615572508002107 0.41448961135488488 0 0.45907954035807741 0.40974717780342601 0 0.47615572508002107 0.41448961135488488 0 0.46037730073051553 0.42742209162680089 0 0.47615572508002107 0.41448961135488488 0 0.46037730073051553 0.42742209162680089 0 0.45907954035807741 0.40974717780342601 0 0.46037730073051553 0.42742209162680089 0 0.45907954035807741 0.40974717780342601 0 0.43875867615916969 0.41158190630590308 0 0.46037730073051553 0.42742209162680089 0 0.44459887638100892 0.44035457189871541 0 0.46037730073051553 0.42742209162680089 0 0.43875867615916969 0.41158190630590308 0 0.44459887638100892 0.44035457189871541 0 0.46037730073051553 0.42742209162680089 0 0.44459887638100892 0.44035457189871541 0 0.44875452350996292 0.44084062142860481 0 0.44459887638100892 0.44035457189871541 0 0.44490089798275639 0.45578042449128597 0 0.42882045203150237 0.45328705217063009 0 0.44459887638100892 0.44035457189871541 0 0.44875452350996292 0.44084062142860481 0 0.44490089798275639 0.45578042449128597 0 0.44875452350996292 0.44084062142860481 0 0.44490089798275639 0.45578042449128597 0 0.44977140890387551 0.47042031071430301 0 0.44875452350996292 0.44084062142860481 0 0.44977140890387551 0.47042031071430301 0 0.44875452350996292 0.44084062142860481 0 0.45887746427617843 0.45575043558677281 0 0.44977140890387551 0.47042031071430301 0 0.44490089798275639 0.45578042449128597 0 0.43766731475609832 0.47664352608531702 0 0.44977140890387551 0.47042031071430301 0 0.46216368697592441 0.46656253384874558 0 0.47144769246692558 0.45749290098944623 0 0.46909367616037911 0.47899454580672679 0 0.45887746427617843 0.45575043558677281 0 0.46216368697592441 0.46656253384874558 0 0.44977140890387551 0.47042031071430301 0 0.45887746427617843 0.45575043558677281 0 0.46216368697592441 0.46656253384874558 0 0.47144769246692558 0.45749290098944623 0 0.44875452350996292 0.44084062142860481 0 0.45887746427617843 0.45575043558677281 0 0.46225000952420342 0.44343581095276419 0 0.45887746427617843 0.45575043558677281 0 0.46225000952420342 0.44343581095276419 0 0.47144769246692558 0.45749290098944623 0 0.47380170877347211 0.43599125617216539 0 0.47144769246692558 0.45749290098944623 0 0.47380170877347211 0.43599125617216539 0 0.46225000952420342 0.44343581095276419 0 0.47144769246692558 0.45749290098944623 0 0.47380170877347211 0.43599125617216539 0 0.48320913007945399 0.44186785395643502 0 0.47144769246692558 0.45749290098944623 0 0.47144769246692558 0.45749290098944623 0 0.46909367616037911 0.47899454580672679 0 0.48320913007945399 0.44186785395643502 0 0.47144769246692558 0.45749290098944623 0 0.48513638373173179 0.46802142282880521 0 0.47144769246692558 0.45749290098944623 0 0.48513638373173179 0.46802142282880521 0 0.46909367616037911 0.47899454580672679 0 0.48320913007945399 0.44186785395643502 0 0.48513638373173179 0.46802142282880521 0 0.5 0.45550734412508948 0 0.48513638373173179 0.46802142282880521 0 0.5 0.5 0 0.46909367616037911 0.47899454580672679 0 0.5 0.5 0 0.46909367616037911 0.47899454580672679 0 0.45078829429778788 0.50000000000000111 0 0.48513638373173179 0.46802142282880521 0 0.5 0.45550734412508948 0 0.5 0.5 0 0.46216368697592441 0.46656253384874558 0 0.46909367616037911 0.47899454580672679 0 0.44977140890387551 0.47042031071430301 0 0.46909367616037911 0.47899454580672679 0 0.44977140890387551 0.47042031071430301 0 0.45078829429778788 0.50000000000000111 0 0.43766731475609832 0.47664352608531702 0 0.44977140890387551 0.47042031071430301 0 0.45078829429778788 0.50000000000000111 0 0.44977140890387551 0.47042031071430301 0 0.45078829429778788 0.50000000000000111 0 0.43766731475609832 0.47664352608531702 0 0.44651417748069488 0.50000000000000377 0 0.43766731475609832 0.47664352608531702 0 0.44651417748069488 0.50000000000000377 0 0.45078829429778788 0.50000000000000111 0 0.43766731475609832 0.47664352608531702 0 0.44651417748069488 0.50000000000000377 0 0.42300463806351229 0.49999999999999761 0 0.42300463806351229 0.49999999999999761 0 0.41375529457624771 0.475630768555665 0 0.42300463806351229 0.49999999999999761 0 0.41375529457624771 0.475630768555665 0 0.39536278264516411 0.5 0 0.41375529457624771 0.475630768555665 0 0.4259023559482808 0.4716262728225093 0 0.42070223881848978 0.45994098857738908 0 0.42300463806351229 0.49999999999999761 0 0.41375529457624771 0.475630768555665 0 0.4259023559482808 0.4716262728225093 0 0.43766731475609832 0.47664352608531702 0 0.42300463806351229 0.49999999999999761 0 0.4259023559482808 0.4716262728225093 0 0.4259023559482808 0.4716262728225093 0 0.42882045203150237 0.45328705217063009 0 0.42070223881848978 0.45994098857738908 0 0.44490089798275639 0.45578042449128597 0 0.43766731475609832 0.47664352608531702 0 0.42882045203150237 0.45328705217063009 0 0.43766731475609832 0.47664352608531702 0 0.4259023559482808 0.4716262728225093 0 0.42882045203150237 0.45328705217063009 0 0.43766731475609832 0.47664352608531702 0 0.42882045203150237 0.45328705217063009 0 0.42882045203150237 0.45328705217063009 0 0.42070223881848978 0.45994098857738908 0 0.4204289184172566 0.43113268603352722 0 0.42882045203150237 0.45328705217063009 0 0.4204289184172566 0.43113268603352722 0 0.44459887638100892 0.44035457189871541 0 0.42882045203150237 0.45328705217063009 0 0.4204289184172566 0.43113268603352722 0 0.42882045203150237 0.45328705217063009 0 0.41726953345889739 0.44499582122076953 0 0.44459887638100892 0.44035457189871541 0 0.42882045203150237 0.45328705217063009 0 0.42882045203150237 0.45328705217063009 0 0.41726953345889739 0.44499582122076953 0 0.42070223881848978 0.45994098857738908 0 0.41726953345889739 0.44499582122076953 0 0.42070223881848978 0.45994098857738908 0 0.40450595108898241 0.45126153711133271 0 0.41375529457624771 0.475630768555665 0 0.42070223881848978 0.45994098857738908 0 0.40450595108898241 0.45126153711133271 0 0.41375529457624771 0.475630768555665 0 0.40450595108898241 0.45126153711133271 0 0.40450595108898241 0.45126153711133271 0 0.38678923827225348 0.45036617823909242 0 0.38084110746588401 0.47081429291344751 0 0.41375529457624771 0.475630768555665 0 0.40450595108898241 0.45126153711133271 0 0.38084110746588401 0.47081429291344751 0 0.3952566076017171 0.42689230566700059 0 0.40450595108898241 0.45126153711133271 0 0.38678923827225348 0.45036617823909242 0 0.3952566076017171 0.42689230566700059 0 0.40450595108898241 0.45126153711133271 0 0.3952566076017171 0.42689230566700059 0 0.41726953345889739 0.44499582122076953 0 0.40450595108898241 0.45126153711133271 0 0.37153426722683081 0.44145995112857528 0 0.3952566076017171 0.42689230566700059 0 0.38678923827225348 0.45036617823909242 0 0.37153426722683081 0.44145995112857528 0 0.38678923827225348 0.45036617823909242 0 0.38084110746588401 0.47081429291344751 0 0.41375529457624771 0.475630768555665 0 0.38084110746588401 0.47081429291344751 0 0.39536278264516411 0.5 0 0.36772092722681587 0.5 0 0.38084110746588401 0.47081429291344751 0 0.39536278264516411 0.5 0 0.3231150360436274 0.080545088276505916 0 0.34760945754532502 0.1005447209833536 0 0.3491891069947356 0.081074809225066866 0 0.3364885407066282 0.064053405980583455 0 0.3231150360436274 0.080545088276505916 0 0.3491891069947356 0.081074809225066866 0 0.3231150360436274 0.080545088276505916 0 0.31770116414045069 0.056361512061807603 0 0.30481549364692412 0.077733996341547207 0 0.3231150360436274 0.080545088276505916 0 0.31770116414045069 0.056361512061807603 0 0.3364885407066282 0.064053405980583455 0 0.3231150360436274 0.080545088276505916 0 0.31770116414045069 0.056361512061807603 0 0.3231150360436274 0.080545088276505916 0 0.32852890794680412 0.1047286644912042 0 0.3231150360436274 0.080545088276505916 0 0.32852890794680412 0.1047286644912042 0 0.30883253814462153 0.099085565597219927 0 0.32852890794680412 0.1047286644912042 0 0.31164452049503888 0.1225631432635161 0 0.30883253814462153 0.099085565597219927 0 0.32852890794680412 0.1047286644912042 0 0.31164452049503888 0.1225631432635161 0 0.33394277984998078 0.12891224070590249 0 0.32852890794680412 0.1047286644912042 0 0.33394277984998078 0.12891224070590249 0 0.32852890794680412 0.1047286644912042 0 0.34760945754532502 0.1005447209833536 0 0.33394277984998078 0.12891224070590249 0 0.3231150360436274 0.080545088276505916 0 0.32852890794680412 0.1047286644912042 0 0.34760945754532502 0.1005447209833536 0 0.34760945754532502 0.1005447209833536 0 0.35987154352565498 0.1170972707086885 0 0.37013122330606679 0.093353608801325955 0 0.34760945754532502 0.1005447209833536 0 0.35987154352565498 0.1170972707086885 0 0.33394277984998078 0.12891224070590249 0 0.35987154352565498 0.1170972707086885 0 0.3737183066341207 0.1227588990857422 0 0.37671153772720778 0.1110828360015797 0 0.35987154352565498 0.1170972707086885 0 0.3737183066341207 0.1227588990857422 0 0.36475200417156622 0.1293189439760648 0 0.35987154352565498 0.1170972707086885 0 0.37013122330606679 0.093353608801325955 0 0.37671153772720778 0.1110828360015797 0 0.37013122330606679 0.093353608801325955 0 0.3491891069947356 0.081074809225066866 0 0.37013122330606679 0.093353608801325955 0 0.3491891069947356 0.081074809225066866 0 0.36851912298758599 0.07592937731354811 0 0.34760945754532502 0.1005447209833536 0 0.37013122330606679 0.093353608801325955 0 0.3491891069947356 0.081074809225066866 0 0.3491891069947356 0.081074809225066866 0 0.36851912298758599 0.07592937731354811 0 0.35706400558879731 0.059197723143954911 0 0.3364885407066282 0.064053405980583455 0 0.3491891069947356 0.081074809225066866 0 0.35706400558879731 0.059197723143954911 0 0.36851912298758599 0.07592937731354811 0 0.35706400558879731 0.059197723143954911 0 0.37957571760244913 0.062224180256092262 0 0.36714431184593332 0.04195940538457317 0 0.35706400558879731 0.059197723143954911 0 0.37957571760244913 0.062224180256092262 0 0.36714431184593332 0.04195940538457317 0 0.35176991631628868 0.037482188555191642 0 0.36083704175049719 0.023320216632622539 0 0.35176991631628868 0.037482188555191642 0 0.35706400558879731 0.059197723143954911 0 0.33537339076552991 0.043087897195581981 0 0.36714431184593332 0.04195940538457317 0 0.35176991631628868 0.037482188555191642 0 0.35706400558879731 0.059197723143954911 0 0.35706400558879731 0.059197723143954911 0 0.33537339076552991 0.043087897195581981 0 0.3736528700689532 0.0082629936107709301 0 0.35584829481317498 0.0068725965357478627 0 0.36507280813171161 -0.0078333009997206566 0 0.3736528700689532 0.0082629936107709301 0 0.36083704175049719 0.023320216632622539 0 0.35584829481317498 0.0068725965357478627 0 0.36714431184593332 0.04195940538457317 0 0.36083704175049719 0.023320216632622539 0 0.38039522095105421 0.02661564160026297 0 0.3736528700689532 0.0082629936107709301 0 0.36083704175049719 0.023320216632622539 0 0.38039522095105421 0.02661564160026297 0 0.35176991631628868 0.037482188555191642 0 0.36083704175049719 0.023320216632622539 0 0.33843083163068571 0.01984570041922553 0 0.36083704175049719 0.023320216632622539 0 0.35584829481317498 0.0068725965357478627 0 0.33843083163068571 0.01984570041922553 0 0.35584829481317498 0.0068725965357478627 0 0.33843083163068571 0.01984570041922553 0 0.34144549009991421 -0.0024310249084412219 0 0.33843083163068571 0.01984570041922553 0 0.32096687577749938 0.00013999713015544479 0 0.34144549009991421 -0.0024310249084412219 0 0.33843083163068571 0.01984570041922553 0 0.31368277594226263 0.02697807124720902 0 0.33537339076552991 0.043087897195581981 0 0.33843083163068571 0.01984570041922553 0 0.31368277594226263 0.02697807124720902 0 0.32096687577749938 0.00013999713015544479 0 0.31368277594226263 0.02697807124720902 0 0.32096687577749938 0.00013999713015544479 0 0.30397987236055207 -0.0012468907866667431 0 0.3364885407066282 0.064053405980583455 0 0.35706400558879731 0.059197723143954911 0 0.33537339076552991 0.043087897195581981 0 0.3364885407066282 0.064053405980583455 0 0.33537339076552991 0.043087897195581981 0 0.31770116414045069 0.056361512061807603 0 0.35176991631628868 0.037482188555191642 0 0.33843083163068571 0.01984570041922553 0 0.33537339076552991 0.043087897195581981 0 0.31368277594226263 0.02697807124720902 0 0.33537339076552991 0.043087897195581981 0 0.31770116414045069 0.056361512061807603 0 0.31368277594226263 0.02697807124720902 0 0.33537339076552991 0.043087897195581981 0 0.31368277594226263 0.02697807124720902 0 0.29808210790877421 0.053875787826384067 0 0.29242178978369598 0.036178980936321471 0 0.31368277594226263 0.02697807124720902 0 0.31770116414045069 0.056361512061807603 0 0.29808210790877421 0.053875787826384067 0 0.29808210790877421 0.053875787826384067 0 0.29242178978369598 0.036178980936321471 0 0.27131064826550311 0.045718686138306507 0 0.29808210790877421 0.053875787826384067 0 0.27131064826550311 0.045718686138306507 0 0.27545470946709222 0.063748304657851002 0 0.31368277594226263 0.02697807124720902 0 0.29199216111899501 0.010868245298835981 0 0.30397987236055207 -0.0012468907866667431 0 0.31368277594226263 0.02697807124720902 0 0.28804786505932661 0.024028845305494761 0 0.29199216111899501 0.010868245298835981 0 0.31368277594226263 0.02697807124720902 0 0.29199216111899501 0.010868245298835981 0 0.31368277594226263 0.02697807124720902 0 0.29242178978369598 0.036178980936321471 0 0.28804786505932661 0.024028845305494761 0 0.29242178978369598 0.036178980936321471 0 0.28804786505932661 0.024028845305494761 0 0.27781324720140987 0.03059819868613994 0 0.28804786505932661 0.024028845305494761 0 0.29199216111899501 0.010868245298835981 0 0.28086301508677919 0.013259405142079021 0 0.29199216111899501 0.010868245298835981 0 0.27030154629572611 -0.0052415806495351332 0 0.27311048787306952 0.023382110613520479 0 0.27030154629572611 -0.0052415806495351332 0 0.29199216111899501 0.010868245298835981 0 0.28086301508677919 0.013259405142079021 0 0.27030154629572611 -0.0052415806495351332 0 0.28086301508677919 0.013259405142079021 0 0.27311048787306952 0.023382110613520479 0 0.27030154629572611 -0.0052415806495351332 0 0.27311048787306952 0.023382110613520479 0 0.25704024178540552 0.00164605473580649 0 0.27030154629572611 -0.0052415806495351332 0 0.28804786505932661 0.024028845305494761 0 0.28086301508677919 0.013259405142079021 0 0.27311048787306952 0.023382110613520479 0 0.28804786505932661 0.024028845305494761 0 0.27311048787306952 0.023382110613520479 0 0.27781324720140987 0.03059819868613994 0 0.27311048787306952 0.023382110613520479 0 0.27781324720140987 0.03059819868613994 0 0.26417544502545431 0.0236823704370565 0 0.27311048787306952 0.023382110613520479 0 0.26417544502545431 0.0236823704370565 0 0.25704024178540552 0.00164605473580649 0 0.26417544502545431 0.0236823704370565 0 0.25378409553581782 0.027753119939855849 0 0.25296504279947712 0.01531873922705225 0 0.24752713428859591 0.02033042166504687 0 0.25378409553581782 0.027753119939855849 0 0.25296504279947712 0.01531873922705225 0 0.26417544502545431 0.0236823704370565 0 0.25704024178540552 0.00164605473580649 0 0.26417544502545431 0.0236823704370565 0 0.25296504279947712 0.01531873922705225 0 0.25704024178540552 0.00164605473580649 0 0.2462448439675437 0.0082486099570689524 0 0.25296504279947712 0.01531873922705225 0 0.25704024178540552 0.00164605473580649 0 0.2462448439675437 0.0082486099570689524 0 0.25704024178540552 0.00164605473580649 0 0.2498818982516218 -0.002271085465629063 0 0.27131064826550311 0.045718686138306507 0 0.25772420685117792 0.064535895225650619 0 0.27545470946709222 0.063748304657851002 0 0.29242178978369598 0.036178980936321471 0 0.27781324720140987 0.03059819868613994 0 0.27131064826550311 0.045718686138306507 0 0.27781324720140987 0.03059819868613994 0 0.26417544502545431 0.0236823704370565 0 0.27131064826550311 0.045718686138306507 0 0.26417544502545431 0.0236823704370565 0 0.27131064826550311 0.045718686138306507 0 0.24780396989584361 0.038399061764983873 0 0.25378409553581782 0.027753119939855849 0 0.27131064826550311 0.045718686138306507 0 0.26417544502545431 0.0236823704370565 0 0.25378409553581782 0.027753119939855849 0 0.27131064826550311 0.045718686138306507 0 0.24780396989584361 0.038399061764983873 0 0.25772420685117792 0.064535895225650619 0 0.24780396989584361 0.038399061764983873 0 0.27131064826550311 0.045718686138306507 0 0.25772420685117792 0.064535895225650619 0 0.25772420685117792 0.064535895225650619 0 0.26764444380651198 0.090672728686317358 0 0.24899324599662889 0.0805272582694566 0 0.25772420685117792 0.064535895225650619 0 0.26764444380651198 0.090672728686317358 0 0.24533759262594271 0.097680445434891128 0 0.24899324599662889 0.0805272582694566 0 0.26764444380651198 0.090672728686317358 0 0.25772420685117792 0.064535895225650619 0 0.26764444380651198 0.090672728686317358 0 0.27545470946709222 0.063748304657851002 0 0.26764444380651198 0.090672728686317358 0 0.27545470946709222 0.063748304657851002 0 0.28883622724866048 0.074818310190676973 0 0.29808210790877421 0.053875787826384067 0 0.27545470946709222 0.063748304657851002 0 0.28883622724866048 0.074818310190676973 0 0.28883622724866048 0.074818310190676973 0 0.30481549364692412 0.077733996341547207 0 0.29030660184954299 0.096504492005447931 0 0.26764444380651198 0.090672728686317358 0 0.28883622724866048 0.074818310190676973 0 0.29030660184954299 0.096504492005447931 0 0.3231150360436274 0.080545088276505916 0 0.30481549364692412 0.077733996341547207 0 0.30883253814462153 0.099085565597219927 0 0.30481549364692412 0.077733996341547207 0 0.30883253814462153 0.099085565597219927 0 0.29030660184954299 0.096504492005447931 0 0.31770116414045069 0.056361512061807603 0 0.29808210790877421 0.053875787826384067 0 0.30481549364692412 0.077733996341547207 0 0.29808210790877421 0.053875787826384067 0 0.28883622724866048 0.074818310190676973 0 0.30481549364692412 0.077733996341547207 0 0.31164452049503888 0.1225631432635161 0 0.29458466888579188 0.1124380092050983 0 0.29436003258624621 0.126257242819794 0 0.31164452049503888 0.1225631432635161 0 0.30883253814462153 0.099085565597219927 0 0.29458466888579188 0.1124380092050983 0 0.30883253814462153 0.099085565597219927 0 0.29030660184954299 0.096504492005447931 0 0.29458466888579188 0.1124380092050983 0 0.29030660184954299 0.096504492005447931 0 0.29458466888579188 0.1124380092050983 0 0.27756468076184621 0.1168095621469841 0 0.29458466888579188 0.1124380092050983 0 0.27756468076184621 0.1168095621469841 0 0.29436003258624621 0.126257242819794 0 0.27756468076184621 0.1168095621469841 0 0.26209151933408109 0.10773137159854571 0 0.26858911822916082 0.13182187847932519 0 0.26764444380651198 0.090672728686317358 0 0.27756468076184621 0.1168095621469841 0 0.26209151933408109 0.10773137159854571 0 0.26764444380651198 0.090672728686317358 0 0.27756468076184621 0.1168095621469841 0 0.26764444380651198 0.090672728686317358 0 0.29030660184954299 0.096504492005447931 0 0.27756468076184621 0.1168095621469841 0 0.24533759262594271 0.097680445434891128 0 0.26764444380651198 0.090672728686317358 0 0.26209151933408109 0.10773137159854571 0 0.24969331874114301 0.1206973613509984 0 0.24533759262594271 0.097680445434891128 0 0.26209151933408109 0.10773137159854571 0 0.24969331874114301 0.1206973613509984 0 0.26209151933408109 0.10773137159854571 0 0.26858911822916082 0.13182187847932519 0 0.24969331874114301 0.1206973613509984 0 0.25277366156233982 0.13657867635417301 0 0.26858911822916082 0.13182187847932519 0 0.24969331874114301 0.1206973613509984 0 0.26858911822916082 0.13182187847932519 0 0.27756468076184621 0.1168095621469841 0 0.26858911822916082 0.13182187847932519 0 0.28748491771717921 0.14294639560765129 0 0.26858911822916082 0.13182187847932519 0 0.28748491771717921 0.14294639560765129 0 0.26858911822916082 0.13182187847932519 0 0.26053074556048611 0.1537619508775305 0 0.28748491771717921 0.14294639560765129 0 0.26053074556048611 0.1537619508775305 0 0.27788722792996873 0.17050084250782549 0 0.28748491771717921 0.14294639560765129 0 0.25277366156233982 0.13657867635417301 0 0.26858911822916082 0.13182187847932519 0 0.26053074556048611 0.1537619508775305 0 0.24469027036577351 0.14880694978056691 0 0.25277366156233982 0.13657867635417301 0 0.26053074556048611 0.1537619508775305 0 0.24160161585879761 0.1624254570726936 0 0.26053074556048611 0.1537619508775305 0 0.25029606846190422 0.1797913926751768 0 0.26053074556048611 0.1537619508775305 0 0.25029606846190422 0.1797913926751768 0 0.27788722792996873 0.17050084250782549 0 0.25029606846190422 0.1797913926751768 0 0.27728489888020852 0.18999544356444231 0 0.25029606846190422 0.1797913926751768 0 0.27788722792996873 0.17050084250782549 0 0.27728489888020852 0.18999544356444231 0 0.29772680079681102 0.1699306696306607 0 0.28748491771717921 0.14294639560765129 0 0.27788722792996873 0.17050084250782549 0 0.29772680079681102 0.1699306696306607 0 0.28748491771717921 0.14294639560765129 0 0.27788722792996873 0.17050084250782549 0 0.2939999361632239 0.18657920269149059 0 0.27728489888020852 0.18999544356444231 0 0.27788722792996873 0.17050084250782549 0 0.2939999361632239 0.18657920269149059 0 0.29772680079681102 0.1699306696306607 0 0.29772680079681102 0.1699306696306607 0 0.30796868387644499 0.19691494365366941 0 0.2939999361632239 0.18657920269149059 0 0.29772680079681102 0.1699306696306607 0 0.30796868387644499 0.19691494365366941 0 0.29772680079681102 0.1699306696306607 0 0.30796868387644499 0.19691494365366941 0 0.31433761969180612 0.17050208891185259 0 0.29772680079681102 0.1699306696306607 0 0.3070072964757547 0.15443979852099171 0 0.31433761969180612 0.17050208891185259 0 0.3070072964757547 0.15443979852099171 0 0.30439660292389747 0.13802403975103139 0 0.32148624734526882 0.1439136185432032 0 0.3070072964757547 0.15443979852099171 0 0.28748491771717921 0.14294639560765129 0 0.29772680079681102 0.1699306696306607 0 0.3070072964757547 0.15443979852099171 0 0.28748491771717921 0.14294639560765129 0 0.3070072964757547 0.15443979852099171 0 0.30439660292389747 0.13802403975103139 0 0.28748491771717921 0.14294639560765129 0 0.31164452049503888 0.1225631432635161 0 0.30439660292389747 0.13802403975103139 0 0.29436003258624621 0.126257242819794 0 0.30439660292389747 0.13802403975103139 0 0.29436003258624621 0.126257242819794 0 0.28748491771717921 0.14294639560765129 0 0.27756468076184621 0.1168095621469841 0 0.29436003258624621 0.126257242819794 0 0.28748491771717921 0.14294639560765129 0 0.27756468076184621 0.1168095621469841 0 0.28748491771717921 0.14294639560765129 0 0.27732307966824282 0.25804090131194718 0 0.27408010705656338 0.24132342990046479 0 0.28730261761608678 0.2401147541676211 0 0.27732307966824282 0.25804090131194718 0 0.27408010705656338 0.24132342990046479 0 0.26414982602066872 0.24857322833329409 0 0.27408010705656338 0.24132342990046479 0 0.27462126919700958 0.22655841429840751 0 0.28730261761608678 0.2401147541676211 0 0.27408010705656338 0.24132342990046479 0 0.26414982602066872 0.24857322833329409 0 0.26700374278080907 0.23332985139105411 0 0.24815670256054939 0.24315182117073661 0 0.26414982602066872 0.24857322833329409 0 0.26700374278080907 0.23332985139105411 0 0.25736741807393598 0.2249699039431817 0 0.27462126919700958 0.22655841429840751 0 0.2617803883691 0.21283153455576581 0 0.24165121181977739 0.2238929337544161 0 0.25736741807393598 0.2249699039431817 0 0.25099119371637069 0.21005486848871019 0 0.24815670256054939 0.24315182117073661 0 0.25736741807393598 0.2249699039431817 0 0.26700374278080907 0.23332985139105411 0 0.25736741807393598 0.2249699039431817 0 0.26700374278080907 0.23332985139105411 0 0.27462126919700958 0.22655841429840751 0 0.27462126919700958 0.22655841429840751 0 0.2617803883691 0.21283153455576581 0 0.27408010705656338 0.24132342990046479 0 0.26700374278080907 0.23332985139105411 0 0.27462126919700958 0.22655841429840751 0 0.26700374278080907 0.23332985139105411 0 0.27462126919700958 0.22655841429840751 0 0.27462126919700958 0.22655841429840751 0 0.28730261761608678 0.2401147541676211 0 0.27318368154125561 0.2083319437160836 0 0.27728489888020852 0.18999544356444231 0 0.2894474992477617 0.213378954376059 0 0.27462126919700958 0.22655841429840751 0 0.27318368154125561 0.2083319437160836 0 0.2617803883691 0.21283153455576581 0 0.27462126919700958 0.22655841429840751 0 0.27318368154125561 0.2083319437160836 0 0.2894474992477617 0.213378954376059 0 0.27318368154125561 0.2083319437160836 0 0.2617803883691 0.21283153455576581 0 0.2627843520121978 0.1988953717857434 0 0.25736741807393598 0.2249699039431817 0 0.2617803883691 0.21283153455576581 0 0.25099119371637069 0.21005486848871019 0 0.2489395075411904 0.199104654813124 0 0.2617803883691 0.21283153455576581 0 0.2489395075411904 0.199104654813124 0 0.2617803883691 0.21283153455576581 0 0.25099119371637069 0.21005486848871019 0 0.2489395075411904 0.199104654813124 0 0.2617803883691 0.21283153455576581 0 0.2627843520121978 0.1988953717857434 0 0.2489395075411904 0.199104654813124 0 0.25029606846190422 0.1797913926751768 0 0.2627843520121978 0.1988953717857434 0 0.25029606846190422 0.1797913926751768 0 0.2627843520121978 0.1988953717857434 0 0.27728489888020852 0.18999544356444231 0 0.27318368154125561 0.2083319437160836 0 0.2627843520121978 0.1988953717857434 0 0.27728489888020852 0.18999544356444231 0 0.2939999361632239 0.18657920269149059 0 0.27728489888020852 0.18999544356444231 0 0.30427372929851221 0.20019949445370849 0 0.27728489888020852 0.18999544356444231 0 0.30427372929851221 0.20019949445370849 0 0.2894474992477617 0.213378954376059 0 0.27728489888020852 0.18999544356444231 0 0.30427372929851221 0.20019949445370849 0 0.2939999361632239 0.18657920269149059 0 0.30796868387644499 0.19691494365366941 0 0.30427372929851221 0.20019949445370849 0 0.31004327626559869 0.20238086911677 0 0.30796868387644499 0.19691494365366941 0 0.30796868387644499 0.19691494365366941 0 0.30427372929851221 0.20019949445370849 0 0.31004327626559869 0.20238086911677 0 0.30427372929851221 0.20019949445370849 0 0.31004327626559869 0.20238086911677 0 0.30796868387644499 0.19691494365366941 0 0.30427372929851221 0.20019949445370849 0 0.31004327626559869 0.20238086911677 0 0.30357303705872363 0.2134655750909551 0 0.31825738274018578 0.22402256315302491 0 0.30427372929851221 0.20019949445370849 0 0.30357303705872363 0.2134655750909551 0 0.2894474992477617 0.213378954376059 0 0.31004327626559869 0.20238086911677 0 0.30427372929851221 0.20019949445370849 0 0.30357303705872363 0.2134655750909551 0 0.30357303705872363 0.2134655750909551 0 0.2894474992477617 0.213378954376059 0 0.29584329774155932 0.2273459943552141 0 0.30427372929851221 0.20019949445370849 0 0.2894474992477617 0.213378954376059 0 0.27462126919700958 0.22655841429840751 0 0.29584329774155932 0.2273459943552141 0 0.28730261761608678 0.2401147541676211 0 0.27462126919700958 0.22655841429840751 0 0.2894474992477617 0.213378954376059 0 0.29584329774155932 0.2273459943552141 0 0.27462126919700958 0.22655841429840751 0 0.2894474992477617 0.213378954376059 0 0.29584329774155932 0.2273459943552141 0 0.30795617768155031 0.24010890579325819 0 0.31825738274018578 0.22402256315302491 0 0.30357303705872363 0.2134655750909551 0 0.29584329774155932 0.2273459943552141 0 0.31825738274018578 0.22402256315302491 0 0.29998396603516408 0.25367109403683469 0 0.30795617768155031 0.24010890579325819 0 0.319878312741532 0.24983477185757469 0 0.29584329774155932 0.2273459943552141 0 0.30795617768155031 0.24010890579325819 0 0.28730261761608678 0.2401147541676211 0 0.29998396603516408 0.25367109403683469 0 0.30795617768155031 0.24010890579325819 0 0.28730261761608678 0.2401147541676211 0 0.29998396603516408 0.25367109403683469 0 0.28730261761608678 0.2401147541676211 0 0.32647148921477381 0.24566425718927959 0 0.34236665456201221 0.23291708186054169 0 0.33080507196684522 0.22722726302607971 0 0.3417052103372209 0.25064254883263209 0 0.32647148921477381 0.24566425718927959 0 0.34236665456201221 0.23291708186054169 0 0.32647148921477381 0.24566425718927959 0 0.31825738274018578 0.22402256315302491 0 0.30795617768155031 0.24010890579325819 0 0.319878312741532 0.24983477185757469 0 0.32647148921477381 0.24566425718927959 0 0.30795617768155031 0.24010890579325819 0 0.32647148921477381 0.24566425718927959 0 0.31825738274018578 0.22402256315302491 0 0.32647148921477381 0.24566425718927959 0 0.31825738274018578 0.22402256315302491 0 0.33080507196684522 0.22722726302607971 0 0.31825738274018578 0.22402256315302491 0 0.33080507196684522 0.22722726302607971 0 0.32680075969758299 0.21494616439986461 0 0.34236665456201221 0.23291708186054169 0 0.33732281961561728 0.2125364561183351 0 0.35103208490123089 0.2142436382842636 0 0.34236665456201221 0.23291708186054169 0 0.33080507196684522 0.22722726302607971 0 0.33732281961561728 0.2125364561183351 0 0.33732281961561728 0.2125364561183351 0 0.3281840061494426 0.20559479176964171 0 0.3349441447335928 0.19819329520353371 0 0.33080507196684522 0.22722726302607971 0 0.33732281961561728 0.2125364561183351 0 0.32680075969758299 0.21494616439986461 0 0.33732281961561728 0.2125364561183351 0 0.3281840061494426 0.20559479176964171 0 0.32680075969758299 0.21494616439986461 0 0.31825738274018578 0.22402256315302491 0 0.32680075969758299 0.21494616439986461 0 0.31875865766440592 0.20567601729230769 0 0.31004327626559869 0.20238086911677 0 0.31825738274018578 0.22402256315302491 0 0.31875865766440592 0.20567601729230769 0 0.31004327626559869 0.20238086911677 0 0.31825738274018578 0.22402256315302491 0 0.31004327626559869 0.20238086911677 0 0.31875865766440592 0.20567601729230769 0 0.3281840061494426 0.20559479176964171 0 0.32680075969758299 0.21494616439986461 0 0.31875865766440592 0.20567601729230769 0 0.3281840061494426 0.20559479176964171 0 0.31875865766440592 0.20567601729230769 0 0.32309364903601379 0.19662202583416721 0 0.31004327626559869 0.20238086911677 0 0.30796868387644499 0.19691494365366941 0 0.32309364903601379 0.19662202583416721 0 0.31004327626559869 0.20238086911677 0 0.31875865766440592 0.20567601729230769 0 0.32309364903601379 0.19662202583416721 0 0.30796868387644499 0.19691494365366941 0 0.3235442144836258 0.1830694090367132 0 0.30796868387644499 0.19691494365366941 0 0.32309364903601379 0.19662202583416721 0 0.3235442144836258 0.1830694090367132 0 0.32309364903601379 0.19662202583416721 0 0.3235442144836258 0.1830694090367132 0 0.3375366997275675 0.18485112412659971 0 0.32309364903601379 0.19662202583416721 0 0.3349441447335928 0.19819329520353371 0 0.3375366997275675 0.18485112412659971 0 0.3281840061494426 0.20559479176964171 0 0.32309364903601379 0.19662202583416721 0 0.3349441447335928 0.19819329520353371 0 0.33732281961561728 0.2125364561183351 0 0.3349441447335928 0.19819329520353371 0 0.34582781391940809 0.19802296049054721 0 0.3349441447335928 0.19819329520353371 0 0.34582781391940809 0.19802296049054721 0 0.3375366997275675 0.18485112412659971 0 0.34582781391940809 0.19802296049054721 0 0.3375366997275675 0.18485112412659971 0 0.35321163446293607 0.18416430147984381 0 0.34582781391940809 0.19802296049054721 0 0.35791186946338971 0.20166454428773409 0 0.35321163446293607 0.18416430147984381 0 0.35791186946338971 0.20166454428773409 0 0.36734666806527327 0.19204823538926891 0 0.37508341755997909 0.2037224782472532 0 0.35791186946338971 0.20166454428773409 0 0.36734666806527327 0.19204823538926891 0 0.35321163446293607 0.18416430147984381 0 0.36734666806527327 0.19204823538926891 0 0.37508341755997909 0.2037224782472532 0 0.37898822697909629 0.18922513969906549 0 0.36308755878126708 0.21306409594254511 0 0.37295199355019781 0.22002181866034101 0 0.37508341755997909 0.2037224782472532 0 0.35791186946338971 0.20166454428773409 0 0.36308755878126708 0.21306409594254511 0 0.37508341755997909 0.2037224782472532 0 0.34582781391940809 0.19802296049054721 0 0.35791186946338971 0.20166454428773409 0 0.35103208490123089 0.2142436382842636 0 0.36308755878126708 0.21306409594254511 0 0.35103208490123089 0.2142436382842636 0 0.35842298588025318 0.22597704032017249 0 0.33732281961561728 0.2125364561183351 0 0.34582781391940809 0.19802296049054721 0 0.35103208490123089 0.2142436382842636 0 0.35791186946338971 0.20166454428773409 0 0.36308755878126708 0.21306409594254511 0 0.35103208490123089 0.2142436382842636 0 0.34236665456201221 0.23291708186054169 0 0.35103208490123089 0.2142436382842636 0 0.35842298588025318 0.22597704032017249 0 0.36308755878126708 0.21306409594254511 0 0.35842298588025318 0.22597704032017249 0 0.37295199355019781 0.22002181866034101 0 0.37295199355019781 0.22002181866034101 0 0.36807651668549868 0.23562990843662199 0 0.38044371885239342 0.23341846495438409 0 0.35842298588025318 0.22597704032017249 0 0.37295199355019781 0.22002181866034101 0 0.36807651668549868 0.23562990843662199 0 0.37620184814355162 0.25053821619171168 0 0.3557815906890433 0.24634790465082609 0 0.37620184814355162 0.25053821619171168 0 0.36807651668549868 0.23562990843662199 0 0.3557815906890433 0.24634790465082609 0 0.35842298588025318 0.22597704032017249 0 0.36807651668549868 0.23562990843662199 0 0.3557815906890433 0.24634790465082609 0 0.37620184814355162 0.25053821619171168 0 0.36807651668549868 0.23562990843662199 0 0.38044371885239342 0.23341846495438409 0 0.34236665456201221 0.23291708186054169 0 0.35842298588025318 0.22597704032017249 0 0.3557815906890433 0.24634790465082609 0 0.3417052103372209 0.25064254883263209 0 0.34236665456201221 0.23291708186054169 0 0.3557815906890433 0.24634790465082609 0 0.33935665175315749 0.15309581692060081 0 0.32148624734526882 0.1439136185432032 0 0.32652967523433107 0.1659332014343308 0 0.33935665175315749 0.15309581692060081 0 0.33394277984998078 0.12891224070590249 0 0.32148624734526882 0.1439136185432032 0 0.33935665175315749 0.15309581692060081 0 0.33394277984998078 0.12891224070590249 0 0.33935665175315749 0.15309581692060081 0 0.33394277984998078 0.12891224070590249 0 0.35348946579801771 0.1360153994401585 0 0.31164452049503888 0.1225631432635161 0 0.33394277984998078 0.12891224070590249 0 0.32148624734526882 0.1439136185432032 0 0.31164452049503888 0.1225631432635161 0 0.30439660292389747 0.13802403975103139 0 0.32148624734526882 0.1439136185432032 0 0.3070072964757547 0.15443979852099171 0 0.32148624734526882 0.1439136185432032 0 0.32652967523433107 0.1659332014343308 0 0.3070072964757547 0.15443979852099171 0 0.31433761969180612 0.17050208891185259 0 0.32652967523433107 0.1659332014343308 0 0.3070072964757547 0.15443979852099171 0 0.32652967523433107 0.1659332014343308 0 0.31433761969180612 0.17050208891185259 0 0.32652967523433107 0.1659332014343308 0 0.32652967523433107 0.1659332014343308 0 0.32969540966837119 0.16779696311097 0 0.32652967523433107 0.1659332014343308 0 0.3235442144836258 0.1830694090367132 0 0.32969540966837119 0.16779696311097 0 0.30796868387644499 0.19691494365366941 0 0.31433761969180612 0.17050208891185259 0 0.3235442144836258 0.1830694090367132 0 0.31433761969180612 0.17050208891185259 0 0.32652967523433107 0.1659332014343308 0 0.3235442144836258 0.1830694090367132 0 0.3235442144836258 0.1830694090367132 0 0.3375366997275675 0.18485112412659971 0 0.33911974509080561 0.16922387441975609 0 0.3375366997275675 0.18485112412659971 0 0.33911974509080561 0.16922387441975609 0 0.35321163446293607 0.18416430147984381 0 0.3235442144836258 0.1830694090367132 0 0.32969540966837119 0.16779696311097 0 0.33911974509080561 0.16922387441975609 0 0.3235442144836258 0.1830694090367132 0 0.33911974509080561 0.16922387441975609 0 0.32652967523433107 0.1659332014343308 0 0.33911974509080561 0.16922387441975609 0 0.35469527569798531 0.15537833980279869 0 0.32652967523433107 0.1659332014343308 0 0.35469527569798531 0.15537833980279869 0 0.33935665175315749 0.15309581692060081 0 0.32652967523433107 0.1659332014343308 0 0.35469527569798531 0.15537833980279869 0 0.32652967523433107 0.1659332014343308 0 0.32969540966837119 0.16779696311097 0 0.33911974509080561 0.16922387441975609 0 0.33911974509080561 0.16922387441975609 0 0.35671727948625359 0.1699950153932259 0 0.35469527569798531 0.15537833980279869 0 0.33911974509080561 0.16922387441975609 0 0.35469527569798531 0.15537833980279869 0 0.33911974509080561 0.16922387441975609 0 0.35671727948625359 0.1699950153932259 0 0.35321163446293607 0.18416430147984381 0 0.35671727948625359 0.1699950153932259 0 0.35321163446293607 0.18416430147984381 0 0.37088829205465479 0.17853205731841709 0 0.36734666806527327 0.19204823538926891 0 0.35321163446293607 0.18416430147984381 0 0.37088829205465479 0.17853205731841709 0 0.36734666806527327 0.19204823538926891 0 0.37088829205465479 0.17853205731841709 0 0.37898822697909629 0.18922513969906549 0 0.35671727948625359 0.1699950153932259 0 0.368230927439121 0.16315122450679559 0 0.35469527569798531 0.15537833980279869 0 0.35671727948625359 0.1699950153932259 0 0.37088829205465479 0.17853205731841709 0 0.368230927439121 0.16315122450679559 0 0.37088829205465479 0.17853205731841709 0 0.368230927439121 0.16315122450679559 0 0.37712431978027788 0.1695346770429835 0 0.368230927439121 0.16315122450679559 0 0.37332473305397063 0.1483970810536131 0 0.38022579413256941 0.15903602234547179 0 0.35469527569798531 0.15537833980279869 0 0.35348946579801771 0.1360153994401585 0 0.3725776516513144 0.1394821843818641 0 0.37332473305397063 0.1483970810536131 0 0.35469527569798531 0.15537833980279869 0 0.3725776516513144 0.1394821843818641 0 0.368230927439121 0.16315122450679559 0 0.37332473305397063 0.1483970810536131 0 0.35469527569798531 0.15537833980279869 0 0.37332473305397063 0.1483970810536131 0 0.35469527569798531 0.15537833980279869 0 0.35469527569798531 0.15537833980279869 0 0.3725776516513144 0.1394821843818641 0 0.33935665175315749 0.15309581692060081 0 0.35469527569798531 0.15537833980279869 0 0.35348946579801771 0.1360153994401585 0 0.35987154352565498 0.1170972707086885 0 0.33394277984998078 0.12891224070590249 0 0.35348946579801771 0.1360153994401585 0 0.35987154352565498 0.1170972707086885 0 0.35348946579801771 0.1360153994401585 0 0.36475200417156622 0.1293189439760648 0 0.3737183066341207 0.1227588990857422 0 0.36475200417156622 0.1293189439760648 0 0.3725776516513144 0.1394821843818641 0 0.35348946579801771 0.1360153994401585 0 0.36475200417156622 0.1293189439760648 0 0.3725776516513144 0.1394821843818641 0 0.3725776516513144 0.1394821843818641 0 0.39046002760464332 0.12358602896092941 0 0.3737183066341207 0.1227588990857422 0 0.3725776516513144 0.1394821843818641 0 0.39046002760464332 0.12358602896092941 0 0.3725776516513144 0.1394821843818641 0 0.39195419040995599 0.14141582230442781 0 0.39046002760464332 0.12358602896092941 0 0.40829112576812782 0.1360973550056328 0 0.41201545592872929 0.1179112079538441 0 0.39046002760464332 0.12358602896092941 0 0.39195419040995599 0.14141582230442781 0 0.40829112576812782 0.1360973550056328 0 0.39046002760464332 0.12358602896092941 0 0.39195419040995599 0.14141582230442781 0 0.40379572185326612 0.15055396421777181 0 0.39279832865585401 0.1606922504345254 0 0.39195419040995599 0.14141582230442781 0 0.40379572185326612 0.15055396421777181 0 0.40829112576812782 0.1360973550056328 0 0.37332473305397063 0.1483970810536131 0 0.39195419040995599 0.14141582230442781 0 0.38022579413256941 0.15903602234547179 0 0.37332473305397063 0.1483970810536131 0 0.39195419040995599 0.14141582230442781 0 0.37332473305397063 0.1483970810536131 0 0.3725776516513144 0.1394821843818641 0 0.39195419040995599 0.14141582230442781 0 0.39195419040995599 0.14141582230442781 0 0.38022579413256941 0.15903602234547179 0 0.39279832865585401 0.1606922504345254 0 0.38022579413256941 0.15903602234547179 0 0.37712431978027788 0.1695346770429835 0 0.39279832865585401 0.1606922504345254 0 0.368230927439121 0.16315122450679559 0 0.38022579413256941 0.15903602234547179 0 0.37712431978027788 0.1695346770429835 0 0.37712431978027788 0.1695346770429835 0 0.3870878006184586 0.17839922328087529 0 0.39279832865585401 0.1606922504345254 0 0.3870878006184586 0.17839922328087529 0 0.37898822697909629 0.18922513969906549 0 0.39221385883716159 0.19486797194152519 0 0.37088829205465479 0.17853205731841709 0 0.3870878006184586 0.17839922328087529 0 0.37898822697909629 0.18922513969906549 0 0.37088829205465479 0.17853205731841709 0 0.37712431978027788 0.1695346770429835 0 0.3870878006184586 0.17839922328087529 0 0.3870878006184586 0.17839922328087529 0 0.40611455669724011 0.17991825014170901 0 0.39221385883716159 0.19486797194152519 0 0.3870878006184586 0.17839922328087529 0 0.40611455669724011 0.17991825014170901 0 0.39279832865585401 0.1606922504345254 0 0.40611455669724011 0.17991825014170901 0 0.39279832865585401 0.1606922504345254 0 0.40857362771575428 0.16254790982999059 0 0.40379572185326612 0.15055396421777181 0 0.39279832865585401 0.1606922504345254 0 0.40857362771575428 0.16254790982999059 0 0.40611455669724011 0.17991825014170901 0 0.39279832865585401 0.1606922504345254 0 0.40611455669724011 0.17991825014170901 0 0.42159574480029982 0.16864798528922631 0 0.40857362771575428 0.16254790982999059 0 0.42159574480029982 0.16864798528922631 0 0.40857362771575428 0.16254790982999059 0 0.41856378657211152 0.1529270990667205 0 0.40611455669724011 0.17991825014170901 0 0.42159574480029982 0.16864798528922631 0 0.42450482599386452 0.18501362632660731 0 0.4364947390121337 0.17511933966989629 0 0.42450482599386452 0.18501362632660731 0 0.43559631436458462 0.1911371539067542 0 0.42159574480029982 0.16864798528922631 0 0.4364947390121337 0.17511933966989629 0 0.42450482599386452 0.18501362632660731 0 0.42159574480029982 0.16864798528922631 0 0.4364947390121337 0.17511933966989629 0 0.43749774375809991 0.15513418467149301 0 0.42159574480029982 0.16864798528922631 0 0.43749774375809991 0.15513418467149301 0 0.41856378657211152 0.1529270990667205 0 0.43749774375809991 0.15513418467149301 0 0.4329575722400606 0.13019000753010321 0 0.41856378657211152 0.1529270990667205 0 0.4329575722400606 0.13019000753010321 0 0.40829112576812782 0.1360973550056328 0 0.41201545592872929 0.1179112079538441 0 0.4329575722400606 0.13019000753010321 0 0.40829112576812782 0.1360973550056328 0 0.41856378657211152 0.1529270990667205 0 0.40379572185326612 0.15055396421777181 0 0.40829112576812782 0.1360973550056328 0 0.41856378657211152 0.1529270990667205 0 0.40379572185326612 0.15055396421777181 0 0.40857362771575428 0.16254790982999059 0 0.41856378657211152 0.1529270990667205 0 0.39841345742274581 0.25292560357210431 0 0.39769282761244301 0.2370991709359179 0 0.40722689344057672 0.23417856896257469 0 0.39841345742274581 0.25292560357210431 0 0.39769282761244301 0.2370991709359179 0 0.3890583669794983 0.24542194912678009 0 0.39841345742274581 0.25292560357210431 0 0.39769282761244301 0.2370991709359179 0 0.39769282761244301 0.2370991709359179 0 0.3890583669794983 0.24542194912678009 0 0.39013899441145972 0.23320476864437709 0 0.37620184814355162 0.25053821619171168 0 0.3890583669794983 0.24542194912678009 0 0.38044371885239342 0.23341846495438409 0 0.3890583669794983 0.24542194912678009 0 0.39013899441145972 0.23320476864437709 0 0.38044371885239342 0.23341846495438409 0 0.39013899441145972 0.23320476864437709 0 0.38044371885239342 0.23341846495438409 0 0.39201186231152879 0.21528078116251931 0 0.37295199355019781 0.22002181866034101 0 0.38044371885239342 0.23341846495438409 0 0.39201186231152879 0.21528078116251931 0 0.39787381250745429 0.23072195151767999 0 0.39201186231152879 0.21528078116251931 0 0.41679988535517032 0.23109241089406379 0 0.39201186231152879 0.21528078116251931 0 0.40666844332328123 0.21509153628031699 0 0.41679988535517032 0.23109241089406379 0 0.39013899441145972 0.23320476864437709 0 0.39787381250745429 0.23072195151767999 0 0.39201186231152879 0.21528078116251931 0 0.39201186231152879 0.21528078116251931 0 0.41679988535517032 0.23109241089406379 0 0.39769282761244301 0.2370991709359179 0 0.39013899441145972 0.23320476864437709 0 0.39787381250745429 0.23072195151767999 0 0.39769282761244301 0.2370991709359179 0 0.39787381250745429 0.23072195151767999 0 0.40722689344057672 0.23417856896257469 0 0.40175088171535839 0.20494654738934809 0 0.39201186231152879 0.21528078116251931 0 0.39221385883716159 0.19486797194152519 0 0.40175088171535839 0.20494654738934809 0 0.39201186231152879 0.21528078116251931 0 0.40666844332328123 0.21509153628031699 0 0.40175088171535839 0.20494654738934809 0 0.40848421953816239 0.20862435961250039 0 0.40666844332328123 0.21509153628031699 0 0.39201186231152879 0.21528078116251931 0 0.37508341755997909 0.2037224782472532 0 0.39221385883716159 0.19486797194152519 0 0.37295199355019781 0.22002181866034101 0 0.39201186231152879 0.21528078116251931 0 0.37508341755997909 0.2037224782472532 0 0.37508341755997909 0.2037224782472532 0 0.37898822697909629 0.18922513969906549 0 0.39221385883716159 0.19486797194152519 0 0.40175088171535839 0.20494654738934809 0 0.40275559799437938 0.19497228853317411 0 0.41192679013554329 0.20017117121313091 0 0.40175088171535839 0.20494654738934809 0 0.39221385883716159 0.19486797194152519 0 0.40275559799437938 0.19497228853317411 0 0.40611455669724011 0.17991825014170901 0 0.39221385883716159 0.19486797194152519 0 0.40275559799437938 0.19497228853317411 0 0.40611455669724011 0.17991825014170901 0 0.40275559799437938 0.19497228853317411 0 0.41192679013554329 0.20017117121313091 0 0.40611455669724011 0.17991825014170901 0 0.41192679013554329 0.20017117121313091 0 0.41943078473862622 0.19914424984889259 0 0.40611455669724011 0.17991825014170901 0 0.42450482599386452 0.18501362632660731 0 0.41943078473862622 0.19914424984889259 0 0.40611455669724011 0.17991825014170901 0 0.41943078473862622 0.19914424984889259 0 0.42450482599386452 0.18501362632660731 0 0.41943078473862622 0.19914424984889259 0 0.42798223555389558 0.19460838116815751 0 0.42450482599386452 0.18501362632660731 0 0.42798223555389558 0.19460838116815751 0 0.43559631436458462 0.1911371539067542 0 0.42798223555389558 0.19460838116815751 0 0.43559631436458462 0.1911371539067542 0 0.43239701711850698 0.203138494590376 0 0.41943078473862622 0.19914424984889259 0 0.42798223555389558 0.19460838116815751 0 0.43239701711850698 0.203138494590376 0 0.41943078473862622 0.19914424984889259 0 0.43239701711850698 0.203138494590376 0 0.43274701278001249 0.21837024955607609 0 0.41943078473862622 0.19914424984889259 0 0.43274701278001249 0.21837024955607609 0 0.41436333774535672 0.21563179105359739 0 0.41943078473862622 0.19914424984889259 0 0.43274701278001249 0.21837024955607609 0 0.41192679013554329 0.20017117121313091 0 0.41943078473862622 0.19914424984889259 0 0.41436333774535672 0.21563179105359739 0 0.40175088171535839 0.20494654738934809 0 0.41192679013554329 0.20017117121313091 0 0.40848421953816239 0.20862435961250039 0 0.41192679013554329 0.20017117121313091 0 0.41436333774535672 0.21563179105359739 0 0.40848421953816239 0.20862435961250039 0 0.41192679013554329 0.20017117121313091 0 0.41436333774535672 0.21563179105359739 0 0.41436333774535672 0.21563179105359739 0 0.40848421953816239 0.20862435961250039 0 0.40666844332328123 0.21509153628031699 0 0.41436333774535672 0.21563179105359739 0 0.40666844332328123 0.21509153628031699 0 0.41679988535517032 0.23109241089406379 0 0.39787381250745429 0.23072195151767999 0 0.41679988535517032 0.23109241089406379 0 0.39787381250745429 0.23072195151767999 0 0.40722689344057672 0.23417856896257469 0 0.41679988535517032 0.23109241089406379 0 0.41436333774535672 0.21563179105359739 0 0.41679988535517032 0.23109241089406379 0 0.41882379690337701 0.2323834109852487 0 0.40722689344057672 0.23417856896257469 0 0.41679988535517032 0.23109241089406379 0 0.41725256435265468 0.23396479387632371 0 0.41679988535517032 0.23109241089406379 0 0.41882379690337701 0.2323834109852487 0 0.41679988535517032 0.23109241089406379 0 0.41725256435265468 0.23396479387632371 0 0.41882379690337701 0.2323834109852487 0 0.41679988535517032 0.23109241089406379 0 0.41725256435265468 0.23396479387632371 0 0.41725256435265468 0.23396479387632371 0 0.41882379690337701 0.2323834109852487 0 0.41436333774535672 0.21563179105359739 0 0.41679988535517032 0.23109241089406379 0 0.43274701278001249 0.21837024955607609 0 0.41882379690337701 0.2323834109852487 0 0.43274701278001249 0.21837024955607609 0 0.41882379690337701 0.2323834109852487 0 0.44309378176524361 0.2333089376637095 0 0.43274701278001249 0.21837024955607609 0 0.41436333774535672 0.21563179105359739 0 0.41882379690337701 0.2323834109852487 0 0.41882379690337701 0.2323834109852487 0 0.44309378176524361 0.2333089376637095 0 0.41882379690337701 0.2323834109852487 0 0.442195627131173 0.24729168846505481 0 0.41882379690337701 0.2323834109852487 0 0.442195627131173 0.24729168846505481 0 0.44309378176524361 0.2333089376637095 0 0.41882379690337701 0.2323834109852487 0 0.42703560437835469 0.24566011175496391 0 0.442195627131173 0.24729168846505481 0 0.39841345742274581 0.25292560357210431 0 0.40722689344057672 0.23417856896257469 0 0.41725256435265468 0.23396479387632371 0 0.39841345742274581 0.25292560357210431 0 0.41725256435265468 0.23396479387632371 0 0.42132370389524187 0.25979738607846348 0 0.41725256435265468 0.23396479387632371 0 0.42703560437835469 0.24566011175496391 0 0.39841345742274581 0.25292560357210431 0 0.42132370389524187 0.25979738607846348 0 0.41725256435265468 0.23396479387632371 0 0.42132370389524187 0.25979738607846348 0 0.41725256435265468 0.23396479387632371 0 0.41725256435265468 0.23396479387632371 0 0.41882379690337701 0.2323834109852487 0 0.42703560437835469 0.24566011175496391 0 0.45948224191416842 0.23424650396585511 0 0.47587070206309329 0.23518407026800059 0 0.46719891760118343 0.24306283654326999 0 0.45948224191416842 0.23424650396585511 0 0.47587070206309329 0.23518407026800059 0 0.45466448573164958 0.2412501258676939 0 0.44664371183311491 0.23843433460293739 0 0.45948224191416842 0.23424650396585511 0 0.46719891760118343 0.24306283654326999 0 0.45466448573164958 0.2412501258676939 0 0.45948224191416842 0.23424650396585511 0 0.46719891760118343 0.24306283654326999 0 0.45466448573164958 0.2412501258676939 0 0.45740662195574372 0.24845115420521979 0 0.44664371183311491 0.23843433460293739 0 0.44309378176524361 0.2333089376637095 0 0.45948224191416842 0.23424650396585511 0 0.45466448573164958 0.2412501258676939 0 0.442195627131173 0.24729168846505481 0 0.44664371183311491 0.23843433460293739 0 0.45466448573164958 0.2412501258676939 0 0.45740662195574372 0.24845115420521979 0 0.442195627131173 0.24729168846505481 0 0.442195627131173 0.24729168846505481 0 0.44664371183311491 0.23843433460293739 0 0.44309378176524361 0.2333089376637095 0 0.44664371183311491 0.23843433460293739 0 0.44309378176524361 0.2333089376637095 0 0.44309378176524361 0.2333089376637095 0 0.45948224191416842 0.23424650396585511 0 0.44309378176524361 0.2333089376637095 0 0.45948224191416842 0.23424650396585511 0 0.45229690606330941 0.21872103895059389 0 0.43274701278001249 0.21837024955607609 0 0.44309378176524361 0.2333089376637095 0 0.45229690606330941 0.21872103895059389 0 0.43274701278001249 0.21837024955607609 0 0.44309378176524361 0.2333089376637095 0 0.45948224191416842 0.23424650396585511 0 0.47080223876590688 0.21536645094553419 0 0.47587070206309329 0.23518407026800059 0 0.45948224191416842 0.23424650396585511 0 0.45229690606330941 0.21872103895059389 0 0.47080223876590688 0.21536645094553419 0 0.46573377546872119 0.1955488316230676 0 0.47080223876590688 0.21536645094553419 0 0.45975053387839038 0.2078101685685767 0 0.46573377546872119 0.1955488316230676 0 0.47080223876590688 0.21536645094553419 0 0.45975053387839038 0.2078101685685767 0 0.45229690606330941 0.21872103895059389 0 0.47080223876590688 0.21536645094553419 0 0.45975053387839038 0.2078101685685767 0 0.45229690606330941 0.21872103895059389 0 0.44752684750044902 0.20349493542829369 0 0.43274701278001249 0.21837024955607609 0 0.45229690606330941 0.21872103895059389 0 0.44752684750044902 0.20349493542829369 0 0.43274701278001249 0.21837024955607609 0 0.44752684750044902 0.20349493542829369 0 0.43239701711850698 0.203138494590376 0 0.43274701278001249 0.21837024955607609 0 0.44752684750044902 0.20349493542829369 0 0.43559631436458462 0.1911371539067542 0 0.44752684750044902 0.20349493542829369 0 0.44831666721963098 0.18377289183631321 0 0.44752684750044902 0.20349493542829369 0 0.46230668222088428 0.18861962130051041 0 0.44831666721963098 0.18377289183631321 0 0.43559631436458462 0.1911371539067542 0 0.43239701711850698 0.203138494590376 0 0.44752684750044902 0.20349493542829369 0 0.44752684750044902 0.20349493542829369 0 0.46573377546872119 0.1955488316230676 0 0.46230668222088428 0.18861962130051041 0 0.45975053387839038 0.2078101685685767 0 0.44752684750044902 0.20349493542829369 0 0.46573377546872119 0.1955488316230676 0 0.44752684750044902 0.20349493542829369 0 0.46230668222088428 0.18861962130051041 0 0.46573377546872119 0.1955488316230676 0 0.46230668222088428 0.18861962130051041 0 0.47620595005914917 0.1876177598890007 0 0.46573377546872119 0.1955488316230676 0 0.48285661837987037 0.20261620765424301 0 0.47620595005914917 0.1876177598890007 0 0.48285661837987037 0.20261620765424301 0 0.5 0.2117833778819401 0 0.5 0.18293454601562539 0 0.48285661837987037 0.20261620765424301 0 0.47620595005914917 0.1876177598890007 0 0.5 0.18293454601562539 0 0.48285661837987037 0.20261620765424301 0 0.5 0.2117833778819401 0 0.48418920782581332 0.22020470687318691 0 0.46573377546872119 0.1955488316230676 0 0.48285661837987037 0.20261620765424301 0 0.47080223876590688 0.21536645094553419 0 0.48285661837987037 0.20261620765424301 0 0.47080223876590688 0.21536645094553419 0 0.48418920782581332 0.22020470687318691 0 0.47080223876590688 0.21536645094553419 0 0.47587070206309329 0.23518407026800059 0 0.48418920782581332 0.22020470687318691 0 0.49141647992019633 0.23607342761621661 0 0.47587070206309329 0.23518407026800059 0 0.47080223876590688 0.21536645094553419 0 0.48418920782581332 0.22020470687318691 0 0.47587070206309329 0.23518407026800059 0 0.5 0.2117833778819401 0 0.49999999999999512 0.24063220974825469 0 0.49141647992019633 0.23607342761621661 0 0.5 0.2117833778819401 0 0.48418920782581332 0.22020470687318691 0 0.49141647992019633 0.23607342761621661 0 0.48040344773885341 0.25290704131874492 0 0.49999999999999512 0.24063220974825469 0 0.49141647992019633 0.23607342761621661 0 0.48040344773885341 0.25290704131874492 0 0.49999999999999512 0.24063220974825469 0 0.48040344773885341 0.25290704131874492 0 0.49141647992019633 0.23607342761621661 0 0.47587070206309329 0.23518407026800059 0 0.48040344773885341 0.25290704131874492 0 0.46719891760118343 0.24306283654326999 0 0.47587070206309329 0.23518407026800059 0 0.48040344773885341 0.25290704131874492 0 0.47587070206309329 0.23518407026800059 0 0.49141647992019633 0.23607342761621661 0 0.47587070206309329 0.23518407026800059 0 0.45637678878305921 0.14772668919780041 0 0.46609117205379602 0.16279000325817289 0 0.47854903737325177 0.14760976832937789 0 0.45637678878305921 0.14772668919780041 0 0.47854903737325177 0.14760976832937789 0 0.4700409831536122 0.1223241517249597 0 0.45637678878305921 0.14772668919780041 0 0.4700409831536122 0.1223241517249597 0 0.44951316032401278 0.1180446503327537 0 0.4329575722400606 0.13019000753010321 0 0.45637678878305921 0.14772668919780041 0 0.44951316032401278 0.1180446503327537 0 0.43749774375809991 0.15513418467149301 0 0.4329575722400606 0.13019000753010321 0 0.45637678878305921 0.14772668919780041 0 0.4364947390121337 0.17511933966989629 0 0.43749774375809991 0.15513418467149301 0 0.45466363644221208 0.16974452452877281 0 0.43749774375809991 0.15513418467149301 0 0.45637678878305921 0.14772668919780041 0 0.45466363644221208 0.16974452452877281 0 0.4364947390121337 0.17511933966989629 0 0.43559631436458462 0.1911371539067542 0 0.44831666721963098 0.18377289183631321 0 0.4364947390121337 0.17511933966989629 0 0.44831666721963098 0.18377289183631321 0 0.45466363644221208 0.16974452452877281 0 0.46230668222088428 0.18861962130051041 0 0.44831666721963098 0.18377289183631321 0 0.45716185919669727 0.18012795171835511 0 0.45716185919669727 0.18012795171835511 0 0.46377988072913728 0.1751247270621864 0 0.45466363644221208 0.16974452452877281 0 0.44831666721963098 0.18377289183631321 0 0.45716185919669727 0.18012795171835511 0 0.45466363644221208 0.16974452452877281 0 0.46230668222088428 0.18861962130051041 0 0.46377988072913728 0.1751247270621864 0 0.4770865169413197 0.17374430717272701 0 0.46230668222088428 0.18861962130051041 0 0.45716185919669727 0.18012795171835511 0 0.46377988072913728 0.1751247270621864 0 0.45637678878305921 0.14772668919780041 0 0.45466363644221208 0.16974452452877281 0 0.46609117205379602 0.16279000325817289 0 0.46377988072913728 0.1751247270621864 0 0.45466363644221208 0.16974452452877281 0 0.46609117205379602 0.16279000325817289 0 0.46609117205379602 0.16279000325817289 0 0.4770865169413197 0.17374430717272701 0 0.47854903737325177 0.14760976832937789 0 0.46377988072913728 0.1751247270621864 0 0.46609117205379602 0.16279000325817289 0 0.4770865169413197 0.17374430717272701 0 0.46230668222088428 0.18861962130051041 0 0.4770865169413197 0.17374430717272701 0 0.46230668222088428 0.18861962130051041 0 0.47620595005914917 0.1876177598890007 0 0.4770865169413197 0.17374430717272701 0 0.47620595005914917 0.1876177598890007 0 0.4770865169413197 0.17374430717272701 0 0.5 0.18293454601562539 0 0.4770865169413197 0.17374430717272701 0 0.5 0.18293454601562539 0 0.5 0.1540857141493108 0 0.4770865169413197 0.17374430717272701 0 0.5 0.1540857141493108 0 0.47854903737325177 0.14760976832937789 0 0.5 0.1540857141493108 0 0.47854903737325177 0.14760976832937789 0 0.5 0.1252368822829962 0 0.47854903737325177 0.14760976832937789 0 0.5 0.1252368822829962 0 0.4700409831536122 0.1223241517249597 0 0.5 0.1252368822829962 0 0.5 0.096388050416681526 0 0.48102523490382032 0.1042299915092174 0 0.5 0.096388050416681526 0 0.48102523490382032 0.1042299915092174 0 0.48091184459940978 0.084310429720225386 0 0.48102523490382032 0.1042299915092174 0 0.4700409831536122 0.1223241517249597 0 0.45812359377026002 0.092913252289249335 0 0.48102523490382032 0.1042299915092174 0 0.48091184459940978 0.084310429720225386 0 0.45812359377026002 0.092913252289249335 0 0.5 0.1252368822829962 0 0.48102523490382032 0.1042299915092174 0 0.4700409831536122 0.1223241517249597 0 0.5 0.067539218550366931 0 0.48091184459940978 0.084310429720225386 0 0.46623336244883939 0.060486387687283691 0 0.5 0.096388050416681526 0 0.5 0.067539218550366931 0 0.48091184459940978 0.084310429720225386 0 0.45812359377026002 0.092913252289249335 0 0.44646812591510998 0.068404269051783123 0 0.46623336244883939 0.060486387687283691 0 0.48091184459940978 0.084310429720225386 0 0.45812359377026002 0.092913252289249335 0 0.46623336244883939 0.060486387687283691 0 0.45812359377026002 0.092913252289249335 0 0.44646812591510998 0.068404269051783123 0 0.43662104068737623 0.08235852021283728 0 0.45812359377026002 0.092913252289249335 0 0.43091192286607688 0.1036730476338967 0 0.43662104068737623 0.08235852021283728 0 0.4700409831536122 0.1223241517249597 0 0.45812359377026002 0.092913252289249335 0 0.44951316032401278 0.1180446503327537 0 0.45812359377026002 0.092913252289249335 0 0.44951316032401278 0.1180446503327537 0 0.43091192286607688 0.1036730476338967 0 0.4329575722400606 0.13019000753010321 0 0.44951316032401278 0.1180446503327537 0 0.43091192286607688 0.1036730476338967 0 0.4329575722400606 0.13019000753010321 0 0.41201545592872929 0.1179112079538441 0 0.4329575722400606 0.13019000753010321 0 0.41201545592872929 0.1179112079538441 0 0.43091192286607688 0.1036730476338967 0 0.40812185154277197 0.1001134895392812 0 0.43091192286607688 0.1036730476338967 0 0.41789393940025382 0.083338324249765242 0 0.41201545592872929 0.1179112079538441 0 0.40812185154277197 0.1001134895392812 0 0.43091192286607688 0.1036730476338967 0 0.43091192286607688 0.1036730476338967 0 0.43662104068737623 0.08235852021283728 0 0.41789393940025382 0.083338324249765242 0 0.43662104068737623 0.08235852021283728 0 0.42750596304381799 0.064971260991549373 0 0.41789393940025382 0.083338324249765242 0 0.44646812591510998 0.068404269051783123 0 0.43662104068737623 0.08235852021283728 0 0.42750596304381799 0.064971260991549373 0 0.42750596304381799 0.064971260991549373 0 0.41789393940025382 0.083338324249765242 0 0.40486605683093019 0.065466100350811116 0 0.40812185154277197 0.1001134895392812 0 0.41789393940025382 0.083338324249765242 0 0.39148104283891338 0.08318149219325166 0 0.41789393940025382 0.083338324249765242 0 0.39148104283891338 0.08318149219325166 0 0.40486605683093019 0.065466100350811116 0 0.39148104283891338 0.08318149219325166 0 0.40486605683093019 0.065466100350811116 0 0.37957571760244913 0.062224180256092262 0 0.36851912298758599 0.07592937731354811 0 0.39148104283891338 0.08318149219325166 0 0.37957571760244913 0.062224180256092262 0 0.37013122330606679 0.093353608801325955 0 0.36851912298758599 0.07592937731354811 0 0.39148104283891338 0.08318149219325166 0 0.37013122330606679 0.093353608801325955 0 0.37671153772720778 0.1110828360015797 0 0.3910733396173981 0.105632408377585 0 0.37013122330606679 0.093353608801325955 0 0.3910733396173981 0.105632408377585 0 0.37013122330606679 0.093353608801325955 0 0.39148104283891338 0.08318149219325166 0 0.3910733396173981 0.105632408377585 0 0.3737183066341207 0.1227588990857422 0 0.37671153772720778 0.1110828360015797 0 0.39046002760464332 0.12358602896092941 0 0.37671153772720778 0.1110828360015797 0 0.39046002760464332 0.12358602896092941 0 0.3910733396173981 0.105632408377585 0 0.41201545592872929 0.1179112079538441 0 0.39046002760464332 0.12358602896092941 0 0.3910733396173981 0.105632408377585 0 0.41201545592872929 0.1179112079538441 0 0.3910733396173981 0.105632408377585 0 0.41201545592872929 0.1179112079538441 0 0.40812185154277197 0.1001134895392812 0 0.3910733396173981 0.105632408377585 0 0.40812185154277197 0.1001134895392812 0 0.39148104283891338 0.08318149219325166 0 0.3910733396173981 0.105632408377585 0 0.40222387322964398 0.026702498304171731 0 0.39052595386040329 0.01076126707249991 0 0.38039522095105421 0.02661564160026297 0 0.39052595386040329 0.01076126707249991 0 0.41557872748318991 0.00078904871643307051 0 0.38926055774356211 -0.0093784589387459968 0 0.40222387322964398 0.026702498304171731 0 0.39052595386040329 0.01076126707249991 0 0.41557872748318991 0.00078904871643307051 0 0.39052595386040329 0.01076126707249991 0 0.41557872748318991 0.00078904871643307051 0 0.3736528700689532 0.0082629936107709301 0 0.39052595386040329 0.01076126707249991 0 0.38039522095105421 0.02661564160026297 0 0.3736528700689532 0.0082629936107709301 0 0.39052595386040329 0.01076126707249991 0 0.38926055774356211 -0.0093784589387459968 0 0.36714431184593332 0.04195940538457317 0 0.38039522095105421 0.02661564160026297 0 0.39225735121222471 0.047295185309543998 0 0.36714431184593332 0.04195940538457317 0 0.37957571760244913 0.062224180256092262 0 0.39225735121222471 0.047295185309543998 0 0.40486605683093019 0.065466100350811116 0 0.39225735121222471 0.047295185309543998 0 0.41416973922773681 0.046589465772859093 0 0.40486605683093019 0.065466100350811116 0 0.37957571760244913 0.062224180256092262 0 0.39225735121222471 0.047295185309543998 0 0.40222387322964398 0.026702498304171731 0 0.38039522095105421 0.02661564160026297 0 0.39225735121222471 0.047295185309543998 0 0.40222387322964398 0.026702498304171731 0 0.39225735121222471 0.047295185309543998 0 0.41416973922773681 0.046589465772859093 0 0.40222387322964398 0.026702498304171731 0 0.41416973922773681 0.046589465772859093 0 0.42163368116895777 0.026285568535191348 0 0.42750596304381799 0.064971260991549373 0 0.40486605683093019 0.065466100350811116 0 0.41416973922773681 0.046589465772859093 0 0.42750596304381799 0.064971260991549373 0 0.41416973922773681 0.046589465772859093 0 0.43945335274253178 0.044307030382110951 0 0.41416973922773681 0.046589465772859093 0 0.42163368116895777 0.026285568535191348 0 0.43945335274253178 0.044307030382110951 0 0.42163368116895777 0.026285568535191348 0 0.43874556639473999 0.01506861162550188 0 0.43945335274253178 0.044307030382110951 0 0.40222387322964398 0.026702498304171731 0 0.42163368116895777 0.026285568535191348 0 0.41557872748318991 0.00078904871643307051 0 0.42163368116895777 0.026285568535191348 0 0.41557872748318991 0.00078904871643307051 0 0.43874556639473999 0.01506861162550188 0 0.41557872748318991 0.00078904871643307051 0 0.43874556639473999 0.01506861162550188 0 0.44063150110597638 -0.0091831696396336895 0 0.43874556639473999 0.01506861162550188 0 0.45532156158827242 0.0042154923704404053 0 0.44063150110597638 -0.0091831696396336895 0 0.43874556639473999 0.01506861162550188 0 0.46043280708286122 0.027972389344425669 0 0.45532156158827242 0.0042154923704404053 0 0.43874556639473999 0.01506861162550188 0 0.46043280708286122 0.027972389344425669 0 0.43945335274253178 0.044307030382110951 0 0.46043280708286122 0.027972389344425669 0 0.45532156158827242 0.0042154923704404053 0 0.47516801302407652 0.0054902572769904411 0 0.46043280708286122 0.027972389344425669 0 0.43945335274253178 0.044307030382110951 0 0.46623336244883939 0.060486387687283691 0 0.44646812591510998 0.068404269051783123 0 0.42750596304381799 0.064971260991549373 0 0.43945335274253178 0.044307030382110951 0 0.44646812591510998 0.068404269051783123 0 0.43945335274253178 0.044307030382110951 0 0.46623336244883939 0.060486387687283691 0 0.5 0.067539218550366931 0 0.46623336244883939 0.060486387687283691 0 0.47993403858572609 0.042841654514256713 0 0.46043280708286122 0.027972389344425669 0 0.46623336244883939 0.060486387687283691 0 0.47993403858572609 0.042841654514256713 0 0.46043280708286122 0.027972389344425669 0 0.47993403858572609 0.042841654514256713 0 0.48411718826230621 0.023803928854194849 0 0.47993403858572609 0.042841654514256713 0 0.5 0.038690386684052343 0 0.48411718826230621 0.023803928854194849 0 0.5 0.067539218550366931 0 0.47993403858572609 0.042841654514256713 0 0.5 0.038690386684052343 0 0.46043280708286122 0.027972389344425669 0 0.47516801302407652 0.0054902572769904411 0 0.48411718826230621 0.023803928854194849 0 0.5 0.038690386684052343 0 0.48411718826230621 0.023803928854194849 0 0.5 0.009841554817737741 0 0.47516801302407652 0.0054902572769904411 0 0.48411718826230621 0.023803928854194849 0 0.5 0.009841554817737741 0 0.47516801302407652 0.0054902572769904411 0 0.5 -0.019007277048576961 0 0.46568427472876289 -0.01915538799570049 0 0.5 -0.019007277048576961 0 0.4799573578342371 -0.035416906633687198 0 0.46568427472876289 -0.01915538799570049 0 0.47516801302407652 0.0054902572769904411 0 0.5 0.009841554817737741 0 0.5 -0.019007277048576961 0 0.5 -0.04785610891489156 0 0.47367267976295813 -0.051246632127565313 0 0.4799573578342371 -0.035416906633687198 0 0.5 -0.019007277048576961 0 0.5 -0.04785610891489156 0 0.4799573578342371 -0.035416906633687198 0 0.5 -0.04785610891489156 0 0.47367267976295813 -0.051246632127565313 0 0.4805357143958755 -0.068971283131434399 0 0.47367267976295813 -0.051246632127565313 0 0.4805357143958755 -0.068971283131434399 0 0.4646750906632468 -0.064660127899228412 0 0.47367267976295813 -0.051246632127565313 0 0.4799573578342371 -0.035416906633687198 0 0.46042983467946458 -0.039819127081701738 0 0.4799573578342371 -0.035416906633687198 0 0.46042983467946458 -0.039819127081701738 0 0.46568427472876289 -0.01915538799570049 0 0.47367267976295813 -0.051246632127565313 0 0.46042983467946458 -0.039819127081701738 0 0.45400428838677132 -0.056732304581660002 0 0.47367267976295813 -0.051246632127565313 0 0.45400428838677132 -0.056732304581660002 0 0.4646750906632468 -0.064660127899228412 0 0.46042983467946458 -0.039819127081701738 0 0.45400428838677132 -0.056732304581660002 0 0.43900005470672598 -0.047879235496026913 0 0.45400428838677132 -0.056732304581660002 0 0.44023367345750919 -0.061345049763665831 0 0.44611632519280697 -0.069049099678639383 0 0.45400428838677132 -0.056732304581660002 0 0.43900005470672598 -0.047879235496026913 0 0.44023367345750919 -0.061345049763665831 0 0.46042983467946458 -0.039819127081701738 0 0.43900005470672598 -0.047879235496026913 0 0.44224034609130231 -0.029508267402632241 0 0.44224034609130231 -0.029508267402632241 0 0.44063150110597638 -0.0091831696396336895 0 0.46568427472876289 -0.01915538799570049 0 0.45532156158827242 0.0042154923704404053 0 0.47516801302407652 0.0054902572769904411 0 0.46568427472876289 -0.01915538799570049 0 0.45532156158827242 0.0042154923704404053 0 0.44063150110597638 -0.0091831696396336895 0 0.46568427472876289 -0.01915538799570049 0 0.44063150110597638 -0.0091831696396336895 0 0.46568427472876289 -0.01915538799570049 0 0.46042983467946458 -0.039819127081701738 0 0.44224034609130231 -0.029508267402632241 0 0.46568427472876289 -0.01915538799570049 0 0.46884866961315769 -0.1161637394171751 0 0.48491328751672158 -0.1110502766030996 0 0.48423750386373432 -0.12946991262086649 0 0.49999999999999989 -0.1195422043820585 0 0.48491328751672158 -0.1110502766030996 0 0.48423750386373432 -0.12946991262086649 0 0.49999999999999989 -0.1195422043820585 0 0.48491328751672158 -0.1110502766030996 0 0.5 -0.1055537726475209 0 0.48491328751672158 -0.1110502766030996 0 0.5 -0.1055537726475209 0 0.48620368478129888 -0.095427700484672612 0 0.48620368478129888 -0.095427700484672612 0 0.4705413158859314 -0.10014433006630399 0 0.47704993482171099 -0.091751348054048609 0 0.48491328751672158 -0.1110502766030996 0 0.48620368478129888 -0.095427700484672612 0 0.4705413158859314 -0.10014433006630399 0 0.46884866961315769 -0.1161637394171751 0 0.48491328751672158 -0.1110502766030996 0 0.4705413158859314 -0.10014433006630399 0 0.4705413158859314 -0.10014433006630399 0 0.47704993482171099 -0.091751348054048609 0 0.46825892939433827 -0.091687208755492744 0 0.47311891823174401 -0.084397535689683084 0 0.47704993482171099 -0.091751348054048609 0 0.46825892939433827 -0.091687208755492744 0 0.47311891823174401 -0.084397535689683084 0 0.47704993482171099 -0.091751348054048609 0 0.4868111947580735 -0.081430905819987021 0 0.47311891823174401 -0.084397535689683084 0 0.4868111947580735 -0.081430905819987021 0 0.4805357143958755 -0.068971283131434399 0 0.48620368478129888 -0.095427700484672612 0 0.47704993482171099 -0.091751348054048609 0 0.4868111947580735 -0.081430905819987021 0 0.5 -0.1055537726475209 0 0.48620368478129888 -0.095427700484672612 0 0.5 -0.07670494078120621 0 0.48620368478129888 -0.095427700484672612 0 0.4868111947580735 -0.081430905819987021 0 0.5 -0.07670494078120621 0 0.4868111947580735 -0.081430905819987021 0 0.5 -0.07670494078120621 0 0.4805357143958755 -0.068971283131434399 0 0.5 -0.04785610891489156 0 0.5 -0.07670494078120621 0 0.4805357143958755 -0.068971283131434399 0 0.4805357143958755 -0.068971283131434399 0 0.4646750906632468 -0.064660127899228412 0 0.46393726486078912 -0.075612641709820155 0 0.47311891823174401 -0.084397535689683084 0 0.4805357143958755 -0.068971283131434399 0 0.46393726486078912 -0.075612641709820155 0 0.4646750906632468 -0.064660127899228412 0 0.46393726486078912 -0.075612641709820155 0 0.45543559003998269 -0.070373105037676312 0 0.46393726486078912 -0.075612641709820155 0 0.45543559003998269 -0.070373105037676312 0 0.45615758502716203 -0.079546974458337513 0 0.45543559003998269 -0.070373105037676312 0 0.44976903337545687 -0.075906715394159927 0 0.45615758502716203 -0.079546974458337513 0 0.45400428838677132 -0.056732304581660002 0 0.4646750906632468 -0.064660127899228412 0 0.45543559003998269 -0.070373105037676312 0 0.45400428838677132 -0.056732304581660002 0 0.45543559003998269 -0.070373105037676312 0 0.44611632519280697 -0.069049099678639383 0 0.44023367345750919 -0.061345049763665831 0 0.44611632519280697 -0.069049099678639383 0 0.43645546060976448 -0.070828578201975786 0 0.44611632519280697 -0.069049099678639383 0 0.44273898886027813 -0.078071401337796859 0 0.43645546060976448 -0.070828578201975786 0 0.44611632519280697 -0.069049099678639383 0 0.44273898886027813 -0.078071401337796859 0 0.44976903337545687 -0.075906715394159927 0 0.45543559003998269 -0.070373105037676312 0 0.44611632519280697 -0.069049099678639383 0 0.44976903337545687 -0.075906715394159927 0 0.45183618897692801 -0.085320402892194558 0 0.44851040966706568 -0.082432147889767202 0 0.43500129839306861 -0.092958338634198029 0 0.44976903337545687 -0.075906715394159927 0 0.44851040966706568 -0.082432147889767202 0 0.45615758502716203 -0.079546974458337513 0 0.45183618897692801 -0.085320402892194558 0 0.45997309117242019 -0.087349945506293797 0 0.43500129839306861 -0.092958338634198029 0 0.45997309117242019 -0.087349945506293797 0 0.43500129839306861 -0.092958338634198029 0 0.45183618897692801 -0.085320402892194558 0 0.44851040966706568 -0.082432147889767202 0 0.45615758502716203 -0.079546974458337513 0 0.44273898886027813 -0.078071401337796859 0 0.44976903337545687 -0.075906715394159927 0 0.44851040966706568 -0.082432147889767202 0 0.44273898886027813 -0.078071401337796859 0 0.44851040966706568 -0.082432147889767202 0 0.43500129839306861 -0.092958338634198029 0 0.45183618897692801 -0.085320402892194558 0 0.45997309117242019 -0.087349945506293797 0 0.45831190066080651 -0.083993964138667221 0 0.45183618897692801 -0.085320402892194558 0 0.45615758502716203 -0.079546974458337513 0 0.45831190066080651 -0.083993964138667221 0 0.46393726486078912 -0.075612641709820155 0 0.45615758502716203 -0.079546974458337513 0 0.4612635037051131 -0.081344579914747528 0 0.45615758502716203 -0.079546974458337513 0 0.45831190066080651 -0.083993964138667221 0 0.4612635037051131 -0.081344579914747528 0 0.45997309117242019 -0.087349945506293797 0 0.45831190066080651 -0.083993964138667221 0 0.4612635037051131 -0.081344579914747528 0 0.47311891823174401 -0.084397535689683084 0 0.45997309117242019 -0.087349945506293797 0 0.47311891823174401 -0.084397535689683084 0 0.46393726486078912 -0.075612641709820155 0 0.4612635037051131 -0.081344579914747528 0 0.47311891823174401 -0.084397535689683084 0 0.45997309117242019 -0.087349945506293797 0 0.4612635037051131 -0.081344579914747528 0 0.47311891823174401 -0.084397535689683084 0 0.45997309117242019 -0.087349945506293797 0 0.46825892939433827 -0.091687208755492744 0 0.45997309117242019 -0.087349945506293797 0 0.46825892939433827 -0.091687208755492744 0 0.46329127638336182 -0.094487196429642303 0 0.46884866961315769 -0.1161637394171751 0 0.45733037605047888 -0.099495008684403211 0 0.44738370579366432 -0.1069482129361468 0 0.45997309117242019 -0.087349945506293797 0 0.45733037605047888 -0.099495008684403211 0 0.44738370579366432 -0.1069482129361468 0 0.45997309117242019 -0.087349945506293797 0 0.44738370579366432 -0.1069482129361468 0 0.46884866961315769 -0.1161637394171751 0 0.4705413158859314 -0.10014433006630399 0 0.45733037605047888 -0.099495008684403211 0 0.4705413158859314 -0.10014433006630399 0 0.46825892939433827 -0.091687208755492744 0 0.46329127638336182 -0.094487196429642303 0 0.4705413158859314 -0.10014433006630399 0 0.46329127638336182 -0.094487196429642303 0 0.45733037605047888 -0.099495008684403211 0 0.45997309117242019 -0.087349945506293797 0 0.46329127638336182 -0.094487196429642303 0 0.45733037605047888 -0.099495008684403211 0 0.45997309117242019 -0.087349945506293797 0 0.44738370579366432 -0.1069482129361468 0 0.43500129839306861 -0.092958338634198029 0 0.44738370579366432 -0.1069482129361468 0 0.45121129326441939 -0.1227321202735536 0 0.43479432041490851 -0.126546480366 0 0.44738370579366432 -0.1069482129361468 0 0.43479432041490851 -0.126546480366 0 0.46884866961315769 -0.1161637394171751 0 0.44738370579366432 -0.1069482129361468 0 0.45121129326441939 -0.1227321202735536 0 0.42709025168770542 -0.1102534284144062 0 0.41002950561371648 -0.098566731762100568 0 0.4111337927182464 -0.12736345745607119 0 0.41002950561371648 -0.098566731762100568 0 0.4111337927182464 -0.12736345745607119 0 0.44738370579366432 -0.1069482129361468 0 0.42709025168770542 -0.1102534284144062 0 0.43479432041490851 -0.126546480366 0 0.42709025168770542 -0.1102534284144062 0 0.43479432041490851 -0.126546480366 0 0.4111337927182464 -0.12736345745607119 0 0.44738370579366432 -0.1069482129361468 0 0.42709025168770542 -0.1102534284144062 0 0.43500129839306861 -0.092958338634198029 0 0.42709025168770542 -0.1102534284144062 0 0.41002950561371648 -0.098566731762100568 0 0.43500129839306861 -0.092958338634198029 0 0.41002950561371648 -0.098566731762100568 0 0.43500129839306861 -0.092958338634198029 0 0.41002950561371648 -0.098566731762100568 0 0.42034634304916962 -0.087043019575958655 0 0.4092000761962335 -0.076937527436724565 0 0.41002950561371648 -0.098566731762100568 0 0.42034634304916962 -0.087043019575958655 0 0.43500129839306861 -0.092958338634198029 0 0.41002950561371648 -0.098566731762100568 0 0.4092000761962335 -0.076937527436724565 0 0.42034634304916962 -0.087043019575958655 0 0.42975729065851709 -0.079133541085269349 0 0.4092000761962335 -0.076937527436724565 0 0.42034634304916962 -0.087043019575958655 0 0.43500129839306861 -0.092958338634198029 0 0.42975729065851709 -0.079133541085269349 0 0.44273898886027813 -0.078071401337796859 0 0.43500129839306861 -0.092958338634198029 0 0.42975729065851709 -0.079133541085269349 0 0.44273898886027813 -0.078071401337796859 0 0.42975729065851709 -0.079133541085269349 0 0.43645546060976448 -0.070828578201975786 0 0.42975729065851709 -0.079133541085269349 0 0.43645546060976448 -0.070828578201975786 0 0.42641494602472618 -0.064656293155232053 0 0.44023367345750919 -0.061345049763665831 0 0.43645546060976448 -0.070828578201975786 0 0.42641494602472618 -0.064656293155232053 0 0.42975729065851709 -0.079133541085269349 0 0.42641494602472618 -0.064656293155232053 0 0.4092000761962335 -0.076937527436724565 0 0.42641494602472618 -0.064656293155232053 0 0.4092000761962335 -0.076937527436724565 0 0.4047453804342383 -0.062553586378123638 0 0.4047453804342383 -0.062553586378123638 0 0.3970632931651506 -0.076015137242342962 0 0.38666416644501239 -0.066591953361927053 0 0.4092000761962335 -0.076937527436724565 0 0.4047453804342383 -0.062553586378123638 0 0.3970632931651506 -0.076015137242342962 0 0.3970632931651506 -0.076015137242342962 0 0.38666416644501239 -0.066591953361927053 0 0.38540136519319163 -0.08603001002579834 0 0.38666416644501239 -0.066591953361927053 0 0.38540136519319163 -0.08603001002579834 0 0.37140926728998441 -0.07862546815922325 0 0.38666416644501239 -0.066591953361927053 0 0.37967327637048248 -0.056421610965578378 0 0.37345174830596473 -0.065526222630154562 0 0.38666416644501239 -0.066591953361927053 0 0.37345174830596473 -0.065526222630154562 0 0.37140926728998441 -0.07862546815922325 0 0.38540136519319163 -0.08603001002579834 0 0.37140926728998441 -0.07862546815922325 0 0.36910940361380867 -0.096512415264035131 0 0.38540136519319163 -0.08603001002579834 0 0.39930547755707752 -0.087962609009141199 0 0.39734900219049468 -0.1014146349497327 0 0.41002950561371648 -0.098566731762100568 0 0.4092000761962335 -0.076937527436724565 0 0.39930547755707752 -0.087962609009141199 0 0.3970632931651506 -0.076015137242342962 0 0.38540136519319163 -0.08603001002579834 0 0.39930547755707752 -0.087962609009141199 0 0.4092000761962335 -0.076937527436724565 0 0.3970632931651506 -0.076015137242342962 0 0.39930547755707752 -0.087962609009141199 0 0.41002950561371648 -0.098566731762100568 0 0.39734900219049468 -0.1014146349497327 0 0.39642913999521012 -0.1178821333858929 0 0.41002950561371648 -0.098566731762100568 0 0.39734900219049468 -0.1014146349497327 0 0.41002950561371648 -0.098566731762100568 0 0.39930547755707752 -0.087962609009141199 0 0.39734900219049468 -0.1014146349497327 0 0.38287513032332432 -0.10032342928152201 0 0.37961446933266269 -0.1141634685789292 0 0.36910940361380867 -0.096512415264035131 0 0.38540136519319163 -0.08603001002579834 0 0.38287513032332432 -0.10032342928152201 0 0.36910940361380867 -0.096512415264035131 0 0.38540136519319163 -0.08603001002579834 0 0.39734900219049468 -0.1014146349497327 0 0.38287513032332432 -0.10032342928152201 0 0.38287513032332432 -0.10032342928152201 0 0.38950562174299702 -0.1089129787744732 0 0.37961446933266269 -0.1141634685789292 0 0.39734900219049468 -0.1014146349497327 0 0.38287513032332432 -0.10032342928152201 0 0.38950562174299702 -0.1089129787744732 0 0.38950562174299702 -0.1089129787744732 0 0.37961446933266269 -0.1141634685789292 0 0.39642913999521012 -0.1178821333858929 0 0.37961446933266269 -0.1141634685789292 0 0.36717637813648041 -0.13031094074813701 0 0.38090246017173152 -0.12780341436452999 0 0.37961446933266269 -0.1141634685789292 0 0.39642913999521012 -0.1178821333858929 0 0.38090246017173152 -0.12780341436452999 0 0.39734900219049468 -0.1014146349497327 0 0.38950562174299702 -0.1089129787744732 0 0.39642913999521012 -0.1178821333858929 0 0.41002950561371648 -0.098566731762100568 0 0.39642913999521012 -0.1178821333858929 0 0.4111337927182464 -0.12736345745607119 0 0.41952626682644989 -0.024362819656693051 0 0.39757265082988669 -0.0343766748324313 0 0.40548455072077222 -0.01683222617785932 0 0.41952626682644989 -0.024362819656693051 0 0.39757265082988669 -0.0343766748324313 0 0.41557872748318991 0.00078904871643307051 0 0.41952626682644989 -0.024362819656693051 0 0.40548455072077222 -0.01683222617785932 0 0.41557872748318991 0.00078904871643307051 0 0.44063150110597638 -0.0091831696396336895 0 0.41557872748318991 0.00078904871643307051 0 0.44063150110597638 -0.0091831696396336895 0 0.41952626682644989 -0.024362819656693051 0 0.44224034609130231 -0.029508267402632241 0 0.44063150110597638 -0.0091831696396336895 0 0.41952626682644989 -0.024362819656693051 0 0.44224034609130231 -0.029508267402632241 0 0.41952626682644989 -0.024362819656693051 0 0.42858669678539418 -0.036763170019305069 0 0.43900005470672598 -0.047879235496026913 0 0.42858669678539418 -0.036763170019305069 0 0.41648598825698191 -0.046092776503381942 0 0.43900005470672598 -0.047879235496026913 0 0.44224034609130231 -0.029508267402632241 0 0.42858669678539418 -0.036763170019305069 0 0.43900005470672598 -0.047879235496026913 0 0.44023367345750919 -0.061345049763665831 0 0.42641494602472618 -0.064656293155232053 0 0.43900005470672598 -0.047879235496026913 0 0.42641494602472618 -0.064656293155232053 0 0.41648598825698191 -0.046092776503381942 0 0.42641494602472618 -0.064656293155232053 0 0.4047453804342383 -0.062553586378123638 0 0.41648598825698191 -0.046092776503381942 0 0.41952626682644989 -0.024362819656693051 0 0.41648598825698191 -0.046092776503381942 0 0.39757265082988669 -0.0343766748324313 0 0.41952626682644989 -0.024362819656693051 0 0.42858669678539418 -0.036763170019305069 0 0.41648598825698191 -0.046092776503381942 0 0.41648598825698191 -0.046092776503381942 0 0.39757265082988669 -0.0343766748324313 0 0.39213026681996299 -0.050546125134221423 0 0.4047453804342383 -0.062553586378123638 0 0.41648598825698191 -0.046092776503381942 0 0.39213026681996299 -0.050546125134221423 0 0.4047453804342383 -0.062553586378123638 0 0.38666416644501239 -0.066591953361927053 0 0.39213026681996299 -0.050546125134221423 0 0.39213026681996299 -0.050546125134221423 0 0.37967327637048248 -0.056421610965578378 0 0.37561903483332348 -0.044390530008169587 0 0.38666416644501239 -0.066591953361927053 0 0.39213026681996299 -0.050546125134221423 0 0.37967327637048248 -0.056421610965578378 0 0.39757265082988669 -0.0343766748324313 0 0.37561903483332348 -0.044390530008169587 0 0.39757265082988669 -0.0343766748324313 0 0.39213026681996299 -0.050546125134221423 0 0.37561903483332348 -0.044390530008169587 0 0.39757265082988669 -0.0343766748324313 0 0.37561903483332348 -0.044390530008169587 0 0.3711119797101935 -0.031305905264858228 0 0.38926055774356211 -0.0093784589387459968 0 0.3711119797101935 -0.031305905264858228 0 0.38926055774356211 -0.0093784589387459968 0 0.37079056890512663 -0.017828038841448221 0 0.3711119797101935 -0.031305905264858228 0 0.39757265082988669 -0.0343766748324313 0 0.38926055774356211 -0.0093784589387459968 0 0.3711119797101935 -0.031305905264858228 0 0.39757265082988669 -0.0343766748324313 0 0.40548455072077222 -0.01683222617785932 0 0.38926055774356211 -0.0093784589387459968 0 0.41557872748318991 0.00078904871643307051 0 0.40548455072077222 -0.01683222617785932 0 0.38926055774356211 -0.0093784589387459968 0 0.3736528700689532 0.0082629936107709301 0 0.38926055774356211 -0.0093784589387459968 0 0.36507280813171161 -0.0078333009997206566 0 0.38926055774356211 -0.0093784589387459968 0 0.36507280813171161 -0.0078333009997206566 0 0.37079056890512663 -0.017828038841448221 0 0.36507280813171161 -0.0078333009997206566 0 0.37079056890512663 -0.017828038841448221 0 0.35771693003503929 -0.022794490162467991 0 0.37079056890512663 -0.017828038841448221 0 0.35771693003503929 -0.022794490162467991 0 0.3711119797101935 -0.031305905264858228 0 0.35771693003503929 -0.022794490162467991 0 0.35602586147669069 -0.035652615264667009 0 0.3711119797101935 -0.031305905264858228 0 0.36507280813171161 -0.0078333009997206566 0 0.34666010151661258 -0.016522427343668451 0 0.35771693003503929 -0.022794490162467991 0 0.34666010151661258 -0.016522427343668451 0 0.35771693003503929 -0.022794490162467991 0 0.34250216985450238 -0.035782989140302382 0 0.36507280813171161 -0.0078333009997206566 0 0.34666010151661258 -0.016522427343668451 0 0.34144549009991421 -0.0024310249084412219 0 0.35584829481317498 0.0068725965357478627 0 0.36507280813171161 -0.0078333009997206566 0 0.34144549009991421 -0.0024310249084412219 0 0.32096687577749938 0.00013999713015544479 0 0.34144549009991421 -0.0024310249084412219 0 0.3320409380321776 -0.018332626689633029 0 0.34666010151661258 -0.016522427343668451 0 0.34144549009991421 -0.0024310249084412219 0 0.3320409380321776 -0.018332626689633029 0 0.34144549009991421 -0.0024310249084412219 0 0.3320409380321776 -0.018332626689633029 0 0.3320409380321776 -0.018332626689633029 0 0.34250216985450238 -0.035782989140302382 0 0.3320409380321776 -0.018332626689633029 0 0.32147675091537509 -0.036194986902374222 0 0.34250216985450238 -0.035782989140302382 0 0.34666010151661258 -0.016522427343668451 0 0.3320409380321776 -0.018332626689633029 0 0.34250216985450238 -0.035782989140302382 0 0.3320409380321776 -0.018332626689633029 0 0.31769812144106352 -0.01437525172873471 0 0.32147675091537509 -0.036194986902374222 0 0.31769812144106352 -0.01437525172873471 0 0.32147675091537509 -0.036194986902374222 0 0.30365411937224379 -0.020096799022633619 0 0.3320409380321776 -0.018332626689633029 0 0.32147675091537509 -0.036194986902374222 0 0.32096687577749938 0.00013999713015544479 0 0.31769812144106352 -0.01437525172873471 0 0.30397987236055207 -0.0012468907866667431 0 0.32096687577749938 0.00013999713015544479 0 0.3320409380321776 -0.018332626689633029 0 0.32096687577749938 0.00013999713015544479 0 0.3320409380321776 -0.018332626689633029 0 0.31769812144106352 -0.01437525172873471 0 0.33429384860927042 -0.050249699083505753 0 0.32692763349415588 -0.066600476715377319 0 0.31091256379857268 -0.05405734711511536 0 0.32147675091537509 -0.036194986902374222 0 0.33429384860927042 -0.050249699083505753 0 0.31091256379857268 -0.05405734711511536 0 0.32147675091537509 -0.036194986902374222 0 0.31091256379857268 -0.05405734711511536 0 0.34250216985450238 -0.035782989140302382 0 0.33429384860927042 -0.050249699083505753 0 0.35366541883675873 -0.054404385183904592 0 0.32147675091537509 -0.036194986902374222 0 0.34250216985450238 -0.035782989140302382 0 0.33429384860927042 -0.050249699083505753 0 0.35098057191618881 -0.055629043036892832 0 0.32692763349415588 -0.066600476715377319 0 0.33429384860927042 -0.050249699083505753 0 0.35098057191618881 -0.055629043036892832 0 0.32692763349415588 -0.066600476715377319 0 0.33429384860927042 -0.050249699083505753 0 0.35098057191618881 -0.055629043036892832 0 0.35366541883675873 -0.054404385183904592 0 0.35098057191618881 -0.055629043036892832 0 0.35366541883675873 -0.054404385183904592 0 0.36191724113359408 -0.068169235481073676 0 0.35366541883675873 -0.054404385183904592 0 0.36191724113359408 -0.068169235481073676 0 0.35098057191618881 -0.055629043036892832 0 0.35366541883675873 -0.054404385183904592 0 0.34250216985450238 -0.035782989140302382 0 0.35366541883675873 -0.054404385183904592 0 0.35602586147669069 -0.035652615264667009 0 0.34250216985450238 -0.035782989140302382 0 0.35366541883675873 -0.054404385183904592 0 0.35771693003503929 -0.022794490162467991 0 0.34250216985450238 -0.035782989140302382 0 0.35602586147669069 -0.035652615264667009 0 0.35366541883675873 -0.054404385183904592 0 0.35602586147669069 -0.035652615264667009 0 0.3711119797101935 -0.031305905264858228 0 0.35366541883675873 -0.054404385183904592 0 0.3711119797101935 -0.031305905264858228 0 0.37561903483332348 -0.044390530008169587 0 0.35366541883675873 -0.054404385183904592 0 0.3711119797101935 -0.031305905264858228 0 0.37561903483332348 -0.044390530008169587 0 0.35366541883675873 -0.054404385183904592 0 0.36885652184741108 -0.057724742344901769 0 0.37561903483332348 -0.044390530008169587 0 0.35366541883675873 -0.054404385183904592 0 0.35366541883675873 -0.054404385183904592 0 0.36885652184741108 -0.057724742344901769 0 0.36191724113359408 -0.068169235481073676 0 0.37967327637048248 -0.056421610965578378 0 0.37561903483332348 -0.044390530008169587 0 0.36885652184741108 -0.057724742344901769 0 0.37967327637048248 -0.056421610965578378 0 0.36885652184741108 -0.057724742344901769 0 0.37345174830596473 -0.065526222630154562 0 0.36885652184741108 -0.057724742344901769 0 0.37345174830596473 -0.065526222630154562 0 0.36191724113359408 -0.068169235481073676 0 0.36191724113359408 -0.068169235481073676 0 0.37140926728998441 -0.07862546815922325 0 0.3537175356537885 -0.083435496599620809 0 0.37345174830596473 -0.065526222630154562 0 0.36191724113359408 -0.068169235481073676 0 0.37140926728998441 -0.07862546815922325 0 0.37140926728998441 -0.07862546815922325 0 0.3537175356537885 -0.083435496599620809 0 0.36910940361380867 -0.096512415264035131 0 0.35098057191618881 -0.055629043036892832 0 0.3537175356537885 -0.083435496599620809 0 0.33217782229453008 -0.078346871527596659 0 0.35098057191618881 -0.055629043036892832 0 0.36191724113359408 -0.068169235481073676 0 0.3537175356537885 -0.083435496599620809 0 0.37961446933266269 -0.1141634685789292 0 0.36407753728773068 -0.1119814146980614 0 0.36717637813648041 -0.13031094074813701 0 0.36407753728773068 -0.1119814146980614 0 0.34840637794023938 -0.1168115746038275 0 0.36717637813648041 -0.13031094074813701 0 0.37961446933266269 -0.1141634685789292 0 0.36407753728773068 -0.1119814146980614 0 0.36910940361380867 -0.096512415264035131 0 0.36407753728773068 -0.1119814146980614 0 0.36910940361380867 -0.096512415264035131 0 0.35438155398997689 -0.1015279634750634 0 0.3537175356537885 -0.083435496599620809 0 0.35438155398997689 -0.1015279634750634 0 0.33671424871030031 -0.1040281340010273 0 0.3537175356537885 -0.083435496599620809 0 0.36910940361380867 -0.096512415264035131 0 0.35438155398997689 -0.1015279634750634 0 0.35438155398997689 -0.1015279634750634 0 0.34840637794023938 -0.1168115746038275 0 0.33671424871030031 -0.1040281340010273 0 0.36407753728773068 -0.1119814146980614 0 0.35438155398997689 -0.1015279634750634 0 0.34840637794023938 -0.1168115746038275 0 0.33624744857125571 -0.12359802235197161 0 0.33671424871030031 -0.1040281340010273 0 0.32192523835141179 -0.12019422575326499 0 0.34840637794023938 -0.1168115746038275 0 0.33624744857125571 -0.12359802235197161 0 0.33671424871030031 -0.1040281340010273 0 0.33671424871030031 -0.1040281340010273 0 0.31337507267287068 -0.1010647000183001 0 0.32192523835141179 -0.12019422575326499 0 0.33671424871030031 -0.1040281340010273 0 0.31337507267287068 -0.1010647000183001 0 0.33217782229453008 -0.078346871527596659 0 0.32192523835141179 -0.12019422575326499 0 0.3114990928887208 -0.1151587506998855 0 0.30564212953838921 -0.12602733342769809 0 0.31337507267287068 -0.1010647000183001 0 0.32192523835141179 -0.12019422575326499 0 0.3114990928887208 -0.1151587506998855 0 0.31337507267287068 -0.1010647000183001 0 0.32192523835141179 -0.12019422575326499 0 0.35098057191618881 -0.055629043036892832 0 0.33217782229453008 -0.078346871527596659 0 0.35098057191618881 -0.055629043036892832 0 0.33217782229453008 -0.078346871527596659 0 0.32692763349415588 -0.066600476715377319 0 0.3537175356537885 -0.083435496599620809 0 0.33671424871030031 -0.1040281340010273 0 0.33217782229453008 -0.078346871527596659 0 0.31337507267287068 -0.1010647000183001 0 0.33217782229453008 -0.078346871527596659 0 0.3028746950721225 -0.077571910393861104 0 0.31337507267287068 -0.1010647000183001 0 0.33217782229453008 -0.078346871527596659 0 0.32692763349415588 -0.066600476715377319 0 0.30034837668176911 -0.071919707327855797 0 0.31091256379857268 -0.05405734711511536 0 0.33217782229453008 -0.078346871527596659 0 0.32692763349415588 -0.066600476715377319 0 0.3028746950721225 -0.077571910393861104 0 0.32692763349415588 -0.066600476715377319 0 0.3028746950721225 -0.077571910393861104 0 0.32692763349415588 -0.066600476715377319 0 0.30034837668176911 -0.071919707327855797 0 0.3028746950721225 -0.077571910393861104 0 0.30034837668176911 -0.071919707327855797 0 0.31091256379857268 -0.05405734711511536 0 0.30034837668176911 -0.071919707327855797 0 0.29483729862825397 -0.081238063796177123 0 0.30034837668176911 -0.071919707327855797 0 0.3028746950721225 -0.077571910393861104 0 0.29483729862825397 -0.081238063796177123 0 0.30034837668176911 -0.071919707327855797 0 0.3028746950721225 -0.077571910393861104 0 0.31337507267287068 -0.1010647000183001 0 0.3028746950721225 -0.077571910393861104 0 0.2957250215736052 -0.097248204976776859 0 0.31337507267287068 -0.1010647000183001 0 0.3028746950721225 -0.077571910393861104 0 0.3028746950721225 -0.077571910393861104 0 0.29483729862825397 -0.081238063796177123 0 0.2957250215736052 -0.097248204976776859 0 0.3028746950721225 -0.077571910393861104 0 0.29483729862825397 -0.081238063796177123 0 0.29483729862825397 -0.081238063796177123 0 0.28367164524532118 -0.086331130739528833 0 0.28993149327635082 -0.072308358638793063 0 0.29483729862825397 -0.081238063796177123 0 0.28367164524532118 -0.086331130739528833 0 0.29483729862825397 -0.081238063796177123 0 0.28367164524532118 -0.086331130739528833 0 0.28126732438660712 -0.1041827319757497 0 0.29483729862825397 -0.081238063796177123 0 0.28126732438660712 -0.1041827319757497 0 0.28367164524532118 -0.086331130739528833 0 0.28993149327635082 -0.072308358638793063 0 0.27884457241227961 -0.068910638397337756 0 0.30034837668176911 -0.071919707327855797 0 0.28993149327635082 -0.072308358638793063 0 0.29195557341412742 -0.053142252933064342 0 0.28993149327635082 -0.072308358638793063 0 0.27884457241227961 -0.068910638397337756 0 0.29195557341412742 -0.053142252933064342 0 0.30034837668176911 -0.071919707327855797 0 0.29195557341412742 -0.053142252933064342 0 0.30034837668176911 -0.071919707327855797 0 0.29483729862825397 -0.081238063796177123 0 0.28993149327635082 -0.072308358638793063 0 0.30263771263712752 -0.1149289746343355 0 0.29513426678059951 -0.12191218276395881 0 0.30564212953838921 -0.12602733342769809 0 0.3114990928887208 -0.1151587506998855 0 0.30263771263712752 -0.1149289746343355 0 0.30564212953838921 -0.12602733342769809 0 0.3114990928887208 -0.1151587506998855 0 0.30263771263712752 -0.1149289746343355 0 0.30783617373683952 -0.1077568997544076 0 0.30263771263712752 -0.1149289746343355 0 0.30059103036527701 -0.1055600092532863 0 0.30783617373683952 -0.1077568997544076 0 0.30263771263712752 -0.1149289746343355 0 0.30059103036527701 -0.1055600092532863 0 0.29385709553232181 -0.11194583442523109 0 0.30263771263712752 -0.1149289746343355 0 0.29385709553232181 -0.11194583442523109 0 0.29513426678059951 -0.12191218276395881 0 0.31337507267287068 -0.1010647000183001 0 0.30059103036527701 -0.1055600092532863 0 0.2957250215736052 -0.097248204976776859 0 0.31337507267287068 -0.1010647000183001 0 0.3114990928887208 -0.1151587506998855 0 0.30783617373683952 -0.1077568997544076 0 0.31337507267287068 -0.1010647000183001 0 0.30059103036527701 -0.1055600092532863 0 0.30783617373683952 -0.1077568997544076 0 0.31337507267287068 -0.1010647000183001 0 0.30783617373683952 -0.1077568997544076 0 0.29483729862825397 -0.081238063796177123 0 0.2957250215736052 -0.097248204976776859 0 0.28126732438660712 -0.1041827319757497 0 0.28126732438660712 -0.1041827319757497 0 0.29060842790687708 -0.1057279419122388 0 0.28322674670331749 -0.1143083592643506 0 0.30059103036527701 -0.1055600092532863 0 0.2957250215736052 -0.097248204976776859 0 0.29060842790687708 -0.1057279419122388 0 0.30059103036527701 -0.1055600092532863 0 0.29060842790687708 -0.1057279419122388 0 0.29385709553232181 -0.11194583442523109 0 0.2957250215736052 -0.097248204976776859 0 0.28126732438660712 -0.1041827319757497 0 0.29060842790687708 -0.1057279419122388 0 0.29060842790687708 -0.1057279419122388 0 0.29385709553232181 -0.11194583442523109 0 0.28322674670331749 -0.1143083592643506 0 0.29385709553232181 -0.11194583442523109 0 0.28322674670331749 -0.1143083592643506 0 0.29513426678059951 -0.12191218276395881 0 0.28126732438660712 -0.1041827319757497 0 0.28322674670331749 -0.1143083592643506 0 0.26769735014495888 -0.12712740015532151 0 0.28126732438660712 -0.1041827319757497 0 0.26769735014495888 -0.12712740015532151 0 0.28126732438660712 -0.1041827319757497 0 0.2664288929556477 -0.11089208448786431 0 0.26769735014495888 -0.12712740015532151 0 0.28367164524532118 -0.086331130739528833 0 0.28126732438660712 -0.1041827319757497 0 0.27307324596178562 -0.093991410535634506 0 0.28126732438660712 -0.1041827319757497 0 0.2664288929556477 -0.11089208448786431 0 0.27056524674898252 -0.10172101552949731 0 0.2664288929556477 -0.11089208448786431 0 0.27056524674898252 -0.10172101552949731 0 0.26149152369188983 -0.097817835118740815 0 0.28126732438660712 -0.1041827319757497 0 0.27056524674898252 -0.10172101552949731 0 0.27307324596178562 -0.093991410535634506 0 0.27056524674898252 -0.10172101552949731 0 0.27307324596178562 -0.093991410535634506 0 0.26149152369188983 -0.097817835118740815 0 0.26149152369188983 -0.097817835118740815 0 0.25442911735812762 -0.1067506793913659 0 0.2480933401032667 -0.096517631092886094 0 0.2664288929556477 -0.11089208448786431 0 0.26149152369188983 -0.097817835118740815 0 0.25442911735812762 -0.1067506793913659 0 0.2664288929556477 -0.11089208448786431 0 0.25156957390371798 -0.1189836267597288 0 0.26769735014495888 -0.12712740015532151 0 0.2664288929556477 -0.11089208448786431 0 0.25442911735812762 -0.1067506793913659 0 0.25156957390371798 -0.1189836267597288 0 0.27884457241227961 -0.068910638397337756 0 0.27235628326144429 -0.081665413680119966 0 0.26360977501370619 -0.073432103629552326 0 0.27884457241227961 -0.068910638397337756 0 0.26360977501370619 -0.073432103629552326 0 0.27178694626726901 -0.061361807916044717 0 0.28367164524532118 -0.086331130739528833 0 0.27884457241227961 -0.068910638397337756 0 0.27235628326144429 -0.081665413680119966 0 0.28367164524532118 -0.086331130739528833 0 0.27307324596178562 -0.093991410535634506 0 0.27235628326144429 -0.081665413680119966 0 0.27307324596178562 -0.093991410535634506 0 0.27235628326144429 -0.081665413680119966 0 0.26226890042615808 -0.08474687087167046 0 0.27235628326144429 -0.081665413680119966 0 0.26226890042615808 -0.08474687087167046 0 0.26360977501370619 -0.073432103629552326 0 0.26149152369188983 -0.097817835118740815 0 0.26226890042615808 -0.08474687087167046 0 0.25214254427357802 -0.08680170685222352 0 0.27307324596178562 -0.093991410535634506 0 0.26149152369188983 -0.097817835118740815 0 0.26226890042615808 -0.08474687087167046 0 0.26149152369188983 -0.097817835118740815 0 0.25214254427357802 -0.08680170685222352 0 0.2480933401032667 -0.096517631092886094 0 0.26226890042615808 -0.08474687087167046 0 0.25214254427357802 -0.08680170685222352 0 0.25094003035454532 -0.074772755413751724 0 0.25094003035454532 -0.074772755413751724 0 0.26360977501370619 -0.073432103629552326 0 0.2555741719013559 -0.067581202837984189 0 0.26226890042615808 -0.08474687087167046 0 0.25094003035454532 -0.074772755413751724 0 0.26360977501370619 -0.073432103629552326 0 0.26360977501370619 -0.073432103629552326 0 0.2555741719013559 -0.067581202837984189 0 0.25921417453430112 -0.05907480864815861 0 0.25094003035454532 -0.074772755413751724 0 0.2555741719013559 -0.067581202837984189 0 0.248532707702871 -0.06304514366047409 0 0.2555741719013559 -0.067581202837984189 0 0.25921417453430112 -0.05907480864815861 0 0.248532707702871 -0.06304514366047409 0 0.25921417453430112 -0.05907480864815861 0 0.2485276051359292 -0.05560593421255005 0 0.248532707702871 -0.06304514366047409 0 0.25921417453430112 -0.05907480864815861 0 0.25363781468162039 -0.04257939084088095 0 0.26360977501370619 -0.073432103629552326 0 0.25921417453430112 -0.05907480864815861 0 0.26584036544104572 -0.050701929302879922 0 0.25921417453430112 -0.05907480864815861 0 0.25363781468162039 -0.04257939084088095 0 0.2485276051359292 -0.05560593421255005 0 0.26360977501370619 -0.073432103629552326 0 0.26584036544104572 -0.050701929302879922 0 0.25921417453430112 -0.05907480864815861 0 0.26584036544104572 -0.050701929302879922 0 0.25363781468162039 -0.04257939084088095 0 0.27884457241227961 -0.068910638397337756 0 0.27178694626726901 -0.061361807916044717 0 0.27885307220204442 -0.052402560334408863 0 0.27178694626726901 -0.061361807916044717 0 0.26584036544104572 -0.050701929302879922 0 0.27885307220204442 -0.052402560334408863 0 0.26360977501370619 -0.073432103629552326 0 0.27178694626726901 -0.061361807916044717 0 0.26584036544104572 -0.050701929302879922 0 0.26584036544104572 -0.050701929302879922 0 0.27885307220204442 -0.052402560334408863 0 0.27408179091449059 -0.041360260787942048 0 0.27885307220204442 -0.052402560334408863 0 0.27408179091449059 -0.041360260787942048 0 0.28356277014648767 -0.034364798538271957 0 0.26584036544104572 -0.050701929302879922 0 0.27408179091449059 -0.041360260787942048 0 0.26807095586838509 -0.02797175497620745 0 0.26584036544104572 -0.050701929302879922 0 0.26807095586838509 -0.02797175497620745 0 0.27408179091449059 -0.041360260787942048 0 0.26807095586838509 -0.02797175497620745 0 0.28356277014648767 -0.034364798538271957 0 0.25363781468162039 -0.04257939084088095 0 0.2480614548289399 -0.02608397303360312 0 0.26584036544104572 -0.050701929302879922 0 0.25875091774720582 -0.034708070327958487 0 0.25363781468162039 -0.04257939084088095 0 0.26584036544104572 -0.050701929302879922 0 0.25875091774720582 -0.034708070327958487 0 0.26807095586838509 -0.02797175497620745 0 0.25875091774720582 -0.034708070327958487 0 0.25363781468162039 -0.04257939084088095 0 0.2480614548289399 -0.02608397303360312 0 0.25814399791603793 -0.026203303486220929 0 0.27030154629572611 -0.0052415806495351332 0 0.2499050385453562 -0.02039026096544341 0 0.25814399791603793 -0.026203303486220929 0 0.27030154629572611 -0.0052415806495351332 0 0.26807095586838509 -0.02797175497620745 0 0.25814399791603793 -0.026203303486220929 0 0.2480614548289399 -0.02608397303360312 0 0.2499050385453562 -0.02039026096544341 0 0.25875091774720582 -0.034708070327958487 0 0.25814399791603793 -0.026203303486220929 0 0.2480614548289399 -0.02608397303360312 0 0.25875091774720582 -0.034708070327958487 0 0.25814399791603793 -0.026203303486220929 0 0.26807095586838509 -0.02797175497620745 0 0.25704024178540552 0.00164605473580649 0 0.27030154629572611 -0.0052415806495351332 0 0.2499050385453562 -0.02039026096544341 0 0.25704024178540552 0.00164605473580649 0 0.2499050385453562 -0.02039026096544341 0 0.25704024178540552 0.00164605473580649 0 0.2499050385453562 -0.02039026096544341 0 0.2498818982516218 -0.002271085465629063 0 0.27030154629572611 -0.0052415806495351332 0 0.2499050385453562 -0.02039026096544341 0 0.27030154629572611 -0.0052415806495351332 0 0.26807095586838509 -0.02797175497620745 0 0.27030154629572611 -0.0052415806495351332 0 0.26807095586838509 -0.02797175497620745 0 0.28649569915878731 -0.015455792254539131 0 0.26807095586838509 -0.02797175497620745 0 0.28649569915878731 -0.015455792254539131 0 0.28356277014648767 -0.034364798538271957 0 0.29386417282016047 -0.026787433568355501 0 0.28649569915878731 -0.015455792254539131 0 0.30365411937224379 -0.020096799022633619 0 0.29386417282016047 -0.026787433568355501 0 0.28649569915878731 -0.015455792254539131 0 0.28356277014648767 -0.034364798538271957 0 0.29199216111899501 0.010868245298835981 0 0.28649569915878731 -0.015455792254539131 0 0.30397987236055207 -0.0012468907866667431 0 0.29199216111899501 0.010868245298835981 0 0.27030154629572611 -0.0052415806495351332 0 0.28649569915878731 -0.015455792254539131 0 0.31769812144106352 -0.01437525172873471 0 0.30397987236055207 -0.0012468907866667431 0 0.30365411937224379 -0.020096799022633619 0 0.28649569915878731 -0.015455792254539131 0 0.30397987236055207 -0.0012468907866667431 0 0.30365411937224379 -0.020096799022633619 0 0.32147675091537509 -0.036194986902374222 0 0.30365411937224379 -0.020096799022633619 0 0.30174410260312329 -0.037232344457977309 0 0.29386417282016047 -0.026787433568355501 0 0.30365411937224379 -0.020096799022633619 0 0.30174410260312329 -0.037232344457977309 0 0.32147675091537509 -0.036194986902374222 0 0.30174410260312329 -0.037232344457977309 0 0.31091256379857268 -0.05405734711511536 0 0.30174410260312329 -0.037232344457977309 0 0.31091256379857268 -0.05405734711511536 0 0.29195557341412742 -0.053142252933064342 0 0.30034837668176911 -0.071919707327855797 0 0.31091256379857268 -0.05405734711511536 0 0.29195557341412742 -0.053142252933064342 0 0.27884457241227961 -0.068910638397337756 0 0.27885307220204442 -0.052402560334408863 0 0.29195557341412742 -0.053142252933064342 0 0.29386417282016047 -0.026787433568355501 0 0.30174410260312329 -0.037232344457977309 0 0.28356277014648767 -0.034364798538271957 0 0.30174410260312329 -0.037232344457977309 0 0.29195557341412742 -0.053142252933064342 0 0.28356277014648767 -0.034364798538271957 0 0.27885307220204442 -0.052402560334408863 0 0.29195557341412742 -0.053142252933064342 0 0.28356277014648767 -0.034364798538271957 0 0.29195557341412742 -0.053142252933064342 0 0.28356277014648767 -0.034364798538271957 0 0.28573306768376261 -0.20700994107055601 0 0.29558520151865081 -0.22779701349039869 0 0.28573306768376261 -0.20700994107055601 0 0.29558520151865081 -0.22779701349039869 0 0.28326690888354111 -0.2209070585273791 0 0.29501700287344051 -0.20925240577884169 0 0.28573306768376261 -0.20700994107055601 0 0.29558520151865081 -0.22779701349039869 0 0.29501700287344051 -0.20925240577884169 0 0.28573306768376261 -0.20700994107055601 0 0.29333290101047482 -0.2000890573360887 0 0.29501700287344051 -0.20925240577884169 0 0.29333290101047482 -0.2000890573360887 0 0.30113448462878278 -0.2028139932562758 0 0.28497595374481138 -0.19582548028009239 0 0.27525701320006291 -0.18689459984650919 0 0.2919874074325608 -0.18404393548550471 0 0.28573306768376261 -0.20700994107055601 0 0.28497595374481138 -0.19582548028009239 0 0.27377331571408853 -0.1994709943849331 0 0.28573306768376261 -0.20700994107055601 0 0.28497595374481138 -0.19582548028009239 0 0.29333290101047482 -0.2000890573360887 0 0.29395238660029471 -0.19340844196292981 0 0.30385039232581262 -0.1949308945462703 0 0.2919874074325608 -0.18404393548550471 0 0.28497595374481138 -0.19582548028009239 0 0.29395238660029471 -0.19340844196292981 0 0.2919874074325608 -0.18404393548550471 0 0.28497595374481138 -0.19582548028009239 0 0.29395238660029471 -0.19340844196292981 0 0.29333290101047482 -0.2000890573360887 0 0.29395238660029471 -0.19340844196292981 0 0.29333290101047482 -0.2000890573360887 0 0.30385039232581262 -0.1949308945462703 0 0.29333290101047482 -0.2000890573360887 0 0.30113448462878278 -0.2028139932562758 0 0.30385039232581262 -0.1949308945462703 0 0.30113448462878278 -0.2028139932562758 0 0.30467149229335672 -0.1981407616238495 0 0.30385039232581262 -0.1949308945462703 0 0.29333290101047482 -0.2000890573360887 0 0.30385039232581262 -0.1949308945462703 0 0.30467149229335672 -0.1981407616238495 0 0.30385039232581262 -0.1949308945462703 0 0.30385039232581262 -0.1949308945462703 0 0.31900339055937782 -0.1874993094563368 0 0.30385039232581262 -0.1949308945462703 0 0.31900339055937782 -0.1874993094563368 0 0.31463796710540359 -0.19513378905043541 0 0.31016755813354813 -0.19832861167558541 0 0.30906604360845807 -0.2045142115550353 0 0.31727057056612118 -0.20041315534753301 0 0.30113448462878278 -0.2028139932562758 0 0.30467149229335672 -0.1981407616238495 0 0.30906604360845807 -0.2045142115550353 0 0.30385039232581262 -0.1949308945462703 0 0.31016755813354813 -0.19832861167558541 0 0.31463796710540359 -0.19513378905043541 0 0.30467149229335672 -0.1981407616238495 0 0.31016755813354813 -0.19832861167558541 0 0.30906604360845807 -0.2045142115550353 0 0.30467149229335672 -0.1981407616238495 0 0.30385039232581262 -0.1949308945462703 0 0.31016755813354813 -0.19832861167558541 0 0.29501700287344051 -0.20925240577884169 0 0.30243879179677691 -0.21136123365424969 0 0.29558520151865081 -0.22779701349039869 0 0.30243879179677691 -0.21136123365424969 0 0.29558520151865081 -0.22779701349039869 0 0.31338032398548321 -0.21295007655782999 0 0.30906604360845807 -0.2045142115550353 0 0.30243879179677691 -0.21136123365424969 0 0.31338032398548321 -0.21295007655782999 0 0.30113448462878278 -0.2028139932562758 0 0.30906604360845807 -0.2045142115550353 0 0.30243879179677691 -0.21136123365424969 0 0.29501700287344051 -0.20925240577884169 0 0.30113448462878278 -0.2028139932562758 0 0.30243879179677691 -0.21136123365424969 0 0.31082516668972909 -0.2279753726143724 0 0.29558520151865081 -0.22779701349039869 0 0.31338032398548321 -0.21295007655782999 0 0.29558520151865081 -0.22779701349039869 0 0.31338032398548321 -0.21295007655782999 0 0.31082516668972909 -0.2279753726143724 0 0.3046167831337544 -0.24685279818082301 0 0.29558520151865081 -0.22779701349039869 0 0.31082516668972909 -0.2279753726143724 0 0.3046167831337544 -0.24685279818082301 0 0.31839344055805668 -0.23875651020791949 0 0.3046167831337544 -0.24685279818082301 0 0.29558520151865081 -0.22779701349039869 0 0.3046167831337544 -0.24685279818082301 0 0.29342398052734248 -0.24254561644133329 0 0.29558520151865081 -0.22779701349039869 0 0.3046167831337544 -0.24685279818082301 0 0.29342398052734248 -0.24254561644133329 0 0.29772606969876569 -0.25759016519756739 0 0.29342398052734248 -0.24254561644133329 0 0.28190371294067079 -0.23921183788621311 0 0.29558520151865081 -0.22779701349039869 0 0.29342398052734248 -0.24254561644133329 0 0.28190371294067079 -0.23921183788621311 0 0.28620043957956359 -0.25211907458867228 0 0.29558520151865081 -0.22779701349039869 0 0.28326690888354111 -0.2209070585273791 0 0.27923327454766389 -0.22980981491251909 0 0.28190371294067079 -0.23921183788621311 0 0.29558520151865081 -0.22779701349039869 0 0.27923327454766389 -0.22980981491251909 0 0.28190371294067079 -0.23921183788621311 0 0.29558520151865081 -0.22779701349039869 0 0.28326690888354111 -0.2209070585273791 0 0.27923327454766389 -0.22980981491251909 0 0.27016649632645928 -0.22615977246123159 0 0.28326690888354111 -0.2209070585273791 0 0.27016649632645928 -0.22615977246123159 0 0.27197592162926298 -0.2125271391859847 0 0.27923327454766389 -0.22980981491251909 0 0.27016649632645928 -0.22615977246123159 0 0.26564067295501281 -0.237941809799052 0 0.27016649632645928 -0.22615977246123159 0 0.26564067295501281 -0.237941809799052 0 0.27016649632645928 -0.22615977246123159 0 0.25978302681170018 -0.21834564702079789 0 0.27197592162926298 -0.2125271391859847 0 0.26564067295501281 -0.237941809799052 0 0.28620043957956359 -0.25211907458867228 0 0.28190371294067079 -0.23921183788621311 0 0.26564067295501281 -0.237941809799052 0 0.28620043957956359 -0.25211907458867228 0 0.26564067295501281 -0.237941809799052 0 0.28620043957956359 -0.25211907458867228 0 0.27041912396174622 -0.25300857944255861 0 0.28190371294067079 -0.23921183788621311 0 0.27923327454766389 -0.22980981491251909 0 0.26564067295501281 -0.237941809799052 0 0.26564067295501281 -0.237941809799052 0 0.24459971964430779 -0.24469171935207509 0 0.24233018509292731 -0.22186774802436959 0 0.26564067295501281 -0.237941809799052 0 0.25678271184163343 -0.26100166432917821 0 0.26564067295501281 -0.237941809799052 0 0.25678271184163343 -0.26100166432917821 0 0.24459971964430779 -0.24469171935207509 0 0.26564067295501281 -0.237941809799052 0 0.25978302681170018 -0.21834564702079789 0 0.24233018509292731 -0.22186774802436959 0 0.27016649632645928 -0.22615977246123159 0 0.26564067295501281 -0.237941809799052 0 0.25978302681170018 -0.21834564702079789 0 0.26564067295501281 -0.237941809799052 0 0.24233018509292731 -0.22186774802436959 0 0.25978302681170018 -0.21834564702079789 0 0.2493673996676247 -0.2083853397490959 0 0.24233018509292731 -0.22186774802436959 0 0.26037017915798999 -0.20369832597508941 0 0.25978302681170018 -0.21834564702079789 0 0.2493673996676247 -0.2083853397490959 0 0.26037017915798999 -0.20369832597508941 0 0.25978302681170018 -0.21834564702079789 0 0.27197592162926298 -0.2125271391859847 0 0.26037017915798999 -0.20369832597508941 0 0.27197592162926298 -0.2125271391859847 0 0.27377331571408853 -0.1994709943849331 0 0.28573306768376261 -0.20700994107055601 0 0.27197592162926298 -0.2125271391859847 0 0.27377331571408853 -0.1994709943849331 0 0.28573306768376261 -0.20700994107055601 0 0.28326690888354111 -0.2209070585273791 0 0.27197592162926298 -0.2125271391859847 0 0.28497595374481138 -0.19582548028009239 0 0.27377331571408853 -0.1994709943849331 0 0.27525701320006291 -0.18689459984650919 0 0.26037017915798999 -0.20369832597508941 0 0.27377331571408853 -0.1994709943849331 0 0.26372899649358139 -0.19190419289847169 0 0.27377331571408853 -0.1994709943849331 0 0.26372899649358139 -0.19190419289847169 0 0.27525701320006291 -0.18689459984650919 0 0.26372899649358139 -0.19190419289847169 0 0.26031979738481281 -0.17788034906654579 0 0.2477271522608325 -0.1936441211134905 0 0.26037017915798999 -0.20369832597508941 0 0.26372899649358139 -0.19190419289847169 0 0.2477271522608325 -0.1936441211134905 0 0.26037017915798999 -0.20369832597508941 0 0.2477271522608325 -0.1936441211134905 0 0.2493673996676247 -0.2083853397490959 0 0.26031979738481281 -0.17788034906654579 0 0.25029832467556129 -0.16606009898348689 0 0.24067871187316811 -0.17709033162075011 0 0.25029832467556129 -0.16606009898348689 0 0.26225279893203779 -0.15319972508270699 0 0.23794199051222639 -0.1560699901639446 0 0.26031979738481281 -0.17788034906654579 0 0.25029832467556129 -0.16606009898348689 0 0.26225279893203779 -0.15319972508270699 0 0.26031979738481281 -0.17788034906654579 0 0.27948235932976739 -0.16854297721531461 0 0.26225279893203779 -0.15319972508270699 0 0.26031979738481281 -0.17788034906654579 0 0.27948235932976739 -0.16854297721531461 0 0.27525701320006291 -0.18689459984650919 0 0.26372899649358139 -0.19190419289847169 0 0.26031979738481281 -0.17788034906654579 0 0.27525701320006291 -0.18689459984650919 0 0.25156957390371798 -0.1189836267597288 0 0.26769735014495888 -0.12712740015532151 0 0.24625891810501091 -0.13582118180672781 0 0.26225279893203779 -0.15319972508270699 0 0.26769735014495888 -0.12712740015532151 0 0.24625891810501091 -0.13582118180672781 0 0.27948235932976739 -0.16854297721531461 0 0.26225279893203779 -0.15319972508270699 0 0.29010129524414918 -0.14118253769165709 0 0.26225279893203779 -0.15319972508270699 0 0.26769735014495888 -0.12712740015532151 0 0.29010129524414918 -0.14118253769165709 0 0.28322674670331749 -0.1143083592643506 0 0.26769735014495888 -0.12712740015532151 0 0.29010129524414918 -0.14118253769165709 0 0.28322674670331749 -0.1143083592643506 0 0.29010129524414918 -0.14118253769165709 0 0.28322674670331749 -0.1143083592643506 0 0.29513426678059951 -0.12191218276395881 0 0.29010129524414918 -0.14118253769165709 0 0.29010129524414918 -0.14118253769165709 0 0.29697584378498088 -0.16805671611896369 0 0.29010129524414918 -0.14118253769165709 0 0.3134674646159446 -0.15863974018231281 0 0.31496516077853498 -0.1395321854118296 0 0.29010129524414918 -0.14118253769165709 0 0.29697584378498088 -0.16805671611896369 0 0.3134674646159446 -0.15863974018231281 0 0.29513426678059951 -0.12191218276395881 0 0.29010129524414918 -0.14118253769165709 0 0.30564212953838921 -0.12602733342769809 0 0.29010129524414918 -0.14118253769165709 0 0.30564212953838921 -0.12602733342769809 0 0.31496516077853498 -0.1395321854118296 0 0.27948235932976739 -0.16854297721531461 0 0.27525701320006291 -0.18689459984650919 0 0.2919874074325608 -0.18404393548550471 0 0.27948235932976739 -0.16854297721531461 0 0.2919874074325608 -0.18404393548550471 0 0.29697584378498088 -0.16805671611896369 0 0.27948235932976739 -0.16854297721531461 0 0.29010129524414918 -0.14118253769165709 0 0.29697584378498088 -0.16805671611896369 0 0.29697584378498088 -0.16805671611896369 0 0.31079365621706068 -0.1763885129110562 0 0.3134674646159446 -0.15863974018231281 0 0.30385039232581262 -0.1949308945462703 0 0.29697584378498088 -0.16805671611896369 0 0.31079365621706068 -0.1763885129110562 0 0.30385039232581262 -0.1949308945462703 0 0.2919874074325608 -0.18404393548550471 0 0.29697584378498088 -0.16805671611896369 0 0.30385039232581262 -0.1949308945462703 0 0.31079365621706068 -0.1763885129110562 0 0.31900339055937782 -0.1874993094563368 0 0.30385039232581262 -0.1949308945462703 0 0.29697584378498088 -0.16805671611896369 0 0.32067118979918741 -0.1728159042513972 0 0.32710348324572469 -0.16409311388182141 0 0.33415638879294313 -0.18006772436640339 0 0.31900339055937782 -0.1874993094563368 0 0.32067118979918741 -0.1728159042513972 0 0.33415638879294313 -0.18006772436640339 0 0.31900339055937782 -0.1874993094563368 0 0.33415638879294313 -0.18006772436640339 0 0.32289792394215838 -0.19449697422645171 0 0.31900339055937782 -0.1874993094563368 0 0.33415638879294313 -0.18006772436640339 0 0.31079365621706068 -0.1763885129110562 0 0.31900339055937782 -0.1874993094563368 0 0.32067118979918741 -0.1728159042513972 0 0.31079365621706068 -0.1763885129110562 0 0.32067118979918741 -0.1728159042513972 0 0.3134674646159446 -0.15863974018231281 0 0.3134674646159446 -0.15863974018231281 0 0.32710348324572469 -0.16409311388182141 0 0.32529736073357918 -0.15187027816005169 0 0.32067118979918741 -0.1728159042513972 0 0.3134674646159446 -0.15863974018231281 0 0.32710348324572469 -0.16409311388182141 0 0.33902556970850112 -0.15845327722319169 0 0.33415638879294313 -0.18006772436640339 0 0.3446294186212352 -0.17099092573449201 0 0.32710348324572469 -0.16409311388182141 0 0.33902556970850112 -0.15845327722319169 0 0.33415638879294313 -0.18006772436640339 0 0.33902556970850112 -0.15845327722319169 0 0.33415638879294313 -0.18006772436640339 0 0.32710348324572469 -0.16409311388182141 0 0.33902556970850112 -0.15845327722319169 0 0.32529736073357918 -0.15187027816005169 0 0.33902556970850112 -0.15845327722319169 0 0.3446294186212352 -0.17099092573449201 0 0.33415638879294313 -0.18006772436640339 0 0.34897056891914879 -0.18325620269269341 0 0.33013183348932851 -0.19793285186802509 0 0.32192523835141179 -0.12019422575326499 0 0.30564212953838921 -0.12602733342769809 0 0.31496516077853498 -0.1395321854118296 0 0.32192523835141179 -0.12019422575326499 0 0.33047540402995668 -0.1393237514882282 0 0.32192523835141179 -0.12019422575326499 0 0.31496516077853498 -0.1395321854118296 0 0.33047540402995668 -0.1393237514882282 0 0.3134674646159446 -0.15863974018231281 0 0.31496516077853498 -0.1395321854118296 0 0.32529736073357918 -0.15187027816005169 0 0.31496516077853498 -0.1395321854118296 0 0.32529736073357918 -0.15187027816005169 0 0.33047540402995668 -0.1393237514882282 0 0.33902556970850112 -0.15845327722319169 0 0.33047540402995668 -0.1393237514882282 0 0.3437159738243698 -0.13763242591350949 0 0.33902556970850112 -0.15845327722319169 0 0.33047540402995668 -0.1393237514882282 0 0.33902556970850112 -0.15845327722319169 0 0.3437159738243698 -0.13763242591350949 0 0.33902556970850112 -0.15845327722319169 0 0.32529736073357918 -0.15187027816005169 0 0.33047540402995668 -0.1393237514882282 0 0.33624744857125571 -0.12359802235197161 0 0.32192523835141179 -0.12019422575326499 0 0.33047540402995668 -0.1393237514882282 0 0.34840637794023938 -0.1168115746038275 0 0.33624744857125571 -0.12359802235197161 0 0.3437159738243698 -0.13763242591350949 0 0.33624744857125571 -0.12359802235197161 0 0.33047540402995668 -0.1393237514882282 0 0.3437159738243698 -0.13763242591350949 0 0.34840637794023938 -0.1168115746038275 0 0.3437159738243698 -0.13763242591350949 0 0.3562320851504942 -0.13732595487085869 0 0.34840637794023938 -0.1168115746038275 0 0.3437159738243698 -0.13763242591350949 0 0.34840637794023938 -0.1168115746038275 0 0.3562320851504942 -0.13732595487085869 0 0.36717637813648041 -0.13031094074813701 0 0.33902556970850112 -0.15845327722319169 0 0.3437159738243698 -0.13763242591350949 0 0.34975211318591071 -0.14837203117516221 0 0.3562320851504942 -0.13732595487085869 0 0.34975211318591071 -0.14837203117516221 0 0.36001154595557372 -0.14936616369560821 0 0.3437159738243698 -0.13763242591350949 0 0.3562320851504942 -0.13732595487085869 0 0.34975211318591071 -0.14837203117516221 0 0.33902556970850112 -0.15845327722319169 0 0.34975211318591071 -0.14837203117516221 0 0.34977539129061491 -0.159082334172643 0 0.34975211318591071 -0.14837203117516221 0 0.36001154595557372 -0.14936616369560821 0 0.34977539129061491 -0.159082334172643 0 0.36001154595557372 -0.14936616369560821 0 0.37949034410786753 -0.1419409207912278 0 0.37996744773487562 -0.15760030390351551 0 0.3562320851504942 -0.13732595487085869 0 0.36001154595557372 -0.14936616369560821 0 0.36717637813648041 -0.13031094074813701 0 0.36001154595557372 -0.14936616369560821 0 0.36717637813648041 -0.13031094074813701 0 0.37949034410786753 -0.1419409207912278 0 0.33415638879294313 -0.18006772436640339 0 0.35706191826390937 -0.16883401413495949 0 0.33415638879294313 -0.18006772436640339 0 0.34897056891914879 -0.18325620269269341 0 0.35706191826390937 -0.16883401413495949 0 0.33415638879294313 -0.18006772436640339 0 0.3446294186212352 -0.17099092573449201 0 0.35706191826390937 -0.16883401413495949 0 0.34897056891914879 -0.18325620269269341 0 0.35706191826390937 -0.16883401413495949 0 0.36420083927916141 -0.18217411632593319 0 0.34897056891914879 -0.18325620269269341 0 0.36420083927916141 -0.18217411632593319 0 0.35764451235967448 -0.19264730271545599 0 0.3446294186212352 -0.17099092573449201 0 0.34977539129061491 -0.159082334172643 0 0.35706191826390937 -0.16883401413495949 0 0.36001154595557372 -0.14936616369560821 0 0.34977539129061491 -0.159082334172643 0 0.35706191826390937 -0.16883401413495949 0 0.33902556970850112 -0.15845327722319169 0 0.3446294186212352 -0.17099092573449201 0 0.34977539129061491 -0.159082334172643 0 0.36001154595557372 -0.14936616369560821 0 0.35706191826390937 -0.16883401413495949 0 0.37996744773487562 -0.15760030390351551 0 0.35706191826390937 -0.16883401413495949 0 0.37424428590619668 -0.17401884093267411 0 0.37996744773487562 -0.15760030390351551 0 0.35706191826390937 -0.16883401413495949 0 0.37996744773487562 -0.15760030390351551 0 0.37424428590619668 -0.17401884093267411 0 0.36420083927916141 -0.18217411632593319 0 0.380467256186105 -0.18561134251733691 0 0.36420083927916141 -0.18217411632593319 0 0.37165739765190309 -0.19471005266228569 0 0.380467256186105 -0.18561134251733691 0 0.35706191826390937 -0.16883401413495949 0 0.37424428590619668 -0.17401884093267411 0 0.36420083927916141 -0.18217411632593319 0 0.37165739765190309 -0.19471005266228569 0 0.36386735397808218 -0.20968465788911059 0 0.35764451235967448 -0.19264730271545599 0 0.36420083927916141 -0.18217411632593319 0 0.37165739765190309 -0.19471005266228569 0 0.35764451235967448 -0.19264730271545599 0 0.36386735397808218 -0.20968465788911059 0 0.34419343043484563 -0.2157115294688938 0 0.3484894301376027 -0.2011033237910185 0 0.34897056891914879 -0.18325620269269341 0 0.35764451235967448 -0.19264730271545599 0 0.3484894301376027 -0.2011033237910185 0 0.36386735397808218 -0.20968465788911059 0 0.35764451235967448 -0.19264730271545599 0 0.3484894301376027 -0.2011033237910185 0 0.34897056891914879 -0.18325620269269341 0 0.3484894301376027 -0.2011033237910185 0 0.34018837167829641 -0.19833325261670509 0 0.33415638879294313 -0.18006772436640339 0 0.33013183348932851 -0.19793285186802509 0 0.32289792394215838 -0.19449697422645171 0 0.34897056891914879 -0.18325620269269341 0 0.33013183348932851 -0.19793285186802509 0 0.34018837167829641 -0.19833325261670509 0 0.34897056891914879 -0.18325620269269341 0 0.33013183348932851 -0.19793285186802509 0 0.33415638879294313 -0.18006772436640339 0 0.33013183348932851 -0.19793285186802509 0 0.33476227591373381 -0.20264615724589241 0 0.33013183348932851 -0.19793285186802509 0 0.32969209736772109 -0.20740593728713139 0 0.33476227591373381 -0.20264615724589241 0 0.33013183348932851 -0.19793285186802509 0 0.34018837167829641 -0.19833325261670509 0 0.3484894301376027 -0.2011033237910185 0 0.34018837167829641 -0.19833325261670509 0 0.33799318815660151 -0.20674229945447159 0 0.33476227591373381 -0.20264615724589241 0 0.34018837167829641 -0.19833325261670509 0 0.33799318815660151 -0.20674229945447159 0 0.34419343043484563 -0.2157115294688938 0 0.3484894301376027 -0.2011033237910185 0 0.33799318815660151 -0.20674229945447159 0 0.34419343043484563 -0.2157115294688938 0 0.33799318815660151 -0.20674229945447159 0 0.33159830351839159 -0.21677287327801359 0 0.33476227591373381 -0.20264615724589241 0 0.33799318815660151 -0.20674229945447159 0 0.32969209736772109 -0.20740593728713139 0 0.33799318815660151 -0.20674229945447159 0 0.33159830351839159 -0.21677287327801359 0 0.32969209736772109 -0.20740593728713139 0 0.33013183348932851 -0.19793285186802509 0 0.31338032398548321 -0.21295007655782999 0 0.31727057056612118 -0.20041315534753301 0 0.33013183348932851 -0.19793285186802509 0 0.31338032398548321 -0.21295007655782999 0 0.33013183348932851 -0.19793285186802509 0 0.32969209736772109 -0.20740593728713139 0 0.31338032398548321 -0.21295007655782999 0 0.33159830351839159 -0.21677287327801359 0 0.32969209736772109 -0.20740593728713139 0 0.31338032398548321 -0.21295007655782999 0 0.30906604360845807 -0.2045142115550353 0 0.31338032398548321 -0.21295007655782999 0 0.31727057056612118 -0.20041315534753301 0 0.31727057056612118 -0.20041315534753301 0 0.31463796710540359 -0.19513378905043541 0 0.32289792394215838 -0.19449697422645171 0 0.31016755813354813 -0.19832861167558541 0 0.31727057056612118 -0.20041315534753301 0 0.31463796710540359 -0.19513378905043541 0 0.31900339055937782 -0.1874993094563368 0 0.31463796710540359 -0.19513378905043541 0 0.32289792394215838 -0.19449697422645171 0 0.33013183348932851 -0.19793285186802509 0 0.31727057056612118 -0.20041315534753301 0 0.32289792394215838 -0.19449697422645171 0 0.3046167831337544 -0.24685279818082301 0 0.31839344055805668 -0.23875651020791949 0 0.32237888961991018 -0.25021827180162959 0 0.31839344055805668 -0.23875651020791949 0 0.32605130551465022 -0.22864846018447191 0 0.33389854374767719 -0.24280437977629521 0 0.31839344055805668 -0.23875651020791949 0 0.33389854374767719 -0.24280437977629521 0 0.32237888961991018 -0.25021827180162959 0 0.33159830351839159 -0.21677287327801359 0 0.31338032398548321 -0.21295007655782999 0 0.32605130551465022 -0.22864846018447191 0 0.31082516668972909 -0.2279753726143724 0 0.31839344055805668 -0.23875651020791949 0 0.32605130551465022 -0.22864846018447191 0 0.31082516668972909 -0.2279753726143724 0 0.31338032398548321 -0.21295007655782999 0 0.32605130551465022 -0.22864846018447191 0 0.32605130551465022 -0.22864846018447191 0 0.33924857608970621 -0.23034885569597249 0 0.33389854374767719 -0.24280437977629521 0 0.33159830351839159 -0.21677287327801359 0 0.32605130551465022 -0.22864846018447191 0 0.33924857608970621 -0.23034885569597249 0 0.34419343043484563 -0.2157115294688938 0 0.33159830351839159 -0.21677287327801359 0 0.33924857608970621 -0.23034885569597249 0 0.33389854374767719 -0.24280437977629521 0 0.32237888961991018 -0.25021827180162959 0 0.34174578198070338 -0.25696029936811882 0 0.33924857608970621 -0.23034885569597249 0 0.33389854374767719 -0.24280437977629521 0 0.34608247494111549 -0.243317536911656 0 0.32605130551465022 -0.22864846018447191 0 0.33389854374767719 -0.24280437977629521 0 0.33389854374767719 -0.24280437977629521 0 0.34608247494111549 -0.243317536911656 0 0.34174578198070338 -0.25696029936811882 0 0.33389854374767719 -0.24280437977629521 0 0.34174578198070338 -0.25696029936811882 0 0.34608247494111549 -0.243317536911656 0 0.35483695862673797 -0.23163599414400629 0 0.36041624423564511 -0.25101425144445899 0 0.33924857608970621 -0.23034885569597249 0 0.34608247494111549 -0.243317536911656 0 0.35483695862673797 -0.23163599414400629 0 0.34419343043484563 -0.2157115294688938 0 0.33924857608970621 -0.23034885569597249 0 0.35483695862673797 -0.23163599414400629 0 0.36386735397808218 -0.20968465788911059 0 0.34419343043484563 -0.2157115294688938 0 0.35483695862673797 -0.23163599414400629 0 0.36386735397808218 -0.20968465788911059 0 0.35483695862673797 -0.23163599414400629 0 0.37477179528905791 -0.22779441395805189 0 0.35483695862673797 -0.23163599414400629 0 0.37477179528905791 -0.22779441395805189 0 0.36727792616050692 -0.23887821576682899 0 0.36727792616050692 -0.23887821576682899 0 0.37908670649058668 -0.24506820352079889 0 0.36041624423564511 -0.25101425144445899 0 0.35483695862673797 -0.23163599414400629 0 0.36727792616050692 -0.23887821576682899 0 0.36041624423564511 -0.25101425144445899 0 0.37908670649058668 -0.24506820352079889 0 0.36041624423564511 -0.25101425144445899 0 0.37477179528905791 -0.22779441395805189 0 0.36727792616050692 -0.23887821576682899 0 0.37908670649058668 -0.24506820352079889 0 0.37477179528905791 -0.22779441395805189 0 0.37908670649058668 -0.24506820352079889 0 0.3938742320680087 -0.2352318671852365 0 0.37908670649058668 -0.24506820352079889 0 0.3938742320680087 -0.2352318671852365 0 0.39649039221535809 -0.25121347051770149 0 0.3938742320680087 -0.2352318671852365 0 0.40291901511462919 -0.24372939979452729 0 0.39649039221535809 -0.25121347051770149 0 0.3938742320680087 -0.2352318671852365 0 0.40291901511462919 -0.24372939979452729 0 0.40662264837597473 -0.23535406694849051 0 0.3938742320680087 -0.2352318671852365 0 0.40570951749362449 -0.22163085658094969 0 0.38725644210484572 -0.219401141892276 0 0.3938742320680087 -0.2352318671852365 0 0.40570951749362449 -0.22163085658094969 0 0.40662264837597473 -0.23535406694849051 0 0.36386735397808218 -0.20968465788911059 0 0.37477179528905791 -0.22779441395805189 0 0.38725644210484572 -0.219401141892276 0 0.37477179528905791 -0.22779441395805189 0 0.3938742320680087 -0.2352318671852365 0 0.38725644210484572 -0.219401141892276 0 0.36386735397808218 -0.20968465788911059 0 0.38725644210484572 -0.219401141892276 0 0.39210702645649248 -0.2034328438635917 0 0.36386735397808218 -0.20968465788911059 0 0.39210702645649248 -0.2034328438635917 0 0.37165739765190309 -0.19471005266228569 0 0.39210702645649248 -0.2034328438635917 0 0.380467256186105 -0.18561134251733691 0 0.39210702645649248 -0.2034328438635917 0 0.380467256186105 -0.18561134251733691 0 0.39512131941805573 -0.18574271836977549 0 0.37165739765190309 -0.19471005266228569 0 0.36386735397808218 -0.20968465788911059 0 0.39210702645649248 -0.2034328438635917 0 0.39210702645649248 -0.2034328438635917 0 0.42034669893490312 -0.19718102983807259 0 0.39210702645649248 -0.2034328438635917 0 0.41066259979421749 -0.18751321040571939 0 0.39512131941805573 -0.18574271836977549 0 0.40570951749362449 -0.22163085658094969 0 0.38725644210484572 -0.219401141892276 0 0.39210702645649248 -0.2034328438635917 0 0.40570951749362449 -0.22163085658094969 0 0.39210702645649248 -0.2034328438635917 0 0.42034669893490312 -0.19718102983807259 0 0.41858699319884662 -0.2163420411478523 0 0.42034669893490312 -0.19718102983807259 0 0.42507461395753809 -0.2054567251846193 0 0.40570951749362449 -0.22163085658094969 0 0.41858699319884662 -0.2163420411478523 0 0.42034669893490312 -0.19718102983807259 0 0.40570951749362449 -0.22163085658094969 0 0.42034669893490312 -0.19718102983807259 0 0.39210702645649248 -0.2034328438635917 0 0.41066259979421749 -0.18751321040571939 0 0.41671386220418161 -0.1911358710803695 0 0.39210702645649248 -0.2034328438635917 0 0.42034669893490312 -0.19718102983807259 0 0.41671386220418161 -0.1911358710803695 0 0.41066259979421749 -0.18751321040571939 0 0.41671386220418161 -0.1911358710803695 0 0.42375809248152718 -0.19148266629032679 0 0.42034669893490312 -0.19718102983807259 0 0.41671386220418161 -0.1911358710803695 0 0.42375809248152718 -0.19148266629032679 0 0.42617953641653422 -0.19588973245478611 0 0.44662215430226809 -0.19136406221855881 0 0.42617953641653422 -0.19588973245478611 0 0.43517277847555652 -0.18807967433230971 0 0.44662215430226809 -0.19136406221855881 0 0.42617953641653422 -0.19588973245478611 0 0.44662215430226809 -0.19136406221855881 0 0.43848046779577771 -0.20302062789908359 0 0.42375809248152718 -0.19148266629032679 0 0.42617953641653422 -0.19588973245478611 0 0.43517277847555652 -0.18807967433230971 0 0.42375809248152718 -0.19148266629032679 0 0.42617953641653422 -0.19588973245478611 0 0.42034669893490312 -0.19718102983807259 0 0.42375809248152718 -0.19148266629032679 0 0.42617953641653422 -0.19588973245478611 0 0.42034669893490312 -0.19718102983807259 0 0.42375809248152718 -0.19148266629032679 0 0.42034669893490312 -0.19718102983807259 0 0.42617953641653422 -0.19588973245478611 0 0.42507461395753809 -0.2054567251846193 0 0.42034669893490312 -0.19718102983807259 0 0.42617953641653422 -0.19588973245478611 0 0.42617953641653422 -0.19588973245478611 0 0.43790337323726403 -0.2172273004336667 0 0.43848046779577771 -0.20302062789908359 0 0.42617953641653422 -0.19588973245478611 0 0.42507461395753809 -0.2054567251846193 0 0.43790337323726403 -0.2172273004336667 0 0.42617953641653422 -0.19588973245478611 0 0.43790337323726403 -0.2172273004336667 0 0.41858699319884662 -0.2163420411478523 0 0.42657428702319872 -0.21258408959631339 0 0.42751682565282317 -0.2190642171084311 0 0.41858699319884662 -0.2163420411478523 0 0.42657428702319872 -0.21258408959631339 0 0.42507461395753809 -0.2054567251846193 0 0.42657428702319872 -0.21258408959631339 0 0.42751682565282317 -0.2190642171084311 0 0.43790337323726403 -0.2172273004336667 0 0.42657428702319872 -0.21258408959631339 0 0.42507461395753809 -0.2054567251846193 0 0.43790337323726403 -0.2172273004336667 0 0.42325019816149512 -0.24073854688315549 0 0.44439500562595219 -0.23324397065111879 0 0.44152165453420261 -0.22507116771448449 0 0.42862568490433561 -0.2294621685039471 0 0.42325019816149512 -0.24073854688315549 0 0.44152165453420261 -0.22507116771448449 0 0.42325019816149512 -0.24073854688315549 0 0.44152165453420261 -0.22507116771448449 0 0.43226626749209268 -0.22314083275723101 0 0.44152165453420261 -0.22507116771448449 0 0.43790337323726403 -0.2172273004336667 0 0.43226626749209268 -0.22314083275723101 0 0.42862568490433561 -0.2294621685039471 0 0.44152165453420261 -0.22507116771448449 0 0.43226626749209268 -0.22314083275723101 0 0.42751682565282317 -0.2190642171084311 0 0.43790337323726403 -0.2172273004336667 0 0.41858699319884662 -0.2163420411478523 0 0.42751682565282317 -0.2190642171084311 0 0.42446716311031019 -0.2253698699564429 0 0.43226626749209268 -0.22314083275723101 0 0.42751682565282317 -0.2190642171084311 0 0.42446716311031019 -0.2253698699564429 0 0.43226626749209268 -0.22314083275723101 0 0.42446716311031019 -0.2253698699564429 0 0.42862568490433561 -0.2294621685039471 0 0.42446716311031019 -0.2253698699564429 0 0.42862568490433561 -0.2294621685039471 0 0.42162314122357691 -0.23299042520842181 0 0.42574671342597992 -0.24653841312022781 0 0.44248761719368768 -0.24127362685803391 0 0.42574671342597992 -0.24653841312022781 0 0.42325019816149512 -0.24073854688315549 0 0.44248761719368768 -0.24127362685803391 0 0.42574671342597992 -0.24653841312022781 0 0.44248761719368768 -0.24127362685803391 0 0.43604559370591273 -0.25052061359546901 0 0.42325019816149512 -0.24073854688315549 0 0.44248761719368768 -0.24127362685803391 0 0.44439500562595219 -0.23324397065111879 0 0.42574671342597992 -0.24653841312022781 0 0.42325019816149512 -0.24073854688315549 0 0.41909837230190528 -0.25508694230501539 0 0.42862568490433561 -0.2294621685039471 0 0.42325019816149512 -0.24073854688315549 0 0.42162314122357691 -0.23299042520842181 0 0.40291901511462919 -0.24372939979452729 0 0.41262906112501668 -0.2404416682693811 0 0.40497874178878762 -0.25640592605182672 0 0.42325019816149512 -0.24073854688315549 0 0.41262906112501668 -0.2404416682693811 0 0.40497874178878762 -0.25640592605182672 0 0.42325019816149512 -0.24073854688315549 0 0.40497874178878762 -0.25640592605182672 0 0.42325019816149512 -0.24073854688315549 0 0.41262906112501668 -0.2404416682693811 0 0.42162314122357691 -0.23299042520842181 0 0.40662264837597473 -0.23535406694849051 0 0.41262906112501668 -0.2404416682693811 0 0.41529762917937119 -0.22869278467777179 0 0.40291901511462919 -0.24372939979452729 0 0.40662264837597473 -0.23535406694849051 0 0.41262906112501668 -0.2404416682693811 0 0.40570951749362449 -0.22163085658094969 0 0.40662264837597473 -0.23535406694849051 0 0.41529762917937119 -0.22869278467777179 0 0.40570951749362449 -0.22163085658094969 0 0.41858699319884662 -0.2163420411478523 0 0.41529762917937119 -0.22869278467777179 0 0.41858699319884662 -0.2163420411478523 0 0.42446716311031019 -0.2253698699564429 0 0.41529762917937119 -0.22869278467777179 0 0.41262906112501668 -0.2404416682693811 0 0.41529762917937119 -0.22869278467777179 0 0.42162314122357691 -0.23299042520842181 0 0.42446716311031019 -0.2253698699564429 0 0.41529762917937119 -0.22869278467777179 0 0.42162314122357691 -0.23299042520842181 0 0.39205639796458069 -0.13378508211676779 0 0.40406606107914822 -0.1417681928485296 0 0.4111337927182464 -0.12736345745607119 0 0.39642913999521012 -0.1178821333858929 0 0.39205639796458069 -0.13378508211676779 0 0.4111337927182464 -0.12736345745607119 0 0.39642913999521012 -0.1178821333858929 0 0.39205639796458069 -0.13378508211676779 0 0.38090246017173152 -0.12780341436452999 0 0.36717637813648041 -0.13031094074813701 0 0.38090246017173152 -0.12780341436452999 0 0.37949034410786753 -0.1419409207912278 0 0.39205639796458069 -0.13378508211676779 0 0.38090246017173152 -0.12780341436452999 0 0.37949034410786753 -0.1419409207912278 0 0.37949034410786753 -0.1419409207912278 0 0.40083597381098918 -0.1497640486712371 0 0.37996744773487562 -0.15760030390351551 0 0.39205639796458069 -0.13378508211676779 0 0.40406606107914822 -0.1417681928485296 0 0.40083597381098918 -0.1497640486712371 0 0.39205639796458069 -0.13378508211676779 0 0.37949034410786753 -0.1419409207912278 0 0.40083597381098918 -0.1497640486712371 0 0.39205639796458069 -0.13378508211676779 0 0.40083597381098918 -0.1497640486712371 0 0.40406606107914822 -0.1417681928485296 0 0.40083597381098918 -0.1497640486712371 0 0.41223807982277649 -0.1561601831500421 0 0.40083597381098918 -0.1497640486712371 0 0.39464247933081931 -0.16356847187263021 0 0.37996744773487562 -0.15760030390351551 0 0.40083597381098918 -0.1497640486712371 0 0.40961554965739699 -0.16574301522570681 0 0.40083597381098918 -0.1497640486712371 0 0.39464247933081931 -0.16356847187263021 0 0.40961554965739699 -0.16574301522570681 0 0.40284574658653122 -0.17628176728060441 0 0.40961554965739699 -0.16574301522570681 0 0.39464247933081931 -0.16356847187263021 0 0.40284574658653122 -0.17628176728060441 0 0.40961554965739699 -0.16574301522570681 0 0.39464247933081931 -0.16356847187263021 0 0.38788142252709712 -0.1738039074794227 0 0.40284574658653122 -0.17628176728060441 0 0.37424428590619668 -0.17401884093267411 0 0.37996744773487562 -0.15760030390351551 0 0.38788142252709712 -0.1738039074794227 0 0.39464247933081931 -0.16356847187263021 0 0.37996744773487562 -0.15760030390351551 0 0.38788142252709712 -0.1738039074794227 0 0.37424428590619668 -0.17401884093267411 0 0.38788142252709712 -0.1738039074794227 0 0.380467256186105 -0.18561134251733691 0 0.38788142252709712 -0.1738039074794227 0 0.380467256186105 -0.18561134251733691 0 0.39512131941805573 -0.18574271836977549 0 0.38788142252709712 -0.1738039074794227 0 0.39512131941805573 -0.18574271836977549 0 0.40284574658653122 -0.17628176728060441 0 0.41066259979421749 -0.18751321040571939 0 0.39512131941805573 -0.18574271836977549 0 0.40284574658653122 -0.17628176728060441 0 0.42375809248152718 -0.19148266629032679 0 0.40961554965739699 -0.16574301522570681 0 0.41066259979421749 -0.18751321040571939 0 0.40284574658653122 -0.17628176728060441 0 0.40961554965739699 -0.16574301522570681 0 0.41066259979421749 -0.18751321040571939 0 0.42375809248152718 -0.19148266629032679 0 0.40961554965739699 -0.16574301522570681 0 0.42375809248152718 -0.19148266629032679 0 0.42401682338052121 -0.17458540187297211 0 0.40961554965739699 -0.16574301522570681 0 0.42375809248152718 -0.19148266629032679 0 0.43878828485873722 -0.16637635733260961 0 0.42375809248152718 -0.19148266629032679 0 0.42401682338052121 -0.17458540187297211 0 0.43878828485873722 -0.16637635733260961 0 0.42375809248152718 -0.19148266629032679 0 0.43517277847555652 -0.18807967433230971 0 0.43878828485873722 -0.16637635733260961 0 0.42588540619494331 -0.1611163027401056 0 0.43509828474813772 -0.14829078732189219 0 0.43878828485873722 -0.16637635733260961 0 0.42401682338052121 -0.17458540187297211 0 0.42588540619494331 -0.1611163027401056 0 0.43878828485873722 -0.16637635733260961 0 0.42588540619494331 -0.1611163027401056 0 0.40961554965739699 -0.16574301522570681 0 0.42220493503615247 -0.14614474779585329 0 0.42401682338052121 -0.17458540187297211 0 0.42588540619494331 -0.1611163027401056 0 0.40961554965739699 -0.16574301522570681 0 0.40083597381098918 -0.1497640486712371 0 0.40961554965739699 -0.16574301522570681 0 0.41223807982277649 -0.1561601831500421 0 0.40961554965739699 -0.16574301522570681 0 0.41223807982277649 -0.1561601831500421 0 0.42220493503615247 -0.14614474779585329 0 0.40406606107914822 -0.1417681928485296 0 0.41223807982277649 -0.1561601831500421 0 0.4111337927182464 -0.12736345745607119 0 0.40961554965739699 -0.16574301522570681 0 0.42220493503615247 -0.14614474779585329 0 0.41223807982277649 -0.1561601831500421 0 0.4111337927182464 -0.12736345745607119 0 0.41223807982277649 -0.1561601831500421 0 0.42220493503615247 -0.14614474779585329 0 0.4111337927182464 -0.12736345745607119 0 0.42588540619494331 -0.1611163027401056 0 0.43509828474813772 -0.14829078732189219 0 0.42220493503615247 -0.14614474779585329 0 0.42220493503615247 -0.14614474779585329 0 0.43479432041490851 -0.126546480366 0 0.42220493503615247 -0.14614474779585329 0 0.43479432041490851 -0.126546480366 0 0.4111337927182464 -0.12736345745607119 0 0.43509828474813772 -0.14829078732189219 0 0.42220493503615247 -0.14614474779585329 0 0.43479432041490851 -0.126546480366 0 0.46884866961315769 -0.1161637394171751 0 0.45381847723594743 -0.1412700483748924 0 0.47257890020551208 -0.13977947879293631 0 0.46884866961315769 -0.1161637394171751 0 0.45121129326441939 -0.1227321202735536 0 0.45381847723594743 -0.1412700483748924 0 0.46884866961315769 -0.1161637394171751 0 0.45381847723594743 -0.1412700483748924 0 0.45121129326441939 -0.1227321202735536 0 0.43479432041490851 -0.126546480366 0 0.45381847723594743 -0.1412700483748924 0 0.43509828474813772 -0.14829078732189219 0 0.43479432041490851 -0.126546480366 0 0.45381847723594743 -0.1412700483748924 0 0.45381847723594743 -0.1412700483748924 0 0.43878828485873722 -0.16637635733260961 0 0.43509828474813772 -0.14829078732189219 0 0.45381847723594743 -0.1412700483748924 0 0.43878828485873722 -0.16637635733260961 0 0.45381847723594743 -0.1412700483748924 0 0.46461913390253268 -0.1580026861485602 0 0.43878828485873722 -0.16637635733260961 0 0.45381847723594743 -0.1412700483748924 0 0.46461913390253268 -0.1580026861485602 0 0.47257890020551208 -0.13977947879293631 0 0.46461913390253268 -0.1580026861485602 0 0.45716495387264372 -0.17398300348333051 0 0.47323049558718028 -0.1719990669463797 0 0.46461913390253268 -0.1580026861485602 0 0.43878828485873722 -0.16637635733260961 0 0.45716495387264372 -0.17398300348333051 0 0.43878828485873722 -0.16637635733260961 0 0.45716495387264372 -0.17398300348333051 0 0.44662215430226809 -0.19136406221855881 0 0.43517277847555652 -0.18807967433230971 0 0.43878828485873722 -0.16637635733260961 0 0.44662215430226809 -0.19136406221855881 0 0.46706477218800208 -0.18683839198233121 0 0.45716495387264372 -0.17398300348333051 0 0.44662215430226809 -0.19136406221855881 0 0.46706477218800208 -0.18683839198233121 0 0.45716495387264372 -0.17398300348333051 0 0.47323049558718028 -0.1719990669463797 0 0.46706477218800208 -0.18683839198233121 0 0.48750739007373611 -0.18231272174610369 0 0.46706477218800208 -0.18683839198233121 0 0.47323049558718028 -0.1719990669463797 0 0.48750739007373611 -0.18231272174610369 0 0.47323049558718028 -0.1719990669463797 0 0.48750739007373611 -0.18231272174610369 0 0.48371126919468349 -0.17021519453889691 0 0.49383621476583328 -0.1736686605453418 0 0.49097683693335897 -0.20029616174872991 0 0.48750739007373611 -0.18231272174610369 0 0.4920857160990425 -0.16467281603687209 0 0.48371126919468349 -0.17021519453889691 0 0.48750739007373611 -0.18231272174610369 0 0.49383621476583328 -0.1736686605453418 0 0.49097683693335897 -0.20029616174872991 0 0.49383621476583328 -0.1736686605453418 0 0.5 -0.16399732489333141 0 0.5 -0.19359204527282711 0 0.48750739007373611 -0.18231272174610369 0 0.49383621476583328 -0.1736686605453418 0 0.4920857160990425 -0.16467281603687209 0 0.48750739007373611 -0.18231272174610369 0 0.4920857160990425 -0.16467281603687209 0 0.4920857160990425 -0.16467281603687209 0 0.48016898864408858 -0.16174884894361091 0 0.48371126919468349 -0.17021519453889691 0 0.49383621476583328 -0.1736686605453418 0 0.49669559259830709 -0.14704115934195361 0 0.49383621476583328 -0.1736686605453418 0 0.5 -0.16399732489333141 0 0.49669559259830709 -0.14704115934195361 0 0.49383621476583328 -0.1736686605453418 0 0.4920857160990425 -0.16467281603687209 0 0.49669559259830709 -0.14704115934195361 0 0.4920857160990425 -0.16467281603687209 0 0.48016898864408858 -0.16174884894361091 0 0.48657998279182768 -0.15344666210371211 0 0.47323049558718028 -0.1719990669463797 0 0.48016898864408858 -0.16174884894361091 0 0.48371126919468349 -0.17021519453889691 0 0.46461913390253268 -0.1580026861485602 0 0.48016898864408858 -0.16174884894361091 0 0.4778952053861753 -0.1510323175551746 0 0.46461913390253268 -0.1580026861485602 0 0.47323049558718028 -0.1719990669463797 0 0.48016898864408858 -0.16174884894361091 0 0.46461913390253268 -0.1580026861485602 0 0.4778952053861753 -0.1510323175551746 0 0.47257890020551208 -0.13977947879293631 0 0.48359743696911123 -0.14415390608292861 0 0.4778952053861753 -0.1510323175551746 0 0.47257890020551208 -0.13977947879293631 0 0.48359743696911123 -0.14415390608292861 0 0.4778952053861753 -0.1510323175551746 0 0.48657998279182768 -0.15344666210371211 0 0.48016898864408858 -0.16174884894361091 0 0.4778952053861753 -0.1510323175551746 0 0.48657998279182768 -0.15344666210371211 0 0.4920857160990425 -0.16467281603687209 0 0.48657998279182768 -0.15344666210371211 0 0.49669559259830709 -0.14704115934195361 0 0.4920857160990425 -0.16467281603687209 0 0.49669559259830709 -0.14704115934195361 0 0.5 -0.16399732489333141 0 0.49669559259830709 -0.14704115934195361 0 0.49999999999999978 -0.13440260451383559 0 0.49669559259830709 -0.14704115934195361 0 0.49999999999999978 -0.13440260451383559 0 0.48359743696911123 -0.14415390608292861 0 0.48657998279182768 -0.15344666210371211 0 0.49669559259830709 -0.14704115934195361 0 0.49999999999999989 -0.1195422043820585 0 0.49669559259830709 -0.14704115934195361 0 0.49999999999999978 -0.13440260451383559 0 0.49999999999999989 -0.1195422043820585 0 0.49669559259830709 -0.14704115934195361 0 0.49999999999999989 -0.1195422043820585 0 0.49669559259830709 -0.14704115934195361 0 0.48423750386373432 -0.12946991262086649 0 0.48359743696911123 -0.14415390608292861 0 0.49669559259830709 -0.14704115934195361 0 0.48423750386373432 -0.12946991262086649 0 0.46884866961315769 -0.1161637394171751 0 0.48423750386373432 -0.12946991262086649 0 0.47257890020551208 -0.13977947879293631 0 0.48359743696911123 -0.14415390608292861 0 0.48423750386373432 -0.12946991262086649 0 0.47257890020551208 -0.13977947879293631 0 0.46237460239944339 -0.22793660760295081 0 0.45922852096139521 -0.23600884059583879 0 0.4749140120974788 -0.2310759672339909 0 0.45922852096139521 -0.23600884059583879 0 0.4749140120974788 -0.2310759672339909 0 0.45349068075111942 -0.22628838302012641 0 0.46237460239944339 -0.22793660760295081 0 0.45979311090691011 -0.20940378854581351 0 0.46237460239944339 -0.22793660760295081 0 0.45922852096139521 -0.23600884059583879 0 0.45349068075111942 -0.22628838302012641 0 0.46237460239944339 -0.22793660760295081 0 0.45922852096139521 -0.23600884059583879 0 0.45922852096139521 -0.23600884059583879 0 0.4749140120974788 -0.2310759672339909 0 0.47078247315191718 -0.24622804723256661 0 0.45922852096139521 -0.23600884059583879 0 0.47078247315191718 -0.24622804723256661 0 0.45089596088203499 -0.25738856890620948 0 0.45922852096139521 -0.23600884059583879 0 0.45089596088203499 -0.25738856890620948 0 0.45922852096139521 -0.23600884059583879 0 0.44248761719368768 -0.24127362685803391 0 0.45922852096139521 -0.23600884059583879 0 0.44248761719368768 -0.24127362685803391 0 0.44439500562595219 -0.23324397065111879 0 0.45922852096139521 -0.23600884059583879 0 0.44248761719368768 -0.24127362685803391 0 0.45089596088203499 -0.25738856890620948 0 0.44248761719368768 -0.24127362685803391 0 0.45089596088203499 -0.25738856890620948 0 0.43604559370591273 -0.25052061359546901 0 0.45349068075111942 -0.22628838302012641 0 0.44152165453420261 -0.22507116771448449 0 0.45979311090691011 -0.20940378854581351 0 0.45349068075111942 -0.22628838302012641 0 0.44439500562595219 -0.23324397065111879 0 0.44152165453420261 -0.22507116771448449 0 0.45349068075111942 -0.22628838302012641 0 0.45922852096139521 -0.23600884059583879 0 0.44439500562595219 -0.23324397065111879 0 0.44152165453420261 -0.22507116771448449 0 0.43790337323726403 -0.2172273004336667 0 0.44748397592039102 -0.20877457999218241 0 0.44152165453420261 -0.22507116771448449 0 0.45979311090691011 -0.20940378854581351 0 0.44152165453420261 -0.22507116771448449 0 0.44748397592039102 -0.20877457999218241 0 0.45979311090691011 -0.20940378854581351 0 0.43790337323726403 -0.2172273004336667 0 0.44748397592039102 -0.20877457999218241 0 0.43848046779577771 -0.20302062789908359 0 0.44748397592039102 -0.20877457999218241 0 0.44662215430226809 -0.19136406221855881 0 0.45848781414630269 -0.1965288202276548 0 0.44748397592039102 -0.20877457999218241 0 0.44662215430226809 -0.19136406221855881 0 0.43848046779577771 -0.20302062789908359 0 0.46706477218800208 -0.18683839198233121 0 0.44662215430226809 -0.19136406221855881 0 0.45848781414630269 -0.1965288202276548 0 0.45979311090691011 -0.20940378854581351 0 0.47806456727961749 -0.1937364093771424 0 0.46706477218800208 -0.18683839198233121 0 0.45848781414630269 -0.1965288202276548 0 0.47806456727961749 -0.1937364093771424 0 0.46706477218800208 -0.18683839198233121 0 0.44662215430226809 -0.19136406221855881 0 0.45848781414630269 -0.1965288202276548 0 0.46237460239944339 -0.22793660760295081 0 0.45979311090691011 -0.20940378854581351 0 0.46953031881243978 -0.21865313015722709 0 0.44748397592039102 -0.20877457999218241 0 0.45848781414630269 -0.1965288202276548 0 0.45979311090691011 -0.20940378854581351 0 0.45979311090691011 -0.20940378854581351 0 0.48114313384772822 -0.20652553240397831 0 0.47806456727961749 -0.1937364093771424 0 0.45979311090691011 -0.20940378854581351 0 0.46953031881243978 -0.21865313015722709 0 0.48114313384772822 -0.20652553240397831 0 0.48750739007373611 -0.18231272174610369 0 0.48114313384772822 -0.20652553240397831 0 0.46706477218800208 -0.18683839198233121 0 0.48750739007373611 -0.18231272174610369 0 0.47806456727961749 -0.1937364093771424 0 0.48750739007373611 -0.18231272174610369 0 0.48114313384772822 -0.20652553240397831 0 0.47806456727961749 -0.1937364093771424 0 0.45979311090691011 -0.20940378854581351 0 0.47806456727961749 -0.1937364093771424 0 0.48750739007373611 -0.18231272174610369 0 0.48114313384772822 -0.20652553240397831 0 0.49097683693335897 -0.20029616174872991 0 0.49383621476583328 -0.1736686605453418 0 0.49097683693335897 -0.20029616174872991 0 0.5 -0.19359204527282711 0 0.48114313384772822 -0.20652553240397831 0 0.49097683693335897 -0.20029616174872991 0 0.48811745910087972 -0.22692366295211749 0 0.49097683693335897 -0.20029616174872991 0 0.5 -0.19359204527282711 0 0.499999999999999 -0.2231867656523229 0 0.49097683693335897 -0.20029616174872991 0 0.48811745910087972 -0.22692366295211749 0 0.49097683693335897 -0.20029616174872991 0 0.499999999999999 -0.2231867656523229 0 0.48811745910087972 -0.22692366295211749 0 0.499999999999999 -0.2231867656523229 0 0.48811745910087972 -0.22692366295211749 0 0.48114313384772822 -0.20652553240397831 0 0.4749140120974788 -0.2310759672339909 0 0.46953031881243978 -0.21865313015722709 0 0.48114313384772822 -0.20652553240397831 0 0.4749140120974788 -0.2310759672339909 0 0.48114313384772822 -0.20652553240397831 0 0.48811745910087972 -0.22692366295211749 0 0.4749140120974788 -0.2310759672339909 0 0.48811745910087972 -0.22692366295211749 0 0.4749140120974788 -0.2310759672339909 0 0.46237460239944339 -0.22793660760295081 0 0.46953031881243978 -0.21865313015722709 0 0.4749140120974788 -0.2310759672339909 0 0.48811745910087972 -0.22692366295211749 0 0.4749140120974788 -0.2310759672339909 0 0.47078247315191718 -0.24622804723256661 0 0.48811745910087972 -0.22692366295211749 0 0.47078247315191718 -0.24622804723256661 0 0.48562051777060949 -0.25017603188412518 0 0.499999999999999 -0.2231867656523229 0 0.48811745910087972 -0.22692366295211749 0 0.5 -0.25319545340015481 0 0.48811745910087972 -0.22692366295211749 0 0.48562051777060949 -0.25017603188412518 0 0.48811745910087972 -0.22692366295211749 0 0.5 -0.25319545340015481 0 0.48562051777060949 -0.25017603188412518 0 0.5 -0.25319545340015481 0 0.48562051777060949 -0.25017603188412518 0 0.48312357644033421 -0.27342840081613229 0 0.5 -0.25319545340015481 0 0.48312357644033421 -0.27342840081613229 0 0.5 -0.28320414114798659 0 0.48312357644033421 -0.27342840081613229 0 0.4592920022249608 -0.27706791872796721 0 0.47037419618928611 -0.2874815938232847 0 0.48312357644033421 -0.27342840081613229 0 0.4700499070446667 -0.26064313182454291 0 0.4592920022249608 -0.27706791872796721 0 0.48562051777060949 -0.25017603188412518 0 0.48312357644033421 -0.27342840081613229 0 0.4700499070446667 -0.26064313182454291 0 0.48562051777060949 -0.25017603188412518 0 0.48312357644033421 -0.27342840081613229 0 0.47078247315191718 -0.24622804723256661 0 0.48562051777060949 -0.25017603188412518 0 0.4700499070446667 -0.26064313182454291 0 0.4700499070446667 -0.26064313182454291 0 0.4592920022249608 -0.27706791872796721 0 0.45089596088203499 -0.25738856890620948 0 0.47078247315191718 -0.24622804723256661 0 0.4700499070446667 -0.26064313182454291 0 0.45089596088203499 -0.25738856890620948 0 0.4592920022249608 -0.27706791872796721 0 0.44256340080267659 -0.27876829721658097 0 0.45089596088203499 -0.25738856890620948 0 0.44256340080267659 -0.27876829721658097 0 0.45089596088203499 -0.25738856890620948 0 0.44256340080267659 -0.27876829721658097 0 0.45089596088203499 -0.25738856890620948 0 0.43561231269328321 -0.26085865643430239 0 0.45089596088203499 -0.25738856890620948 0 0.43561231269328321 -0.26085865643430239 0 0.43604559370591273 -0.25052061359546901 0 0.44984479584299331 -0.30695071184260092 0 0.44990474726250329 -0.29237272412562798 0 0.43423084072331819 -0.30014802552695258 0 0.44984479584299331 -0.30695071184260092 0 0.44361194275408661 -0.32476634377080299 0 0.43423084072331819 -0.30014802552695258 0 0.4592920022249608 -0.27706791872796721 0 0.44256340080267659 -0.27876829721658097 0 0.44990474726250329 -0.29237272412562798 0 0.44256340080267659 -0.27876829721658097 0 0.44990474726250329 -0.29237272412562798 0 0.43423084072331819 -0.30014802552695258 0 0.44256340080267659 -0.27876829721658097 0 0.43423084072331819 -0.30014802552695258 0 0.4592920022249608 -0.27706791872796721 0 0.46351402110775802 -0.30131050105396301 0 0.47037419618928611 -0.2874815938232847 0 0.4592920022249608 -0.27706791872796721 0 0.44990474726250329 -0.29237272412562798 0 0.46351402110775802 -0.30131050105396301 0 0.4592920022249608 -0.27706791872796721 0 0.46351402110775802 -0.30131050105396301 0 0.44984479584299331 -0.30695071184260092 0 0.44990474726250329 -0.29237272412562798 0 0.46351402110775802 -0.30131050105396301 0 0.44984479584299331 -0.30695071184260092 0 0.46351402110775802 -0.30131050105396301 0 0.45796242736730008 -0.3161559647356581 0 0.48062663511005899 -0.29668076974813939 0 0.4781296937797837 -0.31993313868014639 0 0.47250159749703891 -0.31086937321555191 0 0.48062663511005899 -0.29668076974813939 0 0.4781296937797837 -0.31993313868014639 0 0.48062663511005899 -0.29668076974813939 0 0.48843455342794612 -0.30714845990467871 0 0.4781296937797837 -0.31993313868014639 0 0.46351402110775802 -0.30131050105396301 0 0.47250159749703891 -0.31086937321555191 0 0.48062663511005899 -0.29668076974813939 0 0.48312357644033421 -0.27342840081613229 0 0.47037419618928611 -0.2874815938232847 0 0.48062663511005899 -0.29668076974813939 0 0.46351402110775802 -0.30131050105396301 0 0.47037419618928611 -0.2874815938232847 0 0.48062663511005899 -0.29668076974813939 0 0.48312357644033421 -0.27342840081613229 0 0.48062663511005899 -0.29668076974813939 0 0.48312357644033421 -0.27342840081613229 0 0.48062663511005899 -0.29668076974813939 0 0.5 -0.28320414114798659 0 0.48062663511005899 -0.29668076974813939 0 0.5 -0.28320414114798659 0 0.48843455342794612 -0.30714845990467871 0 0.5 -0.28320414114798659 0 0.48843455342794612 -0.30714845990467871 0 0.50000000000001255 -0.31321282889581847 0 0.50000000000001255 -0.31321282889581847 0 0.48521929419379772 -0.33523969509025892 0 0.48386801999528462 -0.31938295613789081 0 0.48843455342794612 -0.30714845990467871 0 0.50000000000001255 -0.31321282889581847 0 0.48386801999528462 -0.31938295613789081 0 0.50000000000001255 -0.31321282889581847 0 0.48386801999528462 -0.31938295613789081 0 0.50000000000001255 -0.31321282889581847 0 0.5 -0.34113824135468801 0 0.48521929419379772 -0.33523969509025892 0 0.5 -0.34113824135468801 0 0.48521929419379772 -0.33523969509025892 0 0.47265126867047408 -0.3537760352974762 0 0.48521929419379772 -0.33523969509025892 0 0.47465886202149388 -0.33542473871441358 0 0.47265126867047408 -0.3537760352974762 0 0.47465886202149388 -0.33542473871441358 0 0.47265126867047408 -0.3537760352974762 0 0.46838791953880998 -0.32929613713076789 0 0.47265126867047408 -0.3537760352974762 0 0.46838791953880998 -0.32929613713076789 0 0.48521929419379772 -0.33523969509025892 0 0.47671650340140198 -0.3291625700709262 0 0.47465886202149388 -0.33542473871441358 0 0.47671650340140198 -0.3291625700709262 0 0.47465886202149388 -0.33542473871441358 0 0.47031932430298568 -0.329649255982638 0 0.47465886202149388 -0.33542473871441358 0 0.47031932430298568 -0.329649255982638 0 0.46838791953880998 -0.32929613713076789 0 0.47031932430298568 -0.329649255982638 0 0.46773603999055502 -0.32555308337995881 0 0.46838791953880998 -0.32929613713076789 0 0.47031932430298568 -0.329649255982638 0 0.46838791953880998 -0.32929613713076789 0 0.47671650340140198 -0.3291625700709262 0 0.48386801999528462 -0.31938295613789081 0 0.46773603999055502 -0.32555308337995881 0 0.47671650340140198 -0.3291625700709262 0 0.47031932430298568 -0.329649255982638 0 0.46773603999055502 -0.32555308337995881 0 0.48521929419379772 -0.33523969509025892 0 0.47671650340140198 -0.3291625700709262 0 0.48386801999528462 -0.31938295613789081 0 0.48386801999528462 -0.31938295613789081 0 0.46773603999055502 -0.32555308337995881 0 0.48386801999528462 -0.31938295613789081 0 0.4781296937797837 -0.31993313868014639 0 0.46773603999055502 -0.32555308337995881 0 0.47250159749703891 -0.31086937321555191 0 0.4781296937797837 -0.31993313868014639 0 0.46773603999055502 -0.32555308337995881 0 0.48843455342794612 -0.30714845990467871 0 0.48386801999528462 -0.31938295613789081 0 0.4781296937797837 -0.31993313868014639 0 0.5 -0.34113824135468801 0 0.5 -0.36906365381355732 0 0.47265126867047408 -0.3537760352974762 0 0.5 -0.36906365381355732 0 0.47265126867047408 -0.3537760352974762 0 0.47515107112876992 -0.38244888776607688 0 0.47265126867047408 -0.3537760352974762 0 0.45867577015360311 -0.36919948003168551 0 0.47515107112876992 -0.38244888776607688 0 0.47265126867047408 -0.3537760352974762 0 0.45867577015360311 -0.36919948003168551 0 0.44886786412055579 -0.35576060187019309 0 0.47265126867047408 -0.3537760352974762 0 0.44886786412055579 -0.35576060187019309 0 0.45993581700419461 -0.34141548429051122 0 0.44886786412055579 -0.35576060187019309 0 0.45993581700419461 -0.34141548429051122 0 0.43902551410388929 -0.33653422753309331 0 0.44886786412055579 -0.35576060187019309 0 0.43902551410388929 -0.33653422753309331 0 0.42585873644965838 -0.36081944428177137 0 0.44886786412055579 -0.35576060187019309 0 0.44034131792118492 -0.37302191895940368 0 0.42585873644965838 -0.36081944428177137 0 0.45867577015360311 -0.36919948003168551 0 0.44886786412055579 -0.35576060187019309 0 0.44034131792118492 -0.37302191895940368 0 0.46351402110775802 -0.30131050105396301 0 0.47250159749703891 -0.31086937321555191 0 0.46773603999055502 -0.32555308337995881 0 0.46351402110775802 -0.30131050105396301 0 0.45796242736730008 -0.3161559647356581 0 0.46773603999055502 -0.32555308337995881 0 0.46351402110775802 -0.30131050105396301 0 0.46773603999055502 -0.32555308337995881 0 0.45796242736730008 -0.3161559647356581 0 0.46132560486421481 -0.32800493370428152 0 0.44361194275408661 -0.32476634377080299 0 0.45796242736730008 -0.3161559647356581 0 0.46132560486421481 -0.32800493370428152 0 0.46773603999055502 -0.32555308337995881 0 0.46132560486421481 -0.32800493370428152 0 0.46773603999055502 -0.32555308337995881 0 0.46132560486421481 -0.32800493370428152 0 0.46773603999055502 -0.32555308337995881 0 0.46838791953880998 -0.32929613713076789 0 0.46773603999055502 -0.32555308337995881 0 0.46838791953880998 -0.32929613713076789 0 0.46132560486421481 -0.32800493370428152 0 0.46838791953880998 -0.32929613713076789 0 0.46132560486421481 -0.32800493370428152 0 0.46838791953880998 -0.32929613713076789 0 0.45993581700419461 -0.34141548429051122 0 0.46132560486421481 -0.32800493370428152 0 0.45993581700419461 -0.34141548429051122 0 0.43902551410388929 -0.33653422753309331 0 0.47265126867047408 -0.3537760352974762 0 0.46838791953880998 -0.32929613713076789 0 0.45993581700419461 -0.34141548429051122 0 0.46132560486421481 -0.32800493370428152 0 0.43902551410388929 -0.33653422753309331 0 0.44361194275408661 -0.32476634377080299 0 0.46132560486421481 -0.32800493370428152 0 0.43902551410388929 -0.33653422753309331 0 0.44984479584299331 -0.30695071184260092 0 0.45796242736730008 -0.3161559647356581 0 0.44361194275408661 -0.32476634377080299 0 0.46132560486421481 -0.32800493370428152 0 0.44361194275408661 -0.32476634377080299 0 0.43902551410388929 -0.33653422753309331 0 0.44361194275408661 -0.32476634377080299 0 0.42589828064395852 -0.32152775383732368 0 0.44361194275408661 -0.32476634377080299 0 0.42589828064395852 -0.32152775383732368 0 0.44361194275408661 -0.32476634377080299 0 0.42589828064395852 -0.32152775383732368 0 0.43423084072331819 -0.30014802552695258 0 0.43902551410388929 -0.33653422753309331 0 0.42589828064395852 -0.32152775383732368 0 0.41672542334356288 -0.34506352136190221 0 0.43902551410388929 -0.33653422753309331 0 0.41672542334356288 -0.34506352136190221 0 0.42589828064395852 -0.32152775383732368 0 0.41672542334356288 -0.34506352136190221 0 0.42589828064395852 -0.32152775383732368 0 0.4131214658581488 -0.32609829341163987 0 0.41672542334356288 -0.34506352136190221 0 0.4131214658581488 -0.32609829341163987 0 0.41672542334356288 -0.34506352136190221 0 0.40261876889155862 -0.34001264084145238 0 0.42589828064395852 -0.32152775383732368 0 0.4131214658581488 -0.32609829341163987 0 0.40741424025854928 -0.31814831559637441 0 0.42589828064395852 -0.32152775383732368 0 0.40741424025854928 -0.31814831559637441 0 0.41765869009918383 -0.31092719483206582 0 0.42589828064395852 -0.32152775383732368 0 0.40741424025854928 -0.31814831559637441 0 0.44034131792118492 -0.37302191895940368 0 0.42585873644965838 -0.36081944428177137 0 0.42134799696349279 -0.38759807091028042 0 0.43902551410388929 -0.33653422753309331 0 0.42585873644965838 -0.36081944428177137 0 0.41672542334356288 -0.34506352136190221 0 0.42585873644965838 -0.36081944428177137 0 0.41672542334356288 -0.34506352136190221 0 0.40774424222415728 -0.36810748509097629 0 0.41672542334356288 -0.34506352136190221 0 0.40774424222415728 -0.36810748509097629 0 0.42585873644965838 -0.36081944428177137 0 0.40774424222415728 -0.36810748509097629 0 0.42134799696349279 -0.38759807091028042 0 0.40774424222415728 -0.36810748509097629 0 0.38929512831123531 -0.35555500539469798 0 0.38376243554737549 -0.37597803881276293 0 0.41672542334356288 -0.34506352136190221 0 0.38929512831123531 -0.35555500539469798 0 0.41672542334356288 -0.34506352136190221 0 0.40774424222415728 -0.36810748509097629 0 0.38929512831123531 -0.35555500539469798 0 0.41672542334356288 -0.34506352136190221 0 0.38929512831123531 -0.35555500539469798 0 0.40261876889155862 -0.34001264084145238 0 0.38929512831123531 -0.35555500539469798 0 0.38376243554737549 -0.37597803881276293 0 0.36186483327890628 -0.36604648942748991 0 0.38929512831123531 -0.35555500539469798 0 0.36186483327890628 -0.36604648942748991 0 0.4131214658581488 -0.32609829341163987 0 0.40741424025854928 -0.31814831559637441 0 0.39133305805328988 -0.33333374319757059 0 0.40741424025854928 -0.31814831559637441 0 0.39133305805328988 -0.33333374319757059 0 0.38893019987314009 -0.31476887735542541 0 0.40741424025854928 -0.31814831559637441 0 0.38893019987314009 -0.31476887735542541 0 0.40741424025854928 -0.31814831559637441 0 0.38893019987314009 -0.31476887735542541 0 0.40373312634499697 -0.30586519656721561 0 0.38929512831123531 -0.35555500539469798 0 0.39133305805328988 -0.33333374319757059 0 0.40261876889155862 -0.34001264084145238 0 0.4131214658581488 -0.32609829341163987 0 0.39133305805328988 -0.33333374319757059 0 0.40261876889155862 -0.34001264084145238 0 0.4131214658581488 -0.32609829341163987 0 0.39133305805328988 -0.33333374319757059 0 0.38929512831123531 -0.35555500539469798 0 0.39133305805328988 -0.33333374319757059 0 0.36954465024843108 -0.34056919298350119 0 0.39133305805328988 -0.33333374319757059 0 0.37390592373185583 -0.31705746731241302 0 0.36954465024843108 -0.34056919298350119 0 0.39133305805328988 -0.33333374319757059 0 0.36954465024843108 -0.34056919298350119 0 0.39133305805328988 -0.33333374319757059 0 0.38893019987314009 -0.31476887735542541 0 0.37390592373185583 -0.31705746731241302 0 0.38893019987314009 -0.31476887735542541 0 0.37936997328051297 -0.30156843321594079 0 0.37390592373185583 -0.31705746731241302 0 0.38893019987314009 -0.31476887735542541 0 0.37936997328051297 -0.30156843321594079 0 0.3935804525049188 -0.2962430225215566 0 0.38893019987314009 -0.31476887735542541 0 0.40373312634499697 -0.30586519656721561 0 0.3935804525049188 -0.2962430225215566 0 0.40373312634499697 -0.30586519656721561 0 0.3935804525049188 -0.2962430225215566 0 0.40652094409829909 -0.29625389172679589 0 0.40253654224880919 -0.28770231730197082 0 0.39245801690914961 -0.28281422541743839 0 0.40162836103177568 -0.27613098926234808 0 0.40253654224880919 -0.28770231730197082 0 0.3935804525049188 -0.2962430225215566 0 0.40652094409829909 -0.29625389172679589 0 0.40253654224880919 -0.28770231730197082 0 0.3935804525049188 -0.2962430225215566 0 0.39245801690914961 -0.28281422541743839 0 0.39245801690914961 -0.28281422541743839 0 0.38123568933058932 -0.28691996455400509 0 0.38189593868108768 -0.27683382610968249 0 0.3935804525049188 -0.2962430225215566 0 0.39245801690914961 -0.28281422541743839 0 0.38123568933058932 -0.28691996455400509 0 0.37936997328051297 -0.30156843321594079 0 0.3935804525049188 -0.2962430225215566 0 0.38123568933058932 -0.28691996455400509 0 0.37936997328051297 -0.30156843321594079 0 0.38123568933058932 -0.28691996455400509 0 0.37157034655606602 -0.29231501428144818 0 0.38123568933058932 -0.28691996455400509 0 0.38189593868108768 -0.27683382610968249 0 0.36997718509612609 -0.2801945668111967 0 0.38189593868108768 -0.27683382610968249 0 0.37435873452599361 -0.26354068020136051 0 0.36997718509612609 -0.2801945668111967 0 0.38189593868108768 -0.27683382610968249 0 0.39145006754358019 -0.27069969356441193 0 0.37435873452599361 -0.26354068020136051 0 0.39245801690914961 -0.28281422541743839 0 0.38189593868108768 -0.27683382610968249 0 0.39145006754358019 -0.27069969356441193 0 0.37908670649058668 -0.24506820352079889 0 0.39649039221535809 -0.25121347051770149 0 0.37435873452599361 -0.26354068020136051 0 0.39649039221535809 -0.25121347051770149 0 0.37435873452599361 -0.26354068020136051 0 0.3960366079338461 -0.26148967139010643 0 0.39145006754358019 -0.27069969356441193 0 0.37435873452599361 -0.26354068020136051 0 0.39649039221535809 -0.25121347051770149 0 0.3960366079338461 -0.26148967139010643 0 0.37435873452599361 -0.26354068020136051 0 0.3960366079338461 -0.26148967139010643 0 0.40497874178878762 -0.25640592605182672 0 0.40262088551395192 -0.26641551765197852 0 0.39649039221535809 -0.25121347051770149 0 0.3960366079338461 -0.26148967139010643 0 0.40497874178878762 -0.25640592605182672 0 0.40291901511462919 -0.24372939979452729 0 0.39649039221535809 -0.25121347051770149 0 0.40497874178878762 -0.25640592605182672 0 0.39245801690914961 -0.28281422541743839 0 0.39145006754358019 -0.27069969356441193 0 0.40162836103177568 -0.27613098926234808 0 0.3960366079338461 -0.26148967139010643 0 0.39145006754358019 -0.27069969356441193 0 0.40262088551395192 -0.26641551765197852 0 0.40262088551395192 -0.26641551765197852 0 0.40162836103177568 -0.27613098926234808 0 0.40968844836769508 -0.27077933450861691 0 0.39145006754358019 -0.27069969356441193 0 0.40262088551395192 -0.26641551765197852 0 0.40162836103177568 -0.27613098926234808 0 0.40253654224880919 -0.28770231730197082 0 0.40162836103177568 -0.27613098926234808 0 0.41169908698187457 -0.27966410300242972 0 0.40162836103177568 -0.27613098926234808 0 0.41169908698187457 -0.27966410300242972 0 0.40968844836769508 -0.27077933450861691 0 0.41169908698187457 -0.27966410300242972 0 0.42246697149165541 -0.2684841382853691 0 0.42166740907090788 -0.28559172781797881 0 0.40262088551395192 -0.26641551765197852 0 0.40968844836769508 -0.27077933450861691 0 0.41194308641802679 -0.26298749113456099 0 0.40968844836769508 -0.27077933450861691 0 0.41194308641802679 -0.26298749113456099 0 0.42246697149165541 -0.2684841382853691 0 0.41169908698187457 -0.27966410300242972 0 0.40968844836769508 -0.27077933450861691 0 0.42246697149165541 -0.2684841382853691 0 0.42325019816149512 -0.24073854688315549 0 0.40497874178878762 -0.25640592605182672 0 0.41909837230190528 -0.25508694230501539 0 0.40497874178878762 -0.25640592605182672 0 0.40262088551395192 -0.26641551765197852 0 0.41194308641802679 -0.26298749113456099 0 0.40497874178878762 -0.25640592605182672 0 0.41194308641802679 -0.26298749113456099 0 0.41909837230190528 -0.25508694230501539 0 0.41194308641802679 -0.26298749113456099 0 0.41909837230190528 -0.25508694230501539 0 0.42246697149165541 -0.2684841382853691 0 0.42574671342597992 -0.24653841312022781 0 0.41909837230190528 -0.25508694230501539 0 0.42770164758818052 -0.25590759474449659 0 0.42770164758818052 -0.25590759474449659 0 0.43561231269328321 -0.26085865643430239 0 0.42246697149165541 -0.2684841382853691 0 0.41909837230190528 -0.25508694230501539 0 0.42770164758818052 -0.25590759474449659 0 0.42246697149165541 -0.2684841382853691 0 0.42574671342597992 -0.24653841312022781 0 0.42770164758818052 -0.25590759474449659 0 0.43604559370591273 -0.25052061359546901 0 0.42770164758818052 -0.25590759474449659 0 0.43561231269328321 -0.26085865643430239 0 0.43604559370591273 -0.25052061359546901 0 0.44256340080267659 -0.27876829721658097 0 0.43561231269328321 -0.26085865643430239 0 0.42246697149165541 -0.2684841382853691 0 0.44256340080267659 -0.27876829721658097 0 0.42246697149165541 -0.2684841382853691 0 0.42166740907090788 -0.28559172781797881 0 0.43423084072331819 -0.30014802552695258 0 0.41579038557562309 -0.29920116339617031 0 0.42166740907090788 -0.28559172781797881 0 0.44256340080267659 -0.27876829721658097 0 0.43423084072331819 -0.30014802552695258 0 0.42166740907090788 -0.28559172781797881 0 0.42589828064395852 -0.32152775383732368 0 0.43423084072331819 -0.30014802552695258 0 0.41765869009918383 -0.31092719483206582 0 0.43423084072331819 -0.30014802552695258 0 0.41579038557562309 -0.29920116339617031 0 0.41765869009918383 -0.31092719483206582 0 0.42589828064395852 -0.32152775383732368 0 0.43423084072331819 -0.30014802552695258 0 0.40741424025854928 -0.31814831559637441 0 0.40373312634499697 -0.30586519656721561 0 0.41765869009918383 -0.31092719483206582 0 0.40373312634499697 -0.30586519656721561 0 0.41579038557562309 -0.29920116339617031 0 0.41765869009918383 -0.31092719483206582 0 0.40373312634499697 -0.30586519656721561 0 0.41579038557562309 -0.29920116339617031 0 0.40652094409829909 -0.29625389172679589 0 0.40253654224880919 -0.28770231730197082 0 0.40652094409829909 -0.29625389172679589 0 0.41191907739198519 -0.28949331992542437 0 0.41579038557562309 -0.29920116339617031 0 0.40652094409829909 -0.29625389172679589 0 0.41191907739198519 -0.28949331992542437 0 0.40253654224880919 -0.28770231730197082 0 0.41169908698187457 -0.27966410300242972 0 0.41191907739198519 -0.28949331992542437 0 0.41169908698187457 -0.27966410300242972 0 0.41191907739198519 -0.28949331992542437 0 0.42166740907090788 -0.28559172781797881 0 0.41579038557562309 -0.29920116339617031 0 0.41191907739198519 -0.28949331992542437 0 0.42166740907090788 -0.28559172781797881 0 0.44522531331405518 -0.48235597643434758 0 0.45805168770176352 -0.5 0 0.42876873382138192 -0.5 0 0.44522531331405518 -0.48235597643434758 0 0.45672765879018229 -0.4625395150177728 0 0.42763867577929932 -0.46408430758067942 0 0.47227678427314418 -0.48157039387311579 0 0.45672765879018229 -0.4625395150177728 0 0.44522531331405518 -0.48235597643434758 0 0.47227678427314418 -0.48157039387311579 0 0.44522531331405518 -0.48235597643434758 0 0.47227678427314418 -0.48157039387311579 0 0.45672765879018229 -0.4625395150177728 0 0.44522531331405518 -0.48235597643434758 0 0.45805168770176352 -0.5 0 0.47227678427314418 -0.48157039387311579 0 0.45805168770176352 -0.5 0 0.48733464158214501 -0.50000000000000289 0 0.47227678427314418 -0.48157039387311579 0 0.48733464158214501 -0.50000000000000289 0 0.47227678427314418 -0.48157039387311579 0 0.48733464158214501 -0.50000000000000289 0 0.49999999999999828 -0.48076530364903503 0 0.47227678427314418 -0.48157039387311579 0 0.5 -0.5 0 0.48733464158214501 -0.50000000000000289 0 0.49999999999999828 -0.48076530364903503 0 0.49999999999999828 -0.48076530364903503 0 0.47227678427314418 -0.48157039387311579 0 0.49999999999999828 -0.48076530364903503 0 0.47227678427314418 -0.48157039387311579 0 0.48363340940192651 -0.46478798410211319 0 0.47227678427314418 -0.48157039387311579 0 0.48363340940192651 -0.46478798410211319 0 0.45672765879018229 -0.4625395150177728 0 0.48363340940192651 -0.46478798410211319 0 0.47576878755956181 -0.44611260096510358 0 0.45672765879018229 -0.4625395150177728 0 0.49999999999999828 -0.48076530364903503 0 0.48363340940192651 -0.46478798410211319 0 0.5 -0.45283989119016549 0 0.48363340940192651 -0.46478798410211319 0 0.5 -0.45283989119016549 0 0.47576878755956181 -0.44611260096510358 0 0.5 -0.45283989119016549 0 0.47576878755956181 -0.44611260096510358 0 0.5 -0.42491447873129612 0 0.47576878755956181 -0.44611260096510358 0 0.45890938353836669 -0.43902260907559282 0 0.45672765879018229 -0.4625395150177728 0 0.45672765879018229 -0.4625395150177728 0 0.44117853330721929 -0.44350863616243053 0 0.42763867577929932 -0.46408430758067942 0 0.45890938353836669 -0.43902260907559282 0 0.45672765879018229 -0.4625395150177728 0 0.44117853330721929 -0.44350863616243053 0 0.45672765879018229 -0.4625395150177728 0 0.44117853330721929 -0.44350863616243053 0 0.45890938353836669 -0.43902260907559282 0 0.44117853330721929 -0.44350863616243053 0 0.44578100140292648 -0.41925352238235919 0 0.44578100140292648 -0.41925352238235919 0 0.44946845130813701 -0.39571531876246441 0 0.42383682811642881 -0.41705512373673859 0 0.46691125967130181 -0.42257640990081818 0 0.47928945225941427 -0.40439516952986232 0 0.44946845130813701 -0.39571531876246441 0 0.44578100140292648 -0.41925352238235919 0 0.46691125967130181 -0.42257640990081818 0 0.44946845130813701 -0.39571531876246441 0 0.45890938353836669 -0.43902260907559282 0 0.44578100140292648 -0.41925352238235919 0 0.46691125967130181 -0.42257640990081818 0 0.47576878755956181 -0.44611260096510358 0 0.45890938353836669 -0.43902260907559282 0 0.46691125967130181 -0.42257640990081818 0 0.47576878755956181 -0.44611260096510358 0 0.46691125967130181 -0.42257640990081818 0 0.5 -0.42491447873129612 0 0.46691125967130181 -0.42257640990081818 0 0.5 -0.42491447873129612 0 0.47928945225941427 -0.40439516952986232 0 0.5 -0.42491447873129612 0 0.47928945225941427 -0.40439516952986232 0 0.5 -0.39698906627242669 0 0.47928945225941427 -0.40439516952986232 0 0.5 -0.39698906627242669 0 0.47515107112876992 -0.38244888776607688 0 0.5 -0.36906365381355732 0 0.5 -0.39698906627242669 0 0.47515107112876992 -0.38244888776607688 0 0.45867577015360311 -0.36919948003168551 0 0.47515107112876992 -0.38244888776607688 0 0.44946845130813701 -0.39571531876246441 0 0.47928945225941427 -0.40439516952986232 0 0.47515107112876992 -0.38244888776607688 0 0.44946845130813701 -0.39571531876246441 0 0.45867577015360311 -0.36919948003168551 0 0.44034131792118492 -0.37302191895940368 0 0.44946845130813701 -0.39571531876246441 0 0.44034131792118492 -0.37302191895940368 0 0.44946845130813701 -0.39571531876246441 0 0.42134799696349279 -0.38759807091028042 0 0.44946845130813701 -0.39571531876246441 0 0.42134799696349279 -0.38759807091028042 0 0.42383682811642881 -0.41705512373673859 0 0.42134799696349279 -0.38759807091028042 0 0.40670458119979908 -0.40751873589333909 0 0.42383682811642881 -0.41705512373673859 0 0.42134799696349279 -0.38759807091028042 0 0.3987630611047544 -0.39115144882005137 0 0.40670458119979908 -0.40751873589333909 0 0.40774424222415728 -0.36810748509097629 0 0.42134799696349279 -0.38759807091028042 0 0.3987630611047544 -0.39115144882005137 0 0.40774424222415728 -0.36810748509097629 0 0.3987630611047544 -0.39115144882005137 0 0.40774424222415728 -0.36810748509097629 0 0.38376243554737549 -0.37597803881276293 0 0.3987630611047544 -0.39115144882005137 0 0.38376243554737549 -0.37597803881276293 0 0.3987630611047544 -0.39115144882005137 0 0.37174905089330879 -0.39470448690436388 0 0.3987630611047544 -0.39115144882005137 0 0.38978187998535152 -0.4141954125491264 0 0.37174905089330879 -0.39470448690436388 0 0.3987630611047544 -0.39115144882005137 0 0.38978187998535152 -0.4141954125491264 0 0.40670458119979908 -0.40751873589333909 0 0.3987630611047544 -0.39115144882005137 0 0.38978187998535152 -0.4141954125491264 0 0.38978187998535152 -0.4141954125491264 0 0.40215241260423362 -0.43341193708697479 0 0.40670458119979908 -0.40751873589333909 0 0.38978187998535152 -0.4141954125491264 0 0.36910953910754901 -0.41855308197478092 0 0.37174905089330879 -0.39470448690436388 0 0.38978187998535152 -0.4141954125491264 0 0.38080069886594858 -0.43723937627820142 0 0.38978187998535152 -0.4141954125491264 0 0.38080069886594858 -0.43723937627820142 0 0.36910953910754901 -0.41855308197478092 0 0.38978187998535152 -0.4141954125491264 0 0.38080069886594858 -0.43723937627820142 0 0.40215241260423362 -0.43341193708697479 0 0.40215241260423362 -0.43341193708697479 0 0.42383682811642881 -0.41705512373673859 0 0.42025849337348969 -0.44299412196661853 0 0.40215241260423362 -0.43341193708697479 0 0.40670458119979908 -0.40751873589333909 0 0.42383682811642881 -0.41705512373673859 0 0.44117853330721929 -0.44350863616243053 0 0.44578100140292648 -0.41925352238235919 0 0.42383682811642881 -0.41705512373673859 0 0.44117853330721929 -0.44350863616243053 0 0.42383682811642881 -0.41705512373673859 0 0.42025849337348969 -0.44299412196661853 0 0.44117853330721929 -0.44350863616243053 0 0.42763867577929932 -0.46408430758067942 0 0.42025849337348969 -0.44299412196661853 0 0.42763867577929932 -0.46408430758067942 0 0.40648601706026782 -0.45691060526626959 0 0.40435609237136583 -0.47347885481849628 0 0.42763867577929932 -0.46408430758067942 0 0.40648601706026782 -0.45691060526626959 0 0.42025849337348969 -0.44299412196661853 0 0.40215241260423362 -0.43341193708697479 0 0.40648601706026782 -0.45691060526626959 0 0.42025849337348969 -0.44299412196661853 0 0.40215241260423362 -0.43341193708697479 0 0.40648601706026782 -0.45691060526626959 0 0.38745150721622368 -0.45363130963172199 0 0.38080069886594858 -0.43723937627820142 0 0.38745150721622368 -0.45363130963172199 0 0.36712566936238011 -0.45431027165623539 0 0.38080069886594858 -0.43723937627820142 0 0.40215241260423362 -0.43341193708697479 0 0.38745150721622368 -0.45363130963172199 0 0.38745150721622368 -0.45363130963172199 0 0.39331811649702447 -0.4675469761184734 0 0.3771745944413879 -0.46978696931907182 0 0.38745150721622368 -0.45363130963172199 0 0.3771745944413879 -0.46978696931907182 0 0.36712566936238011 -0.45431027165623539 0 0.40648601706026782 -0.45691060526626959 0 0.39331811649702447 -0.4675469761184734 0 0.40435609237136583 -0.47347885481849628 0 0.40648601706026782 -0.45691060526626959 0 0.38745150721622368 -0.45363130963172199 0 0.39331811649702447 -0.4675469761184734 0 0.39331811649702447 -0.4675469761184734 0 0.39112237139587708 -0.48392714155680699 0 0.40435609237136583 -0.47347885481849628 0 0.39112237139587708 -0.48392714155680699 0 0.41817384235496607 -0.48314155899557731 0 0.39112237139587708 -0.48392714155680699 0 0.40435609237136583 -0.47347885481849628 0 0.41817384235496607 -0.48314155899557731 0 0.39112237139587708 -0.48392714155680699 0 0.3771745944413879 -0.46978696931907182 0 0.36407090043678803 -0.48471272411803668 0 0.39331811649702447 -0.4675469761184734 0 0.39112237139587708 -0.48392714155680699 0 0.3771745944413879 -0.46978696931907182 0 0.39112237139587708 -0.48392714155680699 0 0.36407090043678803 -0.48471272411803668 0 0.39112237139587708 -0.48392714155680699 0 0.39948577994100037 -0.5 0 0.37020282606061877 -0.5 0 0.39112237139587708 -0.48392714155680699 0 0.37020282606061877 -0.5 0 0.36407090043678803 -0.48471272411803668 0 0.39112237139587708 -0.48392714155680699 0 0.39948577994100037 -0.5 0 0.41817384235496607 -0.48314155899557731 0 0.39948577994100037 -0.5 0 0.41817384235496607 -0.48314155899557731 0 0.42876873382138192 -0.5 0 0.42763867577929932 -0.46408430758067942 0 0.40435609237136583 -0.47347885481849628 0 0.41817384235496607 -0.48314155899557731 0 0.44522531331405518 -0.48235597643434758 0 0.41817384235496607 -0.48314155899557731 0 0.44522531331405518 -0.48235597643434758 0 0.42763867577929932 -0.46408430758067942 0 0.41817384235496607 -0.48314155899557731 0 0.44522531331405518 -0.48235597643434758 0 0.41817384235496607 -0.48314155899557731 0 0.42876873382138192 -0.5 0 0.32703121218833159 -0.48115477665093009 0 0.34091987218023728 -0.5 0 0.31163691829985601 -0.5 0 0.32703121218833159 -0.48115477665093009 0 0.30416151185852452 -0.48352405466362502 0 0.31163691829985601 -0.5 0 0.32703121218833159 -0.48115477665093009 0 0.31021738433804541 -0.46630700083328219 0 0.30416151185852452 -0.48352405466362502 0 0.32703121218833159 -0.48115477665093009 0 0.33030893169056541 -0.46241894008545742 0 0.31021738433804541 -0.46630700083328219 0 0.32703121218833159 -0.48115477665093009 0 0.34177356629494549 -0.47209669774536922 0 0.33030893169056541 -0.46241894008545742 0 0.32703121218833159 -0.48115477665093009 0 0.34177356629494549 -0.47209669774536922 0 0.3503072997035851 -0.48474730066711669 0 0.32703121218833159 -0.48115477665093009 0 0.34091987218023728 -0.5 0 0.3503072997035851 -0.48474730066711669 0 0.34091987218023728 -0.5 0 0.3503072997035851 -0.48474730066711669 0 0.37020282606061877 -0.5 0 0.3503072997035851 -0.48474730066711669 0 0.37020282606061877 -0.5 0 0.36407090043678803 -0.48471272411803668 0 0.3771745944413879 -0.46978696931907182 0 0.36407090043678803 -0.48471272411803668 0 0.35784542106058947 -0.47051960548836452 0 0.34177356629494549 -0.47209669774536922 0 0.3503072997035851 -0.48474730066711669 0 0.35784542106058947 -0.47051960548836452 0 0.3503072997035851 -0.48474730066711669 0 0.36407090043678803 -0.48471272411803668 0 0.35784542106058947 -0.47051960548836452 0 0.34177356629494549 -0.47209669774536922 0 0.35784542106058947 -0.47051960548836452 0 0.34832431372297012 -0.45625450924927502 0 0.35784542106058947 -0.47051960548836452 0 0.34832431372297012 -0.45625450924927502 0 0.36712566936238011 -0.45431027165623539 0 0.3771745944413879 -0.46978696931907182 0 0.35784542106058947 -0.47051960548836452 0 0.36712566936238011 -0.45431027165623539 0 0.38080069886594858 -0.43723937627820142 0 0.36712566936238011 -0.45431027165623539 0 0.35515082783654262 -0.43457173913978348 0 0.34832431372297012 -0.45625450924927502 0 0.36712566936238011 -0.45431027165623539 0 0.35515082783654262 -0.43457173913978348 0 0.34832431372297012 -0.45625450924927502 0 0.33774146609279831 -0.44360980138043982 0 0.35515082783654262 -0.43457173913978348 0 0.33774146609279831 -0.44360980138043982 0 0.32070781733533382 -0.4504200630844325 0 0.32898749054495308 -0.43060879235497201 0 0.33774146609279831 -0.44360980138043982 0 0.33030893169056541 -0.46241894008545742 0 0.32070781733533382 -0.4504200630844325 0 0.34832431372297012 -0.45625450924927502 0 0.33774146609279831 -0.44360980138043982 0 0.33030893169056541 -0.46241894008545742 0 0.34177356629494549 -0.47209669774536922 0 0.34832431372297012 -0.45625450924927502 0 0.33030893169056541 -0.46241894008545742 0 0.33030893169056541 -0.46241894008545742 0 0.32070781733533382 -0.4504200630844325 0 0.31021738433804541 -0.46630700083328219 0 0.32070781733533382 -0.4504200630844325 0 0.31273580362560971 -0.4374559050757168 0 0.30563964964378992 -0.45278314186825402 0 0.32070781733533382 -0.4504200630844325 0 0.31273580362560971 -0.4374559050757168 0 0.32898749054495308 -0.43060879235497201 0 0.31552726464900871 -0.42472468786320128 0 0.32687106938274257 -0.41257145800014861 0 0.32898749054495308 -0.43060879235497201 0 0.31273580362560971 -0.4374559050757168 0 0.31552726464900871 -0.42472468786320128 0 0.32898749054495308 -0.43060879235497201 0 0.31552726464900871 -0.42472468786320128 0 0.32687106938274257 -0.41257145800014861 0 0.30202878107347408 -0.41281011015907509 0 0.32687106938274257 -0.41257145800014861 0 0.34806523795659322 -0.41205439500242919 0 0.33529818193964761 -0.39554414587359449 0 0.32687106938274257 -0.41257145800014861 0 0.34148059278442289 -0.42625349805619273 0 0.34806523795659322 -0.41205439500242919 0 0.32687106938274257 -0.41257145800014861 0 0.32898749054495308 -0.43060879235497201 0 0.34148059278442289 -0.42625349805619273 0 0.33774146609279831 -0.44360980138043982 0 0.32898749054495308 -0.43060879235497201 0 0.34148059278442289 -0.42625349805619273 0 0.33774146609279831 -0.44360980138043982 0 0.34148059278442289 -0.42625349805619273 0 0.35515082783654262 -0.43457173913978348 0 0.34148059278442289 -0.42625349805619273 0 0.35515082783654262 -0.43457173913978348 0 0.34806523795659322 -0.41205439500242919 0 0.38080069886594858 -0.43723937627820142 0 0.35515082783654262 -0.43457173913978348 0 0.36910953910754901 -0.41855308197478092 0 0.36910953910754901 -0.41855308197478092 0 0.34806523795659322 -0.41205439500242919 0 0.37174905089330879 -0.39470448690436388 0 0.35515082783654262 -0.43457173913978348 0 0.36910953910754901 -0.41855308197478092 0 0.34806523795659322 -0.41205439500242919 0 0.34806523795659322 -0.41205439500242919 0 0.37174905089330879 -0.39470448690436388 0 0.3502823684630067 -0.38897749813363192 0 0.34806523795659322 -0.41205439500242919 0 0.3502823684630067 -0.38897749813363192 0 0.33529818193964761 -0.39554414587359449 0 0.37174905089330879 -0.39470448690436388 0 0.3502823684630067 -0.38897749813363192 0 0.36186483327890628 -0.36604648942748991 0 0.38376243554737549 -0.37597803881276293 0 0.37174905089330879 -0.39470448690436388 0 0.36186483327890628 -0.36604648942748991 0 0.3502823684630067 -0.38897749813363192 0 0.33443453824657737 -0.37653797346028173 0 0.36186483327890628 -0.36604648942748991 0 0.33443453824657737 -0.37653797346028173 0 0.33529818193964761 -0.39554414587359449 0 0.31712066812009598 -0.38992645403680171 0 0.3502823684630067 -0.38897749813363192 0 0.33443453824657737 -0.37653797346028173 0 0.33529818193964761 -0.39554414587359449 0 0.32687106938274257 -0.41257145800014861 0 0.31712066812009598 -0.38992645403680171 0 0.30202878107347408 -0.41281011015907509 0 0.32687106938274257 -0.41257145800014861 0 0.33529818193964761 -0.39554414587359449 0 0.31712066812009598 -0.38992645403680171 0 0.33443453824657737 -0.37653797346028173 0 0.30700424321424841 -0.3870294574930736 0 0.31622383729027348 -0.369541827677346 0 0.33443453824657737 -0.37653797346028173 0 0.30700424321424841 -0.3870294574930736 0 0.33443453824657737 -0.37653797346028173 0 0.31712066812009598 -0.38992645403680171 0 0.30700424321424841 -0.3870294574930736 0 0.30700424321424841 -0.3870294574930736 0 0.27957394818192022 -0.39752094152586759 0 0.27494798134585507 -0.37353784765599202 0 0.31712066812009598 -0.38992645403680171 0 0.30202878107347408 -0.41281011015907509 0 0.31712066812009598 -0.38992645403680171 0 0.30700424321424841 -0.3870294574930736 0 0.30202878107347408 -0.41281011015907509 0 0.30700424321424841 -0.3870294574930736 0 0.27957394818192022 -0.39752094152586759 0 0.30700424321424841 -0.3870294574930736 0 0.27957394818192022 -0.39752094152586759 0 0.30202878107347408 -0.41281011015907509 0 0.26318229795679571 -0.38775152563888798 0 0.27957394818192022 -0.39752094152586759 0 0.27494798134585507 -0.37353784765599202 0 0.27957394818192022 -0.39752094152586759 0 0.27494798134585507 -0.37353784765599202 0 0.26318229795679571 -0.38775152563888798 0 0.2570745260390761 -0.37496176060221259 0 0.24676596406711199 -0.38481043520233238 0 0.26318229795679571 -0.38775152563888798 0 0.27494798134585507 -0.37353784765599202 0 0.2570745260390761 -0.37496176060221259 0 0.26318229795679571 -0.38775152563888798 0 0.2564273998440364 -0.40637398674520908 0 0.24676596406711199 -0.38481043520233238 0 0.27957394818192022 -0.39752094152586759 0 0.2564273998440364 -0.40637398674520908 0 0.26318229795679571 -0.38775152563888798 0 0.27957394818192022 -0.39752094152586759 0 0.2564273998440364 -0.40637398674520908 0 0.27957394818192022 -0.39752094152586759 0 0.26861429797058761 -0.41745267149375992 0 0.28325542110438612 -0.41660735390360798 0 0.27957394818192022 -0.39752094152586759 0 0.26861429797058761 -0.41745267149375992 0 0.2564273998440364 -0.40637398674520908 0 0.2564273998440364 -0.40637398674520908 0 0.25477979716351118 -0.42793760440202661 0 0.24462940770010039 -0.42056901522014761 0 0.26861429797058761 -0.41745267149375992 0 0.2564273998440364 -0.40637398674520908 0 0.25477979716351118 -0.42793760440202661 0 0.25477979716351118 -0.42793760440202661 0 0.27072669729982052 -0.43546292123825292 0 0.25692474494065293 -0.44625734206771511 0 0.26861429797058761 -0.41745267149375992 0 0.25477979716351118 -0.42793760440202661 0 0.27072669729982052 -0.43546292123825292 0 0.26861429797058761 -0.41745267149375992 0 0.27072669729982052 -0.43546292123825292 0 0.28325542110438612 -0.41660735390360798 0 0.27072669729982052 -0.43546292123825292 0 0.28693689402685202 -0.43569376628134832 0 0.28325542110438612 -0.41660735390360798 0 0.28693689402685202 -0.43569376628134832 0 0.3037112732430739 -0.43019621747492931 0 0.29967667015283012 -0.44030613986972311 0 0.28693689402685202 -0.43569376628134832 0 0.30202878107347408 -0.41281011015907509 0 0.28693689402685202 -0.43569376628134832 0 0.28325542110438612 -0.41660735390360798 0 0.27957394818192022 -0.39752094152586759 0 0.28325542110438612 -0.41660735390360798 0 0.30202878107347408 -0.41281011015907509 0 0.28693689402685202 -0.43569376628134832 0 0.28325542110438612 -0.41660735390360798 0 0.30202878107347408 -0.41281011015907509 0 0.27957394818192022 -0.39752094152586759 0 0.28325542110438612 -0.41660735390360798 0 0.31552726464900871 -0.42472468786320128 0 0.30202878107347408 -0.41281011015907509 0 0.3037112732430739 -0.43019621747492931 0 0.28693689402685202 -0.43569376628134832 0 0.30202878107347408 -0.41281011015907509 0 0.3037112732430739 -0.43019621747492931 0 0.31273580362560971 -0.4374559050757168 0 0.31552726464900871 -0.42472468786320128 0 0.3037112732430739 -0.43019621747492931 0 0.31273580362560971 -0.4374559050757168 0 0.3037112732430739 -0.43019621747492931 0 0.29967667015283012 -0.44030613986972311 0 0.29967667015283012 -0.44030613986972311 0 0.30563964964378992 -0.45278314186825402 0 0.28947699862380383 -0.44886281161757041 0 0.31273580362560971 -0.4374559050757168 0 0.29967667015283012 -0.44030613986972311 0 0.30563964964378992 -0.45278314186825402 0 0.32070781733533382 -0.4504200630844325 0 0.30563964964378992 -0.45278314186825402 0 0.31021738433804541 -0.46630700083328219 0 0.30563964964378992 -0.45278314186825402 0 0.29562278435564698 -0.45938561890038432 0 0.28947699862380383 -0.44886281161757041 0 0.31021738433804541 -0.46630700083328219 0 0.29562278435564698 -0.45938561890038432 0 0.28841498262409321 -0.47358184465774522 0 0.30563964964378992 -0.45278314186825402 0 0.31021738433804541 -0.46630700083328219 0 0.29562278435564698 -0.45938561890038432 0 0.29562278435564698 -0.45938561890038432 0 0.28408382092282047 -0.45934978826737771 0 0.28947699862380383 -0.44886281161757041 0 0.29562278435564698 -0.45938561890038432 0 0.28408382092282047 -0.45934978826737771 0 0.28841498262409321 -0.47358184465774522 0 0.28408382092282047 -0.45934978826737771 0 0.28947699862380383 -0.44886281161757041 0 0.27774700476977598 -0.44962829050029152 0 0.28693689402685202 -0.43569376628134832 0 0.29967667015283012 -0.44030613986972311 0 0.28947699862380383 -0.44886281161757041 0 0.28693689402685202 -0.43569376628134832 0 0.28947699862380383 -0.44886281161757041 0 0.27774700476977598 -0.44962829050029152 0 0.28693689402685202 -0.43569376628134832 0 0.28947699862380383 -0.44886281161757041 0 0.28693689402685202 -0.43569376628134832 0 0.27774700476977598 -0.44962829050029152 0 0.27072669729982052 -0.43546292123825292 0 0.28693689402685202 -0.43569376628134832 0 0.27774700476977598 -0.44962829050029152 0 0.27072669729982052 -0.43546292123825292 0 0.27774700476977598 -0.44962829050029152 0 0.26690943628071201 -0.45191788577432562 0 0.25477979716351118 -0.42793760440202661 0 0.25692474494065293 -0.44625734206771511 0 0.24429483055626899 -0.44143762443535461 0 0.27072669729982052 -0.43546292123825292 0 0.26690943628071201 -0.45191788577432562 0 0.25692474494065293 -0.44625734206771511 0 0.26690943628071201 -0.45191788577432562 0 0.25692474494065293 -0.44625734206771511 0 0.2569187946599672 -0.45956481514080211 0 0.2569187946599672 -0.45956481514080211 0 0.25471513024465259 -0.47457186038339438 0 0.24330581021201581 -0.45828679983422022 0 0.25692474494065293 -0.44625734206771511 0 0.2569187946599672 -0.45956481514080211 0 0.24330581021201581 -0.45828679983422022 0 0.26690943628071201 -0.45191788577432562 0 0.2569187946599672 -0.45956481514080211 0 0.26855711551269978 -0.46356281471923461 0 0.2569187946599672 -0.45956481514080211 0 0.26855711551269978 -0.46356281471923461 0 0.25471513024465259 -0.47457186038339438 0 0.28408382092282047 -0.45934978826737771 0 0.26855711551269978 -0.46356281471923461 0 0.28841498262409321 -0.47358184465774522 0 0.27774700476977598 -0.44962829050029152 0 0.26690943628071201 -0.45191788577432562 0 0.26855711551269978 -0.46356281471923461 0 0.27774700476977598 -0.44962829050029152 0 0.26855711551269978 -0.46356281471923461 0 0.28408382092282047 -0.45934978826737771 0 0.27774700476977598 -0.44962829050029152 0 0.26855711551269978 -0.46356281471923461 0 0.26855711551269978 -0.46356281471923461 0 0.27206416033134168 -0.48243780374757927 0 0.28841498262409321 -0.47358184465774522 0 0.26855711551269978 -0.46356281471923461 0 0.27206416033134168 -0.48243780374757927 0 0.25471513024465259 -0.47457186038339438 0 0.27206416033134168 -0.48243780374757927 0 0.25471513024465259 -0.47457186038339438 0 0.25307101053909309 -0.5 0 0.27206416033134168 -0.48243780374757927 0 0.25307101053909309 -0.5 0 0.28235396441947458 -0.5 0 0.27206416033134168 -0.48243780374757927 0 0.28235396441947458 -0.5 0 0.28841498262409321 -0.47358184465774522 0 0.28235396441947458 -0.5 0 0.28841498262409321 -0.47358184465774522 0 0.30416151185852452 -0.48352405466362502 0 0.31021738433804541 -0.46630700083328219 0 0.28841498262409321 -0.47358184465774522 0 0.30416151185852452 -0.48352405466362502 0 0.28235396441947458 -0.5 0 0.30416151185852452 -0.48352405466362502 0 0.31163691829985601 -0.5 0 0.33151404988391342 -0.28740493017423852 0 0.35222707683662902 -0.27586788988501942 0 0.33151404988391342 -0.28740493017423852 0 0.35222707683662902 -0.27586788988501942 0 0.34695837859793838 -0.28815416523595261 0 0.33151404988391342 -0.28740493017423852 0 0.34695837859793838 -0.28815416523595261 0 0.34426040036796779 -0.29975717531417961 0 0.32635885874494203 -0.30632900582512163 0 0.34426040036796779 -0.29975717531417961 0 0.34119778444840171 -0.31790144893096589 0 0.33151404988391342 -0.28740493017423852 0 0.32635885874494203 -0.30632900582512163 0 0.34426040036796779 -0.29975717531417961 0 0.32635885874494203 -0.30632900582512163 0 0.30732649364020331 -0.31420398272309558 0 0.31080102293119782 -0.29894197046345761 0 0.33151404988391342 -0.28740493017423852 0 0.32635885874494203 -0.30632900582512163 0 0.31080102293119782 -0.29894197046345761 0 0.33151404988391342 -0.28740493017423852 0 0.32106297302557318 -0.28155270644852259 0 0.31080102293119782 -0.29894197046345761 0 0.32106297302557318 -0.28155270644852259 0 0.30602203525949961 -0.28439915863820231 0 0.31080102293119782 -0.29894197046345761 0 0.33151404988391342 -0.28740493017423852 0 0.31080102293119782 -0.29894197046345761 0 0.32106297302557318 -0.28155270644852259 0 0.3136483647488581 -0.26590858287124708 0 0.3106058239985019 -0.27539436948415058 0 0.32106297302557318 -0.28155270644852259 0 0.3136483647488581 -0.26590858287124708 0 0.32759323338526691 -0.26974677112204531 0 0.32106297302557318 -0.28155270644852259 0 0.3136483647488581 -0.26590858287124708 0 0.32106297302557318 -0.28155270644852259 0 0.30602203525949961 -0.28439915863820231 0 0.3106058239985019 -0.27539436948415058 0 0.32106297302557318 -0.28155270644852259 0 0.32759323338526691 -0.26974677112204531 0 0.33391581378593299 -0.2745654958002926 0 0.3136483647488581 -0.26590858287124708 0 0.32237888961991018 -0.25021827180162959 0 0.34174578198070338 -0.25696029936811882 0 0.3046167831337544 -0.24685279818082301 0 0.3136483647488581 -0.26590858287124708 0 0.32237888961991018 -0.25021827180162959 0 0.3136483647488581 -0.26590858287124708 0 0.34174578198070338 -0.25696029936811882 0 0.3136483647488581 -0.26590858287124708 0 0.32759323338526691 -0.26974677112204531 0 0.34174578198070338 -0.25696029936811882 0 0.32759323338526691 -0.26974677112204531 0 0.34174578198070338 -0.25696029936811882 0 0.33391581378593299 -0.2745654958002926 0 0.34174578198070338 -0.25696029936811882 0 0.33391581378593299 -0.2745654958002926 0 0.35222707683662902 -0.27586788988501942 0 0.33151404988391342 -0.28740493017423852 0 0.33391581378593299 -0.2745654958002926 0 0.35222707683662902 -0.27586788988501942 0 0.33151404988391342 -0.28740493017423852 0 0.32106297302557318 -0.28155270644852259 0 0.33391581378593299 -0.2745654958002926 0 0.34174578198070338 -0.25696029936811882 0 0.35222707683662902 -0.27586788988501942 0 0.34174578198070338 -0.25696029936811882 0 0.35222707683662902 -0.27586788988501942 0 0.35718695939474282 -0.26184578022473942 0 0.34174578198070338 -0.25696029936811882 0 0.36041624423564511 -0.25101425144445899 0 0.34608247494111549 -0.243317536911656 0 0.34174578198070338 -0.25696029936811882 0 0.36041624423564511 -0.25101425144445899 0 0.34174578198070338 -0.25696029936811882 0 0.35718695939474282 -0.26184578022473942 0 0.36041624423564511 -0.25101425144445899 0 0.35718695939474282 -0.26184578022473942 0 0.36041624423564511 -0.25101425144445899 0 0.37435873452599361 -0.26354068020136051 0 0.37908670649058668 -0.24506820352079889 0 0.36041624423564511 -0.25101425144445899 0 0.37435873452599361 -0.26354068020136051 0 0.35222707683662902 -0.27586788988501942 0 0.37435873452599361 -0.26354068020136051 0 0.35222707683662902 -0.27586788988501942 0 0.37435873452599361 -0.26354068020136051 0 0.36997718509612609 -0.2801945668111967 0 0.35222707683662902 -0.27586788988501942 0 0.35718695939474282 -0.26184578022473942 0 0.37435873452599361 -0.26354068020136051 0 0.38123568933058932 -0.28691996455400509 0 0.36997718509612609 -0.2801945668111967 0 0.37157034655606602 -0.29231501428144818 0 0.35222707683662902 -0.27586788988501942 0 0.36997718509612609 -0.2801945668111967 0 0.35983198730324328 -0.28958666557037283 0 0.35983198730324328 -0.28958666557037283 0 0.36743689776985872 -0.30330544125572562 0 0.37157034655606602 -0.29231501428144818 0 0.35983198730324328 -0.28958666557037283 0 0.36743689776985872 -0.30330544125572562 0 0.36997718509612609 -0.2801945668111967 0 0.37157034655606602 -0.29231501428144818 0 0.35983198730324328 -0.28958666557037283 0 0.35222707683662902 -0.27586788988501942 0 0.35983198730324328 -0.28958666557037283 0 0.35222707683662902 -0.27586788988501942 0 0.35983198730324328 -0.28958666557037283 0 0.34695837859793838 -0.28815416523595261 0 0.35983198730324328 -0.28958666557037283 0 0.34695837859793838 -0.28815416523595261 0 0.34426040036796779 -0.29975717531417961 0 0.35983198730324328 -0.28958666557037283 0 0.35499307419860021 -0.30939987622172782 0 0.34426040036796779 -0.29975717531417961 0 0.35499307419860021 -0.30939987622172782 0 0.34426040036796779 -0.29975717531417961 0 0.34119778444840171 -0.31790144893096589 0 0.35983198730324328 -0.28958666557037283 0 0.35499307419860021 -0.30939987622172782 0 0.36743689776985872 -0.30330544125572562 0 0.35499307419860021 -0.30939987622172782 0 0.36743689776985872 -0.30330544125572562 0 0.37390592373185583 -0.31705746731241302 0 0.37936997328051297 -0.30156843321594079 0 0.37157034655606602 -0.29231501428144818 0 0.36743689776985872 -0.30330544125572562 0 0.37936997328051297 -0.30156843321594079 0 0.36743689776985872 -0.30330544125572562 0 0.37390592373185583 -0.31705746731241302 0 0.35969155224906341 -0.32243502818235897 0 0.37390592373185583 -0.31705746731241302 0 0.36954465024843108 -0.34056919298350119 0 0.35499307419860021 -0.30939987622172782 0 0.35969155224906341 -0.32243502818235897 0 0.37390592373185583 -0.31705746731241302 0 0.35969155224906341 -0.32243502818235897 0 0.36954465024843108 -0.34056919298350119 0 0.35047469321469521 -0.33279522111741372 0 0.35047469321469521 -0.33279522111741372 0 0.34775624244357223 -0.34780464276943179 0 0.33418323668400768 -0.33526579272081047 0 0.36954465024843108 -0.34056919298350119 0 0.35047469321469521 -0.33279522111741372 0 0.34775624244357223 -0.34780464276943179 0 0.35499307419860021 -0.30939987622172782 0 0.35969155224906341 -0.32243502818235897 0 0.34119778444840171 -0.31790144893096589 0 0.35969155224906341 -0.32243502818235897 0 0.35047469321469521 -0.33279522111741372 0 0.34119778444840171 -0.31790144893096589 0 0.36954465024843108 -0.34056919298350119 0 0.36186483327890628 -0.36604648942748991 0 0.34775624244357223 -0.34780464276943179 0 0.38929512831123531 -0.35555500539469798 0 0.36954465024843108 -0.34056919298350119 0 0.36186483327890628 -0.36604648942748991 0 0.36954465024843108 -0.34056919298350119 0 0.34775624244357223 -0.34780464276943179 0 0.33443453824657737 -0.37653797346028173 0 0.36186483327890628 -0.36604648942748991 0 0.34775624244357223 -0.34780464276943179 0 0.33443453824657737 -0.37653797346028173 0 0.36186483327890628 -0.36604648942748991 0 0.33443453824657737 -0.37653797346028173 0 0.34775624244357223 -0.34780464276943179 0 0.32596783463871343 -0.35504009255536251 0 0.34775624244357223 -0.34780464276943179 0 0.32596783463871343 -0.35504009255536251 0 0.34775624244357223 -0.34780464276943179 0 0.32596783463871343 -0.35504009255536251 0 0.33418323668400768 -0.33526579272081047 0 0.32596783463871343 -0.35504009255536251 0 0.33418323668400768 -0.33526579272081047 0 0.31552356823052269 -0.3411622078279678 0 0.32596783463871343 -0.35504009255536251 0 0.31552356823052269 -0.3411622078279678 0 0.30042236044519249 -0.35915884978195728 0 0.32596783463871343 -0.35504009255536251 0 0.31622383729027348 -0.369541827677346 0 0.30042236044519249 -0.35915884978195728 0 0.33443453824657737 -0.37653797346028173 0 0.32596783463871343 -0.35504009255536251 0 0.31622383729027348 -0.369541827677346 0 0.32635885874494203 -0.30632900582512163 0 0.34119778444840171 -0.31790144893096589 0 0.32073820251795321 -0.32470995870756109 0 0.34119778444840171 -0.31790144893096589 0 0.33418323668400768 -0.33526579272081047 0 0.32073820251795321 -0.32470995870756109 0 0.35047469321469521 -0.33279522111741372 0 0.34119778444840171 -0.31790144893096589 0 0.33418323668400768 -0.33526579272081047 0 0.33418323668400768 -0.33526579272081047 0 0.31552356823052269 -0.3411622078279678 0 0.32073820251795321 -0.32470995870756109 0 0.32635885874494203 -0.30632900582512163 0 0.32073820251795321 -0.32470995870756109 0 0.30732649364020331 -0.31420398272309558 0 0.32073820251795321 -0.32470995870756109 0 0.30732649364020331 -0.31420398272309558 0 0.30010676779429429 -0.3335306401443634 0 0.30732649364020331 -0.31420398272309558 0 0.30010676779429429 -0.3335306401443634 0 0.29198964752419793 -0.31107628017629091 0 0.31552356823052269 -0.3411622078279678 0 0.32073820251795321 -0.32470995870756109 0 0.30010676779429429 -0.3335306401443634 0 0.30010676779429429 -0.3335306401443634 0 0.28165322400487658 -0.33162585129776362 0 0.28586357455817968 -0.34985867990819502 0 0.28165322400487658 -0.33162585129776362 0 0.27570222036804048 -0.31312596585318597 0 0.29198964752419793 -0.31107628017629091 0 0.30010676779429429 -0.3335306401443634 0 0.28165322400487658 -0.33162585129776362 0 0.29198964752419793 -0.31107628017629091 0 0.30700424321424841 -0.3870294574930736 0 0.30042236044519249 -0.35915884978195728 0 0.27494798134585507 -0.37353784765599202 0 0.30700424321424841 -0.3870294574930736 0 0.31622383729027348 -0.369541827677346 0 0.30042236044519249 -0.35915884978195728 0 0.31552356823052269 -0.3411622078279678 0 0.30010676779429429 -0.3335306401443634 0 0.30042236044519249 -0.35915884978195728 0 0.30010676779429429 -0.3335306401443634 0 0.30042236044519249 -0.35915884978195728 0 0.28586357455817968 -0.34985867990819502 0 0.30042236044519249 -0.35915884978195728 0 0.28586357455817968 -0.34985867990819502 0 0.27494798134585507 -0.37353784765599202 0 0.27494798134585507 -0.37353784765599202 0 0.2703220145097896 -0.34955475378611639 0 0.27494798134585507 -0.37353784765599202 0 0.2703220145097896 -0.34955475378611639 0 0.25881051436626951 -0.36173843839454273 0 0.28586357455817968 -0.34985867990819502 0 0.27494798134585507 -0.37353784765599202 0 0.2703220145097896 -0.34955475378611639 0 0.25109454396796321 -0.34685822982731052 0 0.25881051436626951 -0.36173843839454273 0 0.2416658724593482 -0.36697055611930818 0 0.2703220145097896 -0.34955475378611639 0 0.25109454396796321 -0.34685822982731052 0 0.25881051436626951 -0.36173843839454273 0 0.25881051436626951 -0.36173843839454273 0 0.2570745260390761 -0.37496176060221259 0 0.2416658724593482 -0.36697055611930818 0 0.27494798134585507 -0.37353784765599202 0 0.25881051436626951 -0.36173843839454273 0 0.2570745260390761 -0.37496176060221259 0 0.28165322400487658 -0.33162585129776362 0 0.26569604767372418 -0.32557165991624099 0 0.27570222036804048 -0.31312596585318597 0 0.26569604767372418 -0.32557165991624099 0 0.27570222036804048 -0.31312596585318597 0 0.26011811299002718 -0.30454940854173052 0 0.28165322400487658 -0.33162585129776362 0 0.28586357455817968 -0.34985867990819502 0 0.2703220145097896 -0.34955475378611639 0 0.2703220145097896 -0.34955475378611639 0 0.26569604767372418 -0.32557165991624099 0 0.28165322400487658 -0.33162585129776362 0 0.2703220145097896 -0.34955475378611639 0 0.26569604767372418 -0.32557165991624099 0 0.25109454396796321 -0.34685822982731052 0 0.26569604767372418 -0.32557165991624099 0 0.24841074786797221 -0.32752402185243118 0 0.2703220145097896 -0.34955475378611639 0 0.25109454396796321 -0.34685822982731052 0 0.26569604767372418 -0.32557165991624099 0 0.26569604767372418 -0.32557165991624099 0 0.26011811299002718 -0.30454940854173052 0 0.24841074786797221 -0.32752402185243118 0 0.26011811299002718 -0.30454940854173052 0 0.26556626314110338 -0.2810412552044107 0 0.24792475072825901 -0.28406151885930608 0 0.26011811299002718 -0.30454940854173052 0 0.27905406964737711 -0.29280662933390372 0 0.26556626314110338 -0.2810412552044107 0 0.27570222036804048 -0.31312596585318597 0 0.26011811299002718 -0.30454940854173052 0 0.27905406964737711 -0.29280662933390372 0 0.27570222036804048 -0.31312596585318597 0 0.27905406964737711 -0.29280662933390372 0 0.29198964752419793 -0.31107628017629091 0 0.27905406964737711 -0.29280662933390372 0 0.29198964752419793 -0.31107628017629091 0 0.2953043051528752 -0.2957906805692152 0 0.27905406964737711 -0.29280662933390372 0 0.2953043051528752 -0.2957906805692152 0 0.29171590834475009 -0.27980216710827999 0 0.2953043051528752 -0.2957906805692152 0 0.30602203525949961 -0.28439915863820231 0 0.31080102293119782 -0.29894197046345761 0 0.2953043051528752 -0.2957906805692152 0 0.30602203525949961 -0.28439915863820231 0 0.29171590834475009 -0.27980216710827999 0 0.30732649364020331 -0.31420398272309558 0 0.2953043051528752 -0.2957906805692152 0 0.31080102293119782 -0.29894197046345761 0 0.30732649364020331 -0.31420398272309558 0 0.29198964752419793 -0.31107628017629091 0 0.2953043051528752 -0.2957906805692152 0 0.3046167831337544 -0.24685279818082301 0 0.3136483647488581 -0.26590858287124708 0 0.29772606969876569 -0.25759016519756739 0 0.3136483647488581 -0.26590858287124708 0 0.29772606969876569 -0.25759016519756739 0 0.30168992296007668 -0.26971702997863067 0 0.3046167831337544 -0.24685279818082301 0 0.3136483647488581 -0.26590858287124708 0 0.3136483647488581 -0.26590858287124708 0 0.30168992296007668 -0.26971702997863067 0 0.3136483647488581 -0.26590858287124708 0 0.3106058239985019 -0.27539436948415058 0 0.30168992296007668 -0.26971702997863067 0 0.30602203525949961 -0.28439915863820231 0 0.3106058239985019 -0.27539436948415058 0 0.30168992296007668 -0.26971702997863067 0 0.30602203525949961 -0.28439915863820231 0 0.30168992296007668 -0.26971702997863067 0 0.29171590834475009 -0.27980216710827999 0 0.30168992296007668 -0.26971702997863067 0 0.2909190110955337 -0.2659812196214103 0 0.29171590834475009 -0.27980216710827999 0 0.27905406964737711 -0.29280662933390372 0 0.29171590834475009 -0.27980216710827999 0 0.27734949701176531 -0.26955890778273511 0 0.2909190110955337 -0.2659812196214103 0 0.29171590834475009 -0.27980216710827999 0 0.27734949701176531 -0.26955890778273511 0 0.2909190110955337 -0.2659812196214103 0 0.28620043957956359 -0.25211907458867228 0 0.27734949701176531 -0.26955890778273511 0 0.29772606969876569 -0.25759016519756739 0 0.30168992296007668 -0.26971702997863067 0 0.2909190110955337 -0.2659812196214103 0 0.29772606969876569 -0.25759016519756739 0 0.2909190110955337 -0.2659812196214103 0 0.28620043957956359 -0.25211907458867228 0 0.29342398052734248 -0.24254561644133329 0 0.29772606969876569 -0.25759016519756739 0 0.28620043957956359 -0.25211907458867228 0 0.28620043957956359 -0.25211907458867228 0 0.27041912396174622 -0.25300857944255861 0 0.27734949701176531 -0.26955890778273511 0 0.27041912396174622 -0.25300857944255861 0 0.27734949701176531 -0.26955890778273511 0 0.25678271184163343 -0.26100166432917821 0 0.27734949701176531 -0.26955890778273511 0 0.26556626314110338 -0.2810412552044107 0 0.25678271184163343 -0.26100166432917821 0 0.27905406964737711 -0.29280662933390372 0 0.27734949701176531 -0.26955890778273511 0 0.26556626314110338 -0.2810412552044107 0 0.26556626314110338 -0.2810412552044107 0 0.25678271184163343 -0.26100166432917821 0 0.24792475072825901 -0.28406151885930608 0 0.25678271184163343 -0.26100166432917821 0 0.24792475072825901 -0.28406151885930608 0 0.26564067295501281 -0.237941809799052 0 0.27041912396174622 -0.25300857944255861 0 0.25678271184163343 -0.26100166432917821 0 0.25678271184163343 -0.26100166432917821 0 0.22985715824854019 -0.2716993345041096 0 0.24459971964430779 -0.24469171935207509 0 0.25678271184163343 -0.26100166432917821 0 0.22985715824854019 -0.2716993345041096 0 0.24792475072825901 -0.28406151885930608 0 0.22985715824854019 -0.2716993345041096 0 0.20821187878118269 -0.28024207259355949 0 0.2246351555093006 -0.29041008309154392 0 0.22985715824854019 -0.2716993345041096 0 0.20957198256866749 -0.26346688968608928 0 0.2244204392317353 -0.24338583917491921 0 0.22985715824854019 -0.2716993345041096 0 0.24459971964430779 -0.24469171935207509 0 0.2244204392317353 -0.24338583917491921 0 0.20957198256866749 -0.26346688968608928 0 0.2244204392317353 -0.24338583917491921 0 0.20806627738608871 -0.2462272448888235 0 0.20957198256866749 -0.26346688968608928 0 0.1921931639271513 -0.25129532114029068 0 0.20806627738608871 -0.2462272448888235 0 0.22985715824854019 -0.2716993345041096 0 0.20957198256866749 -0.26346688968608928 0 0.20821187878118269 -0.28024207259355949 0 0.20957198256866749 -0.26346688968608928 0 0.19085260679678229 -0.27730035001639819 0 0.1817262583875402 -0.26850644305710342 0 0.20957198256866749 -0.26346688968608928 0 0.20821187878118269 -0.28024207259355949 0 0.19085260679678229 -0.27730035001639819 0 0.20957198256866749 -0.26346688968608928 0 0.1817262583875402 -0.26850644305710342 0 0.19085260679678229 -0.27730035001639819 0 0.1963343358038884 -0.289025983691518 0 0.17745736761954309 -0.27552593885550553 0 0.20957198256866749 -0.26346688968608928 0 0.1921931639271513 -0.25129532114029068 0 0.1817262583875402 -0.26850644305710342 0 0.20718495464750469 -0.31179693130287389 0 0.18416108079349899 -0.293412634686186 0 0.20718495464750469 -0.31179693130287389 0 0.18416108079349899 -0.293412634686186 0 0.18724809441997539 -0.31078272589235528 0 0.20766448332149989 -0.29759773412457391 0 0.20718495464750469 -0.31179693130287389 0 0.18416108079349899 -0.293412634686186 0 0.1963343358038884 -0.289025983691518 0 0.20766448332149989 -0.29759773412457391 0 0.18416108079349899 -0.293412634686186 0 0.20821187878118269 -0.28024207259355949 0 0.19085260679678229 -0.27730035001639819 0 0.1963343358038884 -0.289025983691518 0 0.20821187878118269 -0.28024207259355949 0 0.20766448332149989 -0.29759773412457391 0 0.2246351555093006 -0.29041008309154392 0 0.20821187878118269 -0.28024207259355949 0 0.1963343358038884 -0.289025983691518 0 0.20766448332149989 -0.29759773412457391 0 0.20766448332149989 -0.29759773412457391 0 0.22175204231894 -0.30742146996559749 0 0.2246351555093006 -0.29041008309154392 0 0.20766448332149989 -0.29759773412457391 0 0.20718495464750469 -0.31179693130287389 0 0.22175204231894 -0.30742146996559749 0 0.22175204231894 -0.30742146996559749 0 0.2246351555093006 -0.29041008309154392 0 0.23906678961488459 -0.30712137338943402 0 0.22985715824854019 -0.2716993345041096 0 0.2246351555093006 -0.29041008309154392 0 0.24792475072825901 -0.28406151885930608 0 0.2246351555093006 -0.29041008309154392 0 0.24792475072825901 -0.28406151885930608 0 0.23906678961488459 -0.30712137338943402 0 0.24792475072825901 -0.28406151885930608 0 0.23906678961488459 -0.30712137338943402 0 0.26011811299002718 -0.30454940854173052 0 0.24792475072825901 -0.28406151885930608 0 0.23906678961488459 -0.30712137338943402 0 0.23906678961488459 -0.30712137338943402 0 0.2302088285015102 -0.33018122791956189 0 0.26011811299002718 -0.30454940854173052 0 0.23906678961488459 -0.30712137338943402 0 0.24841074786797221 -0.32752402185243118 0 0.23906678961488459 -0.30712137338943402 0 0.24841074786797221 -0.32752402185243118 0 0.2302088285015102 -0.33018122791956189 0 0.25109454396796321 -0.34685822982731052 0 0.24841074786797221 -0.32752402185243118 0 0.2302088285015102 -0.33018122791956189 0 0.25109454396796321 -0.34685822982731052 0 0.2302088285015102 -0.33018122791956189 0 0.25109454396796321 -0.34685822982731052 0 0.2302088285015102 -0.33018122791956189 0 0.23589559204414479 -0.35126942274083062 0 0.2302088285015102 -0.33018122791956189 0 0.22145128800919961 -0.35297965830434541 0 0.21657190500707771 -0.33763339086346128 0 0.2302088285015102 -0.33018122791956189 0 0.22145128800919961 -0.35297965830434541 0 0.2302088285015102 -0.33018122791956189 0 0.20972699849219659 -0.32517587132085468 0 0.21657190500707771 -0.33763339086346128 0 0.22175204231894 -0.30742146996559749 0 0.23906678961488459 -0.30712137338943402 0 0.2302088285015102 -0.33018122791956189 0 0.20718495464750469 -0.31179693130287389 0 0.22175204231894 -0.30742146996559749 0 0.2302088285015102 -0.33018122791956189 0 0.2416658724593482 -0.36697055611930818 0 0.23589559204414479 -0.35126942274083062 0 0.23083167191174481 -0.36122695847508018 0 0.25109454396796321 -0.34685822982731052 0 0.2416658724593482 -0.36697055611930818 0 0.23589559204414479 -0.35126942274083062 0 0.2302088285015102 -0.33018122791956189 0 0.23589559204414479 -0.35126942274083062 0 0.22145128800919961 -0.35297965830434541 0 0.23589559204414479 -0.35126942274083062 0 0.22145128800919961 -0.35297965830434541 0 0.23083167191174481 -0.36122695847508018 0 0.2416658724593482 -0.36697055611930818 0 0.22431393513428641 -0.37368819673583659 0 0.2343238886319037 -0.38118771860102602 0 0.22145128800919961 -0.35297965830434541 0 0.22431393513428641 -0.37368819673583659 0 0.2126937475168891 -0.37577808868912899 0 0.22145128800919961 -0.35297965830434541 0 0.23083167191174481 -0.36122695847508018 0 0.22431393513428641 -0.37368819673583659 0 0.2416658724593482 -0.36697055611930818 0 0.23083167191174481 -0.36122695847508018 0 0.22431393513428641 -0.37368819673583659 0 0.22145128800919961 -0.35297965830434541 0 0.20269409518152759 -0.35988475386110003 0 0.2126937475168891 -0.37577808868912899 0 0.22145128800919961 -0.35297965830434541 0 0.2126937475168891 -0.37577808868912899 0 0.22431393513428641 -0.37368819673583659 0 0.2126937475168891 -0.37577808868912899 0 0.22145128800919961 -0.35297965830434541 0 0.20269409518152759 -0.35988475386110003 0 0.20490050502540441 -0.3421968059090833 0 0.22145128800919961 -0.35297965830434541 0 0.20490050502540441 -0.3421968059090833 0 0.21657190500707771 -0.33763339086346128 0 0.20269409518152759 -0.35988475386110003 0 0.20490050502540441 -0.3421968059090833 0 0.18675054785560141 -0.34839025157686132 0 0.20269409518152759 -0.35988475386110003 0 0.18903370828357949 -0.36193740855113649 0 0.18675054785560141 -0.34839025157686132 0 0.20269409518152759 -0.35988475386110003 0 0.2126937475168891 -0.37577808868912899 0 0.19166201140820249 -0.37956064861884192 0 0.20269409518152759 -0.35988475386110003 0 0.18903370828357949 -0.36193740855113649 0 0.19166201140820249 -0.37956064861884192 0 0.20718495464750469 -0.31179693130287389 0 0.2302088285015102 -0.33018122791956189 0 0.20718495464750469 -0.31179693130287389 0 0.2302088285015102 -0.33018122791956189 0 0.20972699849219659 -0.32517587132085468 0 0.20972699849219659 -0.32517587132085468 0 0.20490050502540441 -0.3421968059090833 0 0.21657190500707771 -0.33763339086346128 0 0.20490050502540441 -0.3421968059090833 0 0.1911762989574004 -0.32939784724752957 0 0.18675054785560141 -0.34839025157686132 0 0.20972699849219659 -0.32517587132085468 0 0.20490050502540441 -0.3421968059090833 0 0.1911762989574004 -0.32939784724752957 0 0.20972699849219659 -0.32517587132085468 0 0.1911762989574004 -0.32939784724752957 0 0.18724809441997539 -0.31078272589235528 0 0.20972699849219659 -0.32517587132085468 0 0.18724809441997539 -0.31078272589235528 0 0.20718495464750469 -0.31179693130287389 0 0.20972699849219659 -0.32517587132085468 0 0.18724809441997539 -0.31078272589235528 0 0.1911762989574004 -0.32939784724752957 0 0.16807020117017399 -0.32364662116747439 0 0.18724809441997539 -0.31078272589235528 0 0.1911762989574004 -0.32939784724752957 0 0.17709784859254779 -0.3366682748141866 0 0.16807020117017399 -0.32364662116747439 0 0.1911762989574004 -0.32939784724752957 0 0.17709784859254779 -0.3366682748141866 0 0.18675054785560141 -0.34839025157686132 0 0.17709784859254779 -0.3366682748141866 0 0.16807020117017399 -0.32364662116747439 0 0.1647328488948914 -0.34657628491483627 0 0.16807020117017399 -0.32364662116747439 0 0.1647328488948914 -0.34657628491483627 0 0.14382245166546981 -0.33659316478713019 0 0.16807020117017399 -0.32364662116747439 0 0.15034912835678699 -0.32010102450386457 0 0.164769190347754 -0.29638958046385599 0 0.18903370828357949 -0.36193740855113649 0 0.1753435970524054 -0.3637814302311157 0 0.19166201140820249 -0.37956064861884192 0 0.1753435970524054 -0.3637814302311157 0 0.18675054785560141 -0.34839025157686132 0 0.1647328488948914 -0.34657628491483627 0 0.17709784859254779 -0.3366682748141866 0 0.18675054785560141 -0.34839025157686132 0 0.1647328488948914 -0.34657628491483627 0 0.18903370828357949 -0.36193740855113649 0 0.1753435970524054 -0.3637814302311157 0 0.18675054785560141 -0.34839025157686132 0 0.1753435970524054 -0.3637814302311157 0 0.1647328488948914 -0.34657628491483627 0 0.1556462529867029 -0.36789156522211092 0 0.1753435970524054 -0.3637814302311157 0 0.1556462529867029 -0.36789156522211092 0 0.17063027529951619 -0.38334320854855669 0 0.1556462529867029 -0.36789156522211092 0 0.14330429871307249 -0.35467148838947532 0 0.1334112792555546 -0.36981158194157598 0 0.1556462529867029 -0.36789156522211092 0 0.1334112792555546 -0.36981158194157598 0 0.15341644673091229 -0.38643911740952702 0 0.1647328488948914 -0.34657628491483627 0 0.1556462529867029 -0.36789156522211092 0 0.14330429871307249 -0.35467148838947532 0 0.1647328488948914 -0.34657628491483627 0 0.14330429871307249 -0.35467148838947532 0 0.14382245166546981 -0.33659316478713019 0 0.14330429871307249 -0.35467148838947532 0 0.1334112792555546 -0.36981158194157598 0 0.11957470216076579 -0.34953970840678589 0 0.14330429871307249 -0.35467148838947532 0 0.14382245166546981 -0.33659316478713019 0 0.11957470216076579 -0.34953970840678589 0 0.16807020117017399 -0.32364662116747439 0 0.15034912835678699 -0.32010102450386457 0 0.14382245166546981 -0.33659316478713019 0 0.15034912835678699 -0.32010102450386457 0 0.14382245166546981 -0.33659316478713019 0 0.132759356249668 -0.32370860499886139 0 0.16807020117017399 -0.32364662116747439 0 0.14382245166546981 -0.33659316478713019 0 0.14382245166546981 -0.33659316478713019 0 0.11957470216076579 -0.34953970840678589 0 0.14382245166546981 -0.33659316478713019 0 0.11868082408184701 -0.3329768044732706 0 0.11957470216076579 -0.34953970840678589 0 0.14382245166546981 -0.33659316478713019 0 0.132759356249668 -0.32370860499886139 0 0.11868082408184701 -0.3329768044732706 0 0.15034912835678699 -0.32010102450386457 0 0.132759356249668 -0.32370860499886139 0 0.13301616913552181 -0.31049640420533597 0 0.132759356249668 -0.32370860499886139 0 0.13301616913552181 -0.31049640420533597 0 0.1177436955112441 -0.31769016004013079 0 0.13301616913552181 -0.31049640420533597 0 0.13088037227655899 -0.2942857276262526 0 0.1203053819633965 -0.30326126531445879 0 0.13301616913552181 -0.31049640420533597 0 0.1444270415094169 -0.30050262947136069 0 0.13088037227655899 -0.2942857276262526 0 0.15034912835678699 -0.32010102450386457 0 0.1444270415094169 -0.30050262947136069 0 0.164769190347754 -0.29638958046385599 0 0.15034912835678699 -0.32010102450386457 0 0.13301616913552181 -0.31049640420533597 0 0.1444270415094169 -0.30050262947136069 0 0.1444270415094169 -0.30050262947136069 0 0.14045622103294089 -0.28082209096247979 0 0.164769190347754 -0.29638958046385599 0 0.14045622103294089 -0.28082209096247979 0 0.164769190347754 -0.29638958046385599 0 0.16341806706359069 -0.28182413945472629 0 0.14045622103294089 -0.28082209096247979 0 0.164769190347754 -0.29638958046385599 0 0.13088037227655899 -0.2942857276262526 0 0.13732373088378849 -0.27654246703362351 0 0.1444270415094169 -0.30050262947136069 0 0.13088037227655899 -0.2942857276262526 0 0.14045622103294089 -0.28082209096247979 0 0.13088037227655899 -0.2942857276262526 0 0.13732373088378849 -0.27654246703362351 0 0.1207837240153115 -0.27953589779622062 0 0.13088037227655899 -0.2942857276262526 0 0.14045622103294089 -0.28082209096247979 0 0.13732373088378849 -0.27654246703362351 0 0.13255816919029889 -0.27683576964546203 0 0.13732373088378849 -0.27654246703362351 0 0.1207837240153115 -0.27953589779622062 0 0.13732373088378849 -0.27654246703362351 0 0.1207837240153115 -0.27953589779622062 0 0.13255816919029889 -0.27683576964546203 0 0.13255133477306699 -0.26568128814098352 0 0.1207837240153115 -0.27953589779622062 0 0.13255133477306699 -0.26568128814098352 0 0.1207837240153115 -0.27953589779622062 0 0.13255816919029889 -0.27683576964546203 0 0.13255133477306699 -0.26568128814098352 0 0.1387186258351768 -0.27270130497351069 0 0.1387186258351768 -0.27270130497351069 0 0.13732373088378849 -0.27654246703362351 0 0.13255816919029889 -0.27683576964546203 0 0.1387186258351768 -0.27270130497351069 0 0.13732373088378849 -0.27654246703362351 0 0.13255816919029889 -0.27683576964546203 0 0.1387186258351768 -0.27270130497351069 0 0.13255133477306699 -0.26568128814098352 0 0.1387186258351768 -0.27270130497351069 0 0.14589088039571849 -0.25295086277996659 0 0.13255133477306699 -0.26568128814098352 0 0.14431894553082231 -0.25182667848574608 0 0.1247112926720263 -0.25243123502020148 0 0.13255133477306699 -0.26568128814098352 0 0.14431894553082231 -0.25182667848574608 0 0.1387186258351768 -0.27270130497351069 0 0.14589088039571849 -0.25295086277996659 0 0.1387186258351768 -0.27270130497351069 0 0.14589088039571849 -0.25295086277996659 0 0.15666563817808579 -0.2606565341430076 0 0.13255133477306699 -0.26568128814098352 0 0.14589088039571849 -0.25295086277996659 0 0.14431894553082231 -0.25182667848574608 0 0.14589088039571849 -0.25295086277996659 0 0.14431894553082231 -0.25182667848574608 0 0.1477780575942047 -0.24775408903845361 0 0.14589088039571849 -0.25295086277996659 0 0.1477780575942047 -0.24775408903845361 0 0.14589088039571849 -0.25295086277996659 0 0.14431894553082231 -0.25182667848574608 0 0.14589088039571849 -0.25295086277996659 0 0.15194569556453669 -0.25147539128871121 0 0.15666563817808579 -0.2606565341430076 0 0.14589088039571849 -0.25295086277996659 0 0.15666563817808579 -0.2606565341430076 0 0.15194569556453669 -0.25147539128871121 0 0.15666563817808579 -0.2606565341430076 0 0.15654015862906581 -0.2497742971247944 0 0.14589088039571849 -0.25295086277996659 0 0.15194569556453669 -0.25147539128871121 0 0.1477780575942047 -0.24775408903845361 0 0.14045622103294089 -0.28082209096247979 0 0.15390509999494881 -0.27354155048152828 0 0.16341806706359069 -0.28182413945472629 0 0.1387186258351768 -0.27270130497351069 0 0.15666563817808579 -0.2606565341430076 0 0.14045622103294089 -0.28082209096247979 0 0.13732373088378849 -0.27654246703362351 0 0.15390509999494881 -0.27354155048152828 0 0.13732373088378849 -0.27654246703362351 0 0.15390509999494881 -0.27354155048152828 0 0.1387186258351768 -0.27270130497351069 0 0.15390509999494881 -0.27354155048152828 0 0.15666563817808579 -0.2606565341430076 0 0.1387186258351768 -0.27270130497351069 0 0.13732373088378849 -0.27654246703362351 0 0.15390509999494881 -0.27354155048152828 0 0.15390509999494881 -0.27354155048152828 0 0.17048646910610951 -0.27054063392943528 0 0.15390509999494881 -0.27354155048152828 0 0.17048646910610951 -0.27054063392943528 0 0.16341806706359069 -0.28182413945472629 0 0.15390509999494881 -0.27354155048152828 0 0.17048646910610951 -0.27054063392943528 0 0.15666563817808579 -0.2606565341430076 0 0.17048646910610951 -0.27054063392943528 0 0.16865511442320999 -0.26384563540445127 0 0.17468967604591909 -0.26457287943604813 0 0.17048646910610951 -0.27054063392943528 0 0.17745736761954309 -0.27552593885550553 0 0.16341806706359069 -0.28182413945472629 0 0.15666563817808579 -0.2606565341430076 0 0.1777066761820576 -0.24653527117447149 0 0.16972168558007919 -0.24595602287593349 0 0.15666563817808579 -0.2606565341430076 0 0.1777066761820576 -0.24653527117447149 0 0.15666563817808579 -0.2606565341430076 0 0.17612819116024159 -0.25398366141942452 0 0.17277867436272629 -0.25961249410931431 0 0.15666563817808579 -0.2606565341430076 0 0.16865511442320999 -0.26384563540445127 0 0.17277867436272629 -0.25961249410931431 0 0.15666563817808579 -0.2606565341430076 0 0.17612819116024159 -0.25398366141942452 0 0.1777066761820576 -0.24653527117447149 0 0.15666563817808579 -0.2606565341430076 0 0.1624002888965472 -0.24608417769258731 0 0.16972168558007919 -0.24595602287593349 0 0.15666563817808579 -0.2606565341430076 0 0.1624002888965472 -0.24608417769258731 0 0.15654015862906581 -0.2497742971247944 0 0.17048646910610951 -0.27054063392943528 0 0.15666563817808579 -0.2606565341430076 0 0.17048646910610951 -0.27054063392943528 0 0.15666563817808579 -0.2606565341430076 0 0.16865511442320999 -0.26384563540445127 0 0.1921931639271513 -0.25129532114029068 0 0.1817262583875402 -0.26850644305710342 0 0.1921931639271513 -0.25129532114029068 0 0.18022704203181861 -0.25914306247768581 0 0.1817262583875402 -0.26850644305710342 0 0.17612819116024159 -0.25398366141942452 0 0.1777066761820576 -0.24653527117447149 0 0.18091931253471741 -0.24989865598488301 0 0.17612819116024159 -0.25398366141942452 0 0.17277867436272629 -0.25961249410931431 0 0.18022704203181861 -0.25914306247768581 0 0.17468967604591909 -0.26457287943604813 0 0.18022704203181861 -0.25914306247768581 0 0.1817262583875402 -0.26850644305710342 0 0.17277867436272629 -0.25961249410931431 0 0.17468967604591909 -0.26457287943604813 0 0.18022704203181861 -0.25914306247768581 0 0.16865511442320999 -0.26384563540445127 0 0.17277867436272629 -0.25961249410931431 0 0.17468967604591909 -0.26457287943604813 0 0.1921931639271513 -0.25129532114029068 0 0.18022704203181861 -0.25914306247768581 0 0.18324522649797029 -0.25249941636546303 0 0.1921931639271513 -0.25129532114029068 0 0.18324522649797029 -0.25249941636546303 0 0.1865971562986003 -0.2465762749801732 0 0.17612819116024159 -0.25398366141942452 0 0.18022704203181861 -0.25914306247768581 0 0.18324522649797029 -0.25249941636546303 0 0.17612819116024159 -0.25398366141942452 0 0.18324522649797029 -0.25249941636546303 0 0.18091931253471741 -0.24989865598488301 0 0.17048646910610951 -0.27054063392943528 0 0.17745736761954309 -0.27552593885550553 0 0.1817262583875402 -0.26850644305710342 0 0.17048646910610951 -0.27054063392943528 0 0.17745736761954309 -0.27552593885550553 0 0.17048646910610951 -0.27054063392943528 0 0.17468967604591909 -0.26457287943604813 0 0.1817262583875402 -0.26850644305710342 0 0.17048646910610951 -0.27054063392943528 0 0.1817262583875402 -0.26850644305710342 0 0.17745736761954309 -0.27552593885550553 0 0.1817262583875402 -0.26850644305710342 0 0.19085260679678229 -0.27730035001639819 0 0.17745736761954309 -0.27552593885550553 0 0.1817262583875402 -0.26850644305710342 0 0.1963343358038884 -0.289025983691518 0 0.17745736761954309 -0.27552593885550553 0 0.1963343358038884 -0.289025983691518 0 0.17745736761954309 -0.27552593885550553 0 0.18416108079349899 -0.293412634686186 0 0.17745736761954309 -0.27552593885550553 0 0.18416108079349899 -0.293412634686186 0 0.164769190347754 -0.29638958046385599 0 0.18724809441997539 -0.31078272589235528 0 0.164769190347754 -0.29638958046385599 0 0.18416108079349899 -0.293412634686186 0 0.18724809441997539 -0.31078272589235528 0 0.164769190347754 -0.29638958046385599 0 0.16807020117017399 -0.32364662116747439 0 0.18724809441997539 -0.31078272589235528 0 0.164769190347754 -0.29638958046385599 0 0.15034912835678699 -0.32010102450386457 0 0.164769190347754 -0.29638958046385599 0 0.17745736761954309 -0.27552593885550553 0 0.164769190347754 -0.29638958046385599 0 0.16341806706359069 -0.28182413945472629 0 0.17745736761954309 -0.27552593885550553 0 0.164769190347754 -0.29638958046385599 0 0.19716888270160601 -0.4895198715634006 0 0.18829582471590231 -0.49999999999999761 0 0.18967462988060391 -0.47801333321687228 0 0.19716888270160601 -0.4895198715634006 0 0.18829582471590231 -0.49999999999999761 0 0.206041940687307 -0.5 0 0.18829582471590231 -0.49999999999999761 0 0.18967462988060391 -0.47801333321687228 0 0.19716888270160601 -0.4895198715634006 0 0.18967462988060391 -0.47801333321687228 0 0.21669576613428659 -0.47379067958529297 0 0.18967462988060391 -0.47801333321687228 0 0.21669576613428659 -0.47379067958529297 0 0.1910534350453057 -0.45602666643374712 0 0.21669576613428659 -0.47379067958529297 0 0.206041940687307 -0.5 0 0.22378805665871171 -0.49999999999999889 0 0.19716888270160601 -0.4895198715634006 0 0.21669576613428659 -0.47379067958529297 0 0.206041940687307 -0.5 0 0.21669576613428659 -0.47379067958529297 0 0.22378805665871171 -0.49999999999999889 0 0.2356365849343364 -0.47947256897005047 0 0.21669576613428659 -0.47379067958529297 0 0.22378805665871171 -0.49999999999999889 0 0.25471513024465259 -0.47457186038339438 0 0.25307101053909309 -0.5 0 0.2356365849343364 -0.47947256897005047 0 0.25307101053909309 -0.5 0 0.22378805665871171 -0.49999999999999889 0 0.2356365849343364 -0.47947256897005047 0 0.25471513024465259 -0.47457186038339438 0 0.2356365849343364 -0.47947256897005047 0 0.24330581021201581 -0.45828679983422022 0 0.21669576613428659 -0.47379067958529297 0 0.2356365849343364 -0.47947256897005047 0 0.22585208586011779 -0.45776520879922972 0 0.22585208586011779 -0.45776520879922972 0 0.24330581021201581 -0.45828679983422022 0 0.23036340349470871 -0.44494048679445408 0 0.2356365849343364 -0.47947256897005047 0 0.22585208586011779 -0.45776520879922972 0 0.24330581021201581 -0.45828679983422022 0 0.24330581021201581 -0.45828679983422022 0 0.24429483055626899 -0.44143762443535461 0 0.23036340349470871 -0.44494048679445408 0 0.25692474494065293 -0.44625734206771511 0 0.24330581021201581 -0.45828679983422022 0 0.24429483055626899 -0.44143762443535461 0 0.24330581021201581 -0.45828679983422022 0 0.23036340349470871 -0.44494048679445408 0 0.24429483055626899 -0.44143762443535461 0 0.23036340349470871 -0.44494048679445408 0 0.2361003969704564 -0.42976588907835739 0 0.22585208586011779 -0.45776520879922972 0 0.23036340349470871 -0.44494048679445408 0 0.21950747477549809 -0.44251935844077289 0 0.23036340349470871 -0.44494048679445408 0 0.21950747477549809 -0.44251935844077289 0 0.21742099677740151 -0.43159417375468812 0 0.23036340349470871 -0.44494048679445408 0 0.21742099677740151 -0.43159417375468812 0 0.22585208586011779 -0.45776520879922972 0 0.21950747477549809 -0.44251935844077289 0 0.2096034756098612 -0.44758135917058722 0 0.2096034756098612 -0.44758135917058722 0 0.1924322402100079 -0.4340399996506219 0 0.21742099677740151 -0.43159417375468812 0 0.21950747477549809 -0.44251935844077289 0 0.2096034756098612 -0.44758135917058722 0 0.21742099677740151 -0.43159417375468812 0 0.21669576613428659 -0.47379067958529297 0 0.2096034756098612 -0.44758135917058722 0 0.1910534350453057 -0.45602666643374712 0 0.21669576613428659 -0.47379067958529297 0 0.2096034756098612 -0.44758135917058722 0 0.21669576613428659 -0.47379067958529297 0 0.22585208586011779 -0.45776520879922972 0 0.2096034756098612 -0.44758135917058722 0 0.18967462988060391 -0.47801333321687228 0 0.1910534350453057 -0.45602666643374712 0 0.2096034756098612 -0.44758135917058722 0 0.1910534350453057 -0.45602666643374712 0 0.1924322402100079 -0.4340399996506219 0 0.1910534350453057 -0.45602666643374712 0 0.1924322402100079 -0.4340399996506219 0 0.20227598854642109 -0.42708570954339581 0 0.19333658143396801 -0.41961921732510421 0 0.2101343031682702 -0.42408007718389529 0 0.1924322402100079 -0.4340399996506219 0 0.19333658143396801 -0.41961921732510421 0 0.18748739172099421 -0.41475759297074261 0 0.20227598854642109 -0.42708570954339581 0 0.19333658143396801 -0.41961921732510421 0 0.20227598854642109 -0.42708570954339581 0 0.1924322402100079 -0.4340399996506219 0 0.19333658143396801 -0.41961921732510421 0 0.20227598854642109 -0.42708570954339581 0 0.1924322402100079 -0.4340399996506219 0 0.20448468552261809 -0.42888509807130321 0 0.1924322402100079 -0.4340399996506219 0 0.19333658143396801 -0.41961921732510421 0 0.19411750420029639 -0.40762857548997411 0 0.2101343031682702 -0.42408007718389529 0 0.19333658143396801 -0.41961921732510421 0 0.19411750420029639 -0.40762857548997411 0 0.2101343031682702 -0.42408007718389529 0 0.19333658143396801 -0.41961921732510421 0 0.18748739172099421 -0.41475759297074261 0 0.19411750420029639 -0.40762857548997411 0 0.18359890854818109 -0.40458413168608443 0 0.18748739172099421 -0.41475759297074261 0 0.19333658143396801 -0.41961921732510421 0 0.19411750420029639 -0.40762857548997411 0 0.18748739172099421 -0.41475759297074261 0 0.19333658143396801 -0.41961921732510421 0 0.19411750420029639 -0.40762857548997411 0 0.19411750420029639 -0.40762857548997411 0 0.18748739172099421 -0.41475759297074261 0 0.19411750420029639 -0.40762857548997411 0 0.21378289536292261 -0.40893164287208889 0 0.2101343031682702 -0.42408007718389529 0 0.1924322402100079 -0.4340399996506219 0 0.20448468552261809 -0.42888509807130321 0 0.21742099677740151 -0.43159417375468812 0 0.1924322402100079 -0.4340399996506219 0 0.21742099677740151 -0.43159417375468812 0 0.2101343031682702 -0.42408007718389529 0 0.21742099677740151 -0.43159417375468812 0 0.2242341371055705 -0.4251667929953733 0 0.2101343031682702 -0.42408007718389529 0 0.21742099677740151 -0.43159417375468812 0 0.2101343031682702 -0.42408007718389529 0 0.20448468552261809 -0.42888509807130321 0 0.21742099677740151 -0.43159417375468812 0 0.20227598854642109 -0.42708570954339581 0 0.2101343031682702 -0.42408007718389529 0 0.20448468552261809 -0.42888509807130321 0 0.20227598854642109 -0.42708570954339581 0 0.2101343031682702 -0.42408007718389529 0 0.20227598854642109 -0.42708570954339581 0 0.20448468552261809 -0.42888509807130321 0 0.23036340349470871 -0.44494048679445408 0 0.21742099677740151 -0.43159417375468812 0 0.2361003969704564 -0.42976588907835739 0 0.21742099677740151 -0.43159417375468812 0 0.2361003969704564 -0.42976588907835739 0 0.21742099677740151 -0.43159417375468812 0 0.2242341371055705 -0.4251667929953733 0 0.2361003969704564 -0.42976588907835739 0 0.2242341371055705 -0.4251667929953733 0 0.2361003969704564 -0.42976588907835739 0 0.23328085150615349 -0.41522703196455268 0 0.25477979716351118 -0.42793760440202661 0 0.2361003969704564 -0.42976588907835739 0 0.25477979716351118 -0.42793760440202661 0 0.24429483055626899 -0.44143762443535461 0 0.2361003969704564 -0.42976588907835739 0 0.25477979716351118 -0.42793760440202661 0 0.2361003969704564 -0.42976588907835739 0 0.24462940770010039 -0.42056901522014761 0 0.2564273998440364 -0.40637398674520908 0 0.24462940770010039 -0.42056901522014761 0 0.23328085150615349 -0.41522703196455268 0 0.2564273998440364 -0.40637398674520908 0 0.23328085150615349 -0.41522703196455268 0 0.2361003969704564 -0.42976588907835739 0 0.24462940770010039 -0.42056901522014761 0 0.23328085150615349 -0.41522703196455268 0 0.21378289536292261 -0.40893164287208889 0 0.23328085150615349 -0.41522703196455268 0 0.22019338083956561 -0.39728088599556111 0 0.2101343031682702 -0.42408007718389529 0 0.23328085150615349 -0.41522703196455268 0 0.2101343031682702 -0.42408007718389529 0 0.2242341371055705 -0.4251667929953733 0 0.23328085150615349 -0.41522703196455268 0 0.21378289536292261 -0.40893164287208889 0 0.2101343031682702 -0.42408007718389529 0 0.23328085150615349 -0.41522703196455268 0 0.23328085150615349 -0.41522703196455268 0 0.22019338083956561 -0.39728088599556111 0 0.2355630410671698 -0.3951771244185579 0 0.22019338083956561 -0.39728088599556111 0 0.2355630410671698 -0.3951771244185579 0 0.22331063043160199 -0.38529228052909448 0 0.2564273998440364 -0.40637398674520908 0 0.2355630410671698 -0.3951771244185579 0 0.24676596406711199 -0.38481043520233238 0 0.2564273998440364 -0.40637398674520908 0 0.23328085150615349 -0.41522703196455268 0 0.2355630410671698 -0.3951771244185579 0 0.2416658724593482 -0.36697055611930818 0 0.24676596406711199 -0.38481043520233238 0 0.2343238886319037 -0.38118771860102602 0 0.2570745260390761 -0.37496176060221259 0 0.2416658724593482 -0.36697055611930818 0 0.24676596406711199 -0.38481043520233238 0 0.2355630410671698 -0.3951771244185579 0 0.24676596406711199 -0.38481043520233238 0 0.2343238886319037 -0.38118771860102602 0 0.22431393513428641 -0.37368819673583659 0 0.2343238886319037 -0.38118771860102602 0 0.22331063043160199 -0.38529228052909448 0 0.2355630410671698 -0.3951771244185579 0 0.2343238886319037 -0.38118771860102602 0 0.22331063043160199 -0.38529228052909448 0 0.22019338083956561 -0.39728088599556111 0 0.22331063043160199 -0.38529228052909448 0 0.21528069116276649 -0.38716350446663239 0 0.22431393513428641 -0.37368819673583659 0 0.22331063043160199 -0.38529228052909448 0 0.2126937475168891 -0.37577808868912899 0 0.2126937475168891 -0.37577808868912899 0 0.20902543468593271 -0.38532777615898378 0 0.21528069116276649 -0.38716350446663239 0 0.22331063043160199 -0.38529228052909448 0 0.2126937475168891 -0.37577808868912899 0 0.21528069116276649 -0.38716350446663239 0 0.2126937475168891 -0.37577808868912899 0 0.20902543468593271 -0.38532777615898378 0 0.19166201140820249 -0.37956064861884192 0 0.2126937475168891 -0.37577808868912899 0 0.20902543468593271 -0.38532777615898378 0 0.20902543468593271 -0.38532777615898378 0 0.2099029509296472 -0.39084834394692852 0 0.19954679912914841 -0.39051942411305829 0 0.20902543468593271 -0.38532777615898378 0 0.21528069116276649 -0.38716350446663239 0 0.2099029509296472 -0.39084834394692852 0 0.22019338083956561 -0.39728088599556111 0 0.2095137511246441 -0.4011710977252983 0 0.2099029509296472 -0.39084834394692852 0 0.19411750420029639 -0.40762857548997411 0 0.2095137511246441 -0.4011710977252983 0 0.2099029509296472 -0.39084834394692852 0 0.19411750420029639 -0.40762857548997411 0 0.21378289536292261 -0.40893164287208889 0 0.2095137511246441 -0.4011710977252983 0 0.22019338083956561 -0.39728088599556111 0 0.21528069116276649 -0.38716350446663239 0 0.2099029509296472 -0.39084834394692852 0 0.21378289536292261 -0.40893164287208889 0 0.22019338083956561 -0.39728088599556111 0 0.2095137511246441 -0.4011710977252983 0 0.19411750420029639 -0.40762857548997411 0 0.2099029509296472 -0.39084834394692852 0 0.19427402941319749 -0.40467050892634321 0 0.19411750420029639 -0.40762857548997411 0 0.2099029509296472 -0.39084834394692852 0 0.2099029509296472 -0.39084834394692852 0 0.19427402941319749 -0.40467050892634321 0 0.19954679912914841 -0.39051942411305829 0 0.19427402941319749 -0.40467050892634321 0 0.19286956920876211 -0.39218984291419401 0 0.19954679912914841 -0.39051942411305829 0 0.19411750420029639 -0.40762857548997411 0 0.19427402941319749 -0.40467050892634321 0 0.1823621995150975 -0.39544126237733951 0 0.19411750420029639 -0.40762857548997411 0 0.1823621995150975 -0.39544126237733951 0 0.19411750420029639 -0.40762857548997411 0 0.19427402941319749 -0.40467050892634321 0 0.19427402941319749 -0.40467050892634321 0 0.19286956920876211 -0.39218984291419401 0 0.1823621995150975 -0.39544126237733951 0 0.19286956920876211 -0.39218984291419401 0 0.19166201140820249 -0.37956064861884192 0 0.1823621995150975 -0.39544126237733951 0 0.19286956920876211 -0.39218984291419401 0 0.19166201140820249 -0.37956064861884192 0 0.19954679912914841 -0.39051942411305829 0 0.20902543468593271 -0.38532777615898378 0 0.19166201140820249 -0.37956064861884192 0 0.19954679912914841 -0.39051942411305829 0 0.2126937475168891 -0.37577808868912899 0 0.19166201140820249 -0.37956064861884192 0 0.1753435970524054 -0.3637814302311157 0 0.19166201140820249 -0.37956064861884192 0 0.17063027529951619 -0.38334320854855669 0 0.19166201140820249 -0.37956064861884192 0 0.1823621995150975 -0.39544126237733951 0 0.17063027529951619 -0.38334320854855669 0 0.19166201140820249 -0.37956064861884192 0 0.17063027529951619 -0.38334320854855669 0 0.1823621995150975 -0.39544126237733951 0 0.17063027529951619 -0.38334320854855669 0 0.1823621995150975 -0.39544126237733951 0 0.1704519192259534 -0.40059835519013459 0 0.17063027529951619 -0.38334320854855669 0 0.19411750420029639 -0.40762857548997411 0 0.1823621995150975 -0.39544126237733951 0 0.18359890854818109 -0.40458413168608443 0 0.1823621995150975 -0.39544126237733951 0 0.18359890854818109 -0.40458413168608443 0 0.1704519192259534 -0.40059835519013459 0 0.1704519192259534 -0.40059835519013459 0 0.15341644673091229 -0.38643911740952702 0 0.15399028540095361 -0.39860438877770238 0 0.1704519192259534 -0.40059835519013459 0 0.15399028540095361 -0.39860438877770238 0 0.16639151627742929 -0.4108781757518688 0 0.1704519192259534 -0.40059835519013459 0 0.15341644673091229 -0.38643911740952702 0 0.17063027529951619 -0.38334320854855669 0 0.15341644673091229 -0.38643911740952702 0 0.1556462529867029 -0.36789156522211092 0 0.17063027529951619 -0.38334320854855669 0 0.15341644673091229 -0.38643911740952702 0 0.1704519192259534 -0.40059835519013459 0 0.17063027529951619 -0.38334320854855669 0 0.15341644673091229 -0.38643911740952702 0 0.1556462529867029 -0.36789156522211092 0 0.17063027529951619 -0.38334320854855669 0 0.1334112792555546 -0.36981158194157598 0 0.15341644673091229 -0.38643911740952702 0 0.1334112792555546 -0.36981158194157598 0 0.15341644673091229 -0.38643911740952702 0 0.12725189714160451 -0.39114481437834081 0 0.15341644673091229 -0.38643911740952702 0 0.12725189714160451 -0.39114481437834081 0 0.15341644673091229 -0.38643911740952702 0 0.12725189714160451 -0.39114481437834081 0 0.14070411570931271 -0.39424870109535082 0 0.12802270691877779 -0.40003014787840468 0 0.12725189714160451 -0.39114481437834081 0 0.14070411570931271 -0.39424870109535082 0 0.12802270691877779 -0.40003014787840468 0 0.15399028540095361 -0.39860438877770238 0 0.12802270691877779 -0.40003014787840468 0 0.15399028540095361 -0.39860438877770238 0 0.1416149193159934 -0.41039857655841738 0 0.12802270691877779 -0.40003014787840468 0 0.14070411570931271 -0.39424870109535082 0 0.15399028540095361 -0.39860438877770238 0 0.15341644673091229 -0.38643911740952702 0 0.14070411570931271 -0.39424870109535082 0 0.15399028540095361 -0.39860438877770238 0 0.15399028540095361 -0.39860438877770238 0 0.1548096842198077 -0.41185385019294318 0 0.1416149193159934 -0.41039857655841738 0 0.1548096842198077 -0.41185385019294318 0 0.1416149193159934 -0.41039857655841738 0 0.1511224923650395 -0.4246062718627438 0 0.1416149193159934 -0.41039857655841738 0 0.13846498190176459 -0.42094919657183211 0 0.1511224923650395 -0.4246062718627438 0 0.12802270691877779 -0.40003014787840468 0 0.1416149193159934 -0.41039857655841738 0 0.13194492910737199 -0.41329640802299972 0 0.1416149193159934 -0.41039857655841738 0 0.13846498190176459 -0.42094919657183211 0 0.13194492910737199 -0.41329640802299972 0 0.13846498190176459 -0.42094919657183211 0 0.13194492910737199 -0.41329640802299972 0 0.12846067519268911 -0.42276261806267212 0 0.13194492910737199 -0.41329640802299972 0 0.12846067519268911 -0.42276261806267212 0 0.1225260189244171 -0.41238793071833962 0 0.12802270691877779 -0.40003014787840468 0 0.13194492910737199 -0.41329640802299972 0 0.1225260189244171 -0.41238793071833962 0 0.12846067519268911 -0.42276261806267212 0 0.1268836670266639 -0.43831997877941448 0 0.12044603089668909 -0.43014949443199219 0 0.12846067519268911 -0.42276261806267212 0 0.139181893527729 -0.43368210835232701 0 0.1268836670266639 -0.43831997877941448 0 0.13846498190176459 -0.42094919657183211 0 0.12846067519268911 -0.42276261806267212 0 0.139181893527729 -0.43368210835232701 0 0.1511224923650395 -0.4246062718627438 0 0.15902708527063961 -0.43177143592475231 0 0.15109548250380711 -0.45357452418474792 0 0.139181893527729 -0.43368210835232701 0 0.1511224923650395 -0.4246062718627438 0 0.15109548250380711 -0.45357452418474792 0 0.13846498190176459 -0.42094919657183211 0 0.139181893527729 -0.43368210835232701 0 0.1511224923650395 -0.4246062718627438 0 0.15902708527063961 -0.43177143592475231 0 0.16708356684173811 -0.43652105314300199 0 0.16457951121241449 -0.42268060511623412 0 0.15902708527063961 -0.43177143592475231 0 0.16495108075432 -0.43672977460064227 0 0.16708356684173811 -0.43652105314300199 0 0.16495108075432 -0.43672977460064227 0 0.16708356684173811 -0.43652105314300199 0 0.1511224923650395 -0.4246062718627438 0 0.15902708527063961 -0.43177143592475231 0 0.16457951121241449 -0.42268060511623412 0 0.1548096842198077 -0.41185385019294318 0 0.1511224923650395 -0.4246062718627438 0 0.16457951121241449 -0.42268060511623412 0 0.1548096842198077 -0.41185385019294318 0 0.16457951121241449 -0.42268060511623412 0 0.16639151627742929 -0.4108781757518688 0 0.15399028540095361 -0.39860438877770238 0 0.1548096842198077 -0.41185385019294318 0 0.16639151627742929 -0.4108781757518688 0 0.18359890854818109 -0.40458413168608443 0 0.1704519192259534 -0.40059835519013459 0 0.18748739172099421 -0.41475759297074261 0 0.1704519192259534 -0.40059835519013459 0 0.16639151627742929 -0.4108781757518688 0 0.18748739172099421 -0.41475759297074261 0 0.1704519192259534 -0.40059835519013459 0 0.18748739172099421 -0.41475759297074261 0 0.16457951121241449 -0.42268060511623412 0 0.16639151627742929 -0.4108781757518688 0 0.18748739172099421 -0.41475759297074261 0 0.1924322402100079 -0.4340399996506219 0 0.16708356684173811 -0.43652105314300199 0 0.18748739172099421 -0.41475759297074261 0 0.1924322402100079 -0.4340399996506219 0 0.16708356684173811 -0.43652105314300199 0 0.16708356684173811 -0.43652105314300199 0 0.16457951121241449 -0.42268060511623412 0 0.18748739172099421 -0.41475759297074261 0 0.16708356684173811 -0.43652105314300199 0 0.18748739172099421 -0.41475759297074261 0 0.1924322402100079 -0.4340399996506219 0 0.16708356684173811 -0.43652105314300199 0 0.1757965321386965 -0.45029468496566061 0 0.1910534350453057 -0.45602666643374712 0 0.1924322402100079 -0.4340399996506219 0 0.1757965321386965 -0.45029468496566061 0 0.1910534350453057 -0.45602666643374712 0 0.1757965321386965 -0.45029468496566061 0 0.17074302498473021 -0.46578954744639889 0 0.18967462988060391 -0.47801333321687228 0 0.1910534350453057 -0.45602666643374712 0 0.17074302498473021 -0.46578954744639889 0 0.1757965321386965 -0.45029468496566061 0 0.17074302498473021 -0.46578954744639889 0 0.15109548250380711 -0.45357452418474792 0 0.17074302498473021 -0.46578954744639889 0 0.15109548250380711 -0.45357452418474792 0 0.15107383905694899 -0.4767872620923736 0 0.16708356684173811 -0.43652105314300199 0 0.15109548250380711 -0.45357452418474792 0 0.16495108075432 -0.43672977460064227 0 0.16708356684173811 -0.43652105314300199 0 0.15109548250380711 -0.45357452418474792 0 0.16708356684173811 -0.43652105314300199 0 0.1757965321386965 -0.45029468496566061 0 0.15109548250380711 -0.45357452418474792 0 0.15902708527063961 -0.43177143592475231 0 0.16495108075432 -0.43672977460064227 0 0.15109548250380711 -0.45357452418474792 0 0.1511224923650395 -0.4246062718627438 0 0.15109548250380711 -0.45357452418474792 0 0.139181893527729 -0.43368210835232701 0 0.13766484745951571 -0.44774416233830128 0 0.15109548250380711 -0.45357452418474792 0 0.139181893527729 -0.43368210835232701 0 0.13766484745951571 -0.44774416233830128 0 0.1268836670266639 -0.43831997877941448 0 0.13766484745951571 -0.44774416233830128 0 0.1268836670266639 -0.43831997877941448 0 0.12605919161706439 -0.45524364713338378 0 0.12605919161706439 -0.45524364713338378 0 0.13279436751248899 -0.47309515767275651 0 0.1239165503978229 -0.46636988786898248 0 0.13766484745951571 -0.44774416233830128 0 0.15109548250380711 -0.45357452418474792 0 0.13279436751248899 -0.47309515767275651 0 0.13766484745951571 -0.44774416233830128 0 0.12605919161706439 -0.45524364713338378 0 0.13279436751248899 -0.47309515767275651 0 0.15109548250380711 -0.45357452418474792 0 0.13279436751248899 -0.47309515767275651 0 0.15109548250380711 -0.45357452418474792 0 0.15107383905694899 -0.4767872620923736 0 0.13279436751248899 -0.47309515767275651 0 0.15109548250380711 -0.45357452418474792 0 0.15107383905694899 -0.4767872620923736 0 0.15107383905694899 -0.4767872620923736 0 0.13279436751248899 -0.47309515767275651 0 0.1336077197479405 -0.48774595884769278 0 0.13279436751248899 -0.47309515767275651 0 0.1336077197479405 -0.48774595884769278 0 0.12088904241202381 -0.48402457606638821 0 0.13279436751248899 -0.47309515767275651 0 0.12275571258900669 -0.47329520669818642 0 0.12088904241202381 -0.48402457606638821 0 0.13279436751248899 -0.47309515767275651 0 0.12275571258900669 -0.47329520669818642 0 0.1239165503978229 -0.46636988786898248 0 0.12502710643106191 -0.5 0 0.1336077197479405 -0.48774595884769278 0 0.15105219561009089 -0.49999999999999928 0 0.12502710643106191 -0.5 0 0.1336077197479405 -0.48774595884769278 0 0.122913279847484 -0.49270351500779969 0 0.1336077197479405 -0.48774595884769278 0 0.122913279847484 -0.49270351500779969 0 0.12088904241202381 -0.48402457606638821 0 0.15107383905694899 -0.4767872620923736 0 0.1336077197479405 -0.48774595884769278 0 0.15105219561009089 -0.49999999999999928 0 0.15107383905694899 -0.4767872620923736 0 0.15105219561009089 -0.49999999999999928 0 0.15107383905694899 -0.4767872620923736 0 0.15105219561009089 -0.49999999999999928 0 0.16079688774224171 -0.48963148424483183 0 0.16967401016299649 -0.5 0 0.16079688774224171 -0.48963148424483183 0 0.17305323998480859 -0.48298366615793858 0 0.15105219561009089 -0.49999999999999928 0 0.16967401016299649 -0.5 0 0.16079688774224171 -0.48963148424483183 0 0.17074302498473021 -0.46578954744639889 0 0.15107383905694899 -0.4767872620923736 0 0.17305323998480859 -0.48298366615793858 0 0.15107383905694899 -0.4767872620923736 0 0.16079688774224171 -0.48963148424483183 0 0.17305323998480859 -0.48298366615793858 0 0.18967462988060391 -0.47801333321687228 0 0.17074302498473021 -0.46578954744639889 0 0.17305323998480859 -0.48298366615793858 0 0.18829582471590231 -0.49999999999999761 0 0.18967462988060391 -0.47801333321687228 0 0.17305323998480859 -0.48298366615793858 0 0.18829582471590231 -0.49999999999999761 0 0.16967401016299649 -0.5 0 0.17305323998480859 -0.48298366615793858 0 0.072976928073003905 -0.50000000000000067 0 0.069712818436367188 -0.48098769899632088 0 0.051550303941418053 -0.48379326127895839 0 0.072976928073003905 -0.50000000000000067 0 0.069712818436367188 -0.48098769899632088 0 0.089675369733312207 -0.48308055977991438 0 0.080352157882852202 -0.47030550088557499 0 0.054009332551249942 -0.46775917303715547 0 0.069712818436367188 -0.48098769899632088 0 0.080352157882852202 -0.47030550088557499 0 0.054009332551249942 -0.46775917303715547 0 0.069712818436367188 -0.48098769899632088 0 0.080352157882852202 -0.47030550088557499 0 0.089675369733312207 -0.48308055977991438 0 0.080352157882852202 -0.47030550088557499 0 0.1066949832144545 -0.47285182873399462 0 0.080352157882852202 -0.47030550088557499 0 0.089675369733312207 -0.48308055977991438 0 0.1066949832144545 -0.47285182873399462 0 0.072976928073003905 -0.50000000000000067 0 0.089675369733312207 -0.48308055977991438 0 0.099002017252032948 -0.5 0 0.099002017252032948 -0.5 0 0.10546110872783281 -0.48439927524471749 0 0.1154948706108387 -0.5 0 0.089675369733312207 -0.48308055977991438 0 0.099002017252032948 -0.5 0 0.10546110872783281 -0.48439927524471749 0 0.1154948706108387 -0.5 0 0.12088904241202381 -0.48402457606638821 0 0.1134228900336909 -0.46969120518461871 0 0.1154948706108387 -0.5 0 0.122913279847484 -0.49270351500779969 0 0.12088904241202381 -0.48402457606638821 0 0.10546110872783281 -0.48439927524471749 0 0.1154948706108387 -0.5 0 0.1134228900336909 -0.46969120518461871 0 0.1154948706108387 -0.5 0 0.1134228900336909 -0.46969120518461871 0 0.12502710643106191 -0.5 0 0.1154948706108387 -0.5 0 0.122913279847484 -0.49270351500779969 0 0.12275571258900669 -0.47329520669818642 0 0.1134228900336909 -0.46969120518461871 0 0.1239165503978229 -0.46636988786898248 0 0.12275571258900669 -0.47329520669818642 0 0.12088904241202381 -0.48402457606638821 0 0.1134228900336909 -0.46969120518461871 0 0.10546110872783281 -0.48439927524471749 0 0.1134228900336909 -0.46969120518461871 0 0.1066949832144545 -0.47285182873399462 0 0.089675369733312207 -0.48308055977991438 0 0.10546110872783281 -0.48439927524471749 0 0.1066949832144545 -0.47285182873399462 0 0.080352157882852202 -0.47030550088557499 0 0.1066949832144545 -0.47285182873399462 0 0.094746046100415079 -0.45969342538129621 0 0.094746046100415079 -0.45969342538129621 0 0.1056252205324175 -0.46183362337229861 0 0.10010212376624079 -0.45077881917093748 0 0.1056252205324175 -0.46183362337229861 0 0.1107888457979409 -0.45204167690054781 0 0.10010212376624079 -0.45077881917093748 0 0.1134228900336909 -0.46969120518461871 0 0.1066949832144545 -0.47285182873399462 0 0.1056252205324175 -0.46183362337229861 0 0.1066949832144545 -0.47285182873399462 0 0.094746046100415079 -0.45969342538129621 0 0.1056252205324175 -0.46183362337229861 0 0.1134228900336909 -0.46969120518461871 0 0.1056252205324175 -0.46183362337229861 0 0.1107888457979409 -0.45204167690054781 0 0.1134228900336909 -0.46969120518461871 0 0.1194291645334906 -0.45084452598612001 0 0.1113509094565432 -0.44012327284706282 0 0.12605919161706439 -0.45524364713338378 0 0.1134228900336909 -0.46969120518461871 0 0.1194291645334906 -0.45084452598612001 0 0.1134228900336909 -0.46969120518461871 0 0.1107888457979409 -0.45204167690054781 0 0.1113509094565432 -0.44012327284706282 0 0.1134228900336909 -0.46969120518461871 0 0.1113509094565432 -0.44012327284706282 0 0.12605919161706439 -0.45524364713338378 0 0.1134228900336909 -0.46969120518461871 0 0.1239165503978229 -0.46636988786898248 0 0.1107888457979409 -0.45204167690054781 0 0.1113509094565432 -0.44012327284706282 0 0.1064219871172722 -0.42674879193982701 0 0.1268836670266639 -0.43831997877941448 0 0.12605919161706439 -0.45524364713338378 0 0.1194291645334906 -0.45084452598612001 0 0.1268836670266639 -0.43831997877941448 0 0.1194291645334906 -0.45084452598612001 0 0.1113509094565432 -0.44012327284706282 0 0.1107888457979409 -0.45204167690054781 0 0.09990118670850387 -0.44064485148093402 0 0.1064219871172722 -0.42674879193982701 0 0.094746046100415079 -0.45969342538129621 0 0.10010212376624079 -0.45077881917093748 0 0.090394264082929901 -0.4440589834674139 0 0.1107888457979409 -0.45204167690054781 0 0.1064219871172722 -0.42674879193982701 0 0.1107888457979409 -0.45204167690054781 0 0.10010212376624079 -0.45077881917093748 0 0.09990118670850387 -0.44064485148093402 0 0.09990118670850387 -0.44064485148093402 0 0.090394264082929901 -0.4440589834674139 0 0.091995576192928002 -0.43050816608173598 0 0.10010212376624079 -0.45077881917093748 0 0.09990118670850387 -0.44064485148093402 0 0.090394264082929901 -0.4440589834674139 0 0.090394264082929901 -0.4440589834674139 0 0.077982811745184163 -0.43901819131981562 0 0.091995576192928002 -0.43050816608173598 0 0.094746046100415079 -0.45969342538129621 0 0.090394264082929901 -0.4440589834674139 0 0.079913619129139163 -0.45446201660389851 0 0.090394264082929901 -0.4440589834674139 0 0.079913619129139163 -0.45446201660389851 0 0.077982811745184163 -0.43901819131981562 0 0.080352157882852202 -0.47030550088557499 0 0.094746046100415079 -0.45969342538129621 0 0.079913619129139163 -0.45446201660389851 0 0.080352157882852202 -0.47030550088557499 0 0.067108396817992924 -0.4587642215460167 0 0.054009332551249942 -0.46775917303715547 0 0.079913619129139163 -0.45446201660389851 0 0.067108396817992924 -0.4587642215460167 0 0.06613879356164204 -0.44674923975339947 0 0.080352157882852202 -0.47030550088557499 0 0.079913619129139163 -0.45446201660389851 0 0.067108396817992924 -0.4587642215460167 0 0.067108396817992924 -0.4587642215460167 0 0.06613879356164204 -0.44674923975339947 0 0.055128080965081261 -0.45454517745005502 0 0.06613879356164204 -0.44674923975339947 0 0.077982811745184163 -0.43901819131981562 0 0.064309015829448368 -0.43420630728615067 0 0.079913619129139163 -0.45446201660389851 0 0.06613879356164204 -0.44674923975339947 0 0.077982811745184163 -0.43901819131981562 0 0.077756739606364214 -0.4228098701093565 0 0.050592188426177312 -0.42163180058887562 0 0.077756739606364214 -0.4228098701093565 0 0.064309015829448368 -0.43420630728615067 0 0.050592188426177312 -0.42163180058887562 0 0.077982811745184163 -0.43901819131981562 0 0.077756739606364214 -0.4228098701093565 0 0.064309015829448368 -0.43420630728615067 0 0.077756739606364214 -0.4228098701093565 0 0.063833604015479856 -0.41222962464876278 0 0.077075019604782524 -0.40282744870865039 0 0.077756739606364214 -0.4228098701093565 0 0.063833604015479856 -0.41222962464876278 0 0.050592188426177312 -0.42163180058887562 0 0.063833604015479856 -0.41222962464876278 0 0.077075019604782524 -0.40282744870865039 0 0.054750879541551313 -0.40418412994507091 0 0.063833604015479856 -0.41222962464876278 0 0.077075019604782524 -0.40282744870865039 0 0.0918639682070055 -0.41648389339713532 0 0.1020551284366021 -0.40145590697910671 0 0.077075019604782524 -0.40282744870865039 0 0.077756739606364214 -0.4228098701093565 0 0.0918639682070055 -0.41648389339713532 0 0.077075019604782524 -0.40282744870865039 0 0.077756739606364214 -0.4228098701093565 0 0.0918639682070055 -0.41648389339713532 0 0.091995576192928002 -0.43050816608173598 0 0.077982811745184163 -0.43901819131981562 0 0.077756739606364214 -0.4228098701093565 0 0.091995576192928002 -0.43050816608173598 0 0.09990118670850387 -0.44064485148093402 0 0.091995576192928002 -0.43050816608173598 0 0.1064219871172722 -0.42674879193982701 0 0.1113509094565432 -0.44012327284706282 0 0.1064219871172722 -0.42674879193982701 0 0.1092789288793955 -0.41055534050950648 0 0.0918639682070055 -0.41648389339713532 0 0.091995576192928002 -0.43050816608173598 0 0.1064219871172722 -0.42674879193982701 0 0.1113509094565432 -0.44012327284706282 0 0.1092789288793955 -0.41055534050950648 0 0.1113509094565432 -0.44012327284706282 0 0.1174629010244934 -0.42210898180674461 0 0.1092789288793955 -0.41055534050950648 0 0.1113509094565432 -0.44012327284706282 0 0.1174629010244934 -0.42210898180674461 0 0.12044603089668909 -0.43014949443199219 0 0.12846067519268911 -0.42276261806267212 0 0.1174629010244934 -0.42210898180674461 0 0.12044603089668909 -0.43014949443199219 0 0.1268836670266639 -0.43831997877941448 0 0.1113509094565432 -0.44012327284706282 0 0.12044603089668909 -0.43014949443199219 0 0.12802270691877779 -0.40003014787840468 0 0.1225260189244171 -0.41238793071833962 0 0.1092789288793955 -0.41055534050950648 0 0.12846067519268911 -0.42276261806267212 0 0.1174629010244934 -0.42210898180674461 0 0.1225260189244171 -0.41238793071833962 0 0.1174629010244934 -0.42210898180674461 0 0.1225260189244171 -0.41238793071833962 0 0.1092789288793955 -0.41055534050950648 0 0.1064219871172722 -0.42674879193982701 0 0.1020551284366021 -0.40145590697910671 0 0.0918639682070055 -0.41648389339713532 0 0.1064219871172722 -0.42674879193982701 0 0.1020551284366021 -0.40145590697910671 0 0.1064219871172722 -0.42674879193982701 0 0.1092789288793955 -0.41055534050950648 0 0.1020551284366021 -0.40145590697910671 0 0.10108734755229661 -0.39585051134715288 0 0.099538115131240862 -0.38687734315725131 0 0.082088744623623283 -0.39926741206267791 0 0.10108734755229661 -0.39585051134715288 0 0.1020551284366021 -0.40145590697910671 0 0.082088744623623283 -0.39926741206267791 0 0.10108734755229661 -0.39585051134715288 0 0.099538115131240862 -0.38687734315725131 0 0.10108734755229661 -0.39585051134715288 0 0.1020551284366021 -0.40145590697910671 0 0.12802270691877779 -0.40003014787840468 0 0.1020551284366021 -0.40145590697910671 0 0.12802270691877779 -0.40003014787840468 0 0.1092789288793955 -0.41055534050950648 0 0.1020551284366021 -0.40145590697910671 0 0.12725189714160451 -0.39114481437834081 0 0.10108734755229661 -0.39585051134715288 0 0.12802270691877779 -0.40003014787840468 0 0.12725189714160451 -0.39114481437834081 0 0.1020551284366021 -0.40145590697910671 0 0.12725189714160451 -0.39114481437834081 0 0.10108734755229661 -0.39585051134715288 0 0.1020551284366021 -0.40145590697910671 0 0.12725189714160451 -0.39114481437834081 0 0.10108734755229661 -0.39585051134715288 0 0.1109143394755432 -0.37879956158639477 0 0.1334112792555546 -0.36981158194157598 0 0.12725189714160451 -0.39114481437834081 0 0.1109143394755432 -0.37879956158639477 0 0.10108734755229661 -0.39585051134715288 0 0.1109143394755432 -0.37879956158639477 0 0.099538115131240862 -0.38687734315725131 0 0.1109143394755432 -0.37879956158639477 0 0.099538115131240862 -0.38687734315725131 0 0.095326952656062003 -0.36248625202644208 0 0.1109143394755432 -0.37879956158639477 0 0.099538115131240862 -0.38687734315725131 0 0.085869354972197595 -0.38080683549947458 0 0.082088744623623283 -0.39926741206267791 0 0.070730611682772601 -0.38560590218519708 0 0.085869354972197595 -0.38080683549947458 0 0.070730611682772601 -0.38560590218519708 0 0.086592111782717224 -0.36716513241097398 0 0.099538115131240862 -0.38687734315725131 0 0.085869354972197595 -0.38080683549947458 0 0.090397191640633701 -0.36511838768127158 0 0.099538115131240862 -0.38687734315725131 0 0.085869354972197595 -0.38080683549947458 0 0.082088744623623283 -0.39926741206267791 0 0.070730611682772601 -0.38560590218519708 0 0.086592111782717224 -0.36716513241097398 0 0.1020551284366021 -0.40145590697910671 0 0.082088744623623283 -0.39926741206267791 0 0.077075019604782524 -0.40282744870865039 0 0.10108734755229661 -0.39585051134715288 0 0.082088744623623283 -0.39926741206267791 0 0.099538115131240862 -0.38687734315725131 0 0.082088744623623283 -0.39926741206267791 0 0.1020551284366021 -0.40145590697910671 0 0.077075019604782524 -0.40282744870865039 0 0.082088744623623283 -0.39926741206267791 0 0.077075019604782524 -0.40282744870865039 0 0.082088744623623283 -0.39926741206267791 0 0.077075019604782524 -0.40282744870865039 0 0.054750879541551313 -0.40418412994507091 0 0.077075019604782524 -0.40282744870865039 0 0.054750879541551313 -0.40418412994507091 0 0.082088744623623283 -0.39926741206267791 0 0.070730611682772601 -0.38560590218519708 0 0.054750879541551313 -0.40418412994507091 0 0.082088744623623283 -0.39926741206267791 0 0.054750879541551313 -0.40418412994507091 0 0.070730611682772601 -0.38560590218519708 0 0.054750879541551313 -0.40418412994507091 0 0.070730611682772601 -0.38560590218519708 0 0.05613593546215892 -0.38576610119348498 0 0.063568905868525094 -0.3712067755730098 0 0.05613593546215892 -0.38576610119348498 0 0.042138495862141183 -0.37834127308425503 0 0.063568905868525094 -0.3712067755730098 0 0.048518877032343401 -0.38841554778219961 0 0.05613593546215892 -0.38576610119348498 0 0.042138495862141183 -0.37834127308425503 0 0.048518877032343401 -0.38841554778219961 0 0.05613593546215892 -0.38576610119348498 0 0.0502672478555291 -0.39484028232221391 0 0.05613593546215892 -0.38576610119348498 0 0.054750879541551313 -0.40418412994507091 0 0.0502672478555291 -0.39484028232221391 0 0.070730611682772601 -0.38560590218519708 0 0.05613593546215892 -0.38576610119348498 0 0.054750879541551313 -0.40418412994507091 0 0.054750879541551313 -0.40418412994507091 0 0.0502672478555291 -0.39484028232221391 0 0.046212888207936023 -0.40452194497199367 0 0.054750879541551313 -0.40418412994507091 0 0.046212888207936023 -0.40452194497199367 0 0.048518877032343401 -0.38841554778219961 0 0.0502672478555291 -0.39484028232221391 0 0.041930754374507342 -0.39313490341173202 0 0.054750879541551313 -0.40418412994507091 0 0.037957627700213152 -0.40720439803784148 0 0.054750879541551313 -0.40418412994507091 0 0.046212888207936023 -0.40452194497199367 0 0.037957627700213152 -0.40720439803784148 0 0.036334179528293771 -0.39966864111966027 0 0.02116437585887487 -0.41022466613061143 0 0.037957627700213152 -0.40720439803784148 0 0.0502672478555291 -0.39484028232221391 0 0.041930754374507342 -0.39313490341173202 0 0.046212888207936023 -0.40452194497199367 0 0.041930754374507342 -0.39313490341173202 0 0.046212888207936023 -0.40452194497199367 0 0.036334179528293771 -0.39966864111966027 0 0.046212888207936023 -0.40452194497199367 0 0.036334179528293771 -0.39966864111966027 0 0.037957627700213152 -0.40720439803784148 0 0.041930754374507342 -0.39313490341173202 0 0.036334179528293771 -0.39966864111966027 0 0.032394838990591097 -0.39091046843921817 0 0.041930754374507342 -0.39313490341173202 0 0.032394838990591097 -0.39091046843921817 0 0.042138495862141183 -0.37834127308425503 0 0.042138495862141183 -0.37834127308425503 0 0.02070808585575731 -0.38547577059550031 0 0.032394838990591097 -0.39091046843921817 0 0.042138495862141183 -0.37834127308425503 0 0.02070808585575731 -0.38547577059550031 0 0.042138495862141183 -0.37834127308425503 0 0.02070808585575731 -0.38547577059550031 0 0.031192281789381032 -0.36161333819547931 0 0.048518877032343401 -0.38841554778219961 0 0.041930754374507342 -0.39313490341173202 0 0.042138495862141183 -0.37834127308425503 0 -0.00072232415062651462 -0.39261026810674549 0 0.02070808585575731 -0.38547577059550031 0 0.0058916104488833509 -0.37833181594326631 0 -0.00072232415062651462 -0.39261026810674549 0 0.02070808585575731 -0.38547577059550031 0 0.02070808585575731 -0.38547577059550031 0 0.0058916104488833509 -0.37833181594326631 0 0.01073991848365162 -0.36351689085440531 0 -0.00072232415062651462 -0.39261026810674549 0 0.02070808585575731 -0.38547577059550031 0 0.01062110188700204 -0.39884729649858569 0 0.00077620197462267013 -0.40325672237600563 0 0.01062110188700204 -0.39884729649858569 0 0.01016082468092764 -0.41174702203513819 0 -0.00072232415062651462 -0.39261026810674549 0 0.00077620197462267013 -0.40325672237600563 0 0.01062110188700204 -0.39884729649858569 0 0.01062110188700204 -0.39884729649858569 0 0.020862679332255891 -0.39793175398494363 0 0.01016082468092764 -0.41174702203513819 0 0.036334179528293771 -0.39966864111966027 0 0.020862679332255891 -0.39793175398494363 0 0.01016082468092764 -0.41174702203513819 0 0.036334179528293771 -0.39966864111966027 0 0.01016082468092764 -0.41174702203513819 0 0.02070808585575731 -0.38547577059550031 0 0.01062110188700204 -0.39884729649858569 0 0.020862679332255891 -0.39793175398494363 0 0.036334179528293771 -0.39966864111966027 0 0.032394838990591097 -0.39091046843921817 0 0.020862679332255891 -0.39793175398494363 0 0.032394838990591097 -0.39091046843921817 0 0.02070808585575731 -0.38547577059550031 0 0.020862679332255891 -0.39793175398494363 0 0.029179533989026681 -0.4147005836873523 0 0.02116437585887487 -0.41022466613061143 0 0.037957627700213152 -0.40720439803784148 0 0.029179533989026681 -0.4147005836873523 0 0.017462432533074109 -0.42019503267102032 0 0.040133699863944952 -0.42117823790993641 0 0.036334179528293771 -0.39966864111966027 0 0.02116437585887487 -0.41022466613061143 0 0.01016082468092764 -0.41174702203513819 0 0.02116437585887487 -0.41022466613061143 0 0.037957627700213152 -0.40720439803784148 0 0.017462432533074109 -0.42019503267102032 0 0.040133699863944952 -0.42117823790993641 0 0.029179533989026681 -0.4147005836873523 0 0.017462432533074109 -0.42019503267102032 0 0.02116437585887487 -0.41022466613061143 0 0.017462432533074109 -0.42019503267102032 0 0.02116437585887487 -0.41022466613061143 0 0.01016082468092764 -0.41174702203513819 0 -0.0081126324668909892 -0.41123767716410042 0 0.00077620197462267013 -0.40325672237600563 0 0.01016082468092764 -0.41174702203513819 0 -0.0053503916519833756 -0.41890507954911932 0 0.017462432533074109 -0.42019503267102032 0 0.0029814021335089918 -0.42568077098759632 0 -0.0053503916519833756 -0.41890507954911932 0 0.017462432533074109 -0.42019503267102032 0 -0.0053503916519833756 -0.41890507954911932 0 0.017462432533074109 -0.42019503267102032 0 0.01016082468092764 -0.41174702203513819 0 -0.0053503916519833756 -0.41890507954911932 0 0.01016082468092764 -0.41174702203513819 0 -0.00072542549580032715 -0.4354249626967972 0 0.0072262268012842131 -0.43241232281379188 0 0.0037527775864003251 -0.44018732198252952 0 -0.00072542549580032715 -0.4354249626967972 0 0.0072262268012842131 -0.43241232281379188 0 0.0029814021335089918 -0.42568077098759632 0 0.0072262268012842131 -0.43241232281379188 0 0.0029814021335089918 -0.42568077098759632 0 0.011119832510844609 -0.42672282238543269 0 0.017462432533074109 -0.42019503267102032 0 0.011119832510844609 -0.42672282238543269 0 0.018041535421306449 -0.43008373060159821 0 0.017462432533074109 -0.42019503267102032 0 0.0029814021335089918 -0.42568077098759632 0 0.011119832510844609 -0.42672282238543269 0 0.0072262268012842131 -0.43241232281379188 0 0.011119832510844609 -0.42672282238543269 0 0.018041535421306449 -0.43008373060159821 0 0.0072262268012842131 -0.43241232281379188 0 0.018041535421306449 -0.43008373060159821 0 0.010492521662714161 -0.44068172168700059 0 0.017462432533074109 -0.42019503267102032 0 0.018041535421306449 -0.43008373060159821 0 0.040133699863944952 -0.42117823790993641 0 0.018041535421306449 -0.43008373060159821 0 0.040133699863944952 -0.42117823790993641 0 0.0227220698110304 -0.44142120731236101 0 0.018041535421306449 -0.43008373060159821 0 0.0227220698110304 -0.44142120731236101 0 0.010492521662714161 -0.44068172168700059 0 0.036657129118603853 -0.4315265039506182 0 0.0227220698110304 -0.44142120731236101 0 0.036657129118603853 -0.4315265039506182 0 0.050592188426177312 -0.42163180058887562 0 0.050219861572690143 -0.44042785735031942 0 0.036657129118603853 -0.4315265039506182 0 0.040133699863944952 -0.42117823790993641 0 0.0227220698110304 -0.44142120731236101 0 0.040133699863944952 -0.42117823790993641 0 0.0227220698110304 -0.44142120731236101 0 0.036657129118603853 -0.4315265039506182 0 0.040133699863944952 -0.42117823790993641 0 0.050592188426177312 -0.42163180058887562 0 0.036657129118603853 -0.4315265039506182 0 0.050592188426177312 -0.42163180058887562 0 0.029179533989026681 -0.4147005836873523 0 0.037957627700213152 -0.40720439803784148 0 0.040133699863944952 -0.42117823790993641 0 0.054750879541551313 -0.40418412994507091 0 0.037957627700213152 -0.40720439803784148 0 0.040133699863944952 -0.42117823790993641 0 0.040133699863944952 -0.42117823790993641 0 0.050592188426177312 -0.42163180058887562 0 0.054750879541551313 -0.40418412994507091 0 0.040133699863944952 -0.42117823790993641 0 0.050592188426177312 -0.42163180058887562 0 0.054750879541551313 -0.40418412994507091 0 0.040133699863944952 -0.42117823790993641 0 0.063833604015479856 -0.41222962464876278 0 0.054750879541551313 -0.40418412994507091 0 0.050592188426177312 -0.42163180058887562 0 0.063833604015479856 -0.41222962464876278 0 0.050592188426177312 -0.42163180058887562 0 0.064309015829448368 -0.43420630728615067 0 0.050592188426177312 -0.42163180058887562 0 0.050219861572690143 -0.44042785735031942 0 0.06613879356164204 -0.44674923975339947 0 0.050219861572690143 -0.44042785735031942 0 0.055128080965081261 -0.45454517745005502 0 0.06613879356164204 -0.44674923975339947 0 0.064309015829448368 -0.43420630728615067 0 0.050219861572690143 -0.44042785735031942 0 0.050219861572690143 -0.44042785735031942 0 0.055128080965081261 -0.45454517745005502 0 0.044015006826124317 -0.45143750944464339 0 0.067108396817992924 -0.4587642215460167 0 0.055128080965081261 -0.45454517745005502 0 0.054009332551249942 -0.46775917303715547 0 0.055128080965081261 -0.45454517745005502 0 0.054009332551249942 -0.46775917303715547 0 0.043074481931974919 -0.45924277668627561 0 0.055128080965081261 -0.45454517745005502 0 0.043074481931974919 -0.45924277668627561 0 0.044015006826124317 -0.45143750944464339 0 0.043074481931974919 -0.45924277668627561 0 0.034553482097771593 -0.45725917831078799 0 0.027418673634129729 -0.46554050130607538 0 0.054009332551249942 -0.46775917303715547 0 0.027418673634129729 -0.46554050130607538 0 0.030123679809832559 -0.46758652255791572 0 0.054009332551249942 -0.46775917303715547 0 0.043074481931974919 -0.45924277668627561 0 0.027418673634129729 -0.46554050130607538 0 0.054009332551249942 -0.46775917303715547 0 0.027418673634129729 -0.46554050130607538 0 0.043074481931974919 -0.45924277668627561 0 0.034553482097771593 -0.45725917831078799 0 0.044015006826124317 -0.45143750944464339 0 0.050219861572690143 -0.44042785735031942 0 0.044015006826124317 -0.45143750944464339 0 0.034061349264943752 -0.44527446207319971 0 0.034553482097771593 -0.45725917831078799 0 0.034061349264943752 -0.44527446207319971 0 0.026497242312590159 -0.45108604568933203 0 0.036657129118603853 -0.4315265039506182 0 0.050219861572690143 -0.44042785735031942 0 0.034061349264943752 -0.44527446207319971 0 0.034553482097771593 -0.45725917831078799 0 0.044015006826124317 -0.45143750944464339 0 0.034061349264943752 -0.44527446207319971 0 0.036657129118603853 -0.4315265039506182 0 0.034061349264943752 -0.44527446207319971 0 0.0227220698110304 -0.44142120731236101 0 0.034061349264943752 -0.44527446207319971 0 0.026497242312590159 -0.45108604568933203 0 0.0227220698110304 -0.44142120731236101 0 0.026497242312590159 -0.45108604568933203 0 0.0227220698110304 -0.44142120731236101 0 0.013524286459978579 -0.45211466027337799 0 0.0227220698110304 -0.44142120731236101 0 0.0086970556782464906 -0.45137978383687383 0 0.0227220698110304 -0.44142120731236101 0 0.013524286459978579 -0.45211466027337799 0 0.0227220698110304 -0.44142120731236101 0 0.010492521662714161 -0.44068172168700059 0 0.0086970556782464906 -0.45137978383687383 0 0.0227220698110304 -0.44142120731236101 0 0.013524286459978579 -0.45211466027337799 0 0.0086970556782464906 -0.45137978383687383 0 0.010492521662714161 -0.44068172168700059 0 0.0086970556782464906 -0.45137978383687383 0 0.0045823816277680979 -0.44826751347413002 0 0.0086970556782464906 -0.45137978383687383 0 0.0045823816277680979 -0.44826751347413002 0 0.0072262268012842131 -0.43241232281379188 0 0.010492521662714161 -0.44068172168700059 0 0.0037527775864003251 -0.44018732198252952 0 0.010492521662714161 -0.44068172168700059 0 0.0045823816277680979 -0.44826751347413002 0 0.0037527775864003251 -0.44018732198252952 0 -0.003664230010532391 -0.44570336902629643 0 0.0045823816277680979 -0.44826751347413002 0 0.0037527775864003251 -0.44018732198252952 0 -0.0077442852071358884 -0.46305409302634359 0 0.0086970556782464906 -0.45137978383687383 0 0.0104743022432467 -0.47129735715269849 0 -0.0077442852071358884 -0.46305409302634359 0 0.0086970556782464906 -0.45137978383687383 0 0.0045823816277680979 -0.44826751347413002 0 0.0086970556782464906 -0.45137978383687383 0 0.027418673634129729 -0.46554050130607538 0 0.0104743022432467 -0.47129735715269849 0 -0.0077442852071358884 -0.46305409302634359 0 0.0086970556782464906 -0.45137978383687383 0 0.013524286459978579 -0.45211466027337799 0 0.0086970556782464906 -0.45137978383687383 0 0.027418673634129729 -0.46554050130607538 0 0.0086970556782464906 -0.45137978383687383 0 0.027418673634129729 -0.46554050130607538 0 0.027418673634129729 -0.46554050130607538 0 0.030123679809832559 -0.46758652255791572 0 0.0104743022432467 -0.47129735715269849 0 0.013524286459978579 -0.45211466027337799 0 0.02556037952249695 -0.45641818236555848 0 0.027418673634129729 -0.46554050130607538 0 0.026497242312590159 -0.45108604568933203 0 0.013524286459978579 -0.45211466027337799 0 0.02556037952249695 -0.45641818236555848 0 0.034553482097771593 -0.45725917831078799 0 0.02556037952249695 -0.45641818236555848 0 0.027418673634129729 -0.46554050130607538 0 0.034553482097771593 -0.45725917831078799 0 0.026497242312590159 -0.45108604568933203 0 0.02556037952249695 -0.45641818236555848 0 0.027418673634129729 -0.46554050130607538 0 0.030123679809832559 -0.46758652255791572 0 0.030123679809832559 -0.46758652255791572 0 0.0104743022432467 -0.47129735715269849 0 0.031143132876922549 -0.48643404474995228 0 0.0104743022432467 -0.47129735715269849 0 0.0087783883482265655 -0.48831305638716738 0 0.031143132876922549 -0.48643404474995228 0 -0.006205207030923446 -0.48109721305138509 0 0.0104743022432467 -0.47129735715269849 0 0.0087783883482265655 -0.48831305638716738 0 -0.0045963692354046293 -0.5 0 0.0087783883482265655 -0.48831305638716738 0 0.021261396534064891 -0.5 0 0.0087783883482265655 -0.48831305638716738 0 0.031143132876922549 -0.48643404474995228 0 0.021261396534064891 -0.5 0 0.031143132876922549 -0.48643404474995228 0 0.051550303941418053 -0.48379326127895839 0 0.047119162303534412 -0.5 0 0.031143132876922549 -0.48643404474995228 0 0.021261396534064891 -0.5 0 0.047119162303534412 -0.5 0 0.054009332551249942 -0.46775917303715547 0 0.030123679809832559 -0.46758652255791572 0 0.051550303941418053 -0.48379326127895839 0 0.030123679809832559 -0.46758652255791572 0 0.031143132876922549 -0.48643404474995228 0 0.051550303941418053 -0.48379326127895839 0 0.030123679809832559 -0.46758652255791572 0 0.051550303941418053 -0.48379326127895839 0 0.069712818436367188 -0.48098769899632088 0 0.054009332551249942 -0.46775917303715547 0 0.051550303941418053 -0.48379326127895839 0 0.072976928073003905 -0.50000000000000067 0 0.051550303941418053 -0.48379326127895839 0 0.047119162303534412 -0.5 0 0.072976928073003905 -0.50000000000000067 0 0.051550303941418053 -0.48379326127895839 0 0.082814569181570624 -0.29001441381336751 0 0.093732775453719996 -0.29838285620396371 0 0.09587779751157853 -0.28323264046624808 0 0.082814569181570624 -0.29001441381336751 0 0.093732775453719996 -0.29838285620396371 0 0.086985363673068306 -0.31417169321772559 0 0.093732775453719996 -0.29838285620396371 0 0.095062856596484419 -0.30981838974957759 0 0.086985363673068306 -0.31417169321772559 0 0.082814569181570624 -0.29001441381336751 0 0.086985363673068306 -0.31417169321772559 0 0.082814569181570624 -0.29001441381336751 0 0.065853360027395558 -0.29424655867063337 0 0.086985363673068306 -0.31417169321772559 0 0.065853360027395558 -0.29424655867063337 0 0.086985363673068306 -0.31417169321772559 0 0.061185766484342909 -0.3115625110044265 0 0.082814569181570624 -0.29001441381336751 0 0.065853360027395558 -0.29424655867063337 0 0.078643774690072929 -0.26585713440900938 0 0.078643774690072929 -0.26585713440900938 0 0.060155279619458477 -0.26416776316292262 0 0.054728118350911431 -0.2804694376981528 0 0.065853360027395558 -0.29424655867063337 0 0.078643774690072929 -0.26585713440900938 0 0.054728118350911431 -0.2804694376981528 0 0.060155279619458477 -0.26416776316292262 0 0.054684051400864082 -0.24953415243883439 0 0.074472980198575317 -0.24169985500465119 0 0.078643774690072929 -0.26585713440900938 0 0.074472980198575317 -0.24169985500465119 0 0.078643774690072929 -0.26585713440900938 0 0.060155279619458477 -0.26416776316292262 0 0.074472980198575317 -0.24169985500465119 0 0.092199982951821177 -0.25867563791187392 0 0.078643774690072929 -0.26585713440900938 0 0.098920580017200402 -0.26919594064847718 0 0.085687542678866233 -0.25030418618935529 0 0.078643774690072929 -0.26585713440900938 0 0.074472980198575317 -0.24169985500465119 0 0.085687542678866233 -0.25030418618935529 0 0.092199982951821177 -0.25867563791187392 0 0.078643774690072929 -0.26585713440900938 0 0.085687542678866233 -0.25030418618935529 0 0.092199982951821177 -0.25867563791187392 0 0.096911880283940793 -0.24882234865630171 0 0.082814569181570624 -0.29001441381336751 0 0.078643774690072929 -0.26585713440900938 0 0.09587779751157853 -0.28323264046624808 0 0.078643774690072929 -0.26585713440900938 0 0.098920580017200402 -0.26919594064847718 0 0.09587779751157853 -0.28323264046624808 0 0.082814569181570624 -0.29001441381336751 0 0.078643774690072929 -0.26585713440900938 0 0.098920580017200402 -0.26919594064847718 0 0.1149947158017532 -0.27138234512663068 0 0.10901816013060441 -0.28166524400217169 0 0.098920580017200402 -0.26919594064847718 0 0.1136997800725823 -0.26083335504530042 0 0.1149947158017532 -0.27138234512663068 0 0.098920580017200402 -0.26919594064847718 0 0.10901816013060441 -0.28166524400217169 0 0.09587779751157853 -0.28323264046624808 0 0.092199982951821177 -0.25867563791187392 0 0.10210932133637519 -0.25773456337797762 0 0.096911880283940793 -0.24882234865630171 0 0.092199982951821177 -0.25867563791187392 0 0.098920580017200402 -0.26919594064847718 0 0.10210932133637519 -0.25773456337797762 0 0.098920580017200402 -0.26919594064847718 0 0.10210932133637519 -0.25773456337797762 0 0.1136997800725823 -0.26083335504530042 0 0.10210932133637519 -0.25773456337797762 0 0.1136997800725823 -0.26083335504530042 0 0.11136075185103041 -0.24821750207143811 0 0.10210932133637519 -0.25773456337797762 0 0.11136075185103041 -0.24821750207143811 0 0.096911880283940793 -0.24882234865630171 0 0.13255133477306699 -0.26568128814098352 0 0.1136997800725823 -0.26083335504530042 0 0.1247112926720263 -0.25243123502020148 0 0.1136997800725823 -0.26083335504530042 0 0.1247112926720263 -0.25243123502020148 0 0.11136075185103041 -0.24821750207143811 0 0.13255133477306699 -0.26568128814098352 0 0.1136997800725823 -0.26083335504530042 0 0.1149947158017532 -0.27138234512663068 0 0.13255133477306699 -0.26568128814098352 0 0.1149947158017532 -0.27138234512663068 0 0.1207837240153115 -0.27953589779622062 0 0.1207837240153115 -0.27953589779622062 0 0.10901816013060441 -0.28166524400217169 0 0.1149947158017532 -0.27138234512663068 0 0.1207837240153115 -0.27953589779622062 0 0.10901816013060441 -0.28166524400217169 0 0.13088037227655899 -0.2942857276262526 0 0.1207837240153115 -0.27953589779622062 0 0.1199731921402913 -0.29294000862745778 0 0.13088037227655899 -0.2942857276262526 0 0.1199731921402913 -0.29294000862745778 0 0.1203053819633965 -0.30326126531445879 0 0.1207837240153115 -0.27953589779622062 0 0.10901816013060441 -0.28166524400217169 0 0.10792329030589801 -0.29467714377289922 0 0.1207837240153115 -0.27953589779622062 0 0.1199731921402913 -0.29294000862745778 0 0.10792329030589801 -0.29467714377289922 0 0.1207837240153115 -0.27953589779622062 0 0.10792329030589801 -0.29467714377289922 0 0.10901816013060441 -0.28166524400217169 0 0.10792329030589801 -0.29467714377289922 0 0.09587779751157853 -0.28323264046624808 0 0.093732775453719996 -0.29838285620396371 0 0.10792329030589801 -0.29467714377289922 0 0.09587779751157853 -0.28323264046624808 0 0.10792329030589801 -0.29467714377289922 0 0.095062856596484419 -0.30981838974957759 0 0.093732775453719996 -0.29838285620396371 0 0.10792329030589801 -0.29467714377289922 0 0.095062856596484419 -0.30981838974957759 0 0.10792329030589801 -0.29467714377289922 0 0.095062856596484419 -0.30981838974957759 0 0.1090325669781675 -0.30825997337196132 0 0.095062856596484419 -0.30981838974957759 0 0.1090325669781675 -0.30825997337196132 0 0.1035852989147725 -0.31545280090330929 0 0.1090325669781675 -0.30825997337196132 0 0.1203053819633965 -0.30326126531445879 0 0.1177436955112441 -0.31769016004013079 0 0.10792329030589801 -0.29467714377289922 0 0.1090325669781675 -0.30825997337196132 0 0.1203053819633965 -0.30326126531445879 0 0.1199731921402913 -0.29294000862745778 0 0.10792329030589801 -0.29467714377289922 0 0.1203053819633965 -0.30326126531445879 0 0.13301616913552181 -0.31049640420533597 0 0.1203053819633965 -0.30326126531445879 0 0.1177436955112441 -0.31769016004013079 0 0.1090325669781675 -0.30825997337196132 0 0.1177436955112441 -0.31769016004013079 0 0.1035852989147725 -0.31545280090330929 0 0.1177436955112441 -0.31769016004013079 0 0.11868082408184701 -0.3329768044732706 0 0.1050978419658385 -0.32482748945804107 0 0.132759356249668 -0.32370860499886139 0 0.1177436955112441 -0.31769016004013079 0 0.11868082408184701 -0.3329768044732706 0 0.11868082408184701 -0.3329768044732706 0 0.11957470216076579 -0.34953970840678589 0 0.091156158164565987 -0.33832897262208372 0 0.11868082408184701 -0.3329768044732706 0 0.1050978419658385 -0.32482748945804107 0 0.091156158164565987 -0.33832897262208372 0 0.096161985049313239 -0.32036579409841498 0 0.1050978419658385 -0.32482748945804107 0 0.091156158164565987 -0.33832897262208372 0 0.095062856596484419 -0.30981838974957759 0 0.096161985049313239 -0.32036579409841498 0 0.1035852989147725 -0.31545280090330929 0 0.096161985049313239 -0.32036579409841498 0 0.1035852989147725 -0.31545280090330929 0 0.1050978419658385 -0.32482748945804107 0 0.1177436955112441 -0.31769016004013079 0 0.1035852989147725 -0.31545280090330929 0 0.1050978419658385 -0.32482748945804107 0 0.1334112792555546 -0.36981158194157598 0 0.1148068183869818 -0.36515927599029963 0 0.11957470216076579 -0.34953970840678589 0 0.1334112792555546 -0.36981158194157598 0 0.1109143394755432 -0.37879956158639477 0 0.1148068183869818 -0.36515927599029963 0 0.1148068183869818 -0.36515927599029963 0 0.11957470216076579 -0.34953970840678589 0 0.095326952656062003 -0.36248625202644208 0 0.11957470216076579 -0.34953970840678589 0 0.095326952656062003 -0.36248625202644208 0 0.11957470216076579 -0.34953970840678589 0 0.095326952656062003 -0.36248625202644208 0 0.091156158164565987 -0.33832897262208372 0 0.099538115131240862 -0.38687734315725131 0 0.095326952656062003 -0.36248625202644208 0 0.090397191640633701 -0.36511838768127158 0 0.099538115131240862 -0.38687734315725131 0 0.095326952656062003 -0.36248625202644208 0 0.1109143394755432 -0.37879956158639477 0 0.1148068183869818 -0.36515927599029963 0 0.095326952656062003 -0.36248625202644208 0 0.086592111782717224 -0.36716513241097398 0 0.084999315874908998 -0.36407227806176451 0 0.063568905868525094 -0.3712067755730098 0 0.085869354972197595 -0.38080683549947458 0 0.086592111782717224 -0.36716513241097398 0 0.090397191640633701 -0.36511838768127158 0 0.095326952656062003 -0.36248625202644208 0 0.090397191640633701 -0.36511838768127158 0 0.086273384733444827 -0.35973569490244239 0 0.086592111782717224 -0.36716513241097398 0 0.090397191640633701 -0.36511838768127158 0 0.084999315874908998 -0.36407227806176451 0 0.095326952656062003 -0.36248625202644208 0 0.090397191640633701 -0.36511838768127158 0 0.090397191640633701 -0.36511838768127158 0 0.086273384733444827 -0.35973569490244239 0 0.084999315874908998 -0.36407227806176451 0 0.086273384733444827 -0.35973569490244239 0 0.084999315874908998 -0.36407227806176451 0 0.077506677677703362 -0.35698262337046788 0 0.095326952656062003 -0.36248625202644208 0 0.091156158164565987 -0.33832897262208372 0 0.095326952656062003 -0.36248625202644208 0 0.08313678581791438 -0.35001893337226658 0 0.091156158164565987 -0.33832897262208372 0 0.086273384733444827 -0.35973569490244239 0 0.08313678581791438 -0.35001893337226658 0 0.077506677677703362 -0.35698262337046788 0 0.095326952656062003 -0.36248625202644208 0 0.086273384733444827 -0.35973569490244239 0 0.08313678581791438 -0.35001893337226658 0 0.067925802050405354 -0.34969622921928301 0 0.06891651634109569 -0.36044561995496832 0 0.052454223562743423 -0.35688453156672723 0 0.08313678581791438 -0.35001893337226658 0 0.067925802050405354 -0.34969622921928301 0 0.074544324899306069 -0.33336975506005162 0 0.08313678581791438 -0.35001893337226658 0 0.067925802050405354 -0.34969622921928301 0 0.077506677677703362 -0.35698262337046788 0 0.067925802050405354 -0.34969622921928301 0 0.077506677677703362 -0.35698262337046788 0 0.06891651634109569 -0.36044561995496832 0 0.084999315874908998 -0.36407227806176451 0 0.077506677677703362 -0.35698262337046788 0 0.06891651634109569 -0.36044561995496832 0 0.084999315874908998 -0.36407227806176451 0 0.063568905868525094 -0.3712067755730098 0 0.084999315874908998 -0.36407227806176451 0 0.06891651634109569 -0.36044561995496832 0 0.063568905868525094 -0.3712067755730098 0 0.070730611682772601 -0.38560590218519708 0 0.086592111782717224 -0.36716513241097398 0 0.063568905868525094 -0.3712067755730098 0 0.096161985049313239 -0.32036579409841498 0 0.086985363673068306 -0.31417169321772559 0 0.091156158164565987 -0.33832897262208372 0 0.086985363673068306 -0.31417169321772559 0 0.091156158164565987 -0.33832897262208372 0 0.095062856596484419 -0.30981838974957759 0 0.096161985049313239 -0.32036579409841498 0 0.086985363673068306 -0.31417169321772559 0 0.086985363673068306 -0.31417169321772559 0 0.091156158164565987 -0.33832897262208372 0 0.074544324899306069 -0.33336975506005162 0 0.08313678581791438 -0.35001893337226658 0 0.091156158164565987 -0.33832897262208372 0 0.074544324899306069 -0.33336975506005162 0 0.067925802050405354 -0.34969622921928301 0 0.074544324899306069 -0.33336975506005162 0 0.056876073205539418 -0.33644019092452432 0 0.086985363673068306 -0.31417169321772559 0 0.074544324899306069 -0.33336975506005162 0 0.061185766484342909 -0.3115625110044265 0 0.074544324899306069 -0.33336975506005162 0 0.056876073205539418 -0.33644019092452432 0 0.061185766484342909 -0.3115625110044265 0 0.047371763704752393 -0.32299177779569999 0 0.036701484343674373 -0.3030216108774596 0 0.061185766484342909 -0.3115625110044265 0 0.047371763704752393 -0.32299177779569999 0 0.056876073205539418 -0.33644019092452432 0 0.061185766484342909 -0.3115625110044265 0 0.047371763704752393 -0.32299177779569999 0 0.056876073205539418 -0.33644019092452432 0 0.040578273080719943 -0.3412017683833759 0 0.047371763704752393 -0.32299177779569999 0 0.040578273080719943 -0.3412017683833759 0 0.031444910940004622 -0.32519530661257151 0 0.040578273080719943 -0.3412017683833759 0 0.031444910940004622 -0.32519530661257151 0 0.022031987267423659 -0.34459848579355701 0 0.047371763704752393 -0.32299177779569999 0 0.031444910940004622 -0.32519530661257151 0 0.036701484343674373 -0.3030216108774596 0 0.042138495862141183 -0.37834127308425503 0 0.063568905868525094 -0.3712067755730098 0 0.052454223562743423 -0.35688453156672723 0 0.042138495862141183 -0.37834127308425503 0 0.063568905868525094 -0.3712067755730098 0 0.06891651634109569 -0.36044561995496832 0 0.063568905868525094 -0.3712067755730098 0 0.052454223562743423 -0.35688453156672723 0 0.056876073205539418 -0.33644019092452432 0 0.040578273080719943 -0.3412017683833759 0 0.052454223562743423 -0.35688453156672723 0 0.067925802050405354 -0.34969622921928301 0 0.056876073205539418 -0.33644019092452432 0 0.052454223562743423 -0.35688453156672723 0 0.040578273080719943 -0.3412017683833759 0 0.031192281789381032 -0.36161333819547931 0 0.022031987267423659 -0.34459848579355701 0 0.040578273080719943 -0.3412017683833759 0 0.052454223562743423 -0.35688453156672723 0 0.031192281789381032 -0.36161333819547931 0 0.042138495862141183 -0.37834127308425503 0 0.052454223562743423 -0.35688453156672723 0 0.031192281789381032 -0.36161333819547931 0 0.02070808585575731 -0.38547577059550031 0 0.031192281789381032 -0.36161333819547931 0 0.01073991848365162 -0.36351689085440531 0 0.031192281789381032 -0.36161333819547931 0 0.022031987267423659 -0.34459848579355701 0 0.01073991848365162 -0.36351689085440531 0 -0.01062982243337058 -0.35234142963879839 0 0.0053148931994630687 -0.34826805892008872 0 0.01073991848365162 -0.36351689085440531 0 0.022031987267423659 -0.34459848579355701 0 0.0053148931994630687 -0.34826805892008872 0 0.01073991848365162 -0.36351689085440531 0 -0.0071592383932490072 -0.37172433421641388 0 0.0058916104488833509 -0.37833181594326631 0 0.01073991848365162 -0.36351689085440531 0 0.031444910940004622 -0.32519530661257151 0 0.01405688136534995 -0.33050197413672361 0 0.014570048831001711 -0.31576128941966503 0 0.031444910940004622 -0.32519530661257151 0 0.014570048831001711 -0.31576128941966503 0 0.036701484343674373 -0.3030216108774596 0 0.031444910940004622 -0.32519530661257151 0 0.022031987267423659 -0.34459848579355701 0 0.01405688136534995 -0.33050197413672361 0 0.0053148931994630687 -0.34826805892008872 0 0.01405688136534995 -0.33050197413672361 0 0.00093598445714682533 -0.33501187277556899 0 0.022031987267423659 -0.34459848579355701 0 0.0053148931994630687 -0.34826805892008872 0 0.01405688136534995 -0.33050197413672361 0 -0.00064033772500888425 -0.3207383258129487 0 0.01405688136534995 -0.33050197413672361 0 0.00093598445714682533 -0.33501187277556899 0 -0.00064033772500888425 -0.3207383258129487 0 0.014570048831001711 -0.31576128941966503 0 0.0033306333990243669 -0.30365637841515741 0 -0.00064033772500888425 -0.3207383258129487 0 0.01405688136534995 -0.33050197413672361 0 0.014570048831001711 -0.31576128941966503 0 0.014570048831001711 -0.31576128941966503 0 0.0033306333990243669 -0.30365637841515741 0 0.01770077404424417 -0.29867652724824278 0 -0.011111708647086689 -0.28917869030745319 0 0.0033306333990243669 -0.30365637841515741 0 0.0079978645729627401 -0.28683117843660327 0 0.0033306333990243669 -0.30365637841515741 0 0.0079978645729627401 -0.28683117843660327 0 0.01770077404424417 -0.29867652724824278 0 0.0079978645729627401 -0.28683117843660327 0 0.02590383907455766 -0.28411217909232889 0 0.01770077404424417 -0.29867652724824278 0 0.02590383907455766 -0.28411217909232889 0 0.01770077404424417 -0.29867652724824278 0 0.036701484343674373 -0.3030216108774596 0 0.014570048831001711 -0.31576128941966503 0 0.01770077404424417 -0.29867652724824278 0 0.036701484343674373 -0.3030216108774596 0 0.02590383907455766 -0.28411217909232889 0 0.036701484343674373 -0.3030216108774596 0 0.036701484343674373 -0.3030216108774596 0 0.054728118350911431 -0.2804694376981528 0 0.038933151571368382 -0.27360934790977998 0 0.02590383907455766 -0.28411217909232889 0 0.036701484343674373 -0.3030216108774596 0 0.038933151571368382 -0.27360934790977998 0 0.065853360027395558 -0.29424655867063337 0 0.036701484343674373 -0.3030216108774596 0 0.054728118350911431 -0.2804694376981528 0 0.065853360027395558 -0.29424655867063337 0 0.036701484343674373 -0.3030216108774596 0 0.061185766484342909 -0.3115625110044265 0 0.060155279619458477 -0.26416776316292262 0 0.034895122603152827 -0.25736844987301749 0 0.054684051400864082 -0.24953415243883439 0 0.060155279619458477 -0.26416776316292262 0 0.054728118350911431 -0.2804694376981528 0 0.038933151571368382 -0.27360934790977998 0 0.060155279619458477 -0.26416776316292262 0 0.038933151571368382 -0.27360934790977998 0 0.034895122603152827 -0.25736844987301749 0 0.034895122603152827 -0.25736844987301749 0 0.054684051400864082 -0.24953415243883439 0 0.038933151571368382 -0.27360934790977998 0 0.034895122603152827 -0.25736844987301749 0 0.01510619380544069 -0.26520274730719828 0 0.034895122603152827 -0.25736844987301749 0 0.01510619380544069 -0.26520274730719828 0 0.034895122603152827 -0.25736844987301749 0 0.023412610558693921 -0.25052230213807941 0 0.01510619380544069 -0.26520274730719828 0 0.023412610558693921 -0.25052230213807941 0 0.0090855535829359943 -0.25465907016715222 0 0.01510619380544069 -0.26520274730719828 0 0.0079978645729627401 -0.28683117843660327 0 0.02590383907455766 -0.28411217909232889 0 0.01510619380544069 -0.26520274730719828 0 0.02590383907455766 -0.28411217909232889 0 0.01510619380544069 -0.26520274730719828 0 0.02590383907455766 -0.28411217909232889 0 0.038933151571368382 -0.27360934790977998 0 0.01510619380544069 -0.26520274730719828 0 -0.0007582654871422026 -0.27148337492484942 0 0.01510619380544069 -0.26520274730719828 0 -0.0007582654871422026 -0.27148337492484942 0 0.0079978645729627401 -0.28683117843660327 0 0.01510619380544069 -0.26520274730719828 0 -0.0007582654871422026 -0.27148337492484942 0 0.0090855535829359943 -0.25465907016715222 0 0.01510619380544069 -0.26520274730719828 0 -0.0007582654871422026 -0.27148337492484942 0 -0.004144784243036481 -0.25526440730861449 0 0.0090855535829359943 -0.25465907016715222 0 -0.0007582654871422026 -0.27148337492484942 0 0.0090855535829359943 -0.25465907016715222 0 0.0090855535829359943 -0.25465907016715222 0 0.01510619380544069 -0.26520274730719828 0 -0.004144784243036481 -0.25526440730861449 0 0.0090855535829359943 -0.25465907016715222 0 0.0012919838376714949 -0.2410105410862598 0 0.0012919838376714949 -0.2410105410862598 0 0.0065230745022584018 -0.22741006197419361 0 0.01992763334331191 -0.23612861437584839 0 0.0090855535829359943 -0.25465907016715222 0 0.01992763334331191 -0.23612861437584839 0 0.0090855535829359943 -0.25465907016715222 0 0.0012919838376714949 -0.2410105410862598 0 0.01992763334331191 -0.23612861437584839 0 0.0090855535829359943 -0.25465907016715222 0 0.0012919838376714949 -0.2410105410862598 0 0.0065230745022584018 -0.22741006197419361 0 0.015612739034694321 -0.21882955936914361 0 0.002394388801066951 -0.21052884480337411 0 -0.0065015859075924099 -0.22736201200536699 0 0.0065230745022584018 -0.22741006197419361 0 0.002394388801066951 -0.21052884480337411 0 -0.0065015859075924099 -0.22736201200536699 0 0.0012919838376714949 -0.2410105410862598 0 0.0065230745022584018 -0.22741006197419361 0 0.0065230745022584018 -0.22741006197419361 0 0.015612739034694321 -0.21882955936914361 0 0.01992763334331191 -0.23612861437584839 0 0.015612739034694321 -0.21882955936914361 0 0.01992763334331191 -0.23612861437584839 0 0.03076971310368478 -0.21759815858454279 0 0.01992763334331191 -0.23612861437584839 0 0.03076971310368478 -0.21759815858454279 0 0.01992763334331191 -0.23612861437584839 0 0.03076971310368478 -0.21759815858454279 0 0.038048549458629427 -0.23925262896717989 0 0.023412610558693921 -0.25052230213807941 0 0.0090855535829359943 -0.25465907016715222 0 0.01992763334331191 -0.23612861437584839 0 0.023412610558693921 -0.25052230213807941 0 0.01992763334331191 -0.23612861437584839 0 0.038048549458629427 -0.23925262896717989 0 0.011290363509728049 -0.19369567760138209 0 0.01488613828157305 -0.20374308115014669 0 0.002394388801066951 -0.21052884480337411 0 0.011290363509728049 -0.19369567760138209 0 0.0020364241398806481 -0.1995724166759115 0 0.002394388801066951 -0.21052884480337411 0 0.011290363509728049 -0.19369567760138209 0 0.002394388801066951 -0.21052884480337411 0 -0.001786670059977728 -0.18929840057947059 0 0.011290363509728049 -0.19369567760138209 0 0.0020364241398806481 -0.1995724166759115 0 0.015612739034694321 -0.21882955936914361 0 0.01488613828157305 -0.20374308115014669 0 0.002394388801066951 -0.21052884480337411 0 0.03076971310368478 -0.21759815858454279 0 0.02829084846228715 -0.20164480524511941 0 0.03449506584423763 -0.1979978902406522 0 0.03076971310368478 -0.21759815858454279 0 0.022389859720559822 -0.2104539010872381 0 0.02829084846228715 -0.20164480524511941 0 0.015612739034694321 -0.21882955936914361 0 0.03076971310368478 -0.21759815858454279 0 0.022389859720559822 -0.2104539010872381 0 0.015612739034694321 -0.21882955936914361 0 0.01488613828157305 -0.20374308115014669 0 0.022389859720559822 -0.2104539010872381 0 0.01488613828157305 -0.20374308115014669 0 0.022389859720559822 -0.2104539010872381 0 0.02829084846228715 -0.20164480524511941 0 0.01488613828157305 -0.20374308115014669 0 0.037021989516430737 -0.1912594216366432 0 0.022572720723816608 -0.1868788791225981 0 0.01488613828157305 -0.20374308115014669 0 0.02829084846228715 -0.20164480524511941 0 0.037021989516430737 -0.1912594216366432 0 0.011290363509728049 -0.19369567760138209 0 0.01488613828157305 -0.20374308115014669 0 0.022572720723816608 -0.1868788791225981 0 0.01488613828157305 -0.20374308115014669 0 0.037021989516430737 -0.1912594216366432 0 0.037021989516430737 -0.1912594216366432 0 0.041611792864057681 -0.19906770279323721 0 0.053254008731157272 -0.19743886173583711 0 0.02829084846228715 -0.20164480524511941 0 0.037021989516430737 -0.1912594216366432 0 0.03449506584423763 -0.1979978902406522 0 0.037021989516430737 -0.1912594216366432 0 0.03449506584423763 -0.1979978902406522 0 0.041611792864057681 -0.19906770279323721 0 0.03076971310368478 -0.21759815858454279 0 0.041611792864057681 -0.19906770279323721 0 0.03076971310368478 -0.21759815858454279 0 0.050106509974623042 -0.21076876502455641 0 0.050670536547716472 -0.22493339972446449 0 0.03076971310368478 -0.21759815858454279 0 0.03449506584423763 -0.1979978902406522 0 0.041611792864057681 -0.19906770279323721 0 0.03076971310368478 -0.21759815858454279 0 0.041611792864057681 -0.19906770279323721 0 0.050106509974623042 -0.21076876502455641 0 0.057892365658553893 -0.2162681327612678 0 0.050106509974623042 -0.21076876502455641 0 0.050670536547716472 -0.22493339972446449 0 0.057892365658553893 -0.2162681327612678 0 0.050106509974623042 -0.21076876502455641 0 0.06445252765667267 -0.2085370866734417 0 0.050106509974623042 -0.21076876502455641 0 0.053254008731157272 -0.19743886173583711 0 0.06445252765667267 -0.2085370866734417 0 0.037021989516430737 -0.1912594216366432 0 0.053254008731157272 -0.19743886173583711 0 0.059157840751288389 -0.1787757621231397 0 0.053254008731157272 -0.19743886173583711 0 0.066135016261777244 -0.1957521075015233 0 0.059157840751288389 -0.1787757621231397 0 0.041611792864057681 -0.19906770279323721 0 0.050106509974623042 -0.21076876502455641 0 0.053254008731157272 -0.19743886173583711 0 0.053254008731157272 -0.19743886173583711 0 0.06445252765667267 -0.2085370866734417 0 0.066135016261777244 -0.1957521075015233 0 0.034895122603152827 -0.25736844987301749 0 0.023412610558693921 -0.25052230213807941 0 0.038048549458629427 -0.23925262896717989 0 0.034895122603152827 -0.25736844987301749 0 0.038048549458629427 -0.23925262896717989 0 0.054684051400864082 -0.24953415243883439 0 0.03076971310368478 -0.21759815858454279 0 0.038048549458629427 -0.23925262896717989 0 0.050670536547716472 -0.22493339972446449 0 0.038048549458629427 -0.23925262896717989 0 0.050670536547716472 -0.22493339972446449 0 0.06053018746782899 -0.23488488472728469 0 0.057892365658553893 -0.2162681327612678 0 0.050670536547716472 -0.22493339972446449 0 0.06583628735792138 -0.22246994352547811 0 0.050670536547716472 -0.22493339972446449 0 0.06053018746782899 -0.23488488472728469 0 0.06583628735792138 -0.22246994352547811 0 0.038048549458629427 -0.23925262896717989 0 0.054684051400864082 -0.24953415243883439 0 0.06053018746782899 -0.23488488472728469 0 0.054684051400864082 -0.24953415243883439 0 0.074472980198575317 -0.24169985500465119 0 0.054684051400864082 -0.24953415243883439 0 0.06053018746782899 -0.23488488472728469 0 0.074472980198575317 -0.24169985500465119 0 0.06053018746782899 -0.23488488472728469 0 0.074472980198575317 -0.24169985500465119 0 0.072767697280484087 -0.2318228409250114 0 0.074472980198575317 -0.24169985500465119 0 0.072767697280484087 -0.2318228409250114 0 0.074472980198575317 -0.24169985500465119 0 0.088665591547335693 -0.2360811002044009 0 0.072767697280484087 -0.2318228409250114 0 0.085687542678866233 -0.25030418618935529 0 0.074472980198575317 -0.24169985500465119 0 0.088665591547335693 -0.2360811002044009 0 0.074472980198575317 -0.24169985500465119 0 0.088665591547335693 -0.2360811002044009 0 0.085687542678866233 -0.25030418618935529 0 0.088665591547335693 -0.2360811002044009 0 0.096911880283940793 -0.24882234865630171 0 0.088665591547335693 -0.2360811002044009 0 0.086145967383346581 -0.22190256742379069 0 0.098932356734434845 -0.21936802422933471 0 0.088665591547335693 -0.2360811002044009 0 0.077967544878394884 -0.22551183259123711 0 0.072767697280484087 -0.2318228409250114 0 0.088665591547335693 -0.2360811002044009 0 0.086145967383346581 -0.22190256742379069 0 0.077967544878394884 -0.22551183259123711 0 0.086145967383346581 -0.22190256742379069 0 0.077967544878394884 -0.22551183259123711 0 0.076258401329997436 -0.21635434221493319 0 0.077967544878394884 -0.22551183259123711 0 0.06583628735792138 -0.22246994352547811 0 0.076258401329997436 -0.21635434221493319 0 0.077967544878394884 -0.22551183259123711 0 0.072767697280484087 -0.2318228409250114 0 0.06583628735792138 -0.22246994352547811 0 0.06053018746782899 -0.23488488472728469 0 0.072767697280484087 -0.2318228409250114 0 0.06583628735792138 -0.22246994352547811 0 0.057892365658553893 -0.2162681327612678 0 0.06583628735792138 -0.22246994352547811 0 0.06445252765667267 -0.2085370866734417 0 0.06583628735792138 -0.22246994352547811 0 0.06445252765667267 -0.2085370866734417 0 0.076258401329997436 -0.21635434221493319 0 0.06445252765667267 -0.2085370866734417 0 0.07659349124015874 -0.20511701361401791 0 0.066135016261777244 -0.1957521075015233 0 0.06445252765667267 -0.2085370866734417 0 0.07659349124015874 -0.20511701361401791 0 0.076258401329997436 -0.21635434221493319 0 0.07659349124015874 -0.20511701361401791 0 0.066135016261777244 -0.1957521075015233 0 0.077217212929609175 -0.18889181336117991 0 0.066135016261777244 -0.1957521075015233 0 0.077217212929609175 -0.18889181336117991 0 0.059157840751288389 -0.1787757621231397 0 0.07659349124015874 -0.20511701361401791 0 0.077217212929609175 -0.18889181336117991 0 0.087056122981510914 -0.19880729082051449 0 0.077217212929609175 -0.18889181336117991 0 0.087056122981510914 -0.19880729082051449 0 0.091316030458297129 -0.18581800007690699 0 0.087056122981510914 -0.19880729082051449 0 0.088905942426570017 -0.21219753787904741 0 0.1004314188966224 -0.19751483051826599 0 0.087056122981510914 -0.19880729082051449 0 0.1004314188966224 -0.19751483051826599 0 0.091316030458297129 -0.18581800007690699 0 0.07659349124015874 -0.20511701361401791 0 0.076258401329997436 -0.21635434221493319 0 0.088905942426570017 -0.21219753787904741 0 0.086145967383346581 -0.22190256742379069 0 0.076258401329997436 -0.21635434221493319 0 0.088905942426570017 -0.21219753787904741 0 0.07659349124015874 -0.20511701361401791 0 0.087056122981510914 -0.19880729082051449 0 0.088905942426570017 -0.21219753787904741 0 0.086145967383346581 -0.22190256742379069 0 0.088905942426570017 -0.21219753787904741 0 0.098932356734434845 -0.21936802422933471 0 0.10799241367531311 -0.2082446501541429 0 0.1004314188966224 -0.19751483051826599 0 0.098932356734434845 -0.21936802422933471 0 0.10799241367531311 -0.2082446501541429 0 0.1197620525411254 -0.21356208913140801 0 0.098932356734434845 -0.21936802422933471 0 0.088905942426570017 -0.21219753787904741 0 0.098932356734434845 -0.21936802422933471 0 0.1004314188966224 -0.19751483051826599 0 0.098932356734434845 -0.21936802422933471 0 0.088905942426570017 -0.21219753787904741 0 0.1004314188966224 -0.19751483051826599 0 0.098932356734434845 -0.21936802422933471 0 0.10799241367531311 -0.2082446501541429 0 0.1004314188966224 -0.19751483051826599 0 0.1165223794856555 -0.19743642180091739 0 0.1004314188966224 -0.19751483051826599 0 0.1165223794856555 -0.19743642180091739 0 0.1137289395421745 -0.18563405717561929 0 0.1165223794856555 -0.19743642180091739 0 0.1137289395421745 -0.18563405717561929 0 0.12767687559112709 -0.18700981645158871 0 0.1165223794856555 -0.19743642180091739 0 0.1197620525411254 -0.21356208913140801 0 0.13698071479679749 -0.2016101276466106 0 0.10799241367531311 -0.2082446501541429 0 0.1165223794856555 -0.19743642180091739 0 0.1197620525411254 -0.21356208913140801 0 0.12162565113262939 -0.23559735135753929 0 0.098932356734434845 -0.21936802422933471 0 0.1197620525411254 -0.21356208913140801 0 0.12162565113262939 -0.23559735135753929 0 0.098932356734434845 -0.21936802422933471 0 0.1247112926720263 -0.25243123502020148 0 0.12162565113262939 -0.23559735135753929 0 0.11136075185103041 -0.24821750207143811 0 0.12162565113262939 -0.23559735135753929 0 0.11136075185103041 -0.24821750207143811 0 0.10718848582980491 -0.23786273940013941 0 0.088665591547335693 -0.2360811002044009 0 0.096911880283940793 -0.24882234865630171 0 0.098932356734434845 -0.21936802422933471 0 0.10718848582980491 -0.23786273940013941 0 0.096911880283940793 -0.24882234865630171 0 0.098932356734434845 -0.21936802422933471 0 0.11136075185103041 -0.24821750207143811 0 0.10718848582980491 -0.23786273940013941 0 0.096911880283940793 -0.24882234865630171 0 0.096911880283940793 -0.24882234865630171 0 0.098932356734434845 -0.21936802422933471 0 0.12162565113262939 -0.23559735135753929 0 0.10718848582980491 -0.23786273940013941 0 0.098932356734434845 -0.21936802422933471 0 0.105245266586261 -0.12733899077612529 0 0.089060970052445482 -0.13593005308265091 0 0.089799020460722107 -0.1166878231181251 0 0.1034295432210014 -0.15380844309612871 0 0.105245266586261 -0.12733899077612529 0 0.089060970052445482 -0.13593005308265091 0 0.1034295432210014 -0.15380844309612871 0 0.105245266586261 -0.12733899077612529 0 0.105245266586261 -0.12733899077612529 0 0.12763569286038981 -0.1239215236016821 0 0.12554447269925231 -0.14133658254545051 0 0.105245266586261 -0.12733899077612529 0 0.12554447269925231 -0.14133658254545051 0 0.1034295432210014 -0.15380844309612871 0 0.117464539126081 -0.16255135438451021 0 0.12554447269925231 -0.14133658254545051 0 0.1034295432210014 -0.15380844309612871 0 0.12554447269925231 -0.14133658254545051 0 0.1034295432210014 -0.15380844309612871 0 0.105245266586261 -0.12733899077612529 0 0.12554447269925231 -0.14133658254545051 0 0.117464539126081 -0.16255135438451021 0 0.13037551585724591 -0.16521290458990351 0 0.12554447269925231 -0.14133658254545051 0 0.117464539126081 -0.16255135438451021 0 0.1209797667976001 -0.17516793943393069 0 0.1019304810588106 -0.17566163680719721 0 0.117464539126081 -0.16255135438451021 0 0.1209797667976001 -0.17516793943393069 0 0.13037551585724591 -0.16521290458990351 0 0.1209797667976001 -0.17516793943393069 0 0.1137289395421745 -0.18563405717561929 0 0.1019304810588106 -0.17566163680719721 0 0.1209797667976001 -0.17516793943393069 0 0.1137289395421745 -0.18563405717561929 0 0.12767687559112709 -0.18700981645158871 0 0.1004314188966224 -0.19751483051826599 0 0.1019304810588106 -0.17566163680719721 0 0.1004314188966224 -0.19751483051826599 0 0.1137289395421745 -0.18563405717561929 0 0.1019304810588106 -0.17566163680719721 0 0.1004314188966224 -0.19751483051826599 0 0.1019304810588106 -0.17566163680719721 0 0.091316030458297129 -0.18581800007690699 0 0.1034295432210014 -0.15380844309612871 0 0.1019304810588106 -0.17566163680719721 0 0.081293691986146041 -0.1662921026096362 0 0.1034295432210014 -0.15380844309612871 0 0.1019304810588106 -0.17566163680719721 0 0.1034295432210014 -0.15380844309612871 0 0.117464539126081 -0.16255135438451021 0 0.1019304810588106 -0.17566163680719721 0 0.1034295432210014 -0.15380844309612871 0 0.081293691986146041 -0.1662921026096362 0 0.1034295432210014 -0.15380844309612871 0 0.081293691986146041 -0.1662921026096362 0 0.083893122983947688 -0.15136619918215349 0 0.1019304810588106 -0.17566163680719721 0 0.081293691986146041 -0.1662921026096362 0 0.091316030458297129 -0.18581800007690699 0 0.077217212929609175 -0.18889181336117991 0 0.081293691986146041 -0.1662921026096362 0 0.091316030458297129 -0.18581800007690699 0 0.081293691986146041 -0.1662921026096362 0 0.059157840751288389 -0.1787757621231397 0 0.077217212929609175 -0.18889181336117991 0 0.081293691986146041 -0.1662921026096362 0 0.059157840751288389 -0.1787757621231397 0 0.081293691986146041 -0.1662921026096362 0 0.083893122983947688 -0.15136619918215349 0 0.059836425018594187 -0.15310931659908561 0 0.081293691986146041 -0.1662921026096362 0 0.059836425018594187 -0.15310931659908561 0 0.059157840751288389 -0.1787757621231397 0 0.074967953069567633 -0.14060976914102449 0 0.063191818280704193 -0.13271432445204209 0 0.059836425018594187 -0.15310931659908561 0 0.083893122983947688 -0.15136619918215349 0 0.074967953069567633 -0.14060976914102449 0 0.059836425018594187 -0.15310931659908561 0 0.1034295432210014 -0.15380844309612871 0 0.083893122983947688 -0.15136619918215349 0 0.089060970052445482 -0.13593005308265091 0 0.083893122983947688 -0.15136619918215349 0 0.089060970052445482 -0.13593005308265091 0 0.074967953069567633 -0.14060976914102449 0 0.089060970052445482 -0.13593005308265091 0 0.076265357153930874 -0.12527069007267511 0 0.089799020460722107 -0.1166878231181251 0 0.089060970052445482 -0.13593005308265091 0 0.076265357153930874 -0.12527069007267511 0 0.074967953069567633 -0.14060976914102449 0 0.076265357153930874 -0.12527069007267511 0 0.074967953069567633 -0.14060976914102449 0 0.063191818280704193 -0.13271432445204209 0 0.063191818280704193 -0.13271432445204209 0 0.059836425018594187 -0.15310931659908561 0 0.046396680345847721 -0.13471784454825969 0 0.046396680345847721 -0.13471784454825969 0 0.06245779714778936 -0.1165243258711893 0 0.063191818280704193 -0.13271432445204209 0 0.046396680345847721 -0.13471784454825969 0 0.06245779714778936 -0.1165243258711893 0 0.046396680345847721 -0.13471784454825969 0 0.05524256192011287 -0.12288591932480129 0 0.042980591833718232 -0.1230360593151873 0 0.046396680345847721 -0.13471784454825969 0 0.030335563543905909 -0.15291136322533 0 0.059836425018594187 -0.15310931659908561 0 0.046396680345847721 -0.13471784454825969 0 0.030335563543905909 -0.15291136322533 0 0.032458158350679903 -0.13077753630964159 0 0.046396680345847721 -0.13471784454825969 0 0.030335563543905909 -0.15291136322533 0 0.032458158350679903 -0.13077753630964159 0 0.046396680345847721 -0.13471784454825969 0 0.042980591833718232 -0.1230360593151873 0 0.037021989516430737 -0.1912594216366432 0 0.059157840751288389 -0.1787757621231397 0 0.059836425018594187 -0.15310931659908561 0 0.059157840751288389 -0.1787757621231397 0 0.039143888097207931 -0.16775256302207051 0 0.059836425018594187 -0.15310931659908561 0 0.039143888097207931 -0.16775256302207051 0 0.030335563543905909 -0.15291136322533 0 0.037021989516430737 -0.1912594216366432 0 0.059157840751288389 -0.1787757621231397 0 0.034434177166141548 -0.17915430156137041 0 0.059157840751288389 -0.1787757621231397 0 0.039143888097207931 -0.16775256302207051 0 0.034434177166141548 -0.17915430156137041 0 0.037021989516430737 -0.1912594216366432 0 0.034434177166141548 -0.17915430156137041 0 0.022572720723816608 -0.1868788791225981 0 0.011290363509728049 -0.19369567760138209 0 0.022572720723816608 -0.1868788791225981 0 0.014274446741964091 -0.17110488190240031 0 0.034434177166141548 -0.17915430156137041 0 0.022572720723816608 -0.1868788791225981 0 0.014274446741964091 -0.17110488190240031 0 0.039143888097207931 -0.16775256302207051 0 0.034434177166141548 -0.17915430156137041 0 0.014274446741964091 -0.17110488190240031 0 0.014935513255805151 -0.16566555537702529 0 0.014274446741964091 -0.17110488190240031 0 0.030335563543905909 -0.15291136322533 0 0.014274446741964091 -0.17110488190240031 0 0.030335563543905909 -0.15291136322533 0 0.039143888097207931 -0.16775256302207051 0 0.014274446741964091 -0.17110488190240031 0 0.030335563543905909 -0.15291136322533 0 0.014935513255805151 -0.16566555537702529 0 0.030335563543905909 -0.15291136322533 0 0.013873537458913839 -0.1508049432497662 0 -0.0020086241853944091 -0.1547870315339249 0 0.014935513255805151 -0.16566555537702529 0 -0.0020086241853944091 -0.1547870315339249 0 0.014935513255805151 -0.16566555537702529 0 0.013873537458913839 -0.1508049432497662 0 -0.0020086241853944091 -0.1547870315339249 0 0.002193658633994617 -0.1668768133420033 0 0.014935513255805151 -0.16566555537702529 0 0.002193658633994617 -0.1668768133420033 0 0.014935513255805151 -0.16566555537702529 0 0.014274446741964091 -0.17110488190240031 0 -0.001786670059977728 -0.18929840057947059 0 0.011290363509728049 -0.19369567760138209 0 0.014274446741964091 -0.17110488190240031 0 -0.001786670059977728 -0.18929840057947059 0 0.014274446741964091 -0.17110488190240031 0 -0.001786670059977728 -0.18929840057947059 0 0.002193658633994617 -0.1668768133420033 0 0.014274446741964091 -0.17110488190240031 0 0.02047667081085772 -0.13891709285519041 0 0.0124767335756797 -0.11323722619768301 0 0.032458158350679903 -0.13077753630964159 0 0.02047667081085772 -0.13891709285519041 0 0.0124767335756797 -0.11323722619768301 0 0.02047667081085772 -0.13891709285519041 0 0.030335563543905909 -0.15291136322533 0 0.013873537458913839 -0.1508049432497662 0 0.032458158350679903 -0.13077753630964159 0 0.02047667081085772 -0.13891709285519041 0 0.030335563543905909 -0.15291136322533 0 0.02047667081085772 -0.13891709285519041 0 0.013873537458913839 -0.1508049432497662 0 0.0048852549988201268 -0.14179469452142321 0 -0.0020086241853944091 -0.1547870315339249 0 0.013873537458913839 -0.1508049432497662 0 0.0048852549988201268 -0.14179469452142321 0 -0.0021704942975181371 -0.1276442308107418 0 0.02047667081085772 -0.13891709285519041 0 0.0048852549988201268 -0.14179469452142321 0 -0.0021704942975181371 -0.1276442308107418 0 0.02047667081085772 -0.13891709285519041 0 0.0124767335756797 -0.11323722619768301 0 -0.0083572851437748626 -0.1064103685077297 0 -0.0021704942975181371 -0.1276442308107418 0 0.0124767335756797 -0.11323722619768301 0 0.0124767335756797 -0.11323722619768301 0 0.026722835165749869 -0.1014048984470997 0 0.032423965115347328 -0.11544849561504431 0 0.032458158350679903 -0.13077753630964159 0 0.0124767335756797 -0.11323722619768301 0 0.032423965115347328 -0.11544849561504431 0 0.0124767335756797 -0.11323722619768301 0 0.026722835165749869 -0.1014048984470997 0 0.0044767963405016884 -0.087557359540175544 0 0.0124767335756797 -0.11323722619768301 0 0.0044767963405016884 -0.087557359540175544 0 -0.0083572851437748626 -0.1064103685077297 0 0.0124767335756797 -0.11323722619768301 0 0.0044767963405016884 -0.087557359540175544 0 -0.0035231408946746041 -0.061877492882667577 0 0.0044767963405016884 -0.087557359540175544 0 0.0098657146083999028 -0.071792547091377515 0 -0.0035231408946746041 -0.061877492882667577 0 0.0098657146083999028 -0.071792547091377515 0 0.02387717468602708 -0.062778738898558867 0 -0.0035231408946746041 -0.061877492882667577 0 0.0044767963405016884 -0.087557359540175544 0 0.0044767963405016884 -0.087557359540175544 0 0.0098657146083999028 -0.071792547091377515 0 0.02180112263268762 -0.07494855136970581 0 0.0098657146083999028 -0.071792547091377515 0 0.02180112263268762 -0.07494855136970581 0 0.02387717468602708 -0.062778738898558867 0 0.02180112263268762 -0.07494855136970581 0 0.028480487091578872 -0.085331249387868457 0 0.03729589469615719 -0.071785831348146437 0 0.02180112263268762 -0.07494855136970581 0 0.02387717468602708 -0.062778738898558867 0 0.03729589469615719 -0.071785831348146437 0 0.0044767963405016884 -0.087557359540175544 0 0.02180112263268762 -0.07494855136970581 0 0.028480487091578872 -0.085331249387868457 0 0.026722835165749869 -0.1014048984470997 0 0.0044767963405016884 -0.087557359540175544 0 0.028480487091578872 -0.085331249387868457 0 0.026722835165749869 -0.1014048984470997 0 0.028480487091578872 -0.085331249387868457 0 0.05102912064223622 -0.089953515008935059 0 0.028480487091578872 -0.085331249387868457 0 0.04954424193556483 -0.076801539120190429 0 0.05102912064223622 -0.089953515008935059 0 0.028480487091578872 -0.085331249387868457 0 0.03729589469615719 -0.071785831348146437 0 0.04954424193556483 -0.076801539120190429 0 0.02387717468602708 -0.062778738898558867 0 0.03729589469615719 -0.071785831348146437 0 0.051277490266728773 -0.063679984914450746 0 0.02387717468602708 -0.062778738898558867 0 0.051277490266728773 -0.063679984914450746 0 0.03729589469615719 -0.071785831348146437 0 0.051277490266728773 -0.063679984914450746 0 0.04954424193556483 -0.076801539120190429 0 0.051277490266728773 -0.063679984914450746 0 0.04954424193556483 -0.076801539120190429 0 0.064810236569451729 -0.075247665365429053 0 0.04954424193556483 -0.076801539120190429 0 0.066837951883020177 -0.087426137328945053 0 0.064810236569451729 -0.075247665365429053 0 0.04954424193556483 -0.076801539120190429 0 0.05102912064223622 -0.089953515008935059 0 0.066837951883020177 -0.087426137328945053 0 0.05102912064223622 -0.089953515008935059 0 0.058344930025636177 -0.1055063594576359 0 0.047178905858914828 -0.1106410518708878 0 0.05102912064223622 -0.089953515008935059 0 0.07271389645360421 -0.10490654507953109 0 0.05102912064223622 -0.089953515008935059 0 0.058344930025636177 -0.1055063594576359 0 0.07271389645360421 -0.10490654507953109 0 0.06245779714778936 -0.1165243258711893 0 0.05524256192011287 -0.12288591932480129 0 0.047178905858914828 -0.1106410518708878 0 0.046396680345847721 -0.13471784454825969 0 0.06245779714778936 -0.1165243258711893 0 0.05524256192011287 -0.12288591932480129 0 0.058344930025636177 -0.1055063594576359 0 0.06245779714778936 -0.1165243258711893 0 0.047178905858914828 -0.1106410518708878 0 0.06245779714778936 -0.1165243258711893 0 0.05524256192011287 -0.12288591932480129 0 0.05524256192011287 -0.12288591932480129 0 0.047178905858914828 -0.1106410518708878 0 0.042980591833718232 -0.1230360593151873 0 0.047178905858914828 -0.1106410518708878 0 0.042980591833718232 -0.1230360593151873 0 0.032423965115347328 -0.11544849561504431 0 0.032458158350679903 -0.13077753630964159 0 0.042980591833718232 -0.1230360593151873 0 0.032423965115347328 -0.11544849561504431 0 0.026722835165749869 -0.1014048984470997 0 0.047178905858914828 -0.1106410518708878 0 0.032423965115347328 -0.11544849561504431 0 0.026722835165749869 -0.1014048984470997 0 0.05102912064223622 -0.089953515008935059 0 0.047178905858914828 -0.1106410518708878 0 0.027753781738422491 -0.0028387788095733798 0 0.026332487083191532 -0.020847482506614751 0 0.03771394557960292 -0.01686645339503598 0 0.027753781738422491 -0.0028387788095733798 0 0.011402600186323291 -0.0064230577428618721 0 0.026332487083191532 -0.020847482506614751 0 -0.0031752882931124259 -0.01515272796499229 0 -0.0079842835926580199 0.01140056467584467 0 0.011402600186323291 -0.0064230577428618721 0 -0.0031752882931124259 -0.01515272796499229 0 0.011402600186323291 -0.0064230577428618721 0 0.01250908525101737 -0.02706312918159889 0 -0.0031752882931124259 -0.01515272796499229 0 0.01250908525101737 -0.02706312918159889 0 0.001586025533247544 -0.03758510872839553 0 0.011402600186323291 -0.0064230577428618721 0 0.01250908525101737 -0.02706312918159889 0 0.026332487083191532 -0.020847482506614751 0 0.01250908525101737 -0.02706312918159889 0 0.026332487083191532 -0.020847482506614751 0 0.02475504596845041 -0.037686508819461409 0 0.026332487083191532 -0.020847482506614751 0 0.02475504596845041 -0.037686508819461409 0 0.034146903704747177 -0.029597629243951439 0 0.01250908525101737 -0.02706312918159889 0 0.02475504596845041 -0.037686508819461409 0 0.013342722009943341 -0.043409283045993063 0 0.02475504596845041 -0.037686508819461409 0 0.033603912033596653 -0.039481866248535162 0 0.034146903704747177 -0.029597629243951439 0 0.02475504596845041 -0.037686508819461409 0 0.0277851804941384 -0.045244534950783802 0 0.033603912033596653 -0.039481866248535162 0 0.02475504596845041 -0.037686508819461409 0 0.0277851804941384 -0.045244534950783802 0 0.020506896314217319 -0.04789531556371613 0 0.02475504596845041 -0.037686508819461409 0 0.013342722009943341 -0.043409283045993063 0 0.020506896314217319 -0.04789531556371613 0 0.01250908525101737 -0.02706312918159889 0 0.001586025533247544 -0.03758510872839553 0 0.013342722009943341 -0.043409283045993063 0 0.001586025533247544 -0.03758510872839553 0 0.013342722009943341 -0.043409283045993063 0 0.0070042374510395329 -0.048974603911983418 0 -0.0045054633023061596 -0.058724229588092328 0 -0.0035231408946746041 -0.061877492882667577 0 0.015848918347177079 -0.057344983865764178 0 0.01516335814437692 -0.050711911933408238 0 0.0094633791140550233 -0.053821705775443707 0 0.0070042374510395329 -0.048974603911983418 0 -0.0035231408946746041 -0.061877492882667577 0 0.02387717468602708 -0.062778738898558867 0 -0.0045054633023061596 -0.058724229588092328 0 0.001586025533247544 -0.03758510872839553 0 0.0070042374510395329 -0.048974603911983418 0 -0.0045054633023061596 -0.058724229588092328 0 0.015848918347177079 -0.057344983865764178 0 -0.0045054633023061596 -0.058724229588092328 0 0.0094633791140550233 -0.053821705775443707 0 0.015848918347177079 -0.057344983865764178 0 -0.0035231408946746041 -0.061877492882667577 0 0.02387717468602708 -0.062778738898558867 0 0.015848918347177079 -0.057344983865764178 0 0.013342722009943341 -0.043409283045993063 0 0.01516335814437692 -0.050711911933408238 0 0.0070042374510395329 -0.048974603911983418 0 0.01516335814437692 -0.050711911933408238 0 0.014447398101576791 -0.053951423841942979 0 0.0094633791140550233 -0.053821705775443707 0 0.01516335814437692 -0.050711911933408238 0 0.014447398101576791 -0.053951423841942979 0 0.016976673675372742 -0.053330991775678432 0 -0.0045054633023061596 -0.058724229588092328 0 0.0094633791140550233 -0.053821705775443707 0 0.0070042374510395329 -0.048974603911983418 0 0.014447398101576791 -0.053951423841942979 0 0.0094633791140550233 -0.053821705775443707 0 0.015848918347177079 -0.057344983865764178 0 0.02387717468602708 -0.062778738898558867 0 0.015848918347177079 -0.057344983865764178 0 0.030160527607409109 -0.056295655182842047 0 0.015848918347177079 -0.057344983865764178 0 0.030160527607409109 -0.056295655182842047 0 0.015848918347177079 -0.057344983865764178 0 0.020804129985453772 -0.053736759379470991 0 0.025135563176002081 -0.054301026293575291 0 0.015848918347177079 -0.057344983865764178 0 0.016976673675372742 -0.053330991775678432 0 0.020804129985453772 -0.053736759379470991 0 0.014447398101576791 -0.053951423841942979 0 0.015848918347177079 -0.057344983865764178 0 0.016976673675372742 -0.053330991775678432 0 0.01516335814437692 -0.050711911933408238 0 0.016976673675372742 -0.053330991775678432 0 0.019278989813219911 -0.051457595796136138 0 0.016976673675372742 -0.053330991775678432 0 0.019278989813219911 -0.051457595796136138 0 0.020804129985453772 -0.053736759379470991 0 0.013342722009943341 -0.043409283045993063 0 0.01516335814437692 -0.050711911933408238 0 0.020506896314217319 -0.04789531556371613 0 0.01516335814437692 -0.050711911933408238 0 0.019278989813219911 -0.051457595796136138 0 0.020506896314217319 -0.04789531556371613 0 0.020506896314217319 -0.04789531556371613 0 0.022943890946678831 -0.051613000328406877 0 0.025486936945448541 -0.049835363353286179 0 0.019278989813219911 -0.051457595796136138 0 0.020506896314217319 -0.04789531556371613 0 0.022943890946678831 -0.051613000328406877 0 0.020804129985453772 -0.053736759379470991 0 0.022943890946678831 -0.051613000328406877 0 0.025135563176002081 -0.054301026293575291 0 0.019278989813219911 -0.051457595796136138 0 0.020804129985453772 -0.053736759379470991 0 0.022943890946678831 -0.051613000328406877 0 0.022943890946678831 -0.051613000328406877 0 0.025135563176002081 -0.054301026293575291 0 0.026974972852160661 -0.052743513032523413 0 0.022943890946678831 -0.051613000328406877 0 0.026974972852160661 -0.052743513032523413 0 0.025486936945448541 -0.049835363353286179 0 0.026974972852160661 -0.052743513032523413 0 0.025486936945448541 -0.049835363353286179 0 0.028961859500486131 -0.050512025602951108 0 0.025135563176002081 -0.054301026293575291 0 0.026974972852160661 -0.052743513032523413 0 0.02840585168227382 -0.053189361958002383 0 0.0277851804941384 -0.045244534950783802 0 0.020506896314217319 -0.04789531556371613 0 0.025486936945448541 -0.049835363353286179 0 0.0277851804941384 -0.045244534950783802 0 0.025486936945448541 -0.049835363353286179 0 0.028961859500486131 -0.050512025602951108 0 0.0277851804941384 -0.045244534950783802 0 0.028961859500486131 -0.050512025602951108 0 0.03316358325053588 -0.046595337450735047 0 0.025135563176002081 -0.054301026293575291 0 0.02840585168227382 -0.053189361958002383 0 0.030160527607409109 -0.056295655182842047 0 0.026974972852160661 -0.052743513032523413 0 0.028961859500486131 -0.050512025602951108 0 0.02840585168227382 -0.053189361958002383 0 0.028961859500486131 -0.050512025602951108 0 0.03070125496648668 -0.052971422231966887 0 0.032695328421470202 -0.050681678657183531 0 0.028961859500486131 -0.050512025602951108 0 0.02840585168227382 -0.053189361958002383 0 0.03070125496648668 -0.052971422231966887 0 0.02840585168227382 -0.053189361958002383 0 0.03070125496648668 -0.052971422231966887 0 0.030160527607409109 -0.056295655182842047 0 0.015848918347177079 -0.057344983865764178 0 0.025135563176002081 -0.054301026293575291 0 0.030160527607409109 -0.056295655182842047 0 0.02387717468602708 -0.062778738898558867 0 0.030160527607409109 -0.056295655182842047 0 0.036060345273834178 -0.055863079936493393 0 0.036060345273834178 -0.055863079936493393 0 0.044681165965025298 -0.052611640651690918 0 0.056557681646143297 -0.054586492421107573 0 0.02387717468602708 -0.062778738898558867 0 0.051277490266728773 -0.063679984914450746 0 0.036060345273834178 -0.055863079936493393 0 0.036060345273834178 -0.055863079936493393 0 0.056557681646143297 -0.054586492421107573 0 0.030160527607409109 -0.056295655182842047 0 0.036060345273834178 -0.055863079936493393 0 0.030160527607409109 -0.056295655182842047 0 0.036060345273834178 -0.055863079936493393 0 0.033169510858385778 -0.054826857735812827 0 0.036060345273834178 -0.055863079936493393 0 0.033169510858385778 -0.054826857735812827 0 0.035109317353392462 -0.054114899416975809 0 0.03070125496648668 -0.052971422231966887 0 0.030160527607409109 -0.056295655182842047 0 0.033169510858385778 -0.054826857735812827 0 0.03070125496648668 -0.052971422231966887 0 0.033169510858385778 -0.054826857735812827 0 0.032695328421470202 -0.050681678657183531 0 0.034739340379170328 -0.052498828397876847 0 0.032695328421470202 -0.050681678657183531 0 0.036615777886863363 -0.049481744454970888 0 0.033169510858385778 -0.054826857735812827 0 0.034739340379170328 -0.052498828397876847 0 0.032695328421470202 -0.050681678657183531 0 0.033169510858385778 -0.054826857735812827 0 0.034739340379170328 -0.052498828397876847 0 0.035109317353392462 -0.054114899416975809 0 0.032695328421470202 -0.050681678657183531 0 0.036615777886863363 -0.049481744454970888 0 0.03316358325053588 -0.046595337450735047 0 0.028961859500486131 -0.050512025602951108 0 0.032695328421470202 -0.050681678657183531 0 0.03316358325053588 -0.046595337450735047 0 0.036615777886863363 -0.049481744454970888 0 0.040833937168292082 -0.049366569370952171 0 0.039319441166660592 -0.044170174789985819 0 0.036615777886863363 -0.049481744454970888 0 0.038586497998416958 -0.05138847541677332 0 0.040833937168292082 -0.049366569370952171 0 0.036060345273834178 -0.055863079936493393 0 0.037483021942691819 -0.053356920022990972 0 0.040135629425887047 -0.052493987590790173 0 0.036060345273834178 -0.055863079936493393 0 0.034739340379170328 -0.052498828397876847 0 0.037483021942691819 -0.053356920022990972 0 0.036060345273834178 -0.055863079936493393 0 0.034739340379170328 -0.052498828397876847 0 0.035109317353392462 -0.054114899416975809 0 0.034739340379170328 -0.052498828397876847 0 0.036615777886863363 -0.049481744454970888 0 0.037483021942691819 -0.053356920022990972 0 0.038586497998416958 -0.05138847541677332 0 0.037483021942691819 -0.053356920022990972 0 0.040135629425887047 -0.052493987590790173 0 0.036615777886863363 -0.049481744454970888 0 0.038586497998416958 -0.05138847541677332 0 0.037483021942691819 -0.053356920022990972 0 0.040135629425887047 -0.052493987590790173 0 0.040833937168292082 -0.049366569370952171 0 0.044681165965025298 -0.052611640651690918 0 0.036060345273834178 -0.055863079936493393 0 0.040135629425887047 -0.052493987590790173 0 0.044681165965025298 -0.052611640651690918 0 0.038586497998416958 -0.05138847541677332 0 0.040135629425887047 -0.052493987590790173 0 0.040833937168292082 -0.049366569370952171 0 0.040833937168292082 -0.049366569370952171 0 0.044681165965025298 -0.052611640651690918 0 0.045773217255035553 -0.046683980036850203 0 0.044681165965025298 -0.052611640651690918 0 0.050002221322596109 -0.049623168177082157 0 0.045773217255035553 -0.046683980036850203 0 0.051277490266728773 -0.063679984914450746 0 0.036060345273834178 -0.055863079936493393 0 0.056557681646143297 -0.054586492421107573 0 0.051277490266728773 -0.063679984914450746 0 0.056557681646143297 -0.054586492421107573 0 0.078677805847430629 -0.064581230930342626 0 0.056557681646143297 -0.054586492421107573 0 0.053460601832914331 -0.043676588400269722 0 0.066385907745193234 -0.04932608558774778 0 0.056557681646143297 -0.054586492421107573 0 0.050002221322596109 -0.049623168177082157 0 0.053460601832914331 -0.043676588400269722 0 0.044681165965025298 -0.052611640651690918 0 0.056557681646143297 -0.054586492421107573 0 0.050002221322596109 -0.049623168177082157 0 0.053460601832914331 -0.043676588400269722 0 0.051868278721726807 -0.033782842933390698 0 0.046341936074724942 -0.040655738831120398 0 0.050002221322596109 -0.049623168177082157 0 0.053460601832914331 -0.043676588400269722 0 0.045773217255035553 -0.046683980036850203 0 0.053460601832914331 -0.043676588400269722 0 0.046341936074724942 -0.040655738831120398 0 0.045773217255035553 -0.046683980036850203 0 0.053460601832914331 -0.043676588400269722 0 0.063601561963017861 -0.039206349399501607 0 0.066385907745193234 -0.04932608558774778 0 0.053460601832914331 -0.043676588400269722 0 0.051868278721726807 -0.033782842933390698 0 0.063601561963017861 -0.039206349399501607 0 0.051868278721726807 -0.033782842933390698 0 0.062304712043446397 -0.026963330306662259 0 0.063601561963017861 -0.039206349399501607 0 0.051868278721726807 -0.033782842933390698 0 0.041853493382391783 -0.03477555113605818 0 0.046341936074724942 -0.040655738831120398 0 0.051868278721726807 -0.033782842933390698 0 0.041853493382391783 -0.03477555113605818 0 0.044217581773046633 -0.025286462831549211 0 0.041853493382391783 -0.03477555113605818 0 0.046341936074724942 -0.040655738831120398 0 0.039319441166660592 -0.044170174789985819 0 0.046341936074724942 -0.040655738831120398 0 0.045773217255035553 -0.046683980036850203 0 0.039319441166660592 -0.044170174789985819 0 0.040833937168292082 -0.049366569370952171 0 0.045773217255035553 -0.046683980036850203 0 0.039319441166660592 -0.044170174789985819 0 0.041853493382391783 -0.03477555113605818 0 0.039319441166660592 -0.044170174789985819 0 0.033603912033596653 -0.039481866248535162 0 0.036615777886863363 -0.049481744454970888 0 0.039319441166660592 -0.044170174789985819 0 0.03316358325053588 -0.046595337450735047 0 0.039319441166660592 -0.044170174789985819 0 0.03316358325053588 -0.046595337450735047 0 0.033603912033596653 -0.039481866248535162 0 0.0277851804941384 -0.045244534950783802 0 0.03316358325053588 -0.046595337450735047 0 0.033603912033596653 -0.039481866248535162 0 0.041853493382391783 -0.03477555113605818 0 0.033603912033596653 -0.039481866248535162 0 0.034146903704747177 -0.029597629243951439 0 0.034146903704747177 -0.029597629243951439 0 0.03771394557960292 -0.01686645339503598 0 0.044217581773046633 -0.025286462831549211 0 0.026332487083191532 -0.020847482506614751 0 0.034146903704747177 -0.029597629243951439 0 0.03771394557960292 -0.01686645339503598 0 0.03771394557960292 -0.01686645339503598 0 0.044217581773046633 -0.025286462831549211 0 0.048786211058372483 -0.015000432131251041 0 0.041853493382391783 -0.03477555113605818 0 0.034146903704747177 -0.029597629243951439 0 0.044217581773046633 -0.025286462831549211 0 0.051868278721726807 -0.033782842933390698 0 0.044217581773046633 -0.025286462831549211 0 0.0532688411945915 -0.023866727422709691 0 0.051868278721726807 -0.033782842933390698 0 0.0532688411945915 -0.023866727422709691 0 0.062304712043446397 -0.026963330306662259 0 0.0532688411945915 -0.023866727422709691 0 0.062304712043446397 -0.026963330306662259 0 0.059707042157494422 -0.01556053462714216 0 0.0532688411945915 -0.023866727422709691 0 0.048786211058372483 -0.015000432131251041 0 0.059707042157494422 -0.01556053462714216 0 0.044217581773046633 -0.025286462831549211 0 0.0532688411945915 -0.023866727422709691 0 0.048786211058372483 -0.015000432131251041 0 0.070357783949645841 0.0021354467124046661 0 0.059707042157494422 -0.01556053462714216 0 0.055050956031401199 -0.0040217381168727107 0 0.048786211058372483 -0.015000432131251041 0 0.059707042157494422 -0.01556053462714216 0 0.055050956031401199 -0.0040217381168727107 0 0.048786211058372483 -0.015000432131251041 0 0.055050956031401199 -0.0040217381168727107 0 0.042758899614098268 -0.0044006763941964993 0 0.03771394557960292 -0.01686645339503598 0 0.048786211058372483 -0.015000432131251041 0 0.042758899614098268 -0.0044006763941964993 0 0.027753781738422491 -0.0028387788095733798 0 0.03771394557960292 -0.01686645339503598 0 0.042758899614098268 -0.0044006763941964993 0 0.070357783949645841 0.0021354467124046661 0 0.09061825243524696 0.00077075998008834803 0 0.088593950635458912 -0.014380604165995989 0 0.070357783949645841 0.0021354467124046661 0 0.088593950635458912 -0.014380604165995989 0 0.073349897314449963 -0.017898104252013009 0 0.070357783949645841 0.0021354467124046661 0 0.059707042157494422 -0.01556053462714216 0 0.073349897314449963 -0.017898104252013009 0 0.062304712043446397 -0.026963330306662259 0 0.059707042157494422 -0.01556053462714216 0 0.073349897314449963 -0.017898104252013009 0 0.062304712043446397 -0.026963330306662259 0 0.073349897314449963 -0.017898104252013009 0 0.072000539455211413 -0.032651113644050947 0 0.073349897314449963 -0.017898104252013009 0 0.087288401467825377 -0.031096344387618321 0 0.072000539455211413 -0.032651113644050947 0 0.088593950635458912 -0.014380604165995989 0 0.073349897314449963 -0.017898104252013009 0 0.087288401467825377 -0.031096344387618321 0 0.088593950635458912 -0.014380604165995989 0 0.087288401467825377 -0.031096344387618321 0 0.10435306793578911 -0.030659099827524149 0 0.087288401467825377 -0.031096344387618321 0 0.078844843025951017 -0.045064892005441073 0 0.095894626772709879 -0.042973660053029897 0 0.087288401467825377 -0.031096344387618321 0 0.078844843025951017 -0.045064892005441073 0 0.072000539455211413 -0.032651113644050947 0 0.078844843025951017 -0.045064892005441073 0 0.072000539455211413 -0.032651113644050947 0 0.063601561963017861 -0.039206349399501607 0 0.062304712043446397 -0.026963330306662259 0 0.072000539455211413 -0.032651113644050947 0 0.063601561963017861 -0.039206349399501607 0 0.078844843025951017 -0.045064892005441073 0 0.063601561963017861 -0.039206349399501607 0 0.066385907745193234 -0.04932608558774778 0 0.078844843025951017 -0.045064892005441073 0 0.066385907745193234 -0.04932608558774778 0 0.078677805847430629 -0.064581230930342626 0 0.056557681646143297 -0.054586492421107573 0 0.066385907745193234 -0.04932608558774778 0 0.078677805847430629 -0.064581230930342626 0 0.078844843025951017 -0.045064892005441073 0 0.087436301002091224 -0.055333088998801912 0 0.095894626772709879 -0.042973660053029897 0 0.087436301002091224 -0.055333088998801912 0 0.099119566745254975 -0.060406615202021063 0 0.078677805847430629 -0.064581230930342626 0 0.078844843025951017 -0.045064892005441073 0 0.087436301002091224 -0.055333088998801912 0 0.078677805847430629 -0.064581230930342626 0 0.099119566745254975 -0.060406615202021063 0 0.1106933537900887 -0.04791726429732128 0 0.1060781214281325 -0.065482476946234519 0 0.087436301002091224 -0.055333088998801912 0 0.099119566745254975 -0.060406615202021063 0 0.1004411563235431 -0.050996984281995332 0 0.087436301002091224 -0.055333088998801912 0 0.1004411563235431 -0.050996984281995332 0 0.095894626772709879 -0.042973660053029897 0 0.1004411563235431 -0.050996984281995332 0 0.1106933537900887 -0.04791726429732128 0 0.1048556727491875 -0.046402398870770273 0 0.099119566745254975 -0.060406615202021063 0 0.1106933537900887 -0.04791726429732128 0 0.099119566745254975 -0.060406615202021063 0 0.1004411563235431 -0.050996984281995332 0 0.1106933537900887 -0.04791726429732128 0 0.1106933537900887 -0.04791726429732128 0 0.1087893028960777 -0.075674347407046538 0 0.1149246459668995 -0.059064779479619231 0 0.1106933537900887 -0.04791726429732128 0 0.1087893028960777 -0.075674347407046538 0 0.1149246459668995 -0.059064779479619231 0 0.12149491056729381 -0.053551456403129478 0 0.12682729081650959 -0.059770452073072702 0 0.1149246459668995 -0.059064779479619231 0 0.12149491056729381 -0.053551456403129478 0 0.1152800115924893 -0.052090917813419943 0 0.12149491056729381 -0.053551456403129478 0 0.1180425444914714 -0.047556102882565399 0 0.1283775989289844 -0.049048737984897027 0 0.12149491056729381 -0.053551456403129478 0 0.1180425444914714 -0.047556102882565399 0 0.1152800115924893 -0.052090917813419943 0 0.1149246459668995 -0.059064779479619231 0 0.1152800115924893 -0.052090917813419943 0 0.1106933537900887 -0.04791726429732128 0 0.1149159879323608 -0.047784357872344918 0 0.1152800115924893 -0.052090917813419943 0 0.1106933537900887 -0.04791726429732128 0 0.1180425444914714 -0.047556102882565399 0 0.1149159879323608 -0.047784357872344918 0 0.1152800115924893 -0.052090917813419943 0 0.1106933537900887 -0.04791726429732128 0 0.1108455290996589 -0.045698866286894652 0 0.1164303996580516 -0.041726379781839643 0 0.1106933537900887 -0.04791726429732128 0 0.1108455290996589 -0.045698866286894652 0 0.1164303996580516 -0.041726379781839643 0 0.13219656472774069 -0.024713005748437641 0 0.1108455290996589 -0.045698866286894652 0 0.1164303996580516 -0.041726379781839643 0 0.1066137660638888 -0.040624512889689858 0 0.1106933537900887 -0.04791726429732128 0 0.1164303996580516 -0.041726379781839643 0 0.1180425444914714 -0.047556102882565399 0 0.1149159879323608 -0.047784357872344918 0 0.1164303996580516 -0.041726379781839643 0 0.1149159879323608 -0.047784357872344918 0 0.1106933537900887 -0.04791726429732128 0 0.1164303996580516 -0.041726379781839643 0 0.1180425444914714 -0.047556102882565399 0 0.1164303996580516 -0.041726379781839643 0 0.1180425444914714 -0.047556102882565399 0 0.1164303996580516 -0.041726379781839643 0 0.13065797003270471 -0.040499121826618079 0 0.1164303996580516 -0.041726379781839643 0 0.1066137660638888 -0.040624512889689858 0 0.10435306793578911 -0.030659099827524149 0 0.1066137660638888 -0.040624512889689858 0 0.095894626772709879 -0.042973660053029897 0 0.10435306793578911 -0.030659099827524149 0 0.087288401467825377 -0.031096344387618321 0 0.095894626772709879 -0.042973660053029897 0 0.10435306793578911 -0.030659099827524149 0 0.1066137660638888 -0.040624512889689858 0 0.1048556727491875 -0.046402398870770273 0 0.095894626772709879 -0.042973660053029897 0 0.1108455290996589 -0.045698866286894652 0 0.1066137660638888 -0.040624512889689858 0 0.1048556727491875 -0.046402398870770273 0 0.1106933537900887 -0.04791726429732128 0 0.1108455290996589 -0.045698866286894652 0 0.1048556727491875 -0.046402398870770273 0 0.1004411563235431 -0.050996984281995332 0 0.1048556727491875 -0.046402398870770273 0 0.095894626772709879 -0.042973660053029897 0 0.088593950635458912 -0.014380604165995989 0 0.10435306793578911 -0.030659099827524149 0 0.10902821013279961 -0.014959110255728429 0 0.1164303996580516 -0.041726379781839643 0 0.10902821013279961 -0.014959110255728429 0 0.10902821013279961 -0.014959110255728429 0 0.12858579313274959 -0.0093695092745615677 0 0.13219656472774069 -0.024713005748437641 0 0.1164303996580516 -0.041726379781839643 0 0.10902821013279961 -0.014959110255728429 0 0.13219656472774069 -0.024713005748437641 0 0.1164303996580516 -0.041726379781839643 0 0.10435306793578911 -0.030659099827524149 0 0.10902821013279961 -0.014959110255728429 0 0.1198239109624907 0.00097693126500603697 0 0.10902821013279961 -0.014959110255728429 0 0.12858579313274959 -0.0093695092745615677 0 0.1198239109624907 0.00097693126500603697 0 0.10162602060754861 0.011808159270382959 0 0.10902821013279961 -0.014959110255728429 0 0.09061825243524696 0.00077075998008834803 0 0.088593950635458912 -0.014380604165995989 0 0.10902821013279961 -0.014959110255728429 0 0.09061825243524696 0.00077075998008834803 0 0.10162602060754861 0.011808159270382959 0 0.10902821013279961 -0.014959110255728429 0 0.10162602060754861 0.011808159270382959 0 0.10902821013279961 -0.014959110255728429 0 0.074352774335183239 -0.10603665546012481 0 0.091571038615629347 -0.090855501433584437 0 0.089799020460722107 -0.1166878231181251 0 0.074352774335183239 -0.10603665546012481 0 0.091571038615629347 -0.090855501433584437 0 0.074352774335183239 -0.10603665546012481 0 0.085686146233630439 -0.090211996028742858 0 0.091571038615629347 -0.090855501433584437 0 0.07271389645360421 -0.10490654507953109 0 0.085686146233630439 -0.090211996028742858 0 0.076265357153930874 -0.12527069007267511 0 0.089799020460722107 -0.1166878231181251 0 0.074352774335183239 -0.10603665546012481 0 0.089799020460722107 -0.1166878231181251 0 0.074352774335183239 -0.10603665546012481 0 0.076265357153930874 -0.12527069007267511 0 0.06245779714778936 -0.1165243258711893 0 0.074352774335183239 -0.10603665546012481 0 0.076265357153930874 -0.12527069007267511 0 0.063191818280704193 -0.13271432445204209 0 0.06245779714778936 -0.1165243258711893 0 0.06245779714778936 -0.1165243258711893 0 0.074352774335183239 -0.10603665546012481 0 0.06245779714778936 -0.1165243258711893 0 0.07271389645360421 -0.10490654507953109 0 0.07271389645360421 -0.10490654507953109 0 0.066837951883020177 -0.087426137328945053 0 0.07537496650784907 -0.090948375741644438 0 0.06245779714778936 -0.1165243258711893 0 0.07271389645360421 -0.10490654507953109 0 0.074352774335183239 -0.10603665546012481 0 0.058344930025636177 -0.1055063594576359 0 0.06245779714778936 -0.1165243258711893 0 0.07271389645360421 -0.10490654507953109 0 0.07271389645360421 -0.10490654507953109 0 0.074352774335183239 -0.10603665546012481 0 0.085686146233630439 -0.090211996028742858 0 0.05102912064223622 -0.089953515008935059 0 0.07271389645360421 -0.10490654507953109 0 0.066837951883020177 -0.087426137328945053 0 0.07271389645360421 -0.10490654507953109 0 0.074352774335183239 -0.10603665546012481 0 0.07271389645360421 -0.10490654507953109 0 0.07537496650784907 -0.090948375741644438 0 0.085686146233630439 -0.090211996028742858 0 0.066837951883020177 -0.087426137328945053 0 0.07626187146114162 -0.08124882452935861 0 0.064810236569451729 -0.075247665365429053 0 0.066837951883020177 -0.087426137328945053 0 0.07626187146114162 -0.08124882452935861 0 0.07537496650784907 -0.090948375741644438 0 0.051277490266728773 -0.063679984914450746 0 0.078677805847430629 -0.064581230930342626 0 0.07626187146114162 -0.08124882452935861 0 0.064810236569451729 -0.075247665365429053 0 0.078677805847430629 -0.064581230930342626 0 0.051277490266728773 -0.063679984914450746 0 0.064810236569451729 -0.075247665365429053 0 0.078677805847430629 -0.064581230930342626 0 0.078677805847430629 -0.064581230930342626 0 0.1060781214281325 -0.065482476946234519 0 0.07626187146114162 -0.08124882452935861 0 0.078677805847430629 -0.064581230930342626 0 0.085080416245086984 -0.076604079372012482 0 0.078677805847430629 -0.064581230930342626 0 0.085080416245086984 -0.076604079372012482 0 0.098658396013658126 -0.075517446977955774 0 0.07626187146114162 -0.08124882452935861 0 0.07537496650784907 -0.090948375741644438 0 0.085686146233630439 -0.090211996028742858 0 0.07626187146114162 -0.08124882452935861 0 0.085080416245086984 -0.076604079372012482 0 0.085686146233630439 -0.090211996028742858 0 0.085080416245086984 -0.076604079372012482 0 0.085686146233630439 -0.090211996028742858 0 0.098658396013658126 -0.075517446977955774 0 0.085686146233630439 -0.090211996028742858 0 0.098658396013658126 -0.075517446977955774 0 0.085686146233630439 -0.090211996028742858 0 0.091571038615629347 -0.090855501433584437 0 0.098658396013658126 -0.075517446977955774 0 0.1087893028960777 -0.075674347407046538 0 0.10701728474116939 -0.1015066690915859 0 0.091571038615629347 -0.090855501433584437 0 0.098658396013658126 -0.075517446977955774 0 0.1087893028960777 -0.075674347407046538 0 0.091571038615629347 -0.090855501433584437 0 0.1087893028960777 -0.075674347407046538 0 0.10701728474116939 -0.1015066690915859 0 0.091571038615629347 -0.090855501433584437 0 0.1087893028960777 -0.075674347407046538 0 0.1106933537900887 -0.04791726429732128 0 0.1087893028960777 -0.075674347407046538 0 0.1060781214281325 -0.065482476946234519 0 0.099119566745254975 -0.060406615202021063 0 0.078677805847430629 -0.064581230930342626 0 0.1060781214281325 -0.065482476946234519 0 0.078677805847430629 -0.064581230930342626 0 0.098658396013658126 -0.075517446977955774 0 0.1060781214281325 -0.065482476946234519 0 0.098658396013658126 -0.075517446977955774 0 0.1087893028960777 -0.075674347407046538 0 0.1060781214281325 -0.065482476946234519 0 0.1087893028960777 -0.075674347407046538 0 0.12682729081650959 -0.059770452073072702 0 0.1149246459668995 -0.059064779479619231 0 0.1087893028960777 -0.075674347407046538 0 0.12682729081650959 -0.059770452073072702 0 0.1087893028960777 -0.075674347407046538 0 0.12658148048410231 -0.078640221884167999 0 0.12682729081650959 -0.059770452073072702 0 0.1087893028960777 -0.075674347407046538 0 0.1188359512938451 -0.092104264194748681 0 0.12658148048410231 -0.078640221884167999 0 0.1087893028960777 -0.075674347407046538 0 0.1188359512938451 -0.092104264194748681 0 0.10701728474116939 -0.1015066690915859 0 0.1188359512938451 -0.092104264194748681 0 0.12062720953860839 -0.1084549220977164 0 0.13172789807192009 -0.095560150892111242 0 0.1188359512938451 -0.092104264194748681 0 0.12062720953860839 -0.1084549220977164 0 0.10701728474116939 -0.1015066690915859 0 0.089799020460722107 -0.1166878231181251 0 0.091571038615629347 -0.090855501433584437 0 0.10701728474116939 -0.1015066690915859 0 0.105245266586261 -0.12733899077612529 0 0.10701728474116939 -0.1015066690915859 0 0.105245266586261 -0.12733899077612529 0 0.089799020460722107 -0.1166878231181251 0 0.10701728474116939 -0.1015066690915859 0 0.105245266586261 -0.12733899077612529 0 0.089799020460722107 -0.1166878231181251 0 0.105245266586261 -0.12733899077612529 0 0.12062720953860839 -0.1084549220977164 0 0.12763569286038981 -0.1239215236016821 0 0.105245266586261 -0.12733899077612529 0 0.12062720953860839 -0.1084549220977164 0 0.10701728474116939 -0.1015066690915859 0 0.12763569286038981 -0.1239215236016821 0 0.13330116367806449 -0.11029793403004549 0 0.14340996522301239 -0.12124420334520811 0 0.12062720953860839 -0.1084549220977164 0 0.12763569286038981 -0.1239215236016821 0 0.13330116367806449 -0.11029793403004549 0 0.13330116367806449 -0.11029793403004549 0 0.14340996522301239 -0.12124420334520811 0 0.14978272565487069 -0.10310953686720679 0 0.14340996522301239 -0.12124420334520811 0 0.14978272565487069 -0.10310953686720679 0 0.1586817010605748 -0.11623192624076061 0 0.14340996522301239 -0.12124420334520811 0 0.1586817010605748 -0.11623192624076061 0 0.1534333555455312 -0.1317103682192525 0 0.14978272565487069 -0.10310953686720679 0 0.13172789807192009 -0.095560150892111242 0 0.1443690014307723 -0.084538200426262894 0 0.13330116367806449 -0.11029793403004549 0 0.14978272565487069 -0.10310953686720679 0 0.13172789807192009 -0.095560150892111242 0 0.12062720953860839 -0.1084549220977164 0 0.13330116367806449 -0.11029793403004549 0 0.13172789807192009 -0.095560150892111242 0 0.13172789807192009 -0.095560150892111242 0 0.12658148048410231 -0.078640221884167999 0 0.1443690014307723 -0.084538200426262894 0 0.1188359512938451 -0.092104264194748681 0 0.13172789807192009 -0.095560150892111242 0 0.12658148048410231 -0.078640221884167999 0 0.12658148048410231 -0.078640221884167999 0 0.13672717089818831 -0.069116495141081272 0 0.12682729081650959 -0.059770452073072702 0 0.12658148048410231 -0.078640221884167999 0 0.13672717089818831 -0.069116495141081272 0 0.1443690014307723 -0.084538200426262894 0 0.13672717089818831 -0.069116495141081272 0 0.12682729081650959 -0.059770452073072702 0 0.14242385694963319 -0.058717113525783099 0 0.1495680050815138 -0.067224858844282642 0 0.1443690014307723 -0.084538200426262894 0 0.1589622963580451 -0.07694919113291207 0 0.13672717089818831 -0.069116495141081272 0 0.1495680050815138 -0.067224858844282642 0 0.1443690014307723 -0.084538200426262894 0 0.13672717089818831 -0.069116495141081272 0 0.1495680050815138 -0.067224858844282642 0 0.14242385694963319 -0.058717113525783099 0 0.14978272565487069 -0.10310953686720679 0 0.1443690014307723 -0.084538200426262894 0 0.16581268092036619 -0.091560209173861054 0 0.1443690014307723 -0.084538200426262894 0 0.16581268092036619 -0.091560209173861054 0 0.1589622963580451 -0.07694919113291207 0 0.16581268092036619 -0.091560209173861054 0 0.1589622963580451 -0.07694919113291207 0 0.17302886367066339 -0.076706537721211027 0 0.1495680050815138 -0.067224858844282642 0 0.1589622963580451 -0.07694919113291207 0 0.16445092348729501 -0.062224287675709013 0 0.1589622963580451 -0.07694919113291207 0 0.17302886367066339 -0.076706537721211027 0 0.16445092348729501 -0.062224287675709013 0 0.18580625904657691 -0.076123762063713588 0 0.17835504189367851 -0.060455118716527 0 0.17302886367066339 -0.076706537721211027 0 0.18580625904657691 -0.076123762063713588 0 0.17835504189367851 -0.060455118716527 0 0.17302886367066339 -0.076706537721211027 0 0.16445092348729501 -0.062224287675709013 0 0.17835504189367851 -0.060455118716527 0 0.18580625904657691 -0.076123762063713588 0 0.17835504189367851 -0.060455118716527 0 0.1880299261560851 -0.061682021799831642 0 0.17302886367066339 -0.076706537721211027 0 0.18580625904657691 -0.076123762063713588 0 0.18478598031801871 -0.092926657564543422 0 0.16581268092036619 -0.091560209173861054 0 0.17302886367066339 -0.076706537721211027 0 0.18478598031801871 -0.092926657564543422 0 0.18478598031801871 -0.092926657564543422 0 0.17234720870807169 -0.1084026165571562 0 0.1855951725596367 -0.116919402522132 0 0.16581268092036619 -0.091560209173861054 0 0.18478598031801871 -0.092926657564543422 0 0.17234720870807169 -0.1084026165571562 0 0.17234720870807169 -0.1084026165571562 0 0.1855951725596367 -0.116919402522132 0 0.17229662237054219 -0.13172792898251401 0 0.1855951725596367 -0.116919402522132 0 0.17229662237054219 -0.13172792898251401 0 0.17234720870807169 -0.1084026165571562 0 0.1586817010605748 -0.11623192624076061 0 0.17229662237054219 -0.13172792898251401 0 0.1586817010605748 -0.11623192624076061 0 0.17229662237054219 -0.13172792898251401 0 0.14978272565487069 -0.10310953686720679 0 0.16581268092036619 -0.091560209173861054 0 0.17234720870807169 -0.1084026165571562 0 0.14978272565487069 -0.10310953686720679 0 0.17234720870807169 -0.1084026165571562 0 0.1586817010605748 -0.11623192624076061 0 0.15308483325949879 -0.0073161646002937591 0 0.14796272979742839 -0.0076996317150342612 0 0.15936098325540399 -0.0025009147929627188 0 0.15308483325949879 -0.0073161646002937591 0 0.14796272979742839 -0.0076996317150342612 0 0.148961764407671 -0.020014072964650988 0 0.1351296703374181 0.001718252669329701 0 0.14796272979742839 -0.0076996317150342612 0 0.12858579313274959 -0.0093695092745615677 0 0.14796272979742839 -0.0076996317150342612 0 0.12858579313274959 -0.0093695092745615677 0 0.13219656472774069 -0.024713005748437641 0 0.1198239109624907 0.00097693126500603697 0 0.1351296703374181 0.001718252669329701 0 0.12858579313274959 -0.0093695092745615677 0 0.14796272979742839 -0.0076996317150342612 0 0.13219656472774069 -0.024713005748437641 0 0.14355892159194861 -0.03096411634274206 0 0.148961764407671 -0.020014072964650988 0 0.16290326665737531 -0.027962661405126901 0 0.15308483325949879 -0.0073161646002937591 0 0.148961764407671 -0.020014072964650988 0 0.16290326665737531 -0.027962661405126901 0 0.14796272979742839 -0.0076996317150342612 0 0.13219656472774069 -0.024713005748437641 0 0.148961764407671 -0.020014072964650988 0 0.13219656472774069 -0.024713005748437641 0 0.14355892159194861 -0.03096411634274206 0 0.148961764407671 -0.020014072964650988 0 0.14486527873694219 -0.04386655673909954 0 0.16297500676028759 -0.043481154748511892 0 0.16037743517583991 -0.037898999524315587 0 0.14355892159194861 -0.03096411634274206 0 0.14486527873694219 -0.04386655673909954 0 0.16290326665737531 -0.027962661405126901 0 0.14486527873694219 -0.04386655673909954 0 0.16037743517583991 -0.037898999524315587 0 0.16290326665737531 -0.027962661405126901 0 0.14486527873694219 -0.04386655673909954 0 0.16290326665737531 -0.027962661405126901 0 0.1164303996580516 -0.041726379781839643 0 0.13219656472774069 -0.024713005748437641 0 0.13065797003270471 -0.040499121826618079 0 0.14355892159194861 -0.03096411634274206 0 0.14486527873694219 -0.04386655673909954 0 0.13065797003270471 -0.040499121826618079 0 0.13219656472774069 -0.024713005748437641 0 0.14355892159194861 -0.03096411634274206 0 0.13065797003270471 -0.040499121826618079 0 0.14486527873694219 -0.04386655673909954 0 0.13065797003270471 -0.040499121826618079 0 0.1283775989289844 -0.049048737984897027 0 0.1180425444914714 -0.047556102882565399 0 0.13065797003270471 -0.040499121826618079 0 0.1283775989289844 -0.049048737984897027 0 0.14486527873694219 -0.04386655673909954 0 0.12682729081650959 -0.059770452073072702 0 0.14486527873694219 -0.04386655673909954 0 0.1283775989289844 -0.049048737984897027 0 0.12682729081650959 -0.059770452073072702 0 0.14486527873694219 -0.04386655673909954 0 0.12682729081650959 -0.059770452073072702 0 0.14242385694963319 -0.058717113525783099 0 0.12149491056729381 -0.053551456403129478 0 0.1283775989289844 -0.049048737984897027 0 0.12682729081650959 -0.059770452073072702 0 0.14486527873694219 -0.04386655673909954 0 0.15413153921501219 -0.05360720483137929 0 0.16297500676028759 -0.043481154748511892 0 0.14486527873694219 -0.04386655673909954 0 0.14242385694963319 -0.058717113525783099 0 0.15413153921501219 -0.05360720483137929 0 0.1495680050815138 -0.067224858844282642 0 0.15413153921501219 -0.05360720483137929 0 0.16445092348729501 -0.062224287675709013 0 0.1495680050815138 -0.067224858844282642 0 0.14242385694963319 -0.058717113525783099 0 0.15413153921501219 -0.05360720483137929 0 0.16445092348729501 -0.062224287675709013 0 0.17090382474078011 -0.044786475369340453 0 0.16311532355084371 -0.051024780656235148 0 0.16445092348729501 -0.062224287675709013 0 0.17090382474078011 -0.044786475369340453 0 0.16445092348729501 -0.062224287675709013 0 0.17835504189367851 -0.060455118716527 0 0.17090382474078011 -0.044786475369340453 0 0.15413153921501219 -0.05360720483137929 0 0.16311532355084371 -0.051024780656235148 0 0.16445092348729501 -0.062224287675709013 0 0.15413153921501219 -0.05360720483137929 0 0.16311532355084371 -0.051024780656235148 0 0.16297500676028759 -0.043481154748511892 0 0.17835504189367851 -0.060455118716527 0 0.17090382474078011 -0.044786475369340453 0 0.17835504189367851 -0.060455118716527 0 0.1794921245954203 -0.049357615672926201 0 0.17090382474078011 -0.044786475369340453 0 0.17835504189367851 -0.060455118716527 0 0.18588887396024639 -0.053205342496433217 0 0.1880299261560851 -0.061682021799831642 0 0.18588887396024639 -0.053205342496433217 0 0.18353147830973959 -0.046210764712802943 0 0.19161185600211991 -0.046689102814407059 0 0.17835504189367851 -0.060455118716527 0 0.18588887396024639 -0.053205342496433217 0 0.1794921245954203 -0.049357615672926201 0 0.18588887396024639 -0.053205342496433217 0 0.1794921245954203 -0.049357615672926201 0 0.18353147830973959 -0.046210764712802943 0 0.1794921245954203 -0.049357615672926201 0 0.1779999273203377 -0.043333903828285301 0 0.17090382474078011 -0.044786475369340453 0 0.1779999273203377 -0.043333903828285301 0 0.18496180411279009 -0.040039453390574249 0 0.17416976095197939 -0.035960866481442887 0 0.17416976095197939 -0.035960866481442887 0 0.17090382474078011 -0.044786475369340453 0 0.1779999273203377 -0.043333903828285301 0 0.17416976095197939 -0.035960866481442887 0 0.17090382474078011 -0.044786475369340453 0 0.1794921245954203 -0.049357615672926201 0 0.1779999273203377 -0.043333903828285301 0 0.18353147830973959 -0.046210764712802943 0 0.1779999273203377 -0.043333903828285301 0 0.18353147830973959 -0.046210764712802943 0 0.18496180411279009 -0.040039453390574249 0 0.18353147830973959 -0.046210764712802943 0 0.18496180411279009 -0.040039453390574249 0 0.19161185600211991 -0.046689102814407059 0 0.18496180411279009 -0.040039453390574249 0 0.17416976095197939 -0.035960866481442887 0 0.1833321320416236 -0.02980587007650724 0 0.17416976095197939 -0.035960866481442887 0 0.17762691581651399 -0.02661852335954416 0 0.17416976095197939 -0.035960866481442887 0 0.1833321320416236 -0.02980587007650724 0 0.17416976095197939 -0.035960866481442887 0 0.16851369400601329 -0.039760436633958202 0 0.17055219098385629 -0.0304814325651422 0 0.16851369400601329 -0.039760436633958202 0 0.16290326665737531 -0.027962661405126901 0 0.17055219098385629 -0.0304814325651422 0 0.16851369400601329 -0.039760436633958202 0 0.16290326665737531 -0.027962661405126901 0 0.17416976095197939 -0.035960866481442887 0 0.16851369400601329 -0.039760436633958202 0 0.16311532355084371 -0.051024780656235148 0 0.17090382474078011 -0.044786475369340453 0 0.16297500676028759 -0.043481154748511892 0 0.16851369400601329 -0.039760436633958202 0 0.17090382474078011 -0.044786475369340453 0 0.16851369400601329 -0.039760436633958202 0 0.17090382474078011 -0.044786475369340453 0 0.16297500676028759 -0.043481154748511892 0 0.17416976095197939 -0.035960866481442887 0 0.16851369400601329 -0.039760436633958202 0 0.17090382474078011 -0.044786475369340453 0 0.16851369400601329 -0.039760436633958202 0 0.16297500676028759 -0.043481154748511892 0 0.16851369400601329 -0.039760436633958202 0 0.16297500676028759 -0.043481154748511892 0 0.16037743517583991 -0.037898999524315587 0 0.16851369400601329 -0.039760436633958202 0 0.16037743517583991 -0.037898999524315587 0 0.16290326665737531 -0.027962661405126901 0 0.15308483325949879 -0.0073161646002937591 0 0.16290326665737531 -0.027962661405126901 0 0.15308483325949879 -0.0073161646002937591 0 0.16290326665737531 -0.027962661405126901 0 0.16146288675135759 -0.01758812679946594 0 0.16290326665737531 -0.027962661405126901 0 0.16146288675135759 -0.01758812679946594 0 0.1695473174873989 -0.022104674945638909 0 0.1695473174873989 -0.022104674945638909 0 0.17708047571895699 -0.01546277228013954 0 0.16872175024099989 -0.012849026789086299 0 0.16146288675135759 -0.01758812679946594 0 0.1695473174873989 -0.022104674945638909 0 0.16872175024099989 -0.012849026789086299 0 0.16146288675135759 -0.01758812679946594 0 0.1695473174873989 -0.022104674945638909 0 0.16290326665737531 -0.027962661405126901 0 0.1695473174873989 -0.022104674945638909 0 0.17055219098385629 -0.0304814325651422 0 0.16290326665737531 -0.027962661405126901 0 0.1695473174873989 -0.022104674945638909 0 0.1695473174873989 -0.022104674945638909 0 0.17762691581651399 -0.02661852335954416 0 0.17416976095197939 -0.035960866481442887 0 0.17762691581651399 -0.02661852335954416 0 0.1833321320416236 -0.02980587007650724 0 0.17416976095197939 -0.035960866481442887 0 0.17055219098385629 -0.0304814325651422 0 0.17762691581651399 -0.02661852335954416 0 0.1695473174873989 -0.022104674945638909 0 0.17055219098385629 -0.0304814325651422 0 0.17762691581651399 -0.02661852335954416 0 0.17762691581651399 -0.02661852335954416 0 0.1833321320416236 -0.02980587007650724 0 0.17762691581651399 -0.02661852335954416 0 0.1833321320416236 -0.02980587007650724 0 0.18858870466041791 -0.016657442001829639 0 0.1695473174873989 -0.022104674945638909 0 0.17762691581651399 -0.02661852335954416 0 0.17708047571895699 -0.01546277228013954 0 0.1695473174873989 -0.022104674945638909 0 0.17708047571895699 -0.01546277228013954 0 0.17762691581651399 -0.02661852335954416 0 0.1866740650559835 -0.0021702195426568541 0 0.18858870466041791 -0.016657442001829639 0 0.17762691581651399 -0.02661852335954416 0 0.1866740650559835 -0.0021702195426568541 0 0.17708047571895699 -0.01546277228013954 0 0.1866740650559835 -0.0021702195426568541 0 0.17469492470558631 -0.006088019827826233 0 0.17708047571895699 -0.01546277228013954 0 0.17469492470558631 -0.006088019827826233 0 0.16872175024099989 -0.012849026789086299 0 0.17762691581651399 -0.02661852335954416 0 0.17708047571895699 -0.01546277228013954 0 0.1866740650559835 -0.0021702195426568541 0 0.17375813793030459 0.0043946143844226342 0 0.17469492470558631 -0.006088019827826233 0 0.1672401945816864 -0.0043526949116711048 0 0.17375813793030459 0.0043946143844226342 0 0.1866740650559835 -0.0021702195426568541 0 0.17469492470558631 -0.006088019827826233 0 0.16564291486384611 0.0018645766637211451 0 0.1672401945816864 -0.0043526949116711048 0 0.15936098325540399 -0.0025009147929627188 0 0.17469492470558631 -0.006088019827826233 0 0.1672401945816864 -0.0043526949116711048 0 0.16872175024099989 -0.012849026789086299 0 0.163728894867116 0.0093137423183691226 0 0.14796272979742839 -0.0076996317150342612 0 0.15936098325540399 -0.0025009147929627188 0 0.1672401945816864 -0.0043526949116711048 0 0.16872175024099989 -0.012849026789086299 0 0.16294256139730889 -0.0088840778904281121 0 0.16146288675135759 -0.01758812679946594 0 0.16872175024099989 -0.012849026789086299 0 0.16294256139730889 -0.0088840778904281121 0 0.16146288675135759 -0.01758812679946594 0 0.16294256139730889 -0.0088840778904281121 0 0.15921281616589231 -0.0090723210207876298 0 0.15308483325949879 -0.0073161646002937591 0 0.16146288675135759 -0.01758812679946594 0 0.15921281616589231 -0.0090723210207876298 0 0.1672401945816864 -0.0043526949116711048 0 0.16294256139730889 -0.0088840778904281121 0 0.15936098325540399 -0.0025009147929627188 0 0.15308483325949879 -0.0073161646002937591 0 0.15921281616589231 -0.0090723210207876298 0 0.15936098325540399 -0.0025009147929627188 0 0.16294256139730889 -0.0088840778904281121 0 0.15921281616589231 -0.0090723210207876298 0 0.15936098325540399 -0.0025009147929627188 0 0.21687420696145621 -0.0072733456321549686 0 0.20206600855890791 -0.0054183217517912224 0 0.20010316950153981 -0.018539607854330922 0 0.21687420696145621 -0.0072733456321549686 0 0.20010316950153981 -0.018539607854330922 0 0.21687420696145621 -0.0072733456321549686 0 0.20010316950153981 -0.018539607854330922 0 0.22034205250037209 -0.020701080959910051 0 0.21080235957480761 0.0029961693591693392 0 0.21687420696145621 -0.0072733456321549686 0 0.20206600855890791 -0.0054183217517912224 0 0.1997982568441673 0.0073950566886211424 0 0.1866740650559835 -0.0021702195426568541 0 0.20206600855890791 -0.0054183217517912224 0 0.1866740650559835 -0.0021702195426568541 0 0.20206600855890791 -0.0054183217517912224 0 0.18858870466041791 -0.016657442001829639 0 0.20206600855890791 -0.0054183217517912224 0 0.20010316950153981 -0.018539607854330922 0 0.18858870466041791 -0.016657442001829639 0 0.1833321320416236 -0.02980587007650724 0 0.20010316950153981 -0.018539607854330922 0 0.1833321320416236 -0.02980587007650724 0 0.20010316950153981 -0.018539607854330922 0 0.19871144617188319 -0.038397868077651241 0 0.1833321320416236 -0.02980587007650724 0 0.20010316950153981 -0.018539607854330922 0 0.18858870466041791 -0.016657442001829639 0 0.20010316950153981 -0.018539607854330922 0 0.21282180689499131 -0.031556158901020322 0 0.22034205250037209 -0.020701080959910051 0 0.20010316950153981 -0.018539607854330922 0 0.21282180689499131 -0.031556158901020322 0 0.19871144617188319 -0.038397868077651241 0 0.19871144617188319 -0.038397868077651241 0 0.20148323990130601 -0.048647283705634183 0 0.2140907603021423 -0.046989866078796141 0 0.19871144617188319 -0.038397868077651241 0 0.2140907603021423 -0.046989866078796141 0 0.21282180689499131 -0.031556158901020322 0 0.19871144617188319 -0.038397868077651241 0 0.2140907603021423 -0.046989866078796141 0 0.18496180411279009 -0.040039453390574249 0 0.1833321320416236 -0.02980587007650724 0 0.19871144617188319 -0.038397868077651241 0 0.1833321320416236 -0.02980587007650724 0 0.19871144617188319 -0.038397868077651241 0 0.18496180411279009 -0.040039453390574249 0 0.19871144617188319 -0.038397868077651241 0 0.19161185600211991 -0.046689102814407059 0 0.19871144617188319 -0.038397868077651241 0 0.19161185600211991 -0.046689102814407059 0 0.20148323990130601 -0.048647283705634183 0 0.20148323990130601 -0.048647283705634183 0 0.19431281680443471 -0.054837431262104469 0 0.20262301395827301 -0.056691902130985711 0 0.19161185600211991 -0.046689102814407059 0 0.20148323990130601 -0.048647283705634183 0 0.19431281680443471 -0.054837431262104469 0 0.18588887396024639 -0.053205342496433217 0 0.19161185600211991 -0.046689102814407059 0 0.19431281680443471 -0.054837431262104469 0 0.18588887396024639 -0.053205342496433217 0 0.1880299261560851 -0.061682021799831642 0 0.19431281680443471 -0.054837431262104469 0 0.1880299261560851 -0.061682021799831642 0 0.19431281680443471 -0.054837431262104469 0 0.19612271461321931 -0.06534153843109658 0 0.19431281680443471 -0.054837431262104469 0 0.20262301395827301 -0.056691902130985711 0 0.19612271461321931 -0.06534153843109658 0 0.20262301395827301 -0.056691902130985711 0 0.2096958637069356 -0.058619945429651321 0 0.20946041680114269 -0.050428866240390467 0 0.20262301395827301 -0.056691902130985711 0 0.2096958637069356 -0.058619945429651321 0 0.20559077967434061 -0.06560480804275208 0 0.20148323990130601 -0.048647283705634183 0 0.20262301395827301 -0.056691902130985711 0 0.20946041680114269 -0.050428866240390467 0 0.20148323990130601 -0.048647283705634183 0 0.20946041680114269 -0.050428866240390467 0 0.2140907603021423 -0.046989866078796141 0 0.20946041680114269 -0.050428866240390467 0 0.2140907603021423 -0.046989866078796141 0 0.2171499081711952 -0.05609659088283632 0 0.20946041680114269 -0.050428866240390467 0 0.2140907603021423 -0.046989866078796141 0 0.2096958637069356 -0.058619945429651321 0 0.20946041680114269 -0.050428866240390467 0 0.2171499081711952 -0.05609659088283632 0 0.2096958637069356 -0.058619945429651321 0 0.2171499081711952 -0.05609659088283632 0 0.2142314720154031 -0.064132746938433766 0 0.2171499081711952 -0.05609659088283632 0 0.22250243048483209 -0.062004999756156913 0 0.2142314720154031 -0.064132746938433766 0 0.2140907603021423 -0.046989866078796141 0 0.23599001059357849 -0.059224372321199627 0 0.2140907603021423 -0.046989866078796141 0 0.2171499081711952 -0.05609659088283632 0 0.23599001059357849 -0.059224372321199627 0 0.2140907603021423 -0.046989866078796141 0 0.2266145192755786 -0.050289486023601927 0 0.23599001059357849 -0.059224372321199627 0 0.2171499081711952 -0.05609659088283632 0 0.22250243048483209 -0.062004999756156913 0 0.23599001059357849 -0.059224372321199627 0 0.2266145192755786 -0.050289486023601927 0 0.23439333654200151 -0.053206085073990987 0 0.2352598165130465 -0.049680711383500442 0 0.2266145192755786 -0.050289486023601927 0 0.23599001059357849 -0.059224372321199627 0 0.23439333654200151 -0.053206085073990987 0 0.2266145192755786 -0.050289486023601927 0 0.2352598165130465 -0.049680711383500442 0 0.2362428407030798 -0.043738048625319881 0 0.22250243048483209 -0.062004999756156913 0 0.23599001059357849 -0.059224372321199627 0 0.22906953529660021 -0.066036742676598537 0 0.23599001059357849 -0.059224372321199627 0 0.24128214817574201 -0.061151615533331927 0 0.23521235793477621 -0.065629845348925603 0 0.23599001059357849 -0.059224372321199627 0 0.23902634085914171 -0.05398796078797205 0 0.23439333654200151 -0.053206085073990987 0 0.23599001059357849 -0.059224372321199627 0 0.24128214817574201 -0.061151615533331927 0 0.23902634085914171 -0.05398796078797205 0 0.24128214817574201 -0.061151615533331927 0 0.2485276051359292 -0.05560593421255005 0 0.23902634085914171 -0.05398796078797205 0 0.24128214817574201 -0.061151615533331927 0 0.2485276051359292 -0.05560593421255005 0 0.248532707702871 -0.06304514366047409 0 0.25363781468162039 -0.04257939084088095 0 0.2485276051359292 -0.05560593421255005 0 0.23902634085914171 -0.05398796078797205 0 0.23902634085914171 -0.05398796078797205 0 0.2352598165130465 -0.049680711383500442 0 0.2362428407030798 -0.043738048625319881 0 0.23902634085914171 -0.05398796078797205 0 0.23439333654200151 -0.053206085073990987 0 0.2352598165130465 -0.049680711383500442 0 0.23902634085914171 -0.05398796078797205 0 0.24079311360855141 -0.034979027759207713 0 0.2480614548289399 -0.02608397303360312 0 0.25363781468162039 -0.04257939084088095 0 0.23902634085914171 -0.05398796078797205 0 0.2480614548289399 -0.02608397303360312 0 0.23902634085914171 -0.05398796078797205 0 0.2480614548289399 -0.02608397303360312 0 0.23902634085914171 -0.05398796078797205 0 0.2362428407030798 -0.043738048625319881 0 0.24079311360855141 -0.034979027759207713 0 0.2362428407030798 -0.043738048625319881 0 0.24079311360855141 -0.034979027759207713 0 0.23049184789696819 -0.034808622316483573 0 0.2140907603021423 -0.046989866078796141 0 0.2266145192755786 -0.050289486023601927 0 0.23049184789696819 -0.034808622316483573 0 0.2140907603021423 -0.046989866078796141 0 0.23049184789696819 -0.034808622316483573 0 0.21282180689499131 -0.031556158901020322 0 0.2140907603021423 -0.046989866078796141 0 0.23049184789696819 -0.034808622316483573 0 0.2266145192755786 -0.050289486023601927 0 0.2362428407030798 -0.043738048625319881 0 0.23049184789696819 -0.034808622316483573 0 0.21282180689499131 -0.031556158901020322 0 0.23049184789696819 -0.034808622316483573 0 0.22034205250037209 -0.020701080959910051 0 0.22034205250037209 -0.020701080959910051 0 0.2329416573990844 -0.02097508856588939 0 0.22881962634819339 -0.01105366248958113 0 0.23049184789696819 -0.034808622316483573 0 0.22034205250037209 -0.020701080959910051 0 0.2329416573990844 -0.02097508856588939 0 0.23049184789696819 -0.034808622316483573 0 0.24689293549179381 -0.022627378554170529 0 0.23049184789696819 -0.034808622316483573 0 0.2329416573990844 -0.02097508856588939 0 0.24689293549179381 -0.022627378554170529 0 0.24079311360855141 -0.034979027759207713 0 0.23049184789696819 -0.034808622316483573 0 0.24689293549179381 -0.022627378554170529 0 0.24079311360855141 -0.034979027759207713 0 0.2480614548289399 -0.02608397303360312 0 0.24689293549179381 -0.022627378554170529 0 0.2480614548289399 -0.02608397303360312 0 0.24689293549179381 -0.022627378554170529 0 0.2499050385453562 -0.02039026096544341 0 0.24689293549179381 -0.022627378554170529 0 0.2457154475097896 -0.007694591978883285 0 0.24689293549179381 -0.022627378554170529 0 0.23911340258799441 -0.016504136007379919 0 0.24056100062349309 -0.0091719605290449761 0 0.2480614548289399 -0.02608397303360312 0 0.2499050385453562 -0.02039026096544341 0 0.24689293549179381 -0.022627378554170529 0 0.2480614548289399 -0.02608397303360312 0 0.2499050385453562 -0.02039026096544341 0 0.2499050385453562 -0.02039026096544341 0 0.24689293549179381 -0.022627378554170529 0 0.2329416573990844 -0.02097508856588939 0 0.23911340258799441 -0.016504136007379919 0 0.2352987969580517 -0.01305140962770991 0 0.2329416573990844 -0.02097508856588939 0 0.24689293549179381 -0.022627378554170529 0 0.23911340258799441 -0.016504136007379919 0 0.23742980598779839 0.0053654840043204227 0 0.24689293549179381 -0.022627378554170529 0 0.2457154475097896 -0.007694591978883285 0 0.23742980598779839 0.0053654840043204227 0 0.24689293549179381 -0.022627378554170529 0 0.23742980598779839 0.0053654840043204227 0 0.24689293549179381 -0.022627378554170529 0 0.24056100062349309 -0.0091719605290449761 0 0.2499050385453562 -0.02039026096544341 0 0.2498818982516218 -0.002271085465629063 0 0.2457154475097896 -0.007694591978883285 0 0.2352987969580517 -0.01305140962770991 0 0.24056100062349309 -0.0091719605290449761 0 0.2350582978314931 -0.0075522005466541519 0 0.23911340258799441 -0.016504136007379919 0 0.2352987969580517 -0.01305140962770991 0 0.24056100062349309 -0.0091719605290449761 0 0.23742980598779839 0.0053654840043204227 0 0.24444698731800479 0.0019398011864187759 0 0.2457154475097896 -0.007694591978883285 0 0.24444698731800479 0.0019398011864187759 0 0.2498818982516218 -0.002271085465629063 0 0.2457154475097896 -0.007694591978883285 0 0.23742980598779839 0.0053654840043204227 0 0.24056100062349309 -0.0091719605290449761 0 0.23755874239717911 -0.0021774944839035399 0 0.24056100062349309 -0.0091719605290449761 0 0.2350582978314931 -0.0075522005466541519 0 0.23755874239717911 -0.0021774944839035399 0 0.2350582978314931 -0.0075522005466541519 0 0.23755874239717911 -0.0021774944839035399 0 0.231198015316505 -0.0037995837078741539 0 0.23523197393933601 0.001266284315027872 0 0.23755874239717911 -0.0021774944839035399 0 0.231198015316505 -0.0037995837078741539 0 0.23364524442137249 0.0039929165900209861 0 0.21687420696145621 -0.0072733456321549686 0 0.231198015316505 -0.0037995837078741539 0 0.23364524442137249 0.0039929165900209861 0 0.21687420696145621 -0.0072733456321549686 0 0.2350582978314931 -0.0075522005466541519 0 0.231198015316505 -0.0037995837078741539 0 0.22881962634819339 -0.01105366248958113 0 0.2352987969580517 -0.01305140962770991 0 0.2350582978314931 -0.0075522005466541519 0 0.22881962634819339 -0.01105366248958113 0 0.2329416573990844 -0.02097508856588939 0 0.2352987969580517 -0.01305140962770991 0 0.22881962634819339 -0.01105366248958113 0 0.21687420696145621 -0.0072733456321549686 0 0.22034205250037209 -0.020701080959910051 0 0.22881962634819339 -0.01105366248958113 0 0.21687420696145621 -0.0072733456321549686 0 0.231198015316505 -0.0037995837078741539 0 0.22881962634819339 -0.01105366248958113 0 0.21111626136421971 -0.11320775308575021 0 0.20819667473527889 -0.091168078585727827 0 0.22546924040817901 -0.10216809836787991 0 0.21111626136421971 -0.11320775308575021 0 0.19889372274873121 -0.10211087606175 0 0.20819667473527889 -0.091168078585727827 0 0.21111626136421971 -0.11320775308575021 0 0.23019808496775629 -0.1206322272860504 0 0.20718758653278699 -0.13236048404446829 0 0.1855951725596367 -0.116919402522132 0 0.21111626136421971 -0.11320775308575021 0 0.19889372274873121 -0.10211087606175 0 0.1855951725596367 -0.116919402522132 0 0.21111626136421971 -0.11320775308575021 0 0.20718758653278699 -0.13236048404446829 0 0.1855951725596367 -0.116919402522132 0 0.19889372274873121 -0.10211087606175 0 0.18478598031801871 -0.092926657564543422 0 0.1855951725596367 -0.116919402522132 0 0.19889372274873121 -0.10211087606175 0 0.18478598031801871 -0.092926657564543422 0 0.19889372274873121 -0.10211087606175 0 0.20819667473527889 -0.091168078585727827 0 0.18478598031801871 -0.092926657564543422 0 0.20093226818463061 -0.077284083893171332 0 0.20819667473527889 -0.091168078585727827 0 0.18580625904657691 -0.076123762063713588 0 0.18478598031801871 -0.092926657564543422 0 0.20093226818463061 -0.077284083893171332 0 0.18580625904657691 -0.076123762063713588 0 0.1880299261560851 -0.061682021799831642 0 0.19612271461321931 -0.06534153843109658 0 0.18580625904657691 -0.076123762063713588 0 0.20093226818463061 -0.077284083893171332 0 0.19612271461321931 -0.06534153843109658 0 0.20093226818463061 -0.077284083893171332 0 0.19612271461321931 -0.06534153843109658 0 0.20559077967434061 -0.06560480804275208 0 0.20262301395827301 -0.056691902130985711 0 0.19612271461321931 -0.06534153843109658 0 0.20559077967434061 -0.06560480804275208 0 0.2096958637069356 -0.058619945429651321 0 0.20559077967434061 -0.06560480804275208 0 0.2142314720154031 -0.064132746938433766 0 0.20559077967434061 -0.06560480804275208 0 0.2113117056023123 -0.071370527541232923 0 0.2142314720154031 -0.064132746938433766 0 0.20093226818463061 -0.077284083893171332 0 0.20559077967434061 -0.06560480804275208 0 0.2113117056023123 -0.071370527541232923 0 0.20093226818463061 -0.077284083893171332 0 0.2113117056023123 -0.071370527541232923 0 0.21492792386660109 -0.079365919100106777 0 0.2113117056023123 -0.071370527541232923 0 0.21492792386660109 -0.079365919100106777 0 0.22087608427058611 -0.070465079731700686 0 0.2113117056023123 -0.071370527541232923 0 0.2142314720154031 -0.064132746938433766 0 0.22087608427058611 -0.070465079731700686 0 0.20819667473527889 -0.091168078585727827 0 0.21492792386660109 -0.079365919100106777 0 0.2256842540070968 -0.086456879549701784 0 0.20093226818463061 -0.077284083893171332 0 0.20819667473527889 -0.091168078585727827 0 0.21492792386660109 -0.079365919100106777 0 0.20819667473527889 -0.091168078585727827 0 0.2256842540070968 -0.086456879549701784 0 0.22546924040817901 -0.10216809836787991 0 0.21492792386660109 -0.079365919100106777 0 0.2256842540070968 -0.086456879549701784 0 0.22292347569366819 -0.077764573801782061 0 0.2256842540070968 -0.086456879549701784 0 0.22292347569366819 -0.077764573801782061 0 0.23052075665662161 -0.07390214087616824 0 0.2256842540070968 -0.086456879549701784 0 0.23052075665662161 -0.07390214087616824 0 0.24022237252961259 -0.084152186311191965 0 0.2256842540070968 -0.086456879549701784 0 0.24022237252961259 -0.084152186311191965 0 0.2357101540522121 -0.095348106406373423 0 0.22250243048483209 -0.062004999756156913 0 0.22087608427058611 -0.070465079731700686 0 0.22906953529660021 -0.066036742676598537 0 0.22250243048483209 -0.062004999756156913 0 0.2142314720154031 -0.064132746938433766 0 0.22087608427058611 -0.070465079731700686 0 0.22087608427058611 -0.070465079731700686 0 0.22292347569366819 -0.077764573801782061 0 0.23052075665662161 -0.07390214087616824 0 0.21492792386660109 -0.079365919100106777 0 0.22087608427058611 -0.070465079731700686 0 0.22292347569366819 -0.077764573801782061 0 0.22087608427058611 -0.070465079731700686 0 0.23052075665662161 -0.07390214087616824 0 0.22906953529660021 -0.066036742676598537 0 0.23052075665662161 -0.07390214087616824 0 0.22906953529660021 -0.066036742676598537 0 0.23521235793477621 -0.065629845348925603 0 0.23599001059357849 -0.059224372321199627 0 0.22906953529660021 -0.066036742676598537 0 0.23521235793477621 -0.065629845348925603 0 0.24128214817574201 -0.061151615533331927 0 0.24072084784837011 -0.069832774114012341 0 0.23521235793477621 -0.065629845348925603 0 0.23052075665662161 -0.07390214087616824 0 0.24072084784837011 -0.069832774114012341 0 0.23521235793477621 -0.065629845348925603 0 0.23052075665662161 -0.07390214087616824 0 0.24072084784837011 -0.069832774114012341 0 0.24022237252961259 -0.084152186311191965 0 0.25094003035454532 -0.074772755413751724 0 0.24072084784837011 -0.069832774114012341 0 0.24022237252961259 -0.084152186311191965 0 0.25094003035454532 -0.074772755413751724 0 0.24072084784837011 -0.069832774114012341 0 0.248532707702871 -0.06304514366047409 0 0.24128214817574201 -0.061151615533331927 0 0.24072084784837011 -0.069832774114012341 0 0.248532707702871 -0.06304514366047409 0 0.24022237252961259 -0.084152186311191965 0 0.2480933401032667 -0.096517631092886094 0 0.2357101540522121 -0.095348106406373423 0 0.25214254427357802 -0.08680170685222352 0 0.25094003035454532 -0.074772755413751724 0 0.24022237252961259 -0.084152186311191965 0 0.25214254427357802 -0.08680170685222352 0 0.24022237252961259 -0.084152186311191965 0 0.2480933401032667 -0.096517631092886094 0 0.25442911735812762 -0.1067506793913659 0 0.2480933401032667 -0.096517631092886094 0 0.24092488263475731 -0.1068690967054141 0 0.2480933401032667 -0.096517631092886094 0 0.24092488263475731 -0.1068690967054141 0 0.2357101540522121 -0.095348106406373423 0 0.24092488263475731 -0.1068690967054141 0 0.2357101540522121 -0.095348106406373423 0 0.22546924040817901 -0.10216809836787991 0 0.2256842540070968 -0.086456879549701784 0 0.2357101540522121 -0.095348106406373423 0 0.22546924040817901 -0.10216809836787991 0 0.21111626136421971 -0.11320775308575021 0 0.22546924040817901 -0.10216809836787991 0 0.23019808496775629 -0.1206322272860504 0 0.24092488263475731 -0.1068690967054141 0 0.22546924040817901 -0.10216809836787991 0 0.23019808496775629 -0.1206322272860504 0 0.25156957390371798 -0.1189836267597288 0 0.24092488263475731 -0.1068690967054141 0 0.23019808496775629 -0.1206322272860504 0 0.25442911735812762 -0.1067506793913659 0 0.25156957390371798 -0.1189836267597288 0 0.24092488263475731 -0.1068690967054141 0 0.25156957390371798 -0.1189836267597288 0 0.23019808496775629 -0.1206322272860504 0 0.24625891810501091 -0.13582118180672781 0 0.23019808496775629 -0.1206322272860504 0 0.24625891810501091 -0.13582118180672781 0 0.22747019995360751 -0.13992796101504559 0 0.26225279893203779 -0.15319972508270699 0 0.24625891810501091 -0.13582118180672781 0 0.23794199051222639 -0.1560699901639446 0 0.24625891810501091 -0.13582118180672781 0 0.23794199051222639 -0.1560699901639446 0 0.22747019995360751 -0.13992796101504559 0 0.23794199051222639 -0.1560699901639446 0 0.22747019995360751 -0.13992796101504559 0 0.21576441965025669 -0.15475592177403691 0 0.23019808496775629 -0.1206322272860504 0 0.22747019995360751 -0.13992796101504559 0 0.20718758653278699 -0.13236048404446829 0 0.22747019995360751 -0.13992796101504559 0 0.20718758653278699 -0.13236048404446829 0 0.21576441965025669 -0.15475592177403691 0 0.20718758653278699 -0.13236048404446829 0 0.21576441965025669 -0.15475592177403691 0 0.19014459317376761 -0.1520418329856929 0 0.20718758653278699 -0.13236048404446829 0 0.19014459317376761 -0.1520418329856929 0 0.18966720210242849 -0.13395175455600461 0 0.1855951725596367 -0.116919402522132 0 0.20718758653278699 -0.13236048404446829 0 0.18966720210242849 -0.13395175455600461 0 0.19018790770785049 -0.17278719497348269 0 0.20799256397699301 -0.1723557369888718 0 0.19570920936875491 -0.18971962447500701 0 0.19014459317376761 -0.1520418329856929 0 0.19018790770785049 -0.17278719497348269 0 0.20799256397699301 -0.1723557369888718 0 0.19014459317376761 -0.1520418329856929 0 0.20799256397699301 -0.1723557369888718 0 0.21576441965025669 -0.15475592177403691 0 0.20799256397699301 -0.1723557369888718 0 0.22564364415857249 -0.17058832430793081 0 0.21576441965025669 -0.15475592177403691 0 0.19014459317376761 -0.1520418329856929 0 0.20799256397699301 -0.1723557369888718 0 0.20799256397699301 -0.1723557369888718 0 0.2258405347802184 -0.19266964099205081 0 0.20799256397699301 -0.1723557369888718 0 0.2258405347802184 -0.19266964099205081 0 0.2111268477108601 -0.18759957068041791 0 0.20799256397699301 -0.1723557369888718 0 0.2111268477108601 -0.18759957068041791 0 0.19570920936875491 -0.18971962447500701 0 0.22564364415857249 -0.17058832430793081 0 0.24067871187316811 -0.17709033162075011 0 0.2258405347802184 -0.19266964099205081 0 0.20799256397699301 -0.1723557369888718 0 0.22564364415857249 -0.17058832430793081 0 0.2258405347802184 -0.19266964099205081 0 0.23794199051222639 -0.1560699901639446 0 0.21576441965025669 -0.15475592177403691 0 0.22564364415857249 -0.17058832430793081 0 0.23794199051222639 -0.1560699901639446 0 0.22564364415857249 -0.17058832430793081 0 0.24067871187316811 -0.17709033162075011 0 0.25029832467556129 -0.16606009898348689 0 0.23794199051222639 -0.1560699901639446 0 0.24067871187316811 -0.17709033162075011 0 0.26031979738481281 -0.17788034906654579 0 0.24067871187316811 -0.17709033162075011 0 0.2477271522608325 -0.1936441211134905 0 0.2477271522608325 -0.1936441211134905 0 0.2366264550146735 -0.2043708566117321 0 0.2258405347802184 -0.19266964099205081 0 0.24067871187316811 -0.17709033162075011 0 0.2477271522608325 -0.1936441211134905 0 0.2258405347802184 -0.19266964099205081 0 0.2477271522608325 -0.1936441211134905 0 0.2493673996676247 -0.2083853397490959 0 0.2366264550146735 -0.2043708566117321 0 0.2493673996676247 -0.2083853397490959 0 0.2366264550146735 -0.2043708566117321 0 0.24233018509292731 -0.22186774802436959 0 0.219019697230841 -0.2057936862496883 0 0.24233018509292731 -0.22186774802436959 0 0.219019697230841 -0.2057936862496883 0 0.24233018509292731 -0.22186774802436959 0 0.2146026768556871 -0.22720108682498669 0 0.2366264550146735 -0.2043708566117321 0 0.219019697230841 -0.2057936862496883 0 0.24233018509292731 -0.22186774802436959 0 0.2366264550146735 -0.2043708566117321 0 0.219019697230841 -0.2057936862496883 0 0.2258405347802184 -0.19266964099205081 0 0.24459971964430779 -0.24469171935207509 0 0.24233018509292731 -0.22186774802436959 0 0.2244204392317353 -0.24338583917491921 0 0.24233018509292731 -0.22186774802436959 0 0.2244204392317353 -0.24338583917491921 0 0.2146026768556871 -0.22720108682498669 0 0.2244204392317353 -0.24338583917491921 0 0.20806627738608871 -0.2462272448888235 0 0.2146026768556871 -0.22720108682498669 0 0.20806627738608871 -0.2462272448888235 0 0.2146026768556871 -0.22720108682498669 0 0.19874771418602949 -0.23241400820593561 0 0.2146026768556871 -0.22720108682498669 0 0.19874771418602949 -0.23241400820593561 0 0.19883824643612921 -0.21514671621590981 0 0.19874771418602949 -0.23241400820593561 0 0.19883824643612921 -0.21514671621590981 0 0.18303937409325649 -0.22809289489943441 0 0.19883824643612921 -0.21514671621590981 0 0.18182889197159899 -0.21507748297835219 0 0.18303937409325649 -0.22809289489943441 0 0.1921931639271513 -0.25129532114029068 0 0.19874771418602949 -0.23241400820593561 0 0.1865971562986003 -0.2465762749801732 0 0.19874771418602949 -0.23241400820593561 0 0.18079086666007449 -0.244465379718693 0 0.1921931639271513 -0.25129532114029068 0 0.20806627738608871 -0.2462272448888235 0 0.19874771418602949 -0.23241400820593561 0 0.19874771418602949 -0.23241400820593561 0 0.1865971562986003 -0.2465762749801732 0 0.18079086666007449 -0.244465379718693 0 0.19874771418602949 -0.23241400820593561 0 0.18079086666007449 -0.244465379718693 0 0.18303937409325649 -0.22809289489943441 0 0.219019697230841 -0.2057936862496883 0 0.2258405347802184 -0.19266964099205081 0 0.2111268477108601 -0.18759957068041791 0 0.219019697230841 -0.2057936862496883 0 0.19570920936875491 -0.18971962447500701 0 0.219019697230841 -0.2057936862496883 0 0.2111268477108601 -0.18759957068041791 0 0.19570920936875491 -0.18971962447500701 0 0.219019697230841 -0.2057936862496883 0 0.19883824643612921 -0.21514671621590981 0 0.19570920936875491 -0.18971962447500701 0 0.219019697230841 -0.2057936862496883 0 0.2146026768556871 -0.22720108682498669 0 0.19883824643612921 -0.21514671621590981 0 0.19883824643612921 -0.21514671621590981 0 0.1877041142997467 -0.20627596859045269 0 0.18182889197159899 -0.21507748297835219 0 0.19883824643612921 -0.21514671621590981 0 0.1877041142997467 -0.20627596859045269 0 0.19570920936875491 -0.18971962447500701 0 0.19570920936875491 -0.18971962447500701 0 0.1728921650066991 -0.20239176292051961 0 0.1723987215066688 -0.1736455627003258 0 0.1877041142997467 -0.20627596859045269 0 0.19570920936875491 -0.18971962447500701 0 0.1728921650066991 -0.20239176292051961 0 0.1877041142997467 -0.20627596859045269 0 0.1728921650066991 -0.20239176292051961 0 0.18182889197159899 -0.21507748297835219 0 0.1728921650066991 -0.20239176292051961 0 0.18182889197159899 -0.21507748297835219 0 0.16945489825779059 -0.21909923129923869 0 0.15832762377030801 -0.21870344740697081 0 0.15829479345189471 -0.19399512407421299 0 0.16945489825779059 -0.21909923129923869 0 0.1728921650066991 -0.20239176292051961 0 0.15829479345189471 -0.19399512407421299 0 0.16945489825779059 -0.21909923129923869 0 0.15829479345189471 -0.19399512407421299 0 0.16945489825779059 -0.21909923129923869 0 0.1728921650066991 -0.20239176292051961 0 0.15829479345189471 -0.19399512407421299 0 0.1723987215066688 -0.1736455627003258 0 0.17453618050183359 -0.24387777019105419 0 0.1777066761820576 -0.24653527117447149 0 0.16972168558007919 -0.24595602287593349 0 0.17453618050183359 -0.24387777019105419 0 0.1767647626603952 -0.24376851075905689 0 0.17395159758480211 -0.23925127595475509 0 0.17453618050183359 -0.24387777019105419 0 0.17395159758480211 -0.23925127595475509 0 0.16972168558007919 -0.24595602287593349 0 0.1767647626603952 -0.24376851075905689 0 0.18079086666007449 -0.244465379718693 0 0.17395159758480211 -0.23925127595475509 0 0.1767647626603952 -0.24376851075905689 0 0.1777066761820576 -0.24653527117447149 0 0.18079086666007449 -0.244465379718693 0 0.17453618050183359 -0.24387777019105419 0 0.1767647626603952 -0.24376851075905689 0 0.1777066761820576 -0.24653527117447149 0 0.1777066761820576 -0.24653527117447149 0 0.18079086666007449 -0.244465379718693 0 0.18324522649797029 -0.25249941636546303 0 0.18091931253471741 -0.24989865598488301 0 0.1865971562986003 -0.2465762749801732 0 0.1777066761820576 -0.24653527117447149 0 0.1865971562986003 -0.2465762749801732 0 0.18079086666007449 -0.244465379718693 0 0.1777066761820576 -0.24653527117447149 0 0.18091931253471741 -0.24989865598488301 0 0.1865971562986003 -0.2465762749801732 0 0.18079086666007449 -0.244465379718693 0 0.18303937409325649 -0.22809289489943441 0 0.16945489825779059 -0.21909923129923869 0 0.18079086666007449 -0.244465379718693 0 0.16945489825779059 -0.21909923129923869 0 0.18079086666007449 -0.244465379718693 0 0.17395159758480211 -0.23925127595475509 0 0.16945489825779059 -0.21909923129923869 0 0.18182889197159899 -0.21507748297835219 0 0.18303937409325649 -0.22809289489943441 0 0.16945489825779059 -0.21909923129923869 0 0.17395159758480211 -0.23925127595475509 0 0.16945489825779059 -0.21909923129923869 0 0.16735930362016241 -0.23270310830507759 0 0.15832762377030801 -0.21870344740697081 0 0.16945489825779059 -0.21909923129923869 0 0.163130843716257 -0.22797961337528261 0 0.15832762377030801 -0.21870344740697081 0 0.15904640865175021 -0.2292974917929268 0 0.163130843716257 -0.22797961337528261 0 0.15832762377030801 -0.21870344740697081 0 0.15904640865175021 -0.2292974917929268 0 0.15305284068225641 -0.23322876822271221 0 0.15904640865175021 -0.2292974917929268 0 0.16167432643817931 -0.2372781381667417 0 0.15305284068225641 -0.23322876822271221 0 0.163130843716257 -0.22797961337528261 0 0.16735930362016241 -0.23270310830507759 0 0.16167432643817931 -0.2372781381667417 0 0.15904640865175021 -0.2292974917929268 0 0.163130843716257 -0.22797961337528261 0 0.16167432643817931 -0.2372781381667417 0 0.16945489825779059 -0.21909923129923869 0 0.163130843716257 -0.22797961337528261 0 0.16735930362016241 -0.23270310830507759 0 0.17395159758480211 -0.23925127595475509 0 0.16735930362016241 -0.23270310830507759 0 0.16744003324982429 -0.24014652530779801 0 0.17395159758480211 -0.23925127595475509 0 0.16744003324982429 -0.24014652530779801 0 0.16972168558007919 -0.24595602287593349 0 0.16735930362016241 -0.23270310830507759 0 0.16744003324982429 -0.24014652530779801 0 0.16167432643817931 -0.2372781381667417 0 0.16167432643817931 -0.2372781381667417 0 0.1579012244655901 -0.243994456244508 0 0.15352530915958831 -0.24098755599551061 0 0.16744003324982429 -0.24014652530779801 0 0.16167432643817931 -0.2372781381667417 0 0.1624002888965472 -0.24608417769258731 0 0.16167432643817931 -0.2372781381667417 0 0.1624002888965472 -0.24608417769258731 0 0.1579012244655901 -0.243994456244508 0 0.1624002888965472 -0.24608417769258731 0 0.1579012244655901 -0.243994456244508 0 0.15654015862906581 -0.2497742971247944 0 0.16744003324982429 -0.24014652530779801 0 0.1624002888965472 -0.24608417769258731 0 0.16972168558007919 -0.24595602287593349 0 0.14431894553082231 -0.25182667848574608 0 0.14558409340785991 -0.23987841801899831 0 0.13744229146350409 -0.23578030427268781 0 0.14431894553082231 -0.25182667848574608 0 0.1477780575942047 -0.24775408903845361 0 0.14558409340785991 -0.23987841801899831 0 0.14431894553082231 -0.25182667848574608 0 0.1477780575942047 -0.24775408903845361 0 0.15194569556453669 -0.25147539128871121 0 0.1477780575942047 -0.24775408903845361 0 0.15353808908259711 -0.24679715793839549 0 0.15194569556453669 -0.25147539128871121 0 0.15654015862906581 -0.2497742971247944 0 0.15353808908259711 -0.24679715793839549 0 0.1579012244655901 -0.243994456244508 0 0.15654015862906581 -0.2497742971247944 0 0.15353808908259711 -0.24679715793839549 0 0.1579012244655901 -0.243994456244508 0 0.15353808908259711 -0.24679715793839549 0 0.15352530915958831 -0.24098755599551061 0 0.1477780575942047 -0.24775408903845361 0 0.15353808908259711 -0.24679715793839549 0 0.15352530915958831 -0.24098755599551061 0 0.1477780575942047 -0.24775408903845361 0 0.15352530915958831 -0.24098755599551061 0 0.1477780575942047 -0.24775408903845361 0 0.15352530915958831 -0.24098755599551061 0 0.15305284068225641 -0.23322876822271221 0 0.1477780575942047 -0.24775408903845361 0 0.14558409340785991 -0.23987841801899831 0 0.15305284068225641 -0.23322876822271221 0 0.1477780575942047 -0.24775408903845361 0 0.15305284068225641 -0.23322876822271221 0 0.16167432643817931 -0.2372781381667417 0 0.15352530915958831 -0.24098755599551061 0 0.15305284068225641 -0.23322876822271221 0 0.14558409340785991 -0.23987841801899831 0 0.14532833176851209 -0.23080225007539171 0 0.13744229146350409 -0.23578030427268781 0 0.14558409340785991 -0.23987841801899831 0 0.14532833176851209 -0.23080225007539171 0 0.15305284068225641 -0.23322876822271221 0 0.14532833176851209 -0.23080225007539171 0 0.15305284068225641 -0.23322876822271221 0 0.14836624149908431 -0.22271736982508869 0 0.15832762377030801 -0.21870344740697081 0 0.15305284068225641 -0.23322876822271221 0 0.15832762377030801 -0.21870344740697081 0 0.15305284068225641 -0.23322876822271221 0 0.14836624149908431 -0.22271736982508869 0 0.14532833176851209 -0.23080225007539171 0 0.14836624149908431 -0.22271736982508869 0 0.1372365235920813 -0.22098497628510599 0 0.12162565113262939 -0.23559735135753929 0 0.1372365235920813 -0.22098497628510599 0 0.13744229146350409 -0.23578030427268781 0 0.1197620525411254 -0.21356208913140801 0 0.12162565113262939 -0.23559735135753929 0 0.1372365235920813 -0.22098497628510599 0 0.14532833176851209 -0.23080225007539171 0 0.1372365235920813 -0.22098497628510599 0 0.13744229146350409 -0.23578030427268781 0 0.14431894553082231 -0.25182667848574608 0 0.1247112926720263 -0.25243123502020148 0 0.12162565113262939 -0.23559735135753929 0 0.14431894553082231 -0.25182667848574608 0 0.12162565113262939 -0.23559735135753929 0 0.13744229146350409 -0.23578030427268781 0 0.14431894553082231 -0.25182667848574608 0 0.12162565113262939 -0.23559735135753929 0 0.15829479345189471 -0.19399512407421299 0 0.14788588768226341 -0.209867407135263 0 0.13698071479679749 -0.2016101276466106 0 0.15829479345189471 -0.19399512407421299 0 0.13698071479679749 -0.2016101276466106 0 0.13951436041491541 -0.1884986107872367 0 0.1372365235920813 -0.22098497628510599 0 0.14788588768226341 -0.209867407135263 0 0.13698071479679749 -0.2016101276466106 0 0.15832762377030801 -0.21870344740697081 0 0.15829479345189471 -0.19399512407421299 0 0.14788588768226341 -0.209867407135263 0 0.15832762377030801 -0.21870344740697081 0 0.14836624149908431 -0.22271736982508869 0 0.14788588768226341 -0.209867407135263 0 0.14836624149908431 -0.22271736982508869 0 0.1372365235920813 -0.22098497628510599 0 0.14788588768226341 -0.209867407135263 0 0.1197620525411254 -0.21356208913140801 0 0.1372365235920813 -0.22098497628510599 0 0.13698071479679749 -0.2016101276466106 0 0.1165223794856555 -0.19743642180091739 0 0.13698071479679749 -0.2016101276466106 0 0.12767687559112709 -0.18700981645158871 0 0.13698071479679749 -0.2016101276466106 0 0.13951436041491541 -0.1884986107872367 0 0.12767687559112709 -0.18700981645158871 0 0.1209797667976001 -0.17516793943393069 0 0.12767687559112709 -0.18700981645158871 0 0.13415036166963309 -0.17724804676166739 0 0.1209797667976001 -0.17516793943393069 0 0.13415036166963309 -0.17724804676166739 0 0.13037551585724591 -0.16521290458990351 0 0.13415036166963309 -0.17724804676166739 0 0.1434402876670971 -0.1797361988629721 0 0.1381072341530433 -0.17004819584255579 0 0.13951436041491541 -0.1884986107872367 0 0.13415036166963309 -0.17724804676166739 0 0.1434402876670971 -0.1797361988629721 0 0.13951436041491541 -0.1884986107872367 0 0.12767687559112709 -0.18700981645158871 0 0.13415036166963309 -0.17724804676166739 0 0.15829479345189471 -0.19399512407421299 0 0.1434402876670971 -0.1797361988629721 0 0.14713468864599891 -0.16889101684918739 0 0.15829479345189471 -0.19399512407421299 0 0.13951436041491541 -0.1884986107872367 0 0.1434402876670971 -0.1797361988629721 0 0.15829479345189471 -0.19399512407421299 0 0.14713468864599891 -0.16889101684918739 0 0.1434402876670971 -0.1797361988629721 0 0.14713468864599891 -0.16889101684918739 0 0.1381072341530433 -0.17004819584255579 0 0.1490882336445824 -0.15757150092564451 0 0.14713468864599891 -0.16889101684918739 0 0.1723987215066688 -0.1736455627003258 0 0.14713468864599891 -0.16889101684918739 0 0.14262656671308799 -0.16476685413126629 0 0.1381072341530433 -0.17004819584255579 0 0.1490882336445824 -0.15757150092564451 0 0.14713468864599891 -0.16889101684918739 0 0.14262656671308799 -0.16476685413126629 0 0.1490882336445824 -0.15757150092564451 0 0.14262656671308799 -0.16476685413126629 0 0.14262656671308799 -0.16476685413126629 0 0.13037551585724591 -0.16521290458990351 0 0.12554447269925231 -0.14133658254545051 0 0.14262656671308799 -0.16476685413126629 0 0.1381072341530433 -0.17004819584255579 0 0.13037551585724591 -0.16521290458990351 0 0.13415036166963309 -0.17724804676166739 0 0.1381072341530433 -0.17004819584255579 0 0.13037551585724591 -0.16521290458990351 0 0.1490882336445824 -0.15757150092564451 0 0.12554447269925231 -0.14133658254545051 0 0.14592203154577171 -0.1425557218801134 0 0.1490882336445824 -0.15757150092564451 0 0.12554447269925231 -0.14133658254545051 0 0.1490882336445824 -0.15757150092564451 0 0.14262656671308799 -0.16476685413126629 0 0.12554447269925231 -0.14133658254545051 0 0.12554447269925231 -0.14133658254545051 0 0.1382494986997902 -0.13417149921443439 0 0.14592203154577171 -0.1425557218801134 0 0.12763569286038981 -0.1239215236016821 0 0.14340996522301239 -0.12124420334520811 0 0.1382494986997902 -0.13417149921443439 0 0.12763569286038981 -0.1239215236016821 0 0.12554447269925231 -0.14133658254545051 0 0.1382494986997902 -0.13417149921443439 0 0.12554447269925231 -0.14133658254545051 0 0.1382494986997902 -0.13417149921443439 0 0.14340996522301239 -0.12124420334520811 0 0.1382494986997902 -0.13417149921443439 0 0.1534333555455312 -0.1317103682192525 0 0.1382494986997902 -0.13417149921443439 0 0.1534333555455312 -0.1317103682192525 0 0.14592203154577171 -0.1425557218801134 0 0.1534333555455312 -0.1317103682192525 0 0.14592203154577171 -0.1425557218801134 0 0.16069242800756259 -0.14464971495407949 0 0.1490882336445824 -0.15757150092564451 0 0.14592203154577171 -0.1425557218801134 0 0.16069242800756259 -0.14464971495407949 0 0.1490882336445824 -0.15757150092564451 0 0.16069242800756259 -0.14464971495407949 0 0.16069242800756259 -0.14464971495407949 0 0.17229662237054219 -0.13172792898251401 0 0.17246808440182901 -0.1554039559202898 0 0.1490882336445824 -0.15757150092564451 0 0.16069242800756259 -0.14464971495407949 0 0.17246808440182901 -0.1554039559202898 0 0.1534333555455312 -0.1317103682192525 0 0.16069242800756259 -0.14464971495407949 0 0.17229662237054219 -0.13172792898251401 0 0.1586817010605748 -0.11623192624076061 0 0.1534333555455312 -0.1317103682192525 0 0.17229662237054219 -0.13172792898251401 0 0.16069242800756259 -0.14464971495407949 0 0.17229662237054219 -0.13172792898251401 0 0.1855951725596367 -0.116919402522132 0 0.18966720210242849 -0.13395175455600461 0 0.17229662237054219 -0.13172792898251401 0 0.19014459317376761 -0.1520418329856929 0 0.18966720210242849 -0.13395175455600461 0 0.17229662237054219 -0.13172792898251401 0 0.19014459317376761 -0.1520418329856929 0 0.17229662237054219 -0.13172792898251401 0 0.19014459317376761 -0.1520418329856929 0 0.17229662237054219 -0.13172792898251401 0 0.17246808440182901 -0.1554039559202898 0 0.19014459317376761 -0.1520418329856929 0 0.19018790770785049 -0.17278719497348269 0 0.17246808440182901 -0.1554039559202898 0 0.19018790770785049 -0.17278719497348269 0 0.17246808440182901 -0.1554039559202898 0 0.1723987215066688 -0.1736455627003258 0 0.19018790770785049 -0.17278719497348269 0 0.19570920936875491 -0.18971962447500701 0 0.1723987215066688 -0.1736455627003258 0 0.19570920936875491 -0.18971962447500701 0 0.1723987215066688 -0.1736455627003258 0 0.15829479345189471 -0.19399512407421299 0 0.14713468864599891 -0.16889101684918739 0 0.1723987215066688 -0.1736455627003258 0 0.1490882336445824 -0.15757150092564451 0 0.1723987215066688 -0.1736455627003258 0 0.1490882336445824 -0.15757150092564451 0 0.17246808440182901 -0.1554039559202898 0 0.1723987215066688 -0.1736455627003258 0 
</DataArray>
</Points>
<Cells>
<DataArray type="UInt32" Name="connectivity" format="ascii">
0 1 2 3 4 5 6 7 8 9 10 11 12 13 14 15 16 17 18 19 20 21 22 23 24 25 26 27 28 29 30 31 32 33 34 35 36 37 38 39 40 41 42 43 44 45 46 47 48 49 50 51 52 53 54 55 56 57 58 59 60 61 62 63 64 65 66 67 68 69 70 71 72 73 74 75 76 77 78 79 80 81 82 83 84 85 86 87 88 89 90 91 92 93 94 95 96 97 98 99 100 101 102 103 104 105 106 107 108 109 110 111 112 113 114 115 116 117 118 119 120 121 122 123 124 125 126 127 128 129 130 131 132 133 134 135 136 137 138 139 140 141 142 143 144 145 146 147 148 149 150 151 152 153 154 155 156 157 158 159 160 161 162 163 164 165 166 167 168 169 170 171 172 173 174 175 176 177 178 179 180 181 182 183 184 185 186 187 188 189 190 191 192 193 194 195 196 197 198 199 200 201 202 203 204 205 206 207 208 209 210 211 212 213 214 215 216 217 218 219 220 221 222 223 224 225 226 227 228 229 230 231 232 233 234 235 236 237 238 239 240 241 242 243 244 245 246 247 248 249 250 251 252 253 254 255 256 257 258 259 260 261 262 263 264 265 266 267 268 269 270 271 272 273 274 275 276 277 278 279 280 281 282 283 284 285 286 287 288 289 290 291 292 293 294 295 296 297 298 299 300 301 302 303 304 305 306 307 308 309 310 311 312 313 314 315 316 317 318 319 320 321 322 323 324 325 326 327 328 329 330 331 332 333 334 335 336 337 338 339 340 341 342 343 344 345 346 347 348 349 350 351 352 353 354 355 356 357 358 359 360 361 362 363 364 365 366 367 368 369 370 371 372 373 374 375 376 377 378 379 380 381 382 383 384 385 386 387 388 389 390 391 392 393 394 395 396 397 398 399 400 401 402 403 404 405 406 407 408 409 410 411 412 413 414 415 416 417 418 419 420 421 422 423 424 425 426 427 428 429 430 431 432 433 434 435 436 437 438 439 440 441 442 443 444 445 446 447 448 449 450 451 452 453 454 455 456 457 458 459 460 461 462 463 464 465 466 467 468 469 470 471 472 473 474 475 476 477 478 479 480 481 482 483 484 485 486 487 488 489 490 491 492 493 494 495 496 497 498 499 500 501 502 503 504 505 506 507 508 509 510 511 512 513 514 515 516 517 518 519 520 521 522 523 524 525 526 527 528 529 530 531 532 533 534 535 536 537 538 539 540 541 542 543 544 545 546 547 548 549 550 551 552 553 554 555 556 557 558 559 560 561 562 563 564 565 566 567 568 569 570 571 572 573 574 575 576 577 578 579 580 581 582 583 584 585 586 587 588 589 590 591 592 593 594 595 596 597 598 599 600 601 602 603 604 605 606 607 608 609 610 611 612 613 614 615 616 617 618 619 620 621 622 623 624 625 626 627 628 629 630 631 632 633 634 635 636 637 638 639 640 641 642 643 644 645 646 647 648 649 650 651 652 653 654 655 656 657 658 659 660 661 662 663 664 665 666 667 668 669 670 671 672 673 674 675 676 677 678 679 680 681 682 683 684 685 686 687 688 689 690 691 692 693 694 695 696 697 698 699 700 701 702 703 704 705 706 707 708 709 710 711 712 713 714 715 716 717 718 719 720 721 722 723 724 725 726 727 728 729 730 731 732 733 734 735 736 737 738 739 740 741 742 743 744 745 746 747 748 749 750 751 752 753 754 755 756 757 758 759 760 761 762 763 764 765 766 767 768 769 770 771 772 773 774 775 776 777 778 779 780 781 782 783 784 785 786 787 788 789 790 791 792 793 794 795 796 797 798 799 800 801 802 803 804 805 806 807 808 809 810 811 812 813 814 815 816 817 818 819 820 821 822 823 824 825 826 827 828 829 830 831 832 833 834 835 836 837 838 839 840 841 842 843 844 845 846 847 848 849 850 851 852 853 854 855 856 857 858 859 860 861 862 863 864 865 866 867 868 869 870 871 872 873 874 875 876 877 878 879 880 881 882 883 884 885 886 887 888 889 890 891 892 893 894 895 896 897 898 899 900 901 902 903 904 905 906 907 908 909 910 911 912 913 914 915 916 917 918 919 920 921 922 923 924 925 926 927 928 929 930 931 932 933 934 935 936 937 938 939 940 941 942 943 944 945 946 947 948 949 950 951 952 953 954 955 956 957 958 959 960 961 962 963 964 965 966 967 968 969 970 971 972 973 974 975 976 977 978 979 980 981 982 983 984 985 986 987 988 989 990 991 992 993 994 995 996 997 998 999 1000 1001 1002 1003 1004 1005 1006 1007 1008 1009 1010 1011 1012 1013 1014 1015 1016 1017 1018 1019 1020 1021 1022 1023 1024 1025 1026 1027 1028 1029 1030 1031 1032 1033 1034 1035 1036 1037 1038 1039 1040 1041 1042 1043 1044 1045 1046 1047 1048 1049 1050 1051 1052 1053 1054 1055 1056 1057 1058 1059 1060 1061 1062 1063 1064 1065 1066 1067 1068 1069 1070 1071 1072 1073 1074 1075 1076 1077 1078 1079 1080 1081 1082 1083 1084 1085 1086 1087 1088 1089 1090 1091 1092 1093 1094 1095 1096 1097 1098 1099 1100 1101 1102 1103 1104 1105 1106 1107 1108 1109 1110 1111 1112 1113 1114 1115 1116 1117 1118 1119 1120 1121 1122 1123 1124 1125 1126 1127 1128 1129 1130 1131 1132 1133 1134 1135 1136 1137 1138 1139 1140 1141 1142 1143 1144 1145 1146 1147 1148 1149 1150 1151 1152 1153 1154 1155 1156 1157 1158 1159 1160 1161 1162 1163 1164 1165 1166 1167 1168 1169 1170 1171 1172 1173 1174 1175 1176 1177 1178 1179 1180 1181 1182 1183 1184 1185 1186 1187 1188 1189 1190 1191 1192 1193 1194 1195 1196 1197 1198 1199 1200 1201 1202 1203 1204 1205 1206 1207 1208 1209 1210 1211 1212 1213 1214 1215 1216 1217 1218 1219 1220 1221 1222 1223 1224 1225 1226 1227 1228 1229 1230 1231 1232 1233 1234 1235 1236 1237 1238 1239 1240 1241 1242 1243 1244 1245 1246 1247 1248 1249 1250 1251 1252 1253 1254 1255 1256 1257 1258 1259 1260 1261 1262 1263 1264 1265 1266 1267 1268 1269 1270 1271 1272 1273 1274 1275 1276 1277 1278 1279 1280 1281 1282 1283 1284 1285 1286 1287 1288 1289 1290 1291 1292 1293 1294 1295 1296 1297 1298 1299 1300 1301 1302 1303 1304 1305 1306 1307 1308 1309 1310 1311 1312 1313 1314 1315 1316 1317 1318 1319 1320 1321 1322 1323 1324 1325 1326 1327 1328 1329 1330 1331 1332 1333 1334 1335 1336 1337 1338 1339 1340 1341 1342 1343 1344 1345 1346 1347 1348 1349 1350 1351 1352 1353 1354 1355 1356 1357 1358 1359 1360 1361 1362 1363 1364 1365 1366 1367 1368 1369 1370 1371 1372 1373 1374 1375 1376 1377 1378 1379 1380 1381 1382 1383 1384 1385 1386 1387 1388 1389 1390 1391 1392 1393 1394 1395 1396 1397 1398 1399 1400 1401 1402 1403 1404 1405 1406 1407 1408 1409 1410 1411 1412 1413 1414 1415 1416 1417 1418 1419 1420 1421 1422 1423 1424 1425 1426 1427 1428 1429 1430 1431 1432 1433 1434 1435 1436 1437 1438 1439 1440 1441 1442 1443 1444 1445 1446 1447 1448 1449 1450 1451 1452 1453 1454 1455 1456 1457 1458 1459 1460 1461 1462 1463 1464 1465 1466 1467 1468 1469 1470 1471 1472 1473 1474 1475 1476 1477 1478 1479 1480 1481 1482 1483 1484 1485 1486 1487 1488 1489 1490 1491 1492 1493 1494 1495 1496 1497 1498 1499 1500 1501 1502 1503 1504 1505 1506 1507 1508 1509 1510 1511 1512 1513 1514 1515 1516 1517 1518 1519 1520 1521 1522 1523 1524 1525 1526 1527 1528 1529 1530 1531 1532 1533 1534 1535 1536 1537 1538 1539 1540 1541 1542 1543 1544 1545 1546 1547 1548 1549 1550 1551 1552 1553 1554 1555 1556 1557 1558 1559 1560 1561 1562 1563 1564 1565 1566 1567 1568 1569 1570 1571 1572 1573 1574 1575 1576 1577 1578 1579 1580 1581 1582 1583 1584 1585 1586 1587 1588 1589 1590 1591 1592 1593 1594 1595 1596 1597 1598 1599 1600 1601 1602 1603 1604 1605 1606 1607 1608 1609 1610 1611 1612 1613 1614 1615 1616 1617 1618 1619 1620 1621 1622 1623 1624 1625 1626 1627 1628 1629 1630 1631 1632 1633 1634 1635 1636 1637 1638 1639 1640 1641 1642 1643 1644 1645 1646 1647 1648 1649 1650 1651 1652 1653 1654 1655 1656 1657 1658 1659 1660 1661 1662 1663 1664 1665 1666 1667 1668 1669 1670 1671 1672 1673 1674 1675 1676 1677 1678 1679 1680 1681 1682 1683 1684 1685 1686 1687 1688 1689 1690 1691 1692 1693 1694 1695 1696 1697 1698 1699 1700 1701 1702 1703 1704 1705 1706 1707 1708 1709 1710 1711 1712 1713 1714 1715 1716 1717 1718 1719 1720 1721 1722 1723 1724 1725 1726 1727 1728 1729 1730 1731 1732 1733 1734 1735 1736 1737 1738 1739 1740 1741 1742 1743 1744 1745 1746 1747 1748 1749 1750 1751 1752 1753 1754 1755 1756 1757 1758 1759 1760 1761 1762 1763 1764 1765 1766 1767 1768 1769 1770 1771 1772 1773 1774 1775 1776 1777 1778 1779 1780 1781 1782 1783 1784 1785 1786 1787 1788 1789 1790 1791 1792 1793 1794 1795 1796 1797 1798 1799 1800 1801 1802 1803 1804 1805 1806 1807 1808 1809 1810 1811 1812 1813 1814 1815 1816 1817 1818 1819 1820 1821 1822 1823 1824 1825 1826 1827 1828 1829 1830 1831 1832 1833 1834 1835 1836 1837 1838 1839 1840 1841 1842 1843 1844 1845 1846 1847 1848 1849 1850 1851 1852 1853 1854 1855 1856 1857 1858 1859 1860 1861 1862 1863 1864 1865 1866 1867 1868 1869 1870 1871 1872 1873 1874 1875 1876 1877 1878 1879 1880 1881 1882 1883 1884 1885 1886 1887 1888 1889 1890 1891 1892 1893 1894 1895 1896 1897 1898 1899 1900 1901 1902 1903 1904 1905 1906 1907 1908 1909 1910 1911 1912 1913 1914 1915 1916 1917 1918 1919 1920 1921 1922 1923 1924 1925 1926 1927 1928 1929 1930 1931 1932 1933 1934 1935 1936 1937 1938 1939 1940 1941 1942 1943 1944 1945 1946 1947 1948 1949 1950 1951 1952 1953 1954 1955 1956 1957 1958 1959 1960 1961 1962 1963 1964 1965 1966 1967 1968 1969 1970 1971 1972 1973 1974 1975 1976 1977 1978 1979 1980 1981 1982 1983 1984 1985 1986 1987 1988 1989 1990 1991 1992 1993 1994 1995 1996 1997 1998 1999 2000 2001 2002 2003 2004 2005 2006 2007 2008 2009 2010 2011 2012 2013 2014 2015 2016 2017 2018 2019 2020 2021 2022 2023 2024 2025 2026 2027 2028 2029 2030 2031 2032 2033 2034 2035 2036 2037 2038 2039 2040 2041 2042 2043 2044 2045 2046 2047 2048 2049 2050 2051 2052 2053 2054 2055 2056 2057 2058 2059 2060 2061 2062 2063 2064 2065 2066 2067 2068 2069 2070 2071 2072 2073 2074 2075 2076 2077 2078 2079 2080 2081 2082 2083 2084 2085 2086 2087 2088 2089 2090 2091 2092 2093 2094 2095 2096 2097 2098 2099 2100 2101 2102 2103 2104 2105 2106 2107 2108 2109 2110 2111 2112 2113 2114 2115 2116 2117 2118 2119 2120 2121 2122 2123 2124 2125 2126 2127 2128 2129 2130 2131 2132 2133 2134 2135 2136 2137 2138 2139 2140 2141 2142 2143 2144 2145 2146 2147 2148 2149 2150 2151 2152 2153 2154 2155 2156 2157 2158 2159 2160 2161 2162 2163 2164 2165 2166 2167 2168 2169 2170 2171 2172 2173 2174 2175 2176 2177 2178 2179 2180 2181 2182 2183 2184 2185 2186 2187 2188 2189 2190 2191 2192 2193 2194 2195 2196 2197 2198 2199 2200 2201 2202 2203 2204 2205 2206 2207 2208 2209 2210 2211 2212 2213 2214 2215 2216 2217 2218 2219 2220 2221 2222 2223 2224 2225 2226 2227 2228 2229 2230 2231 2232 2233 2234 2235 2236 2237 2238 2239 2240 2241 2242 2243 2244 2245 2246 2247 2248 2249 2250 2251 2252 2253 2254 2255 2256 2257 2258 2259 2260 2261 2262 2263 2264 2265 2266 2267 2268 2269 2270 2271 2272 2273 2274 2275 2276 2277 2278 2279 2280 2281 2282 2283 2284 2285 2286 2287 2288 2289 2290 2291 2292 2293 2294 2295 2296 2297 2298 2299 2300 2301 2302 2303 2304 2305 2306 2307 2308 2309 2310 2311 2312 2313 2314 2315 2316 2317 2318 2319 2320 2321 2322 2323 2324 2325 2326 2327 2328 2329 2330 2331 2332 2333 2334 2335 2336 2337 2338 2339 2340 2341 2342 2343 2344 2345 2346 2347 2348 2349 2350 2351 2352 2353 2354 2355 2356 2357 2358 2359 2360 2361 2362 2363 2364 2365 2366 2367 2368 2369 2370 2371 2372 2373 2374 2375 2376 2377 2378 2379 2380 2381 2382 2383 2384 2385 2386 2387 2388 2389 2390 2391 2392 2393 2394 2395 2396 2397 2398 2399 2400 2401 2402 2403 2404 2405 2406 2407 2408 2409 2410 2411 2412 2413 2414 2415 2416 2417 2418 2419 2420 2421 2422 2423 2424 2425 2426 2427 2428 2429 2430 2431 2432 2433 2434 2435 2436 2437 2438 2439 2440 2441 2442 2443 2444 2445 2446 2447 2448 2449 2450 2451 2452 2453 2454 2455 2456 2457 2458 2459 2460 2461 2462 2463 2464 2465 2466 2467 2468 2469 2470 2471 2472 2473 2474 2475 2476 2477 2478 2479 2480 2481 2482 2483 2484 2485 2486 2487 2488 2489 2490 2491 2492 2493 2494 2495 2496 2497 2498 2499 2500 2501 2502 2503 2504 2505 2506 2507 2508 2509 2510 2511 2512 2513 2514 2515 2516 2517 2518 2519 2520 2521 2522 2523 2524 2525 2526 2527 2528 2529 2530 2531 2532 2533 2534 2535 2536 2537 2538 2539 2540 2541 2542 2543 2544 2545 2546 2547 2548 2549 2550 2551 2552 2553 2554 2555 2556 2557 2558 2559 2560 2561 2562 2563 2564 2565 2566 2567 2568 2569 2570 2571 2572 2573 2574 2575 2576 2577 2578 2579 2580 2581 2582 2583 2584 2585 2586 2587 2588 2589 2590 2591 2592 2593 2594 2595 2596 2597 2598 2599 2600 2601 2602 2603 2604 2605 2606 2607 2608 2609 2610 2611 2612 2613 2614 2615 2616 2617 2618 2619 2620 2621 2622 2623 2624 2625 2626 2627 2628 2629 2630 2631 2632 2633 2634 2635 2636 2637 2638 2639 2640 2641 2642 2643 2644 2645 2646 2647 2648 2649 2650 2651 2652 2653 2654 2655 2656 2657 2658 2659 2660 2661 2662 2663 2664 2665 2666 2667 2668 2669 2670 2671 2672 2673 2674 2675 2676 2677 2678 2679 2680 2681 2682 2683 2684 2685 2686 2687 2688 2689 2690 2691 2692 2693 2694 2695 2696 2697 2698 2699 2700 2701 2702 2703 2704 2705 2706 2707 2708 2709 2710 2711 2712 2713 2714 2715 2716 2717 2718 2719 2720 2721 2722 2723 2724 2725 2726 2727 2728 2729 2730 2731 2732 2733 2734 2735 2736 2737 2738 2739 2740 2741 2742 2743 2744 2745 2746 2747 2748 2749 2750 2751 2752 2753 2754 2755 2756 2757 2758 2759 2760 2761 2762 2763 2764 2765 2766 2767 2768 2769 2770 2771 2772 2773 2774 2775 2776 2777 2778 2779 2780 2781 2782 2783 2784 2785 2786 2787 2788 2789 2790 2791 2792 2793 2794 2795 2796 2797 2798 2799 2800 2801 2802 2803 2804 2805 2806 2807 2808 2809 2810 2811 2812 2813 2814 2815 2816 2817 2818 2819 2820 2821 2822 2823 2824 2825 2826 2827 2828 2829 2830 2831 2832 2833 2834 2835 2836 2837 2838 2839 2840 2841 2842 2843 2844 2845 2846 2847 2848 2849 2850 2851 2852 2853 2854 2855 2856 2857 2858 2859 2860 2861 2862 2863 2864 2865 2866 2867 2868 2869 2870 2871 2872 2873 2874 2875 2876 2877 2878 2879 2880 2881 2882 2883 2884 2885 2886 2887 2888 2889 2890 2891 2892 2893 2894 2895 2896 2897 2898 2899 2900 2901 2902 2903 2904 2905 2906 2907 2908 2909 2910 2911 2912 2913 2914 2915 2916 2917 2918 2919 2920 2921 2922 2923 2924 2925 2926 2927 2928 2929 2930 2931 2932 2933 2934 2935 2936 2937 2938 2939 2940 2941 2942 2943 2944 2945 2946 2947 2948 2949 2950 2951 2952 2953 2954 2955 2956 2957 2958 2959 2960 2961 2962 2963 2964 2965 2966 2967 2968 2969 2970 2971 2972 2973 2974 2975 2976 2977 2978 2979 2980 2981 2982 2983 2984 2985 2986 2987 2988 2989 2990 2991 2992 2993 2994 2995 2996 2997 2998 2999 3000 3001 3002 3003 3004 3005 3006 3007 3008 3009 3010 3011 3012 3013 3014 3015 3016 3017 3018 3019 3020 3021 3022 3023 3024 3025 3026 3027 3028 3029 3030 3031 3032 3033 3034 3035 3036 3037 3038 3039 3040 3041 3042 3043 3044 3045 3046 3047 3048 3049 3050 3051 3052 3053 3054 3055 3056 3057 3058 3059 3060 3061 3062 3063 3064 3065 3066 3067 3068 3069 3070 3071 3072 3073 3074 3075 3076 3077 3078 3079 3080 3081 3082 3083 3084 3085 3086 3087 3088 3089 3090 3091 3092 3093 3094 3095 3096 3097 3098 3099 3100 3101 3102 3103 3104 3105 3106 3107 3108 3109 3110 3111 3112 3113 3114 3115 3116 3117 3118 3119 3120 3121 3122 3123 3124 3125 3126 3127 3128 3129 3130 3131 3132 3133 3134 3135 3136 3137 3138 3139 3140 3141 3142 3143 3144 3145 3146 3147 3148 3149 3150 3151 3152 3153 3154 3155 3156 3157 3158 3159 3160 3161 3162 3163 3164 3165 3166 3167 3168 3169 3170 3171 3172 3173 3174 3175 3176 3177 3178 3179 3180 3181 3182 3183 3184 3185 3186 3187 3188 3189 3190 3191 3192 3193 3194 3195 3196 3197 3198 3199 3200 3201 3202 3203 3204 3205 3206 3207 3208 3209 3210 3211 3212 3213 3214 3215 3216 3217 3218 3219 3220 3221 3222 3223 3224 3225 3226 3227 3228 3229 3230 3231 3232 3233 3234 3235 3236 3237 3238 3239 3240 3241 3242 3243 3244 3245 3246 3247 3248 3249 3250 3251 3252 3253 3254 3255 3256 3257 3258 3259 3260 3261 3262 3263 3264 3265 3266 3267 3268 3269 3270 3271 3272 3273 3274 3275 3276 3277 3278 3279 3280 3281 3282 3283 3284 3285 3286 3287 3288 3289 3290 3291 3292 3293 3294 3295 3296 3297 3298 3299 3300 3301 3302 3303 3304 3305 3306 3307 3308 3309 3310 3311 3312 3313 3314 3315 3316 3317 3318 3319 3320 3321 3322 3323 3324 3325 3326 3327 3328 3329 3330 3331 3332 3333 3334 3335 3336 3337 3338 3339 3340 3341 3342 3343 3344 3345 3346 3347 3348 3349 3350 3351 3352 3353 3354 3355 3356 3357 3358 3359 3360 3361 3362 3363 3364 3365 3366 3367 3368 3369 3370 3371 3372 3373 3374 3375 3376 3377 3378 3379 3380 3381 3382 3383 3384 3385 3386 3387 3388 3389 3390 3391 3392 3393 3394 3395 3396 3397 3398 3399 3400 3401 3402 3403 3404 3405 3406 3407 3408 3409 3410 3411 3412 3413 3414 3415 3416 3417 3418 3419 3420 3421 3422 3423 3424 3425 3426 3427 3428 3429 3430 3431 3432 3433 3434 3435 3436 3437 3438 3439 3440 3441 3442 3443 3444 3445 3446 3447 3448 3449 3450 3451 3452 3453 3454 3455 3456 3457 3458 3459 3460 3461 3462 3463 3464 3465 3466 3467 3468 3469 3470 3471 3472 3473 3474 3475 3476 3477 3478 3479 3480 3481 3482 3483 3484 3485 3486 3487 3488 3489 3490 3491 3492 3493 3494 3495 3496 3497 3498 3499 3500 3501 3502 3503 3504 3505 3506 3507 3508 3509 3510 3511 3512 3513 3514 3515 3516 3517 3518 3519 3520 3521 3522 3523 3524 3525 3526 3527 3528 3529 3530 3531 3532 3533 3534 3535 3536 3537 3538 3539 3540 3541 3542 3543 3544 3545 3546 3547 3548 3549 3550 3551 3552 3553 3554 3555 3556 3557 3558 3559 3560 3561 3562 3563 3564 3565 3566 3567 3568 3569 3570 3571 3572 3573 3574 3575 3576 3577 3578 3579 3580 3581 3582 3583 3584 3585 3586 3587 3588 3589 3590 3591 3592 3593 3594 3595 3596 3597 3598 3599 3600 3601 3602 3603 3604 3605 3606 3607 3608 3609 3610 3611 3612 3613 3614 3615 3616 3617 3618 3619 3620 3621 3622 3623 3624 3625 3626 3627 3628 3629 3630 3631 3632 3633 3634 3635 3636 3637 3638 3639 3640 3641 3642 3643 3644 3645 3646 3647 3648 3649 3650 3651 3652 3653 3654 3655 3656 3657 3658 3659 3660 3661 3662 3663 3664 3665 3666 3667 3668 3669 3670 3671 3672 3673 3674 3675 3676 3677 3678 3679 3680 3681 3682 3683 3684 3685 3686 3687 3688 3689 3690 3691 3692 3693 3694 3695 3696 3697 3698 3699 3700 3701 3702 3703 3704 3705 3706 3707 3708 3709 3710 3711 3712 3713 3714 3715 3716 3717 3718 3719 3720 3721 3722 3723 3724 3725 3726 3727 3728 3729 3730 3731 3732 3733 3734 3735 3736 3737 3738 3739 3740 3741 3742 3743 3744 3745 3746 3747 3748 3749 3750 3751 3752 3753 3754 3755 3756 3757 3758 3759 3760 3761 3762 3763 3764 3765 3766 3767 3768 3769 3770 3771 3772 3773 3774 3775 3776 3777 3778 3779 3780 3781 3782 3783 3784 3785 3786 3787 3788 3789 3790 3791 3792 3793 3794 3795 3796 3797 3798 3799 3800 3801 3802 3803 3804 3805 3806 3807 3808 3809 3810 3811 3812 3813 3814 3815 3816 3817 3818 3819 3820 3821 3822 3823 3824 3825 3826 3827 3828 3829 3830 3831 3832 3833 3834 3835 3836 3837 3838 3839 3840 3841 3842 3843 3844 3845 3846 3847 3848 3849 3850 3851 3852 3853 3854 3855 3856 3857 3858 3859 3860 3861 3862 3863 3864 3865 3866 3867 3868 3869 3870 3871 3872 3873 3874 3875 3876 3877 3878 3879 3880 3881 3882 3883 3884 3885 3886 3887 3888 3889 3890 3891 3892 3893 3894 3895 3896 3897 3898 3899 3900 3901 3902 3903 3904 3905 3906 3907 3908 3909 3910 3911 3912 3913 3914 3915 3916 3917 3918 3919 3920 3921 3922 3923 3924 3925 3926 3927 3928 3929 3930 3931 3932 3933 3934 3935 3936 3937 3938 3939 3940 3941 3942 3943 3944 3945 3946 3947 3948 3949 3950 3951 3952 3953 3954 3955 3956 3957 3958 3959 3960 3961 3962 3963 3964 3965 3966 3967 3968 3969 3970 3971 3972 3973 3974 3975 3976 3977 3978 3979 3980 3981 3982 3983 3984 3985 3986 3987 3988 3989 3990 3991 3992 3993 3994 3995 3996 3997 3998 3999 4000 4001 4002 4003 4004 4005 4006 4007 4008 4009 4010 4011 4012 4013 4014 4015 4016 4017 4018 4019 4020 4021 4022 4023 4024 4025 4026 4027 4028 4029 4030 4031 4032 4033 4034 4035 4036 4037 4038 4039 4040 4041 4042 4043 4044 4045 4046 4047 4048 4049 4050 4051 4052 4053 4054 4055 4056 4057 4058 4059 4060 4061 4062 4063 4064 4065 4066 4067 4068 4069 4070 4071 4072 4073 4074 4075 4076 4077 4078 4079 4080 4081 4082 4083 4084 4085 4086 4087 4088 4089 4090 4091 4092 4093 4094 4095 4096 4097 4098 4099 4100 4101 4102 4103 4104 4105 4106 4107 4108 4109 4110 4111 4112 4113 4114 4115 4116 4117 4118 4119 4120 4121 4122 4123 4124 4125 4126 4127 4128 4129 4130 4131 4132 4133 4134 4135 4136 4137 4138 4139 4140 4141 4142 4143 4144 4145 4146 4147 4148 4149 4150 4151 4152 4153 4154 4155 4156 4157 4158 4159 4160 4161 4162 4163 4164 4165 4166 4167 4168 4169 4170 4171 4172 4173 4174 4175 4176 4177 4178 4179 4180 4181 4182 4183 4184 4185 4186 4187 4188 4189 4190 4191 4192 4193 4194 4195 4196 4197 4198 4199 4200 4201 4202 4203 4204 4205 4206 4207 4208 4209 4210 4211 4212 4213 4214 4215 4216 4217 4218 4219 4220 4221 4222 4223 4224 4225 4226 4227 4228 4229 4230 4231 4232 4233 4234 4235 4236 4237 4238 4239 4240 4241 4242 4243 4244 4245 4246 4247 4248 4249 4250 4251 4252 4253 4254 4255 4256 4257 4258 4259 4260 4261 4262 4263 4264 4265 4266 4267 4268 4269 4270 4271 4272 4273 4274 4275 4276 4277 4278 4279 4280 4281 4282 4283 4284 4285 4286 4287 4288 4289 4290 4291 4292 4293 4294 4295 4296 4297 4298 4299 4300 4301 4302 4303 4304 4305 4306 4307 4308 4309 4310 4311 4312 4313 4314 4315 4316 4317 4318 4319 4320 4321 4322 4323 4324 4325 4326 4327 4328 4329 4330 4331 4332 4333 4334 4335 4336 4337 4338 4339 4340 4341 4342 4343 4344 4345 4346 4347 4348 4349 4350 4351 4352 4353 4354 4355 4356 4357 4358 4359 4360 4361 4362 4363 4364 4365 4366 4367 4368 4369 4370 4371 4372 4373 4374 4375 4376 4377 4378 4379 4380 4381 4382 4383 4384 4385 4386 4387 4388 4389 4390 4391 4392 4393 4394 4395 4396 4397 4398 4399 4400 4401 4402 4403 4404 4405 4406 4407 4408 4409 4410 4411 4412 4413 4414 4415 4416 4417 4418 4419 4420 4421 4422 4423 4424 4425 4426 4427 4428 4429 4430 4431 4432 4433 4434 4435 4436 4437 4438 4439 4440 4441 4442 4443 4444 4445 4446 4447 4448 4449 4450 4451 4452 4453 4454 4455 4456 4457 4458 4459 4460 4461 4462 4463 4464 4465 4466 4467 4468 4469 4470 4471 4472 4473 4474 4475 4476 4477 4478 4479 4480 4481 4482 4483 4484 4485 4486 4487 4488 4489 4490 4491 4492 4493 4494 4495 4496 4497 4498 4499 4500 4501 4502 4503 4504 4505 4506 4507 4508 4509 4510 4511 4512 4513 4514 4515 4516 4517 4518 4519 4520 4521 4522 4523 4524 4525 4526 4527 4528 4529 4530 4531 4532 4533 4534 4535 4536 4537 4538 4539 4540 4541 4542 4543 4544 4545 4546 4547 4548 4549 4550 4551 4552 4553 4554 4555 4556 4557 4558 4559 4560 4561 4562 4563 4564 4565 4566 4567 4568 4569 4570 4571 4572 4573 4574 4575 4576 4577 4578 4579 4580 4581 4582 4583 4584 4585 4586 4587 4588 4589 4590 4591 4592 4593 4594 4595 4596 4597 4598 4599 4600 4601 4602 4603 4604 4605 4606 4607 4608 4609 4610 4611 4612 4613 4614 4615 4616 4617 4618 4619 4620 4621 4622 4623 4624 4625 4626 4627 4628 4629 4630 4631 4632 4633 4634 4635 4636 4637 4638 4639 4640 4641 4642 4643 4644 4645 4646 4647 4648 4649 4650 4651 4652 4653 4654 4655 4656 4657 4658 4659 4660 4661 4662 4663 4664 4665 4666 4667 4668 4669 4670 4671 4672 4673 4674 4675 4676 4677 4678 4679 4680 4681 4682 4683 4684 4685 4686 4687 4688 4689 4690 4691 4692 4693 4694 4695 4696 4697 4698 4699 4700 4701 4702 4703 4704 4705 4706 4707 4708 4709 4710 4711 4712 4713 4714 4715 4716 4717 4718 4719 4720 4721 4722 4723 4724 4725 4726 4727 4728 4729 4730 4731 4732 4733 4734 4735 4736 4737 4738 4739 4740 4741 4742 4743 4744 4745 4746 4747 4748 4749 4750 4751 4752 4753 4754 4755 4756 4757 4758 4759 4760 4761 4762 4763 4764 4765 4766 4767 4768 4769 4770 4771 4772 4773 4774 4775 4776 4777 4778 4779 4780 4781 4782 4783 4784 4785 4786 4787 4788 4789 4790 4791 4792 4793 4794 4795 4796 4797 4798 4799 4800 4801 4802 4803 4804 4805 4806 4807 4808 4809 4810 4811 4812 4813 4814 4815 4816 4817 4818 4819 4820 4821 4822 4823 4824 4825 4826 4827 4828 4829 4830 4831 4832 4833 4834 4835 4836 4837 4838 4839 4840 4841 4842 4843 4844 4845 4846 4847 4848 4849 4850 4851 4852 4853 4854 4855 4856 4857 4858 4859 4860 4861 4862 4863 4864 4865 4866 4867 4868 4869 4870 4871 4872 4873 4874 4875 4876 4877 4878 4879 4880 4881 4882 4883 4884 4885 4886 4887 4888 4889 4890 4891 4892 4893 4894 4895 4896 4897 4898 4899 4900 4901 4902 4903 4904 4905 4906 4907 4908 4909 4910 4911 4912 4913 4914 4915 4916 4917 4918 4919 4920 4921 4922 4923 4924 4925 4926 4927 4928 4929 4930 4931 4932 4933 4934 4935 4936 4937 4938 4939 4940 4941 4942 4943 4944 4945 4946 4947 4948 4949 4950 4951 4952 4953 4954 4955 4956 4957 4958 4959 4960 4961 4962 4963 4964 4965 4966 4967 4968 4969 4970 4971 4972 4973 4974 4975 4976 4977 4978 4979 4980 4981 4982 4983 4984 4985 4986 4987 4988 4989 4990 4991 4992 4993 4994 4995 4996 4997 4998 4999 5000 5001 5002 5003 5004 5005 5006 5007 5008 5009 5010 5011 5012 5013 5014 5015 5016 5017 5018 5019 5020 5021 5022 5023 5024 5025 5026 5027 5028 5029 5030 5031 5032 5033 5034 5035 5036 5037 5038 5039 5040 5041 5042 5043 5044 5045 5046 5047 5048 5049 5050 5051 5052 5053 5054 5055 5056 5057 5058 5059 5060 5061 5062 5063 5064 5065 5066 5067 5068 5069 5070 5071 5072 5073 5074 5075 5076 5077 5078 5079 5080 5081 5082 5083 5084 5085 5086 5087 5088 5089 5090 5091 5092 5093 5094 5095 5096 5097 5098 5099 5100 5101 5102 5103 5104 5105 5106 5107 5108 5109 5110 5111 5112 5113 5114 5115 5116 5117 5118 5119 5120 5121 5122 5123 5124 5125 5126 5127 5128 5129 5130 5131 5132 5133 5134 5135 5136 5137 5138 5139 5140 5141 5142 5143 5144 5145 5146 5147 5148 5149 5150 5151 5152 5153 5154 5155 5156 5157 5158 5159 5160 5161 5162 5163 5164 5165 5166 5167 5168 5169 5170 5171 5172 5173 5174 5175 5176 5177 5178 5179 5180 5181 5182 5183 5184 5185 5186 5187 5188 5189 5190 5191 5192 5193 5194 5195 5196 5197 5198 5199 5200 5201 5202 5203 5204 5205 5206 5207 5208 5209 5210 5211 5212 5213 5214 5215 5216 5217 5218 5219 5220 5221 5222 5223 5224 5225 5226 5227 5228 5229 5230 5231 5232 5233 5234 5235 5236 5237 5238 5239 5240 5241 5242 5243 5244 5245 5246 5247 5248 5249 5250 5251 5252 5253 5254 5255 5256 5257 5258 5259 5260 5261 5262 5263 5264 5265 5266 5267 5268 5269 5270 5271 5272 5273 5274 5275 5276 5277 5278 5279 5280 5281 5282 5283 5284 5285 5286 5287 5288 5289 5290 5291 5292 5293 5294 5295 5296 5297 5298 5299 5300 5301 5302 5303 5304 5305 5306 5307 5308 5309 5310 5311 5312 5313 5314 5315 5316 5317 5318 5319 5320 5321 5322 5323 5324 5325 5326 5327 5328 5329 5330 5331 5332 5333 5334 5335 5336 5337 5338 5339 5340 5341 5342 5343 5344 5345 5346 5347 5348 5349 5350 5351 5352 5353 5354 5355 5356 5357 5358 5359 5360 5361 5362 5363 5364 5365 5366 5367 5368 5369 5370 5371 5372 5373 5374 5375 5376 5377 5378 5379 5380 5381 5382 5383 5384 5385 5386 5387 5388 5389 5390 5391 5392 5393 5394 5395 5396 5397 5398 5399 5400 5401 5402 5403 5404 5405 5406 5407 5408 5409 5410 5411 5412 5413 5414 5415 5416 5417 5418 5419 5420 5421 5422 5423 5424 5425 5426 5427 5428 5429 5430 5431 5432 5433 5434 5435 5436 5437 5438 5439 5440 5441 5442 5443 5444 5445 5446 5447 5448 5449 5450 5451 5452 5453 5454 5455 5456 5457 5458 5459 5460 5461 5462 5463 5464 5465 5466 5467 5468 5469 5470 5471 5472 5473 5474 5475 5476 5477 5478 5479 5480 5481 5482 5483 5484 5485 5486 5487 5488 5489 5490 5491 5492 5493 5494 5495 5496 5497 5498 5499 5500 5501 5502 5503 5504 5505 5506 5507 5508 5509 5510 5511 5512 5513 5514 5515 5516 5517 5518 5519 5520 5521 5522 5523 5524 5525 5526 5527 5528 5529 5530 5531 5532 5533 5534 5535 5536 5537 5538 5539 5540 5541 5542 5543 5544 5545 5546 5547 5548 5549 5550 5551 5552 5553 5554 5555 5556 5557 5558 5559 5560 5561 5562 5563 5564 5565 5566 5567 5568 5569 5570 5571 5572 5573 5574 5575 5576 5577 5578 5579 5580 5581 5582 5583 5584 5585 5586 5587 5588 5589 5590 5591 5592 5593 5594 5595 5596 5597 5598 5599 5600 5601 5602 5603 5604 5605 5606 5607 5608 5609 5610 5611 5612 5613 5614 5615 5616 5617 5618 5619 5620 5621 5622 5623 5624 5625 5626 5627 5628 5629 5630 5631 5632 5633 5634 5635 5636 5637 5638 5639 5640 5641 5642 5643 5644 5645 5646 5647 5648 5649 5650 5651 5652 5653 5654 5655 5656 5657 5658 5659 5660 5661 5662 5663 5664 5665 5666 5667 5668 5669 5670 5671 5672 5673 5674 5675 5676 5677 5678 5679 5680 5681 5682 5683 5684 5685 5686 5687 5688 5689 5690 5691 5692 5693 5694 5695 5696 5697 5698 5699 5700 5701 5702 5703 5704 5705 5706 5707 5708 5709 5710 5711 5712 5713 5714 5715 5716 5717 5718 5719 5720 5721 5722 5723 5724 5725 5726 5727 5728 5729 5730 5731 5732 5733 5734 5735 5736 5737 5738 5739 5740 5741 5742 5743 5744 5745 5746 5747 5748 5749 5750 5751 5752 5753 5754 5755 5756 5757 5758 5759 5760 5761 5762 5763 5764 5765 5766 5767 5768 5769 5770 5771 5772 5773 5774 5775 5776 5777 5778 5779 5780 5781 5782 5783 5784 5785 5786 5787 5788 5789 5790 5791 5792 5793 5794 5795 5796 5797 5798 5799 5800 5801 5802 5803 5804 5805 5806 5807 5808 5809 5810 5811 5812 5813 5814 5815 5816 5817 5818 5819 5820 5821 5822 5823 5824 5825 5826 5827 5828 5829 5830 5831 5832 5833 5834 5835 5836 5837 5838 5839 5840 5841 5842 5843 5844 5845 5846 5847 5848 5849 5850 5851 5852 5853 5854 5855 5856 5857 5858 5859 5860 5861 5862 5863 5864 5865 5866 5867 5868 5869 5870 5871 5872 5873 5874 5875 5876 5877 5878 5879 5880 5881 5882 5883 5884 5885 5886 5887 5888 5889 5890 5891 5892 5893 5894 5895 5896 5897 5898 5899 5900 5901 5902 5903 5904 5905 5906 5907 5908 5909 5910 5911 5912 5913 5914 5915 5916 5917 5918 5919 5920 5921 5922 5923 5924 5925 5926 5927 5928 5929 5930 5931 5932 5933 5934 5935 5936 5937 5938 5939 5940 5941 5942 5943 5944 5945 5946 5947 5948 5949 5950 5951 5952 5953 5954 5955 5956 5957 5958 5959 5960 5961 5962 5963 5964 5965 5966 5967 5968 5969 5970 5971 5972 5973 5974 5975 5976 5977 5978 5979 5980 5981 5982 5983 5984 5985 5986 5987 5988 5989 5990 5991 5992 5993 5994 5995 5996 5997 5998 5999 6000 6001 6002 6003 6004 6005 6006 6007 6008 6009 6010 6011 6012 6013 6014 6015 6016 6017 6018 6019 6020 6021 6022 6023 6024 6025 6026 6027 6028 6029 6030 6031 6032 6033 6034 6035 6036 6037 6038 6039 6040 6041 6042 6043 6044 6045 6046 6047 6048 6049 6050 6051 6052 6053 6054 6055 6056 6057 6058 6059 6060 6061 6062 6063 6064 6065 6066 6067 6068 6069 6070 6071 6072 6073 6074 6075 6076 6077 6078 6079 6080 6081 6082 6083 6084 6085 6086 6087 6088 6089 6090 6091 6092 6093 6094 6095 6096 6097 6098 6099 6100 6101 6102 6103 6104 6105 6106 6107 6108 6109 6110 6111 6112 6113 6114 6115 6116 6117 6118 6119 6120 6121 6122 6123 6124 6125 6126 6127 6128 6129 6130 6131 6132 6133 6134 6135 6136 6137 6138 6139 6140 6141 6142 6143 6144 6145 6146 6147 6148 6149 6150 6151 6152 6153 6154 6155 6156 6157 6158 6159 6160 6161 6162 6163 6164 6165 6166 6167 6168 6169 6170 6171 6172 6173 6174 6175 6176 6177 6178 6179 6180 6181 6182 6183 6184 6185 6186 6187 6188 6189 6190 6191 6192 6193 6194 6195 6196 6197 6198 6199 6200 6201 6202 6203 6204 6205 6206 6207 6208 6209 6210 6211 6212 6213 6214 6215 6216 6217 6218 6219 6220 6221 6222 6223 6224 6225 6226 6227 6228 6229 6230 6231 6232 6233 6234 6235 6236 6237 6238 6239 6240 6241 6242 6243 6244 6245 6246 6247 6248 6249 6250 6251 6252 6253 6254 6255 6256 6257 6258 6259 6260 6261 6262 6263 6264 6265 6266 6267 6268 6269 6270 6271 6272 6273 6274 6275 6276 6277 6278 6279 6280 6281 6282 6283 6284 6285 6286 6287 6288 6289 6290 6291 6292 6293 6294 6295 6296 6297 6298 6299 6300 6301 6302 6303 6304 6305 6306 6307 6308 6309 6310 6311 6312 6313 6314 6315 6316 6317 6318 6319 6320 6321 6322 6323 6324 6325 6326 6327 6328 6329 6330 6331 6332 6333 6334 6335 6336 6337 6338 6339 6340 6341 6342 6343 6344 6345 6346 6347 6348 6349 6350 6351 6352 6353 6354 6355 6356 6357 6358 6359 6360 6361 6362 6363 6364 6365 6366 6367 6368 6369 6370 6371 6372 6373 6374 6375 6376 6377 6378 6379 6380 6381 6382 6383 6384 6385 6386 6387 6388 6389 6390 6391 6392 6393 6394 6395 6396 6397 6398 6399 6400 6401 6402 6403 6404 6405 6406 6407 6408 6409 6410 6411 6412 6413 6414 6415 6416 6417 6418 6419 6420 6421 6422 6423 6424 6425 6426 6427 6428 6429 6430 6431 6432 6433 6434 6435 6436 6437 6438 6439 6440 6441 6442 6443 6444 6445 6446 6447 6448 6449 6450 6451 6452 6453 6454 6455 6456 6457 6458 6459 6460 6461 6462 6463 6464 6465 6466 6467 6468 6469 6470 6471 6472 6473 6474 6475 6476 6477 6478 6479 6480 6481 6482 6483 6484 6485 6486 6487 6488 6489 6490 6491 6492 6493 6494 6495 6496 6497 6498 6499 6500 6501 6502 6503 6504 6505 6506 6507 6508 6509 6510 6511 6512 6513 6514 6515 6516 6517 6518 6519 6520 6521 6522 6523 6524 6525 6526 6527 6528 6529 6530 6531 6532 6533 6534 6535 6536 6537 6538 6539 6540 6541 6542 6543 6544 6545 6546 6547 6548 6549 6550 6551 6552 6553 6554 6555 6556 6557 6558 6559 6560 6561 6562 6563 6564 6565 6566 6567 6568 6569 6570 6571 6572 6573 6574 6575 6576 6577 6578 6579 6580 6581 6582 6583 6584 6585 6586 6587 6588 6589 6590 6591 6592 6593 6594 6595 6596 6597 6598 6599 6600 6601 6602 6603 6604 6605 6606 6607 6608 6609 6610 6611 6612 6613 6614 6615 6616 6617 6618 6619 6620 6621 6622 6623 6624 6625 6626 6627 6628 6629 6630 6631 6632 6633 6634 6635 6636 6637 6638 6639 6640 6641 6642 6643 6644 6645 6646 6647 6648 6649 6650 6651 6652 6653 6654 6655 6656 6657 6658 6659 6660 6661 6662 6663 6664 6665 6666 6667 6668 6669 6670 6671 6672 6673 6674 6675 6676 6677 6678 6679 6680 6681 6682 6683 6684 6685 6686 6687 6688 6689 6690 6691 6692 6693 6694 6695 6696 6697 6698 6699 6700 6701 6702 6703 6704 6705 6706 6707 6708 6709 6710 6711 6712 6713 6714 6715 6716 6717 6718 6719 6720 6721 6722 6723 6724 6725 6726 6727 6728 6729 6730 6731 6732 6733 6734 6735 6736 6737 6738 6739 6740 6741 6742 6743 6744 6745 6746 6747 6748 6749 6750 6751 6752 6753 6754 6755 6756 6757 6758 6759 6760 6761 6762 6763 6764 6765 6766 6767 6768 6769 6770 6771 6772 6773 6774 6775 6776 6777 6778 6779 6780 6781 6782 6783 6784 6785 6786 6787 6788 6789 6790 6791 6792 6793 6794 6795 6796 6797 6798 6799 6800 6801 6802 6803 6804 6805 6806 6807 6808 6809 6810 6811 6812 6813 6814 6815 6816 6817 6818 6819 6820 6821 6822 6823 6824 6825 6826 6827 6828 6829 6830 6831 6832 6833 6834 6835 6836 6837 6838 6839 6840 6841 6842 6843 6844 6845 6846 6847 6848 6849 6850 6851 6852 6853 6854 6855 6856 6857 6858 6859 6860 6861 6862 6863 6864 6865 6866 6867 6868 6869 6870 6871 6872 6873 6874 6875 6876 6877 6878 6879 6880 6881 6882 6883 6884 6885 6886 6887 6888 6889 6890 6891 6892 6893 6894 6895 6896 6897 6898 6899 6900 6901 6902 6903 6904 6905 6906 6907 6908 6909 6910 6911 6912 6913 6914 6915 6916 6917 6918 6919 6920 6921 6922 6923 6924 6925 6926 6927 6928 6929 6930 6931 6932 6933 6934 6935 6936 6937 6938 6939 6940 6941 6942 6943 6944 6945 6946 6947 6948 6949 6950 6951 6952 6953 6954 6955 6956 6957 6958 6959 6960 6961 6962 6963 6964 6965 6966 6967 6968 6969 6970 6971 6972 6973 6974 6975 6976 6977 6978 6979 6980 6981 6982 6983 6984 6985 6986 6987 6988 6989 6990 6991 6992 6993 6994 6995 6996 6997 6998 6999 7000 7001 7002 7003 7004 7005 7006 7007 7008 7009 7010 7011 7012 7013 7014 7015 7016 7017 7018 7019 7020 7021 7022 7023 7024 7025 7026 7027 7028 7029 7030 7031 7032 7033 7034 7035 7036 7037 7038 7039 7040 7041 7042 7043 7044 7045 7046 7047 7048 7049 7050 7051 7052 7053 7054 7055 7056 7057 7058 7059 7060 7061 7062 7063 7064 7065 7066 7067 7068 7069 7070 7071 7072 7073 7074 7075 7076 7077 7078 7079 7080 7081 7082 7083 7084 7085 7086 7087 7088 7089 7090 7091 7092 7093 7094 7095 7096 7097 7098 7099 7100 7101 7102 7103 7104 7105 7106 7107 7108 7109 7110 7111 7112 7113 7114 7115 7116 7117 7118 7119 7120 7121 7122 7123 7124 7125 7126 7127 7128 7129 7130 7131 7132 7133 7134 7135 7136 7137 7138 7139 7140 7141 7142 7143 7144 7145 7146 7147 7148 7149 7150 7151 7152 7153 7154 7155 7156 7157 7158 7159 7160 7161 7162 7163 7164 7165 7166 7167 7168 7169 7170 7171 7172 7173 7174 7175 7176 7177 7178 7179 7180 7181 7182 7183 7184 7185 7186 7187 7188 7189 7190 7191 7192 7193 7194 7195 7196 7197 7198 7199 7200 7201 7202 7203 7204 7205 7206 7207 7208 7209 7210 7211 7212 7213 7214 7215 7216 7217 7218 7219 7220 7221 7222 7223 7224 7225 7226 7227 7228 7229 7230 7231 7232 7233 7234 7235 7236 7237 7238 7239 7240 7241 7242 7243 7244 7245 7246 7247 7248 7249 7250 7251 7252 7253 7254 7255 7256 7257 7258 7259 7260 7261 7262 7263 7264 7265 7266 7267 7268 7269 7270 7271 7272 7273 7274 7275 7276 7277 7278 7279 7280 7281 7282 7283 7284 7285 7286 7287 7288 7289 7290 7291 7292 7293 7294 7295 7296 7297 7298 7299 7300 7301 7302 7303 7304 7305 7306 7307 7308 7309 7310 7311 7312 7313 7314 7315 7316 7317 7318 7319 7320 7321 7322 7323 7324 7325 7326 7327 7328 7329 7330 7331 7332 7333 7334 7335 7336 7337 7338 7339 7340 7341 7342 7343 7344 7345 7346 7347 7348 7349 7350 7351 7352 7353 7354 7355 7356 7357 7358 7359 7360 7361 7362 7363 7364 7365 7366 7367 7368 7369 7370 7371 7372 7373 7374 7375 7376 7377 7378 7379 7380 7381 7382 7383 7384 7385 7386 7387 7388 7389 7390 7391 7392 7393 7394 7395 7396 7397 7398 7399 7400 7401 7402 7403 7404 7405 7406 7407 7408 7409 7410 7411 7412 7413 7414 7415 7416 7417 7418 7419 7420 7421 7422 7423 7424 7425 7426 7427 7428 7429 7430 7431 7432 7433 7434 7435 7436 7437 7438 7439 7440 7441 7442 7443 7444 7445 7446 7447 7448 7449 7450 7451 7452 7453 7454 7455 7456 7457 7458 7459 7460 7461 7462 7463 7464 7465 7466 7467 7468 7469 7470 7471 7472 7473 7474 7475 7476 7477 7478 7479 7480 7481 7482 7483 7484 7485 7486 7487 7488 7489 7490 7491 7492 7493 7494 7495 7496 7497 7498 7499 7500 7501 7502 7503 7504 7505 7506 7507 7508 7509 7510 7511 7512 7513 7514 7515 7516 7517 7518 7519 7520 7521 7522 7523 7524 7525 7526 7527 7528 7529 7530 7531 7532 7533 7534 7535 7536 7537 7538 7539 7540 7541 7542 7543 7544 7545 7546 7547 7548 7549 7550 7551 7552 7553 7554 7555 7556 7557 7558 7559 7560 7561 7562 7563 7564 7565 7566 7567 7568 7569 7570 7571 7572 7573 7574 7575 7576 7577 7578 7579 7580 7581 7582 7583 7584 7585 7586 7587 7588 7589 7590 7591 7592 7593 7594 7595 7596 7597 7598 7599 7600 7601 7602 7603 7604 7605 7606 7607 7608 7609 7610 7611 7612 7613 7614 7615 7616 7617 7618 7619 7620 7621 7622 7623 7624 7625 7626 7627 7628 7629 7630 7631 7632 7633 7634 7635 7636 7637 7638 7639 7640 7641 7642 7643 7644 7645 7646 7647 7648 7649 7650 7651 7652 7653 7654 7655 7656 7657 7658 7659 7660 7661 7662 7663 7664 7665 7666 7667 7668 7669 7670 7671 7672 7673 7674 7675 7676 7677 7678 7679 7680 7681 7682 7683 7684 7685 7686 7687 7688 7689 7690 7691 7692 7693 7694 7695 7696 7697 7698 7699 7700 7701 7702 7703 7704 7705 7706 7707 7708 7709 7710 7711 7712 7713 7714 7715 7716 7717 7718 7719 7720 7721 7722 7723 7724 7725 7726 7727 7728 7729 7730 7731 7732 7733 7734 7735 7736 7737 7738 7739 7740 7741 7742 7743 7744 7745 7746 7747 7748 7749 7750 7751 7752 7753 7754 7755 7756 7757 7758 7759 7760 7761 7762 7763 7764 7765 7766 7767 7768 7769 7770 7771 7772 7773 7774 7775 7776 7777 7778 7779 7780 7781 7782 7783 7784 7785 7786 7787 7788 7789 7790 7791 7792 7793 7794 7795 7796 7797 7798 7799 7800 7801 7802 7803 7804 7805 7806 7807 7808 7809 7810 7811 7812 7813 7814 7815 7816 7817 7818 7819 7820 7821 7822 7823 7824 7825 7826 7827 7828 7829 7830 7831 7832 7833 7834 7835 7836 7837 7838 7839 7840 7841 7842 7843 7844 7845 7846 7847 7848 7849 7850 7851 7852 7853 7854 7855 7856 7857 7858 7859 7860 7861 7862 7863 7864 7865 7866 7867 7868 7869 7870 7871 7872 7873 7874 7875 7876 7877 7878 7879 7880 7881 7882 7883 7884 7885 7886 7887 7888 7889 7890 7891 7892 7893 7894 7895 7896 7897 7898 7899 7900 7901 7902 7903 7904 7905 7906 7907 7908 7909 7910 7911 7912 7913 7914 7915 7916 7917 7918 7919 7920 7921 7922 7923 7924 7925 7926 7927 7928 7929 7930 7931 7932 7933 7934 7935 7936 7937 7938 7939 7940 7941 7942 7943 7944 7945 7946 7947 7948 7949 7950 7951 7952 7953 7954 7955 7956 7957 7958 7959 7960 7961 7962 7963 7964 7965 7966 7967 7968 7969 7970 7971 7972 7973 7974 7975 7976 7977 7978 7979 7980 7981 7982 7983 7984 7985 7986 7987 7988 7989 7990 7991 7992 7993 7994 7995 7996 7997 7998 7999 8000 8001 8002 8003 8004 8005 8006 8007 8008 8009 8010 8011 8012 8013 8014 8015 8016 8017 8018 8019 8020 8021 8022 8023 8024 8025 8026 8027 8028 8029 8030 8031 8032 8033 8034 8035 8036 8037 8038 8039 8040 8041 8042 8043 8044 8045 8046 8047 8048 8049 8050 8051 8052 8053 8054 8055 8056 8057 8058 8059 8060 8061 8062 8063 8064 8065 8066 8067 8068 8069 8070 8071 8072 8073 8074 8075 8076 8077 8078 8079 8080 8081 8082 8083 8084 8085 8086 8087 8088 8089 8090 8091 8092 8093 8094 8095 8096 8097 8098 8099 8100 8101 8102 8103 8104 8105 8106 8107 8108 8109 8110 8111 8112 8113 8114 8115 8116 8117 8118 8119 8120 8121 8122 8123 8124 8125 8126 8127 8128 8129 8130 8131 8132 8133 8134 8135 8136 8137 8138 8139 8140 8141 8142 8143 8144 8145 8146 8147 8148 8149 8150 8151 8152 8153 8154 8155 8156 8157 8158 8159 8160 8161 8162 8163 8164 8165 8166 8167 8168 8169 8170 8171 8172 8173 8174 8175 8176 8177 8178 8179 8180 8181 8182 8183 8184 8185 8186 8187 8188 8189 8190 8191 8192 8193 8194 8195 8196 8197 8198 8199 8200 8201 8202 8203 8204 8205 8206 8207 8208 8209 8210 8211 8212 8213 8214 8215 8216 8217 8218 8219 8220 8221 8222 8223 8224 8225 8226 8227 8228 8229 8230 8231 8232 8233 8234 8235 8236 8237 8238 8239 8240 8241 8242 8243 8244 8245 8246 8247 8248 8249 8250 8251 8252 8253 8254 8255 8256 8257 8258 8259 8260 8261 8262 8263 8264 8265 8266 8267 8268 8269 8270 8271 8272 8273 8274 8275 8276 8277 8278 8279 8280 8281 8282 8283 8284 8285 8286 8287 8288 8289 8290 8291 8292 8293 8294 8295 8296 8297 8298 8299 8300 8301 8302 8303 8304 8305 8306 8307 8308 8309 8310 8311 8312 8313 8314 8315 8316 8317 8318 8319 8320 8321 8322 8323 8324 8325 8326 8327 8328 8329 8330 8331 8332 8333 8334 8335 8336 8337 8338 8339 8340 8341 8342 8343 8344 8345 8346 8347 8348 8349 8350 8351 8352 8353 8354 8355 8356 8357 8358 8359 8360 8361 8362 8363 8364 8365 8366 8367 8368 8369 8370 8371 8372 8373 8374 8375 8376 8377 8378 8379 8380 8381 8382 8383 8384 8385 8386 8387 8388 8389 8390 8391 8392 8393 8394 8395 8396 8397 8398 8399 8400 8401 8402 8403 8404 8405 8406 8407 8408 8409 8410 8411 8412 8413 8414 8415 8416 8417 8418 8419 8420 8421 8422 8423 8424 8425 8426 8427 8428 8429 8430 8431 8432 8433 8434 8435 8436 8437 8438 8439 8440 8441 8442 8443 8444 8445 8446 8447 8448 8449 8450 8451 8452 8453 8454 8455 8456 8457 8458 8459 8460 8461 8462 8463 8464 8465 8466 8467 8468 8469 8470 8471 8472 8473 8474 8475 8476 8477 8478 8479 8480 8481 8482 8483 8484 8485 8486 8487 8488 8489 8490 8491 8492 8493 8494 8495 8496 8497 8498 8499 8500 8501 8502 8503 8504 8505 8506 8507 8508 8509 8510 8511 8512 8513 8514 8515 8516 8517 8518 8519 8520 8521 8522 8523 8524 8525 8526 8527 8528 8529 8530 8531 8532 8533 8534 8535 8536 8537 8538 8539 8540 8541 8542 8543 8544 8545 8546 8547 8548 8549 8550 8551 8552 8553 8554 8555 8556 8557 8558 8559 8560 8561 8562 8563 8564 8565 8566 8567 8568 8569 8570 8571 8572 8573 8574 8575 8576 8577 8578 8579 8580 8581 8582 8583 8584 8585 8586 8587 8588 8589 8590 8591 8592 8593 8594 8595 8596 8597 8598 8599 8600 8601 8602 8603 8604 8605 8606 8607 8608 8609 8610 8611 8612 8613 8614 8615 8616 8617 8618 8619 8620 8621 8622 8623 8624 8625 8626 8627 8628 8629 8630 8631 8632 8633 8634 8635 8636 8637 8638 8639 8640 8641 8642 8643 8644 8645 8646 8647 8648 8649 8650 8651 8652 8653 8654 8655 8656 8657 8658 8659 8660 8661 8662 8663 8664 8665 8666 8667 8668 8669 8670 8671 8672 8673 8674 8675 8676 8677 8678 8679 8680 8681 8682 8683 8684 8685 8686 8687 8688 8689 8690 8691 8692 8693 8694 8695 8696 8697 8698 8699 8700 8701 8702 8703 8704 8705 8706 8707 8708 8709 8710 8711 8712 8713 8714 8715 8716 8717 8718 8719 8720 8721 8722 8723 8724 8725 8726 8727 8728 8729 8730 8731 8732 8733 8734 8735 8736 8737 8738 8739 8740 8741 8742 8743 8744 8745 8746 8747 8748 8749 8750 8751 8752 8753 8754 8755 8756 8757 8758 8759 8760 8761 8762 8763 8764 8765 8766 8767 8768 8769 8770 8771 8772 8773 8774 8775 8776 8777 8778 8779 8780 8781 8782 8783 8784 8785 8786 8787 8788 8789 8790 8791 8792 8793 8794 8795 8796 8797 8798 8799 8800 8801 8802 8803 8804 8805 8806 8807 8808 8809 8810 8811 8812 8813 8814 8815 8816 8817 8818 8819 8820 8821 8822 8823 8824 8825 8826 8827 8828 8829 8830 8831 8832 8833 8834 8835 8836 8837 8838 8839 8840 8841 8842 8843 8844 8845 8846 8847 8848 8849 8850 8851 8852 8853 8854 8855 8856 8857 8858 8859 8860 8861 8862 8863 8864 8865 8866 8867 8868 8869 8870 8871 8872 8873 8874 8875 8876 8877 8878 8879 8880 8881 8882 8883 8884 8885 8886 8887 8888 8889 8890 8891 8892 8893 8894 8895 8896 8897 8898 8899 8900 8901 8902 8903 8904 8905 8906 8907 8908 8909 8910 8911 8912 8913 8914 8915 8916 8917 8918 8919 8920 8921 8922 8923 8924 8925 8926 8927 8928 8929 8930 8931 8932 8933 8934 8935 8936 8937 8938 8939 8940 8941 8942 8943 8944 8945 8946 8947 8948 8949 8950 8951 8952 8953 8954 8955 8956 8957 8958 8959 8960 8961 8962 8963 8964 8965 8966 8967 8968 8969 8970 8971 8972 8973 8974 8975 8976 8977 8978 8979 8980 8981 8982 8983 8984 8985 8986 8987 8988 8989 8990 8991 8992 8993 8994 8995 8996 8997 8998 8999 9000 9001 9002 9003 9004 9005 9006 9007 9008 9009 9010 9011 9012 9013 9014 9015 9016 9017 9018 9019 9020 9021 9022 9023 9024 9025 9026 9027 9028 9029 9030 9031 9032 9033 9034 9035 9036 9037 9038 9039 9040 9041 9042 9043 9044 9045 9046 9047 9048 9049 9050 9051 9052 9053 9054 9055 9056 9057 9058 9059 9060 9061 9062 9063 9064 9065 9066 9067 9068 9069 9070 9071 9072 9073 9074 9075 9076 9077 9078 9079 9080 9081 9082 9083 9084 9085 9086 9087 9088 9089 9090 9091 9092 9093 9094 9095 9096 9097 9098 9099 9100 9101 9102 9103 9104 9105 9106 9107 9108 9109 9110 9111 9112 9113 9114 9115 9116 9117 9118 9119 9120 9121 9122 9123 9124 9125 9126 9127 9128 9129 9130 9131 9132 9133 9134 9135 9136 9137 9138 9139 9140 9141 9142 9143 9144 9145 9146 9147 9148 9149 9150 9151 9152 9153 9154 9155 9156 9157 9158 9159 9160 9161 9162 9163 9164 9165 9166 9167 9168 9169 9170 9171 9172 9173 9174 9175 9176 9177 9178 9179 9180 9181 9182 9183 9184 9185 9186 9187 9188 9189 9190 9191 9192 9193 9194 9195 9196 9197 9198 9199 9200 9201 9202 9203 9204 9205 9206 9207 9208 9209 9210 9211 9212 9213 9214 9215 9216 9217 9218 9219 9220 9221 9222 9223 9224 9225 9226 9227 9228 9229 9230 9231 9232 9233 9234 9235 9236 9237 9238 9239 9240 9241 9242 9243 9244 9245 9246 9247 9248 9249 9250 9251 9252 9253 9254 9255 9256 9257 9258 9259 9260 9261 9262 9263 9264 9265 9266 9267 9268 9269 9270 9271 9272 9273 9274 9275 9276 9277 9278 9279 9280 9281 9282 9283 9284 9285 9286 9287 9288 9289 9290 9291 9292 9293 9294 9295 9296 9297 9298 9299 9300 9301 9302 9303 9304 9305 9306 9307 9308 9309 9310 9311 9312 9313 9314 9315 9316 9317 9318 9319 9320 9321 9322 9323 9324 9325 9326 9327 9328 9329 9330 9331 9332 9333 9334 9335 9336 9337 9338 9339 9340 9341 9342 9343 9344 9345 9346 9347 9348 9349 9350 9351 9352 9353 9354 9355 9356 9357 9358 9359 9360 9361 9362 9363 9364 9365 9366 9367 9368 9369 9370 9371 9372 9373 9374 9375 9376 9377 9378 9379 9380 9381 9382 9383 9384 9385 9386 9387 9388 9389 9390 9391 9392 9393 9394 9395 9396 9397 9398 9399 9400 9401 9402 9403 9404 9405 9406 9407 9408 9409 9410 9411 9412 9413 9414 9415 9416 9417 9418 9419 9420 9421 9422 9423 9424 9425 9426 9427 9428 9429 9430 9431 9432 9433 9434 9435 9436 9437 9438 9439 9440 9441 9442 9443 9444 9445 9446 9447 9448 9449 9450 9451 9452 9453 9454 9455 9456 9457 9458 9459 9460 9461 9462 9463 9464 9465 9466 9467 9468 9469 9470 9471 9472 9473 9474 9475 9476 9477 9478 9479 9480 9481 9482 9483 9484 9485 9486 9487 9488 9489 9490 9491 9492 9493 9494 9495 9496 9497 9498 9499 9500 9501 9502 9503 9504 9505 9506 9507 9508 9509 9510 9511 9512 9513 9514 9515 9516 9517 9518 9519 9520 9521 9522 9523 9524 9525 9526 9527 9528 9529 9530 9531 9532 9533 9534 9535 9536 9537 9538 9539 9540 9541 9542 9543 9544 9545 9546 9547 9548 9549 9550 9551 9552 9553 9554 9555 9556 9557 9558 9559 9560 9561 9562 9563 9564 9565 9566 9567 9568 9569 9570 9571 9572 9573 9574 9575 9576 9577 9578 9579 9580 9581 9582 9583 9584 9585 9586 9587 9588 9589 9590 9591 9592 9593 9594 9595 9596 9597 9598 9599 9600 9601 9602 9603 9604 9605 9606 9607 9608 9609 9610 9611 9612 9613 9614 9615 9616 9617 9618 9619 9620 9621 9622 9623 9624 9625 9626 9627 9628 9629 9630 9631 9632 9633 9634 9635 9636 9637 9638 9639 9640 9641 9642 9643 9644 9645 9646 9647 9648 9649 9650 9651 9652 9653 9654 9655 9656 9657 9658 9659 9660 9661 9662 9663 9664 9665 9666 9667 9668 9669 9670 9671 9672 9673 9674 9675 9676 9677 9678 9679 9680 9681 9682 9683 9684 9685 9686 9687 9688 9689 9690 9691 9692 9693 9694 9695 9696 9697 9698 9699 9700 9701 9702 9703 9704 9705 9706 9707 9708 9709 9710 9711 9712 9713 9714 9715 9716 9717 9718 9719 9720 9721 9722 9723 9724 9725 9726 9727 9728 9729 9730 9731 9732 9733 9734 9735 9736 9737 9738 9739 9740 9741 9742 9743 9744 9745 9746 9747 9748 9749 9750 9751 9752 9753 9754 9755 9756 9757 9758 9759 9760 9761 9762 9763 9764 9765 9766 9767 9768 9769 9770 9771 9772 9773 9774 9775 9776 9777 9778 9779 9780 9781 9782 9783 9784 9785 9786 9787 9788 9789 9790 9791 9792 9793 9794 9795 9796 9797 9798 9799 9800 9801 9802 9803 9804 9805 9806 9807 9808 9809 9810 9811 9812 9813 9814 9815 9816 9817 9818 9819 9820 9821 9822 9823 9824 9825 9826 9827 9828 9829 9830 9831 9832 9833 9834 9835 9836 9837 9838 9839 9840 9841 9842 9843 9844 9845 9846 9847 9848 9849 9850 9851 9852 9853 9854 9855 9856 9857 9858 9859 9860 9861 9862 9863 9864 9865 9866 9867 9868 9869 9870 9871 9872 9873 9874 9875 9876 9877 9878 9879 9880 9881 9882 9883 9884 9885 9886 9887 9888 9889 9890 9891 9892 9893 9894 9895 9896 9897 9898 9899 9900 9901 9902 9903 9904 9905 9906 9907 9908 9909 9910 9911 9912 9913 9914 9915 9916 9917 9918 9919 9920 9921 9922 9923 9924 9925 9926 9927 9928 9929 9930 9931 9932 9933 9934 9935 9936 9937 9938 9939 9940 9941 9942 9943 9944 9945 9946 9947 9948 9949 9950 9951 9952 9953 9954 9955 9956 9957 9958 9959 9960 9961 9962 9963 9964 9965 9966 9967 9968 9969 9970 9971 9972 9973 9974 9975 9976 9977 9978 9979 9980 9981 9982 9983 9984 9985 9986 9987 9988 9989 9990 9991 9992 9993 9994 9995 9996 9997 9998 9999 10000 10001 10002 10003 10004 10005 10006 10007 10008 10009 10010 10011 10012 10013 10014 10015 10016 10017 10018 10019 10020 10021 10022 10023 10024 10025 10026 10027 10028 10029 10030 10031 10032 10033 10034 10035 10036 10037 10038 10039 10040 10041 10042 10043 10044 10045 10046 10047 10048 10049 10050 10051 10052 10053 10054 10055 10056 10057 10058 10059 10060 10061 10062 10063 10064 10065 10066 10067 10068 10069 10070 10071 10072 10073 10074 10075 10076 10077 10078 10079 10080 10081 10082 10083 10084 10085 10086 10087 10088 10089 10090 10091 10092 10093 10094 10095 10096 10097 10098 10099 10100 10101 10102 10103 10104 10105 10106 10107 10108 10109 10110 10111 10112 10113 10114 10115 10116 10117 10118 10119 10120 10121 10122 10123 10124 10125 10126 10127 10128 10129 10130 10131 10132 10133 10134 10135 10136 10137 10138 10139 10140 10141 10142 10143 10144 10145 10146 10147 10148 10149 10150 10151 10152 10153 10154 10155 10156 10157 10158 10159 10160 10161 10162 10163 10164 10165 10166 10167 10168 10169 10170 10171 10172 10173 10174 10175 10176 10177 10178 10179 10180 10181 10182 10183 10184 10185 10186 10187 10188 10189 10190 10191 10192 10193 10194 10195 10196 10197 10198 10199 10200 10201 10202 10203 10204 10205 10206 10207 10208 10209 10210 10211 10212 10213 10214 10215 10216 10217 10218 10219 10220 10221 10222 10223 10224 10225 10226 10227 10228 10229 10230 10231 10232 10233 10234 10235 10236 10237 10238 10239 10240 10241 10242 10243 10244 10245 10246 10247 10248 10249 10250 10251 10252 10253 10254 10255 10256 10257 10258 10259 10260 10261 10262 10263 10264 10265 10266 10267 10268 10269 10270 10271 10272 10273 10274 10275 10276 10277 10278 10279 10280 10281 10282 10283 10284 10285 10286 10287 10288 10289 10290 10291 10292 10293 10294 10295 10296 10297 10298 10299 10300 10301 10302 10303 10304 10305 10306 10307 10308 10309 10310 10311 10312 10313 10314 10315 10316 10317 10318 10319 10320 10321 10322 10323 10324 10325 10326 10327 10328 10329 10330 10331 10332 10333 10334 10335 10336 10337 10338 10339 10340 10341 10342 10343 10344 10345 10346 10347 10348 10349 10350 10351 10352 10353 10354 10355 10356 10357 10358 10359 10360 10361 10362 10363 10364 10365 10366 10367 10368 10369 10370 10371 10372 10373 10374 10375 10376 10377 10378 10379 10380 10381 10382 10383 10384 10385 10386 10387 10388 10389 10390 10391 10392 10393 10394 10395 10396 10397 10398 10399 10400 10401 10402 10403 10404 10405 10406 10407 10408 10409 10410 10411 10412 10413 10414 10415 10416 10417 10418 10419 10420 10421 10422 10423 10424 10425 10426 10427 10428 10429 10430 10431 10432 10433 10434 10435 10436 10437 10438 10439 10440 10441 10442 10443 10444 10445 10446 10447 10448 10449 10450 10451 10452 10453 10454 10455 10456 10457 10458 10459 10460 10461 10462 10463 10464 10465 10466 10467 10468 10469 10470 10471 10472 10473 10474 10475 10476 10477 10478 10479 10480 10481 10482 10483 10484 10485 10486 10487 10488 10489 10490 10491 10492 10493 10494 10495 10496 10497 10498 10499 10500 10501 10502 10503 10504 10505 10506 10507 10508 10509 10510 10511 10512 10513 10514 10515 10516 10517 10518 10519 10520 10521 10522 10523 10524 10525 10526 10527 10528 10529 10530 10531 10532 10533 10534 10535 10536 10537 10538 10539 10540 10541 10542 10543 10544 10545 10546 10547 10548 10549 10550 10551 10552 10553 10554 10555 10556 10557 10558 10559 10560 10561 10562 10563 10564 10565 10566 10567 10568 10569 10570 10571 10572 10573 10574 10575 10576 10577 10578 10579 10580 10581 10582 10583 10584 10585 10586 10587 10588 10589 10590 10591 10592 10593 10594 10595 10596 10597 10598 10599 10600 10601 10602 10603 10604 10605 10606 10607 10608 10609 10610 10611 10612 10613 10614 10615 10616 10617 10618 10619 10620 10621 10622 10623 10624 10625 10626 10627 10628 10629 10630 10631 10632 10633 10634 10635 10636 10637 10638 10639 10640 10641 10642 10643 10644 10645 10646 10647 10648 10649 10650 10651 10652 10653 10654 10655 10656 10657 10658 10659 10660 10661 10662 10663 10664 10665 10666 10667 10668 10669 10670 10671 10672 10673 10674 10675 10676 10677 10678 10679 10680 10681 10682 10683 10684 10685 10686 10687 10688 10689 10690 10691 10692 10693 10694 10695 10696 10697 10698 10699 10700 10701 10702 10703 10704 10705 10706 10707 10708 10709 10710 10711 10712 10713 10714 10715 10716 10717 10718 10719 10720 10721 10722 10723 10724 10725 10726 10727 10728 10729 10730 10731 10732 10733 10734 10735 10736 10737 10738 10739 10740 10741 10742 10743 10744 10745 10746 10747 10748 10749 10750 10751 10752 10753 10754 10755 10756 10757 10758 10759 10760 10761 10762 10763 10764 10765 10766 10767 10768 10769 10770 10771 10772 10773 10774 10775 10776 10777 10778 10779 10780 10781 10782 10783 10784 10785 10786 10787 10788 10789 10790 10791 10792 10793 10794 10795 10796 10797 10798 10799 10800 10801 10802 10803 10804 10805 10806 10807 10808 10809 10810 10811 10812 10813 10814 10815 10816 10817 10818 10819 10820 10821 10822 10823 10824 10825 10826 10827 10828 10829 10830 10831 10832 10833 10834 10835 10836 10837 10838 10839 10840 10841 10842 10843 10844 10845 10846 10847 10848 10849 10850 10851 10852 10853 10854 10855 10856 10857 10858 10859 10860 10861 10862 10863 10864 10865 10866 10867 10868 10869 10870 10871 10872 10873 10874 10875 10876 10877 10878 10879 10880 10881 10882 10883 10884 10885 10886 10887 10888 10889 10890 10891 10892 10893 10894 10895 10896 10897 10898 10899 10900 10901 10902 10903 10904 10905 10906 10907 10908 10909 10910 10911 10912 10913 10914 10915 10916 10917 10918 10919 10920 10921 10922 10923 10924 10925 10926 10927 10928 10929 10930 10931 10932 10933 10934 10935 10936 10937 10938 10939 10940 10941 10942 10943 10944 10945 10946 10947 10948 10949 10950 10951 10952 10953 10954 10955 10956 10957 10958 10959 10960 10961 10962 10963 10964 10965 10966 10967 10968 10969 10970 10971 10972 10973 10974 10975 10976 10977 10978 10979 10980 10981 10982 10983 10984 10985 10986 10987 10988 10989 10990 10991 10992 10993 10994 10995 10996 10997 10998 10999 11000 11001 11002 11003 11004 11005 11006 11007 11008 11009 11010 11011 11012 11013 11014 11015 11016 11017 11018 11019 11020 11021 11022 11023 11024 11025 11026 11027 11028 11029 11030 11031 11032 11033 11034 11035 11036 11037 11038 11039 11040 11041 11042 11043 11044 11045 11046 11047 11048 11049 11050 11051 11052 11053 11054 11055 11056 11057 11058 11059 11060 11061 11062 11063 11064 11065 11066 11067 11068 11069 11070 11071 11072 11073 11074 11075 11076 11077 11078 11079 11080 11081 11082 11083 11084 11085 11086 11087 11088 11089 11090 11091 11092 11093 11094 11095 11096 11097 11098 11099 11100 11101 11102 11103 11104 11105 11106 11107 11108 11109 11110 11111 11112 11113 11114 11115 11116 11117 11118 11119 11120 11121 11122 11123 11124 11125 11126 11127 11128 11129 11130 11131 11132 11133 11134 11135 11136 11137 11138 11139 11140 11141 11142 11143 11144 11145 11146 11147 11148 11149 11150 11151 11152 11153 11154 11155 11156 11157 11158 11159 11160 11161 11162 11163 11164 11165 11166 11167 11168 11169 11170 11171 11172 11173 11174 11175 11176 11177 11178 11179 11180 11181 11182 11183 11184 11185 11186 11187 11188 11189 11190 11191 11192 11193 11194 11195 11196 11197 11198 11199 11200 11201 11202 11203 11204 11205 11206 11207 11208 11209 11210 11211 11212 11213 11214 11215 11216 11217 11218 11219 11220 11221 11222 11223 11224 11225 11226 11227 11228 11229 11230 11231 11232 11233 11234 11235 11236 11237 11238 11239 11240 11241 11242 11243 11244 11245 11246 11247 11248 11249 11250 11251 11252 11253 11254 11255 11256 11257 11258 11259 11260 11261 11262 11263 11264 11265 11266 11267 11268 11269 11270 11271 11272 11273 11274 11275 11276 11277 11278 11279 11280 11281 11282 11283 11284 11285 11286 11287 11288 11289 11290 11291 11292 11293 11294 11295 11296 11297 11298 11299 11300 11301 11302 11303 11304 11305 11306 11307 11308 11309 11310 11311 11312 11313 11314 11315 11316 11317 11318 11319 11320 11321 11322 11323 11324 11325 11326 11327 11328 11329 11330 11331 11332 11333 11334 11335 11336 11337 11338 11339 11340 11341 11342 11343 11344 11345 11346 11347 11348 11349 11350 11351 11352 11353 11354 11355 11356 11357 11358 11359 11360 11361 11362 11363 11364 11365 11366 11367 11368 11369 11370 11371 11372 11373 11374 11375 11376 11377 11378 11379 11380 11381 11382 11383 11384 11385 11386 11387 11388 11389 11390 11391 11392 11393 11394 11395 11396 11397 11398 11399 11400 11401 11402 11403 11404 11405 11406 11407 11408 11409 11410 11411 11412 11413 11414 11415 11416 11417 11418 11419 11420 11421 11422 11423 11424 11425 11426 11427 11428 11429 11430 11431 11432 11433 11434 11435 11436 11437 11438 11439 11440 11441 11442 11443 11444 11445 11446 11447 11448 11449 11450 11451 11452 11453 11454 11455 11456 11457 11458 11459 11460 11461 11462 11463 11464 11465 11466 11467 11468 11469 11470 11471 11472 11473 11474 11475 11476 11477 11478 11479 11480 11481 11482 11483 11484 11485 11486 11487 11488 11489 11490 11491 11492 11493 11494 11495 11496 11497 11498 11499 11500 11501 11502 11503 11504 11505 11506 11507 11508 11509 11510 11511 11512 11513 11514 11515 11516 11517 11518 11519 11520 11521 11522 11523 11524 11525 11526 11527 11528 11529 11530 11531 11532 11533 11534 11535 11536 11537 11538 11539 11540 11541 11542 11543 11544 11545 11546 11547 11548 11549 11550 11551 11552 11553 11554 11555 11556 11557 11558 11559 11560 11561 11562 11563 11564 11565 11566 11567 11568 11569 11570 11571 11572 11573 11574 11575 11576 11577 11578 11579 11580 11581 11582 11583 11584 11585 11586 11587 11588 11589 11590 11591 11592 11593 11594 11595 11596 11597 11598 11599 11600 11601 11602 11603 11604 11605 11606 11607 11608 11609 11610 11611 11612 11613 11614 11615 11616 11617 11618 11619 11620 11621 11622 11623 11624 11625 11626 11627 11628 11629 11630 11631 11632 11633 11634 11635 11636 11637 11638 11639 11640 11641 11642 11643 11644 11645 11646 11647 11648 11649 11650 11651 11652 11653 11654 11655 11656 11657 11658 11659 11660 11661 11662 11663 11664 11665 11666 11667 11668 11669 11670 11671 11672 11673 11674 11675 11676 11677 11678 11679 11680 11681 11682 11683 11684 11685 11686 11687 11688 11689 11690 11691 11692 11693 11694 11695 11696 11697 11698 11699 11700 11701 11702 11703 11704 11705 11706 11707 11708 11709 11710 11711 11712 11713 11714 11715 11716 11717 11718 11719 11720 11721 11722 11723 11724 11725 11726 11727 11728 11729 11730 11731 11732 11733 11734 11735 11736 11737 11738 11739 11740 11741 11742 11743 11744 11745 11746 11747 11748 11749 11750 11751 11752 11753 11754 11755 11756 11757 11758 11759 11760 11761 11762 11763 11764 11765 11766 11767 11768 11769 11770 11771 11772 11773 11774 11775 11776 11777 11778 11779 11780 11781 11782 11783 11784 11785 11786 11787 11788 11789 11790 11791 11792 11793 11794 11795 11796 11797 11798 11799 11800 11801 11802 11803 11804 11805 11806 11807 11808 11809 11810 11811 11812 11813 11814 11815 11816 11817 11818 11819 11820 11821 11822 11823 11824 11825 11826 11827 11828 11829 11830 11831 11832 11833 11834 11835 11836 11837 11838 11839 11840 11841 11842 11843 11844 11845 11846 11847 11848 11849 11850 11851 11852 11853 11854 11855 11856 11857 11858 11859 11860 11861 11862 11863 11864 11865 11866 11867 11868 11869 11870 11871 11872 11873 11874 11875 11876 11877 11878 11879 11880 11881 11882 11883 11884 11885 11886 11887 11888 11889 11890 11891 11892 11893 11894 11895 11896 11897 11898 11899 11900 11901 11902 11903 11904 11905 11906 11907 11908 11909 11910 11911 11912 11913 11914 11915 11916 11917 11918 11919 11920 11921 11922 11923 11924 11925 11926 11927 11928 11929 11930 11931 11932 11933 11934 11935 11936 11937 11938 11939 11940 11941 11942 11943 11944 11945 11946 11947 11948 11949 11950 11951 11952 11953 11954 11955 11956 11957 11958 11959 11960 11961 11962 11963 11964 11965 11966 11967 11968 11969 11970 11971 11972 11973 11974 11975 11976 11977 11978 11979 11980 11981 11982 11983 11984 11985 11986 11987 11988 11989 11990 11991 11992 11993 11994 11995 11996 11997 11998 11999 12000 12001 12002 12003 12004 12005 12006 12007 12008 12009 12010 12011 12012 12013 12014 12015 12016 12017 12018 12019 12020 12021 12022 12023 12024 12025 12026 12027 12028 12029 12030 12031 12032 12033 12034 12035 12036 12037 12038 12039 12040 12041 12042 12043 12044 12045 12046 12047 12048 12049 12050 12051 12052 12053 12054 12055 12056 12057 12058 12059 12060 12061 12062 12063 12064 12065 12066 12067 12068 12069 12070 12071 12072 12073 12074 12075 12076 12077 12078 12079 12080 12081 12082 12083 12084 12085 12086 12087 12088 12089 12090 12091 12092 12093 12094 12095 12096 12097 12098 12099 12100 12101 12102 12103 12104 12105 12106 12107 12108 12109 12110 12111 12112 12113 12114 12115 12116 12117 12118 12119 12120 12121 12122 12123 12124 12125 12126 12127 12128 12129 12130 12131 12132 12133 12134 12135 12136 12137 12138 12139 12140 12141 12142 12143 12144 12145 12146 12147 12148 12149 12150 12151 12152 12153 12154 12155 12156 12157 12158 12159 12160 12161 12162 12163 12164 12165 12166 12167 12168 12169 12170 12171 12172 12173 12174 12175 12176 12177 12178 12179 12180 12181 12182 12183 12184 12185 12186 12187 12188 12189 12190 12191 12192 12193 12194 12195 12196 12197 12198 12199 12200 12201 12202 12203 12204 12205 12206 12207 12208 12209 12210 12211 12212 12213 12214 12215 12216 12217 12218 12219 12220 12221 12222 12223 12224 12225 12226 12227 12228 12229 12230 12231 12232 12233 12234 12235 12236 12237 12238 12239 12240 12241 12242 12243 12244 12245 12246 12247 12248 12249 12250 12251 12252 12253 12254 12255 12256 12257 12258 12259 12260 12261 12262 12263 12264 12265 12266 12267 12268 12269 12270 12271 12272 12273 12274 12275 12276 12277 12278 12279 12280 12281 12282 12283 12284 12285 12286 12287 12288 12289 12290 12291 12292 12293 12294 12295 12296 12297 12298 12299 12300 12301 12302 12303 12304 12305 12306 12307 12308 12309 12310 12311 12312 12313 12314 12315 12316 12317 12318 12319 12320 12321 12322 12323 12324 12325 12326 12327 12328 12329 12330 12331 12332 12333 12334 12335 12336 12337 12338 12339 12340 12341 12342 12343 12344 12345 12346 12347 12348 12349 12350 12351 12352 12353 12354 12355 12356 12357 12358 12359 12360 12361 12362 12363 12364 12365 12366 12367 12368 12369 12370 12371 12372 12373 12374 12375 12376 12377 12378 12379 12380 12381 12382 12383 12384 12385 12386 12387 12388 12389 12390 12391 12392 12393 12394 12395 12396 12397 12398 12399 12400 12401 12402 12403 12404 12405 12406 12407 12408 12409 12410 12411 12412 12413 12414 12415 12416 12417 12418 12419 12420 12421 12422 12423 12424 12425 12426 12427 12428 12429 12430 12431 12432 12433 12434 12435 12436 12437 12438 12439 12440 12441 12442 12443 12444 12445 12446 12447 12448 12449 12450 12451 12452 12453 12454 12455 12456 12457 12458 12459 12460 12461 12462 12463 12464 12465 12466 12467 12468 12469 12470 12471 12472 12473 12474 12475 12476 12477 12478 12479 12480 12481 12482 12483 12484 12485 12486 12487 12488 12489 12490 12491 12492 12493 12494 12495 12496 12497 12498 12499 12500 12501 12502 12503 12504 12505 12506 12507 12508 12509 12510 12511 12512 12513 12514 12515 12516 12517 12518 12519 12520 12521 12522 12523 12524 12525 12526 12527 12528 12529 12530 12531 12532 12533 12534 12535 12536 12537 12538 12539 12540 12541 12542 12543 12544 12545 12546 12547 12548 12549 12550 12551 12552 12553 12554 12555 12556 12557 12558 12559 12560 12561 12562 12563 12564 12565 12566 12567 12568 12569 12570 12571 12572 12573 12574 12575 12576 12577 12578 12579 12580 12581 12582 12583 12584 12585 12586 12587 12588 12589 12590 12591 12592 12593 12594 12595 12596 12597 12598 12599 12600 12601 12602 12603 12604 12605 12606 12607 12608 12609 12610 12611 12612 12613 12614 12615 12616 12617 12618 12619 12620 12621 12622 12623 12624 12625 12626 12627 12628 12629 12630 12631 12632 12633 12634 12635 12636 12637 12638 12639 12640 12641 12642 12643 12644 12645 12646 12647 12648 12649 12650 12651 12652 12653 12654 12655 12656 12657 12658 12659 12660 12661 12662 12663 12664 12665 12666 12667 12668 12669 12670 12671 12672 12673 12674 12675 12676 12677 12678 12679 12680 12681 12682 12683 12684 12685 12686 12687 12688 12689 12690 12691 12692 12693 12694 12695 12696 12697 12698 12699 12700 12701 12702 12703 12704 12705 12706 12707 12708 12709 12710 12711 12712 12713 12714 12715 12716 12717 12718 12719 12720 12721 12722 12723 12724 12725 12726 12727 12728 12729 12730 12731 12732 12733 12734 12735 12736 12737 12738 12739 12740 12741 12742 12743 12744 12745 12746 12747 12748 12749 12750 12751 12752 12753 12754 12755 12756 12757 12758 12759 12760 12761 12762 12763 12764 12765 12766 12767 12768 12769 12770 12771 12772 12773 12774 12775 12776 12777 12778 12779 12780 12781 12782 12783 12784 12785 12786 12787 12788 12789 12790 12791 12792 12793 12794 12795 12796 12797 12798 12799 12800 12801 12802 12803 12804 12805 12806 12807 12808 12809 12810 12811 12812 12813 12814 12815 12816 12817 12818 12819 12820 12821 12822 12823 12824 12825 12826 12827 12828 12829 12830 12831 12832 12833 12834 12835 12836 12837 12838 12839 12840 12841 12842 12843 12844 12845 12846 12847 12848 12849 12850 12851 12852 12853 12854 12855 12856 12857 12858 12859 12860 12861 12862 12863 12864 12865 12866 12867 12868 12869 12870 12871 12872 12873 12874 12875 12876 12877 12878 12879 12880 12881 12882 12883 12884 12885 12886 12887 12888 12889 12890 12891 12892 12893 12894 12895 12896 12897 12898 12899 12900 12901 12902 12903 12904 12905 12906 12907 12908 12909 12910 12911 12912 12913 12914 12915 12916 12917 12918 12919 12920 12921 12922 12923 12924 12925 12926 12927 12928 12929 12930 12931 12932 12933 12934 12935 12936 12937 12938 12939 12940 12941 12942 12943 12944 12945 12946 12947 12948 12949 12950 12951 12952 12953 12954 12955 12956 12957 12958 12959 12960 12961 12962 12963 12964 12965 12966 12967 12968 12969 12970 12971 12972 12973 12974 12975 12976 12977 12978 12979 12980 12981 12982 12983 12984 12985 12986 12987 12988 12989 12990 12991 12992 12993 12994 12995 12996 12997 12998 12999 13000 13001 13002 13003 13004 13005 13006 13007 13008 13009 13010 13011 13012 13013 13014 13015 13016 13017 13018 13019 13020 13021 13022 13023 13024 13025 13026 13027 13028 13029 13030 13031 13032 13033 13034 13035 13036 13037 13038 13039 13040 13041 13042 13043 13044 13045 13046 13047 13048 13049 13050 13051 13052 13053 13054 13055 13056 13057 13058 13059 13060 13061 13062 13063 13064 13065 13066 13067 13068 13069 13070 13071 13072 13073 13074 13075 13076 13077 13078 13079 13080 13081 13082 13083 13084 13085 13086 13087 13088 13089 13090 13091 13092 13093 13094 13095 13096 13097 13098 13099 13100 13101 13102 13103 13104 13105 13106 13107 13108 13109 13110 13111 13112 13113 13114 13115 13116 13117 13118 13119 13120 13121 13122 13123 13124 13125 13126 13127 13128 13129 13130 13131 13132 13133 13134 13135 13136 13137 13138 13139 13140 13141 13142 13143 13144 13145 13146 13147 13148 13149 13150 13151 13152 13153 13154 13155 13156 13157 13158 13159 13160 13161 13162 13163 13164 13165 13166 13167 13168 13169 13170 13171 13172 13173 13174 13175 13176 13177 13178 13179 13180 13181 13182 13183 13184 13185 13186 13187 13188 13189 13190 13191 13192 13193 13194 13195 13196 13197 13198 13199 13200 13201 13202 13203 13204 13205 13206 13207 13208 13209 13210 13211 13212 13213 13214 13215 13216 13217 13218 13219 13220 13221 13222 13223 13224 13225 13226 13227 13228 13229 13230 13231 13232 13233 13234 13235 13236 13237 13238 13239 13240 13241 13242 13243 13244 13245 13246 13247 13248 13249 13250 13251 13252 13253 13254 13255 13256 13257 13258 13259 13260 13261 13262 13263 13264 13265 13266 13267 13268 13269 13270 13271 13272 13273 13274 13275 13276 13277 13278 13279 13280 13281 13282 13283 13284 13285 13286 13287 13288 13289 13290 13291 13292 13293 13294 13295 13296 13297 13298 13299 13300 13301 13302 13303 13304 13305 13306 13307 13308 13309 13310 13311 13312 13313 13314 13315 13316 13317 13318 13319 13320 13321 13322 13323 13324 13325 13326 13327 13328 13329 13330 13331 13332 13333 13334 13335 13336 13337 13338 13339 13340 13341 13342 13343 13344 13345 13346 13347 13348 13349 13350 13351 13352 13353 13354 13355 13356 13357 13358 13359 13360 13361 13362 13363 13364 13365 13366 13367 13368 13369 13370 13371 13372 13373 13374 13375 13376 13377 13378 13379 13380 13381 13382 13383 13384 13385 13386 13387 13388 13389 13390 13391 13392 13393 13394 13395 13396 13397 13398 13399 13400 13401 13402 13403 13404 13405 13406 13407 13408 13409 13410 13411 13412 13413 13414 13415 13416 13417 13418 13419 13420 13421 13422 13423 13424 13425 13426 13427 13428 13429 13430 13431 13432 13433 13434 13435 13436 13437 13438 13439 13440 13441 13442 13443 13444 13445 13446 13447 13448 13449 13450 13451 13452 13453 13454 13455 13456 13457 13458 13459 13460 13461 13462 13463 13464 13465 13466 13467 13468 13469 13470 13471 13472 13473 13474 13475 13476 13477 13478 13479 13480 13481 13482 13483 13484 13485 13486 13487 13488 13489 13490 13491 13492 13493 13494 13495 13496 13497 13498 13499 13500 13501 13502 13503 13504 13505 13506 13507 13508 13509 13510 13511 13512 13513 13514 13515 13516 13517 13518 13519 13520 13521 13522 13523 13524 13525 13526 13527 13528 13529 13530 13531 13532 13533 13534 13535 13536 13537 13538 13539 13540 13541 13542 13543 13544 13545 13546 13547 13548 13549 13550 13551 13552 13553 13554 13555 13556 13557 13558 13559 13560 13561 13562 13563 13564 13565 13566 13567 13568 13569 13570 13571 13572 13573 13574 13575 13576 13577 13578 13579 13580 13581 13582 13583 13584 13585 13586 13587 13588 13589 13590 13591 13592 13593 13594 13595 13596 13597 13598 13599 13600 13601 13602 13603 13604 13605 13606 13607 13608 13609 13610 13611 13612 13613 13614 13615 13616 13617 13618 13619 13620 13621 13622 13623 13624 13625 13626 13627 13628 13629 13630 13631 13632 13633 13634 13635 13636 13637 13638 13639 13640 13641 13642 13643 13644 13645 13646 13647 13648 13649 13650 13651 13652 13653 13654 13655 13656 13657 13658 13659 13660 13661 13662 13663 13664 13665 13666 13667 13668 13669 13670 13671 13672 13673 13674 13675 13676 13677 13678 13679 13680 13681 13682 13683 13684 13685 13686 13687 13688 13689 13690 13691 13692 13693 13694 13695 13696 13697 13698 13699 13700 13701 13702 13703 13704 13705 13706 13707 13708 13709 13710 13711 13712 13713 13714 13715 13716 13717 13718 13719 13720 13721 13722 13723 13724 13725 13726 13727 13728 13729 13730 13731 13732 13733 13734 13735 13736 13737 13738 13739 13740 13741 13742 13743 13744 13745 13746 13747 13748 13749 13750 13751 13752 13753 13754 13755 13756 13757 13758 13759 13760 13761 13762 13763 13764 13765 13766 13767 13768 13769 13770 13771 13772 13773 13774 13775 13776 13777 13778 13779 13780 13781 13782 13783 13784 13785 13786 13787 13788 13789 13790 13791 13792 13793 13794 13795 13796 13797 13798 13799 13800 13801 13802 13803 13804 13805 13806 13807 13808 13809 13810 13811 13812 13813 13814 13815 13816 13817 13818 13819 13820 13821 13822 13823 13824 13825 13826 13827 13828 13829 13830 13831 13832 13833 13834 13835 13836 13837 13838 13839 13840 13841 13842 13843 13844 13845 13846 13847 13848 13849 13850 13851 13852 13853 13854 13855 13856 13857 13858 13859 13860 13861 13862 13863 13864 13865 13866 13867 13868 13869 13870 13871 13872 13873 13874 13875 13876 13877 13878 13879 13880 13881 13882 13883 13884 13885 13886 13887 13888 13889 13890 13891 13892 13893 13894 13895 13896 13897 13898 13899 13900 13901 13902 13903 13904 13905 13906 13907 13908 13909 13910 13911 13912 13913 13914 13915 13916 13917 13918 13919 13920 13921 13922 13923 13924 13925 13926 13927 13928 13929 13930 13931 13932 13933 13934 13935 13936 13937 13938 13939 13940 13941 13942 13943 13944 13945 13946 13947 13948 13949 13950 13951 13952 13953 13954 13955 13956 13957 13958 13959 13960 13961 13962 13963 13964 13965 13966 13967 13968 13969 13970 13971 13972 13973 13974 13975 13976 13977 13978 13979 13980 13981 13982 13983 13984 13985 13986 13987 13988 13989 13990 13991 13992 13993 13994 13995 13996 13997 13998 13999 14000 14001 14002 14003 14004 14005 14006 14007 14008 14009 14010 14011 14012 14013 14014 14015 14016 14017 14018 14019 14020 14021 14022 14023 14024 14025 14026 14027 14028 14029 14030 14031 14032 14033 14034 14035 14036 14037 14038 14039 14040 14041 14042 14043 14044 14045 14046 14047 14048 14049 14050 14051 14052 14053 14054 14055 14056 14057 14058 14059 14060 14061 14062 14063 14064 14065 14066 14067 14068 14069 14070 14071 14072 14073 14074 14075 14076 14077 14078 14079 14080 14081 14082 14083 14084 14085 14086 14087 14088 14089 14090 14091 14092 14093 14094 14095 14096 14097 14098 14099 14100 14101 14102 14103 14104 14105 14106 14107 14108 14109 14110 14111 14112 14113 14114 14115 14116 14117 14118 14119 14120 14121 14122 14123 14124 14125 14126 14127 14128 14129 14130 14131 14132 14133 14134 14135 14136 14137 14138 14139 14140 14141 14142 14143 14144 14145 14146 14147 14148 14149 14150 14151 14152 14153 14154 14155 14156 14157 14158 14159 14160 14161 14162 14163 14164 14165 14166 14167 14168 14169 14170 14171 14172 14173 14174 14175 14176 14177 14178 14179 14180 14181 14182 14183 14184 14185 14186 14187 14188 14189 14190 14191 14192 14193 14194 14195 14196 14197 14198 14199 14200 14201 14202 14203 14204 14205 14206 14207 14208 14209 14210 14211 14212 14213 14214 14215 14216 14217 14218 14219 14220 14221 14222 14223 14224 14225 14226 14227 14228 14229 14230 14231 14232 14233 14234 14235 14236 14237 14238 14239 14240 14241 14242 14243 14244 14245 14246 14247 14248 14249 14250 14251 14252 14253 14254 14255 14256 14257 14258 14259 14260 14261 14262 14263 14264 14265 14266 14267 14268 14269 14270 14271 14272 14273 14274 14275 14276 14277 14278 14279 14280 14281 14282 14283 14284 14285 14286 14287 14288 14289 14290 14291 14292 14293 14294 14295 14296 14297 14298 14299 14300 14301 14302 14303 14304 14305 14306 14307 14308 14309 14310 14311 14312 14313 14314 14315 14316 14317 14318 14319 14320 14321 14322 14323 14324 14325 14326 14327 14328 14329 14330 14331 14332 14333 14334 14335 14336 14337 14338 14339 14340 14341 14342 14343 14344 14345 14346 14347 14348 14349 14350 14351 14352 14353 14354 14355 14356 14357 14358 14359 14360 14361 14362 14363 14364 14365 14366 14367 14368 14369 14370 14371 14372 14373 14374 14375 14376 14377 14378 14379 14380 14381 14382 14383 14384 14385 14386 14387 14388 14389 14390 14391 14392 14393 14394 14395 14396 14397 14398 14399 14400 14401 14402 14403 14404 14405 14406 14407 14408 14409 14410 14411 14412 14413 14414 14415 14416 14417 14418 14419 14420 14421 14422 14423 14424 14425 14426 14427 14428 14429 14430 14431 14432 14433 14434 14435 14436 14437 14438 14439 14440 14441 14442 14443 14444 14445 14446 14447 14448 14449 14450 14451 14452 14453 14454 14455 14456 14457 14458 14459 14460 14461 14462 14463 14464 14465 14466 14467 14468 14469 14470 14471 14472 14473 14474 14475 14476 14477 14478 14479 14480 14481 14482 14483 14484 14485 14486 14487 14488 14489 14490 14491 14492 14493 14494 14495 14496 14497 14498 14499 14500 14501 14502 14503 14504 14505 14506 14507 14508 14509 14510 14511 14512 14513 14514 14515 14516 14517 14518 14519 14520 14521 14522 14523 14524 14525 14526 14527 14528 14529 14530 14531 14532 14533 14534 14535 14536 14537 14538 14539 14540 14541 14542 14543 14544 14545 14546 14547 14548 14549 14550 14551 14552 14553 14554 14555 14556 14557 14558 14559 14560 14561 14562 14563 14564 14565 14566 14567 14568 14569 14570 14571 14572 14573 14574 14575 14576 14577 14578 14579 14580 14581 14582 14583 14584 14585 14586 14587 14588 14589 14590 14591 14592 14593 14594 14595 14596 14597 14598 14599 14600 14601 14602 14603 14604 14605 14606 14607 14608 14609 14610 14611 14612 14613 14614 14615 14616 14617 14618 14619 14620 14621 14622 14623 14624 14625 14626 14627 14628 14629 14630 14631 14632 14633 14634 14635 14636 14637 14638 14639 14640 14641 14642 14643 14644 14645 14646 14647 14648 14649 14650 14651 14652 14653 14654 14655 14656 14657 14658 14659 14660 14661 14662 14663 14664 14665 14666 14667 14668 14669 14670 14671 14672 14673 14674 14675 14676 14677 14678 14679 14680 14681 14682 14683 14684 14685 14686 14687 14688 14689 14690 14691 14692 14693 14694 14695 14696 14697 14698 14699 14700 14701 14702 14703 14704 14705 14706 14707 14708 14709 14710 14711 14712 14713 14714 14715 14716 14717 14718 14719 14720 14721 14722 14723 14724 14725 14726 14727 14728 14729 14730 14731 14732 14733 14734 14735 14736 14737 14738 14739 14740 14741 14742 14743 14744 14745 14746 14747 14748 14749 14750 14751 14752 14753 14754 14755 14756 14757 14758 14759 14760 14761 14762 14763 14764 14765 14766 14767 14768 14769 14770 14771 14772 14773 14774 14775 14776 14777 14778 14779 14780 14781 14782 14783 14784 14785 14786 14787 14788 14789 14790 14791 14792 14793 14794 14795 14796 14797 14798 14799 14800 14801 14802 14803 14804 14805 14806 14807 14808 14809 14810 14811 14812 14813 14814 14815 14816 14817 14818 14819 14820 14821 14822 14823 14824 14825 14826 14827 14828 14829 14830 14831 14832 14833 14834 14835 14836 14837 14838 14839 14840 14841 14842 14843 14844 14845 14846 14847 14848 14849 14850 14851 14852 14853 14854 14855 14856 14857 14858 14859 14860 14861 14862 14863 14864 14865 14866 14867 14868 14869 14870 14871 14872 14873 14874 14875 14876 14877 14878 14879 14880 14881 14882 14883 14884 14885 14886 14887 14888 14889 14890 14891 14892 14893 14894 14895 14896 14897 14898 14899 14900 14901 14902 14903 14904 14905 14906 14907 14908 14909 14910 14911 14912 14913 14914 14915 14916 14917 14918 14919 14920 14921 14922 14923 14924 14925 14926 14927 14928 14929 14930 14931 14932 14933 14934 14935 14936 14937 14938 14939 14940 14941 14942 14943 14944 14945 14946 14947 14948 14949 14950 14951 14952 14953 14954 14955 14956 14957 14958 14959 14960 14961 14962 14963 14964 14965 14966 14967 14968 14969 14970 14971 14972 14973 14974 14975 14976 14977 14978 14979 14980 14981 14982 14983 14984 14985 14986 14987 14988 14989 14990 14991 14992 14993 14994 14995 14996 14997 14998 14999 15000 15001 15002 15003 15004 15005 15006 15007 15008 15009 15010 15011 15012 15013 15014 15015 15016 15017 15018 15019 15020 15021 15022 15023 15024 15025 15026 15027 15028 15029 15030 15031 15032 15033 15034 15035 15036 15037 15038 15039 15040 15041 15042 15043 15044 15045 15046 15047 15048 15049 15050 15051 15052 15053 15054 15055 15056 15057 15058 15059 15060 15061 15062 15063 15064 15065 15066 15067 15068 15069 15070 15071 15072 15073 15074 15075 15076 15077 15078 15079 15080 15081 15082 15083 15084 15085 15086 15087 15088 15089 15090 15091 15092 15093 15094 15095 15096 15097 15098 15099 15100 15101 15102 15103 15104 15105 15106 15107 15108 15109 15110 15111 15112 15113 15114 15115 15116 15117 15118 15119 15120 15121 15122 15123 15124 15125 15126 15127 15128 15129 15130 15131 15132 15133 15134 15135 15136 15137 15138 15139 15140 15141 15142 15143 15144 15145 15146 15147 15148 15149 15150 15151 15152 15153 15154 15155 15156 15157 15158 15159 15160 15161 15162 15163 15164 15165 15166 15167 15168 15169 15170 15171 15172 15173 15174 15175 15176 15177 15178 15179 15180 15181 15182 15183 15184 15185 15186 15187 15188 15189 15190 15191 15192 15193 15194 15195 15196 15197 15198 15199 15200 15201 15202 15203 15204 15205 15206 15207 15208 15209 15210 15211 15212 15213 15214 15215 15216 15217 15218 15219 15220 15221 15222 15223 15224 15225 15226 15227 15228 15229 15230 15231 15232 15233 15234 15235 15236 15237 15238 15239 15240 15241 15242 15243 15244 15245 15246 15247 15248 15249 15250 15251 15252 15253 15254 15255 15256 15257 15258 15259 15260 15261 15262 15263 15264 15265 15266 15267 15268 15269 15270 15271 15272 15273 15274 15275 15276 15277 15278 15279 15280 15281 15282 15283 15284 15285 15286 15287 15288 15289 15290 15291 15292 15293 15294 15295 15296 15297 15298 15299 15300 15301 15302 15303 15304 15305 15306 15307 15308 15309 15310 15311 15312 15313 15314 15315 15316 15317 15318 15319 15320 15321 15322 15323 15324 15325 15326 15327 15328 15329 15330 15331 15332 15333 15334 15335 15336 15337 15338 15339 15340 15341 15342 15343 15344 15345 15346 15347 15348 15349 15350 15351 15352 15353 15354 15355 15356 15357 15358 15359 15360 15361 15362 15363 15364 15365 15366 15367 15368 15369 15370 15371 15372 15373 15374 15375 15376 15377 15378 15379 15380 15381 15382 15383 15384 15385 15386 15387 15388 15389 15390 15391 15392 15393 15394 15395 15396 15397 15398 15399 15400 15401 15402 15403 15404 15405 15406 15407 15408 15409 15410 15411 15412 15413 15414 15415 15416 15417 15418 15419 15420 15421 15422 15423 15424 15425 15426 15427 15428 15429 15430 15431 15432 15433 15434 15435 15436 15437 15438 15439 15440 15441 15442 15443 15444 15445 15446 15447 15448 15449 15450 15451 15452 15453 15454 15455 15456 15457 15458 15459 15460 15461 15462 15463 15464 15465 15466 15467 15468 15469 15470 15471 15472 15473 15474 15475 15476 15477 15478 15479 15480 15481 15482 15483 15484 15485 15486 15487 15488 15489 15490 15491 15492 15493 15494 15495 15496 15497 15498 15499 15500 15501 15502 15503 15504 15505 15506 15507 15508 15509 15510 15511 15512 15513 15514 15515 15516 15517 15518 15519 15520 15521 15522 15523 15524 15525 15526 15527 15528 15529 15530 15531 15532 15533 15534 15535 15536 15537 15538 15539 15540 15541 15542 15543 15544 15545 15546 15547 15548 15549 15550 15551 15552 15553 15554 15555 15556 15557 15558 15559 15560 15561 15562 15563 15564 15565 15566 15567 15568 15569 15570 15571 15572 15573 15574 15575 15576 15577 15578 15579 15580 15581 15582 15583 15584 15585 15586 15587 15588 15589 15590 15591 15592 15593 15594 15595 15596 15597 15598 15599 15600 15601 15602 15603 15604 15605 15606 15607 15608 15609 15610 15611 15612 15613 15614 15615 15616 15617 15618 15619 15620 15621 15622 15623 15624 15625 15626 15627 15628 15629 15630 15631 15632 15633 15634 15635 15636 15637 15638 15639 15640 15641 15642 15643 15644 15645 15646 15647 15648 15649 15650 15651 15652 15653 15654 15655 15656 15657 15658 15659 15660 15661 15662 15663 15664 15665 15666 15667 15668 15669 15670 15671 15672 15673 15674 15675 15676 15677 15678 15679 15680 15681 15682 15683 15684 15685 15686 15687 15688 15689 15690 15691 15692 15693 15694 15695 15696 15697 15698 15699 15700 15701 15702 15703 15704 15705 15706 15707 15708 15709 15710 15711 15712 15713 15714 15715 15716 15717 15718 15719 15720 15721 15722 15723 15724 15725 15726 15727 15728 15729 15730 15731 15732 15733 15734 15735 15736 15737 15738 15739 15740 15741 15742 15743 15744 15745 15746 15747 15748 15749 15750 15751 15752 15753 15754 15755 15756 15757 15758 15759 15760 15761 15762 15763 15764 15765 15766 15767 15768 15769 15770 15771 15772 15773 15774 15775 15776 15777 15778 15779 15780 15781 15782 15783 15784 15785 15786 15787 15788 15789 15790 15791 15792 15793 15794 15795 15796 15797 15798 15799 15800 15801 15802 15803 15804 15805 15806 15807 15808 15809 15810 15811 15812 15813 15814 15815 15816 15817 15818 15819 15820 15821 15822 15823 15824 15825 15826 15827 15828 15829 15830 15831 15832 15833 15834 15835 15836 15837 15838 15839 15840 15841 15842 15843 15844 15845 15846 15847 15848 15849 15850 15851 15852 15853 15854 15855 15856 15857 15858 15859 15860 15861 15862 15863 15864 15865 15866 15867 15868 15869 15870 15871 15872 15873 15874 15875 15876 15877 15878 15879 15880 15881 15882 15883 15884 15885 15886 15887 15888 15889 15890 15891 15892 15893 15894 15895 15896 15897 15898 15899 15900 15901 15902 15903 15904 15905 15906 15907 15908 15909 15910 15911 15912 15913 15914 15915 15916 15917 15918 15919 15920 15921 15922 15923 15924 15925 15926 15927 15928 15929 15930 15931 15932 15933 15934 15935 15936 15937 15938 15939 15940 15941 15942 15943 15944 15945 15946 15947 15948 15949 15950 15951 15952 15953 15954 15955 15956 15957 15958 15959 15960 15961 15962 15963 15964 15965 15966 15967 15968 15969 15970 15971 15972 15973 15974 15975 15976 15977 15978 15979 15980 15981 15982 15983 15984 15985 15986 15987 15988 15989 15990 15991 15992 15993 15994 15995 15996 15997 15998 15999 16000 16001 16002 16003 16004 16005 16006 16007 16008 16009 16010 16011 16012 16013 16014 16015 16016 16017 16018 16019 16020 16021 16022 16023 16024 16025 16026 16027 16028 16029 16030 16031 16032 16033 16034 16035 16036 16037 16038 16039 16040 16041 16042 16043 16044 16045 16046 16047 16048 16049 16050 16051 16052 16053 16054 16055 16056 16057 16058 16059 16060 16061 16062 16063 16064 16065 16066 16067 16068 16069 16070 16071 16072 16073 16074 16075 16076 16077 16078 16079 16080 16081 16082 16083 16084 16085 16086 16087 16088 16089 16090 16091 16092 16093 16094 16095 16096 16097 16098 16099 16100 16101 16102 16103 16104 16105 16106 16107 16108 16109 16110 16111 16112 16113 16114 16115 16116 16117 16118 16119 16120 16121 16122 16123 16124 16125 16126 16127 16128 16129 16130 16131 16132 16133 16134 16135 16136 16137 16138 16139 16140 16141 16142 16143 16144 16145 16146 16147 16148 16149 16150 16151 16152 16153 16154 16155 16156 16157 16158 16159 16160 16161 16162 16163 16164 16165 16166 16167 16168 16169 16170 16171 16172 16173 16174 16175 16176 16177 16178 16179 16180 16181 16182 16183 16184 16185 16186 16187 16188 16189 16190 16191 16192 16193 16194 16195 16196 16197 16198 16199 16200 16201 16202 16203 16204 16205 16206 16207 16208 16209 16210 16211 16212 16213 16214 16215 16216 16217 16218 16219 16220 16221 16222 16223 16224 16225 16226 16227 16228 16229 16230 16231 16232 16233 16234 16235 16236 16237 16238 16239 16240 16241 16242 16243 16244 16245 16246 16247 16248 16249 16250 16251 16252 16253 16254 16255 16256 16257 16258 16259 16260 16261 16262 16263 16264 16265 16266 16267 16268 16269 16270 16271 16272 16273 16274 16275 16276 16277 16278 16279 16280 16281 16282 16283 16284 16285 16286 16287 16288 16289 16290 16291 16292 16293 16294 16295 16296 16297 16298 16299 16300 16301 16302 16303 16304 16305 16306 16307 16308 16309 16310 16311 16312 16313 16314 16315 16316 16317 16318 16319 16320 16321 16322 16323 16324 16325 16326 16327 16328 16329 16330 16331 16332 16333 16334 16335 16336 16337 16338 16339 16340 16341 16342 16343 16344 16345 16346 16347 16348 16349 16350 16351 16352 16353 16354 16355 16356 16357 16358 16359 16360 16361 16362 16363 16364 16365 16366 16367 16368 16369 16370 16371 16372 16373 16374 16375 16376 16377 16378 16379 16380 16381 16382 16383 16384 16385 16386 16387 16388 16389 16390 16391 16392 16393 16394 16395 16396 16397 16398 16399 16400 16401 16402 16403 16404 16405 16406 16407 16408 16409 16410 16411 16412 16413 16414 16415 16416 16417 16418 16419 16420 16421 16422 16423 16424 16425 16426 16427 16428 16429 16430 16431 16432 16433 16434 16435 16436 16437 16438 16439 16440 16441 16442 16443 16444 16445 16446 16447 16448 16449 16450 16451 16452 16453 16454 16455 16456 16457 16458 16459 16460 16461 16462 16463 16464 16465 16466 16467 16468 16469 16470 16471 16472 16473 16474 16475 16476 16477 16478 16479 16480 16481 16482 16483 16484 16485 16486 16487 16488 16489 16490 16491 16492 16493 16494 16495 16496 16497 16498 16499 16500 16501 16502 16503 16504 16505 16506 16507 16508 16509 16510 16511 16512 16513 16514 16515 16516 16517 16518 16519 16520 16521 16522 16523 16524 16525 16526 16527 16528 16529 16530 16531 16532 16533 16534 16535 16536 16537 16538 16539 16540 16541 16542 16543 16544 16545 16546 16547 16548 16549 16550 16551 16552 16553 16554 16555 16556 16557 16558 16559 16560 16561 16562 16563 16564 16565 16566 16567 16568 16569 16570 16571 16572 16573 16574 16575 16576 16577 16578 16579 16580 16581 16582 16583 16584 16585 16586 16587 16588 16589 16590 16591 16592 16593 16594 16595 16596 16597 16598 16599 16600 16601 16602 16603 16604 16605 16606 16607 16608 16609 16610 16611 16612 16613 16614 16615 16616 16617 16618 16619 16620 16621 16622 16623 16624 16625 16626 16627 16628 16629 16630 16631 16632 16633 16634 16635 16636 16637 16638 16639 16640 16641 16642 16643 16644 16645 16646 16647 16648 16649 16650 16651 16652 16653 16654 16655 16656 16657 16658 16659 16660 16661 16662 16663 16664 16665 16666 16667 16668 16669 16670 16671 16672 16673 16674 16675 16676 16677 16678 16679 16680 16681 16682 16683 16684 16685 16686 16687 16688 16689 16690 16691 16692 16693 16694 16695 16696 16697 16698 16699 16700 16701 16702 16703 16704 16705 16706 16707 16708 16709 16710 16711 16712 16713 16714 16715 16716 16717 16718 16719 16720 16721 16722 16723 16724 16725 16726 16727 16728 16729 16730 16731 16732 16733 16734 16735 16736 16737 16738 16739 16740 16741 16742 16743 16744 16745 16746 16747 16748 16749 16750 16751 16752 16753 16754 16755 16756 16757 16758 16759 16760 16761 16762 16763 16764 16765 16766 16767 16768 16769 16770 16771 16772 16773 16774 16775 16776 16777 16778 16779 16780 16781 16782 16783 16784 16785 16786 16787 16788 16789 16790 16791 16792 16793 16794 16795 16796 16797 16798 16799 16800 16801 16802 16803 16804 16805 16806 16807 16808 16809 16810 16811 16812 16813 16814 16815 16816 16817 16818 16819 16820 16821 16822 16823 16824 16825 16826 16827 16828 16829 16830 16831 16832 16833 16834 16835 16836 16837 16838 16839 16840 16841 16842 16843 16844 16845 16846 16847 16848 16849 16850 16851 16852 16853 16854 16855 16856 16857 16858 16859 16860 16861 16862 16863 16864 16865 16866 16867 16868 16869 16870 16871 16872 16873 16874 16875 16876 16877 16878 16879 16880 16881 16882 16883 16884 16885 16886 16887 16888 16889 16890 16891 16892 16893 16894 16895 16896 16897 16898 16899 16900 16901 16902 16903 16904 16905 16906 16907 16908 16909 16910 16911 16912 16913 16914 16915 16916 16917 16918 16919 16920 16921 16922 16923 16924 16925 16926 16927 16928 16929 16930 16931 16932 16933 16934 16935 16936 16937 16938 16939 16940 16941 16942 16943 16944 16945 16946 16947 16948 16949 16950 16951 16952 16953 16954 16955 16956 16957 16958 16959 16960 16961 16962 16963 16964 16965 16966 16967 16968 16969 16970 16971 16972 16973 16974 16975 16976 16977 16978 16979 16980 16981 16982 16983 16984 16985 16986 16987 16988 16989 16990 16991 16992 16993 16994 16995 16996 16997 16998 16999 17000 17001 17002 17003 17004 17005 17006 17007 17008 17009 17010 17011 17012 17013 17014 17015 17016 17017 17018 17019 17020 17021 17022 17023 17024 17025 17026 17027 17028 17029 17030 17031 17032 17033 17034 17035 17036 17037 17038 17039 17040 17041 17042 17043 17044 17045 17046 17047 17048 17049 17050 17051 17052 17053 17054 17055 17056 17057 17058 17059 17060 17061 17062 17063 17064 17065 17066 17067 17068 17069 17070 17071 17072 17073 17074 17075 17076 17077 17078 17079 17080 17081 17082 17083 17084 17085 17086 17087 17088 17089 17090 17091 17092 17093 17094 17095 17096 17097 17098 17099 17100 17101 17102 17103 17104 17105 17106 17107 17108 17109 17110 17111 17112 17113 17114 17115 17116 17117 17118 17119 17120 17121 17122 17123 17124 17125 17126 17127 17128 17129 17130 17131 17132 17133 17134 17135 17136 17137 17138 17139 17140 17141 17142 17143 17144 17145 17146 17147 17148 17149 17150 17151 17152 17153 17154 17155 17156 17157 17158 17159 17160 17161 17162 17163 17164 17165 17166 17167 17168 17169 17170 17171 17172 17173 17174 17175 17176 17177 17178 17179 17180 17181 17182 17183 17184 17185 17186 17187 17188 17189 17190 17191 17192 17193 17194 17195 17196 17197 17198 17199 17200 17201 17202 17203 17204 17205 17206 17207 17208 17209 17210 17211 17212 17213 17214 17215 17216 17217 17218 17219 17220 17221 17222 17223 17224 17225 17226 17227 17228 17229 17230 17231 17232 17233 17234 17235 17236 17237 17238 17239 17240 17241 17242 17243 17244 17245 17246 17247 17248 17249 17250 17251 17252 17253 17254 17255 17256 17257 17258 17259 17260 17261 17262 17263 17264 17265 17266 17267 17268 17269 17270 17271 17272 17273 17274 17275 17276 17277 17278 17279 17280 17281 17282 17283 17284 17285 17286 17287 17288 17289 17290 17291 17292 17293 17294 17295 17296 17297 17298 17299 17300 17301 17302 17303 17304 17305 17306 17307 17308 17309 17310 17311 17312 17313 17314 17315 17316 17317 17318 17319 17320 17321 17322 17323 17324 17325 17326 17327 17328 17329 17330 17331 17332 17333 17334 17335 17336 17337 17338 17339 17340 17341 17342 17343 17344 17345 17346 17347 17348 17349 17350 17351 17352 17353 17354 17355 17356 17357 17358 17359 17360 17361 17362 17363 17364 17365 17366 17367 17368 17369 17370 17371 17372 17373 17374 17375 17376 17377 17378 17379 17380 17381 17382 17383 17384 17385 17386 17387 17388 17389 17390 17391 17392 17393 17394 17395 17396 17397 17398 17399 17400 17401 17402 17403 17404 17405 17406 17407 17408 17409 17410 17411 17412 17413 17414 17415 17416 17417 17418 17419 17420 17421 17422 17423 17424 17425 17426 17427 17428 17429 17430 17431 17432 17433 17434 17435 17436 17437 17438 17439 17440 17441 17442 17443 17444 17445 17446 17447 17448 17449 17450 17451 17452 17453 17454 17455 17456 17457 17458 17459 17460 17461 17462 17463 17464 17465 17466 17467 17468 17469 17470 17471 17472 17473 17474 17475 17476 17477 17478 17479 17480 17481 17482 17483 17484 17485 17486 17487 17488 17489 17490 17491 17492 17493 17494 17495 17496 17497 17498 17499 17500 17501 17502 17503 17504 17505 17506 17507 17508 17509 17510 17511 17512 17513 17514 17515 17516 17517 17518 17519 17520 17521 17522 17523 17524 17525 17526 17527 17528 17529 17530 17531 17532 17533 17534 17535 17536 17537 17538 17539 17540 17541 17542 17543 17544 17545 17546 17547 17548 17549 17550 17551 17552 17553 17554 17555 17556 17557 17558 17559 17560 17561 17562 17563 17564 17565 17566 17567 17568 17569 17570 17571 17572 17573 17574 17575 17576 17577 17578 17579 17580 17581 17582 17583 17584 17585 17586 17587 17588 17589 17590 17591 17592 17593 17594 17595 17596 17597 17598 17599 17600 17601 17602 17603 17604 17605 17606 17607 17608 17609 17610 17611 17612 17613 17614 17615 17616 17617 17618 17619 17620 17621 17622 17623 17624 17625 17626 17627 17628 17629 17630 17631 17632 17633 17634 17635 17636 17637 17638 17639 17640 17641 17642 17643 17644 17645 17646 17647 17648 17649 17650 17651 17652 17653 17654 17655 17656 17657 17658 17659 17660 17661 17662 17663 17664 17665 17666 17667 17668 17669 17670 17671 17672 17673 17674 17675 17676 17677 17678 17679 17680 17681 17682 17683 17684 17685 17686 17687 17688 17689 17690 17691 17692 17693 17694 17695 17696 17697 17698 17699 17700 17701 17702 17703 17704 17705 17706 17707 17708 17709 17710 17711 17712 17713 17714 17715 17716 17717 17718 17719 17720 17721 17722 17723 17724 17725 17726 17727 17728 17729 17730 17731 17732 17733 17734 17735 17736 17737 17738 17739 17740 17741 17742 17743 17744 17745 17746 17747 17748 17749 17750 17751 17752 17753 17754 17755 17756 17757 17758 17759 17760 17761 17762 17763 17764 17765 17766 17767 17768 17769 17770 17771 17772 17773 17774 17775 17776 17777 17778 17779 17780 17781 17782 17783 17784 17785 17786 17787 17788 17789 17790 17791 17792 17793 17794 17795 17796 17797 17798 17799 17800 17801 17802 17803 17804 17805 17806 17807 17808 17809 17810 17811 17812 17813 17814 17815 17816 17817 17818 17819 17820 17821 17822 17823 17824 17825 17826 17827 17828 17829 17830 17831 17832 17833 17834 17835 17836 17837 17838 17839 17840 17841 17842 17843 17844 17845 17846 17847 17848 17849 17850 17851 17852 17853 17854 17855 17856 17857 17858 17859 17860 17861 17862 17863 17864 17865 17866 17867 17868 17869 17870 17871 17872 17873 17874 17875 17876 17877 17878 17879 17880 17881 17882 17883 17884 17885 17886 17887 17888 17889 17890 17891 17892 17893 17894 17895 17896 17897 17898 17899 17900 17901 17902 17903 17904 17905 17906 17907 17908 17909 17910 17911 17912 17913 17914 17915 17916 17917 17918 17919 17920 17921 17922 17923 17924 17925 17926 17927 17928 17929 17930 17931 17932 17933 17934 17935 17936 17937 17938 17939 17940 17941 17942 17943 17944 17945 17946 17947 17948 17949 17950 17951 17952 17953 17954 17955 17956 17957 17958 17959 17960 17961 17962 17963 17964 17965 17966 17967 17968 17969 17970 17971 17972 17973 17974 17975 17976 17977 17978 17979 17980 17981 17982 17983 17984 17985 17986 17987 17988 17989 17990 17991 17992 17993 17994 17995 17996 17997 17998 17999 18000 18001 18002 18003 18004 18005 18006 18007 18008 18009 18010 18011 18012 18013 18014 18015 18016 18017 18018 18019 18020 18021 18022 18023 18024 18025 18026 18027 18028 18029 18030 18031 18032 18033 18034 18035 18036 18037 18038 18039 18040 18041 18042 18043 18044 18045 18046 18047 18048 18049 18050 18051 18052 18053 18054 18055 18056 18057 18058 18059 18060 18061 18062 18063 18064 18065 18066 18067 18068 18069 18070 18071 18072 18073 18074 18075 18076 18077 18078 18079 18080 18081 18082 18083 18084 18085 18086 18087 18088 18089 18090 18091 18092 18093 18094 18095 18096 18097 18098 18099 18100 18101 18102 18103 18104 18105 18106 18107 18108 18109 18110 18111 18112 18113 18114 18115 18116 18117 18118 18119 18120 18121 18122 18123 18124 18125 18126 18127 18128 18129 18130 18131 18132 18133 18134 18135 18136 18137 18138 18139 18140 18141 18142 18143 18144 18145 18146 18147 18148 18149 18150 18151 18152 18153 18154 18155 18156 18157 18158 18159 18160 18161 18162 18163 18164 18165 18166 18167 18168 18169 18170 18171 18172 18173 18174 18175 18176 18177 18178 18179 18180 18181 18182 18183 18184 18185 18186 18187 18188 18189 18190 18191 18192 18193 18194 18195 18196 18197 18198 18199 18200 18201 18202 18203 18204 18205 18206 18207 18208 18209 18210 18211 18212 18213 18214 18215 18216 18217 18218 18219 18220 18221 18222 18223 18224 18225 18226 18227 18228 18229 18230 18231 18232 18233 18234 18235 18236 18237 18238 18239 18240 18241 18242 18243 18244 18245 18246 18247 18248 18249 18250 18251 18252 18253 18254 18255 18256 18257 18258 18259 18260 18261 18262 18263 18264 18265 18266 18267 18268 18269 18270 18271 18272 18273 18274 18275 18276 18277 18278 18279 18280 18281 18282 18283 18284 18285 18286 18287 18288 18289 18290 18291 18292 18293 18294 18295 18296 18297 18298 18299 18300 18301 18302 18303 18304 18305 18306 18307 18308 18309 18310 18311 18312 18313 18314 18315 18316 18317 18318 18319 18320 18321 18322 18323 18324 18325 18326 18327 18328 18329 18330 18331 18332 18333 18334 18335 18336 18337 18338 18339 18340 18341 18342 18343 18344 18345 18346 18347 18348 18349 18350 18351 18352 18353 18354 18355 18356 18357 18358 18359 18360 18361 18362 18363 18364 18365 18366 18367 18368 18369 18370 18371 18372 18373 18374 18375 18376 18377 18378 18379 18380 18381 18382 18383 18384 18385 18386 18387 18388 18389 18390 18391 18392 18393 18394 18395 18396 18397 18398 18399 18400 18401 18402 18403 18404 18405 18406 18407 18408 18409 18410 18411 18412 18413 18414 18415 18416 18417 18418 18419 18420 18421 18422 18423 18424 18425 18426 18427 18428 18429 18430 18431 18432 18433 18434 18435 18436 18437 18438 18439 18440 18441 18442 18443 18444 18445 18446 18447 18448 18449 18450 18451 18452 18453 18454 18455 18456 18457 18458 18459 18460 18461 18462 18463 18464 18465 18466 18467 18468 18469 18470 18471 18472 18473 18474 18475 18476 18477 18478 18479 18480 18481 18482 18483 18484 18485 18486 18487 18488 18489 18490 18491 18492 18493 18494 18495 18496 18497 18498 18499 18500 18501 18502 18503 18504 18505 18506 18507 18508 18509 18510 18511 18512 18513 18514 18515 18516 18517 18518 18519 18520 18521 18522 18523 18524 18525 18526 18527 18528 18529 18530 18531 18532 18533 18534 18535 18536 18537 18538 18539 18540 18541 18542 18543 18544 18545 18546 18547 18548 18549 18550 18551 18552 18553 18554 18555 18556 18557 18558 18559 18560 18561 18562 18563 18564 18565 18566 18567 18568 18569 18570 18571 18572 18573 18574 18575 18576 18577 18578 18579 18580 18581 18582 18583 18584 18585 18586 18587 18588 18589 18590 18591 18592 18593 18594 18595 18596 18597 18598 18599 18600 18601 18602 18603 18604 18605 18606 18607 18608 18609 18610 18611 18612 18613 18614 18615 18616 18617 18618 18619 18620 18621 18622 18623 18624 18625 18626 18627 18628 18629 18630 18631 18632 18633 18634 18635 18636 18637 18638 18639 18640 18641 18642 18643 18644 18645 18646 18647 18648 18649 18650 18651 18652 18653 18654 18655 18656 18657 18658 18659 18660 18661 18662 18663 18664 18665 18666 18667 18668 18669 18670 18671 18672 18673 18674 18675 18676 18677 18678 18679 18680 18681 18682 18683 18684 18685 18686 18687 18688 18689 18690 18691 18692 18693 18694 18695 18696 18697 18698 18699 18700 18701 18702 18703 18704 18705 18706 18707 18708 18709 18710 18711 18712 18713 18714 18715 18716 18717 18718 18719 18720 18721 18722 18723 18724 18725 18726 18727 18728 18729 18730 18731 18732 18733 18734 18735 18736 18737 18738 18739 18740 18741 18742 18743 18744 18745 18746 18747 18748 18749 18750 18751 18752 18753 18754 18755 18756 18757 18758 18759 18760 18761 18762 18763 18764 18765 18766 18767 18768 18769 18770 18771 18772 18773 18774 18775 18776 18777 18778 18779 18780 18781 18782 18783 18784 18785 18786 18787 18788 18789 18790 18791 18792 18793 18794 18795 18796 18797 18798 18799 18800 18801 18802 18803 18804 18805 18806 18807 18808 18809 18810 18811 18812 18813 18814 18815 18816 18817 18818 18819 18820 18821 18822 18823 18824 18825 18826 18827 18828 18829 18830 18831 18832 18833 18834 18835 18836 18837 18838 18839 18840 18841 18842 18843 18844 18845 18846 18847 18848 18849 18850 18851 18852 18853 18854 18855 18856 18857 18858 18859 18860 18861 18862 18863 18864 18865 18866 18867 18868 18869 18870 18871 18872 18873 18874 18875 18876 18877 18878 18879 18880 18881 18882 18883 18884 18885 18886 18887 18888 18889 18890 18891 18892 18893 18894 18895 18896 18897 18898 18899 18900 18901 18902 18903 18904 18905 18906 18907 18908 18909 18910 18911 18912 18913 18914 18915 18916 18917 18918 18919 18920 18921 18922 18923 18924 18925 18926 18927 18928 18929 18930 18931 18932 18933 18934 18935 18936 18937 18938 18939 18940 18941 18942 18943 18944 18945 18946 18947 18948 18949 18950 18951 18952 18953 18954 18955 18956 18957 18958 18959 18960 18961 18962 18963 18964 18965 18966 18967 18968 18969 18970 18971 18972 18973 18974 18975 18976 18977 18978 18979 18980 18981 18982 18983 18984 18985 18986 18987 18988 18989 18990 18991 18992 18993 18994 18995 18996 18997 18998 18999 19000 19001 19002 19003 19004 19005 19006 19007 19008 19009 19010 19011 19012 19013 19014 19015 19016 19017 19018 19019 19020 19021 19022 19023 19024 19025 19026 19027 19028 19029 19030 19031 19032 19033 19034 19035 19036 19037 19038 19039 19040 19041 19042 19043 19044 19045 19046 19047 19048 19049 19050 19051 19052 19053 19054 19055 19056 19057 19058 19059 19060 19061 19062 19063 19064 19065 19066 19067 19068 19069 19070 19071 19072 19073 19074 19075 19076 19077 19078 19079 19080 19081 19082 19083 19084 19085 19086 19087 19088 19089 19090 19091 19092 19093 19094 19095 19096 19097 19098 19099 19100 19101 19102 19103 19104 19105 19106 19107 19108 19109 19110 19111 19112 19113 19114 19115 19116 19117 19118 19119 19120 19121 19122 19123 19124 19125 19126 19127 19128 19129 19130 19131 19132 19133 19134 19135 19136 19137 19138 19139 19140 19141 19142 19143 19144 19145 19146 19147 19148 19149 19150 19151 19152 19153 19154 19155 19156 19157 19158 19159 19160 19161 19162 19163 19164 19165 19166 19167 19168 19169 19170 19171 19172 19173 19174 19175 19176 19177 19178 19179 19180 19181 19182 19183 19184 19185 19186 19187 19188 19189 19190 19191 19192 19193 19194 19195 19196 19197 19198 19199 19200 19201 19202 19203 19204 19205 19206 19207 19208 19209 19210 19211 19212 19213 19214 19215 19216 19217 19218 19219 19220 19221 19222 19223 19224 19225 19226 19227 19228 19229 19230 19231 19232 19233 19234 19235 19236 19237 19238 19239 19240 19241 19242 19243 19244 19245 19246 19247 19248 19249 19250 19251 19252 19253 19254 19255 19256 19257 19258 19259 19260 19261 19262 19263 19264 19265 19266 19267 19268 19269 19270 19271 19272 19273 19274 19275 19276 19277 19278 19279 19280 19281 19282 19283 19284 19285 19286 19287 19288 19289 19290 19291 19292 19293 19294 19295 19296 19297 19298 19299 19300 19301 19302 19303 19304 19305 19306 19307 19308 19309 19310 19311 19312 19313 19314 19315 19316 19317 19318 19319 19320 19321 19322 19323 19324 19325 19326 19327 19328 19329 19330 19331 19332 19333 19334 19335 19336 19337 19338 19339 19340 19341 19342 19343 19344 19345 19346 19347 19348 19349 19350 19351 19352 19353 19354 19355 19356 19357 19358 19359 19360 19361 19362 19363 19364 19365 19366 19367 19368 19369 19370 19371 19372 19373 19374 19375 19376 19377 19378 19379 19380 19381 19382 19383 19384 19385 19386 19387 19388 19389 19390 19391 19392 19393 19394 19395 19396 19397 19398 19399 19400 19401 19402 19403 19404 19405 19406 19407 19408 19409 19410 19411 19412 19413 19414 19415 19416 19417 19418 19419 19420 19421 19422 19423 19424 19425 19426 19427 19428 19429 19430 19431 19432 19433 19434 19435 19436 19437 19438 19439 19440 19441 19442 19443 19444 19445 19446 19447 19448 19449 19450 19451 19452 19453 19454 19455 19456 19457 19458 19459 19460 19461 19462 19463 19464 19465 19466 19467 19468 19469 19470 19471 19472 19473 19474 19475 19476 19477 19478 19479 19480 19481 19482 19483 19484 19485 19486 19487 19488 19489 19490 19491 19492 19493 19494 19495 19496 19497 19498 19499 19500 19501 19502 19503 19504 19505 19506 19507 19508 19509 19510 19511 19512 19513 19514 19515 19516 19517 19518 19519 19520 19521 19522 19523 19524 19525 19526 19527 19528 19529 19530 19531 19532 19533 19534 19535 19536 19537 19538 19539 19540 19541 19542 19543 19544 19545 19546 19547 19548 19549 19550 19551 19552 19553 19554 19555 19556 19557 19558 19559 19560 19561 19562 19563 19564 19565 19566 19567 19568 19569 19570 19571 19572 19573 19574 19575 19576 19577 19578 19579 19580 19581 19582 19583 19584 19585 19586 19587 19588 19589 19590 19591 19592 19593 19594 19595 19596 19597 19598 19599 19600 19601 19602 19603 19604 19605 19606 19607 19608 19609 19610 19611 19612 19613 19614 19615 19616 19617 19618 19619 19620 19621 19622 19623 19624 19625 19626 19627 19628 19629 19630 19631 19632 19633 19634 19635 19636 19637 19638 19639 19640 19641 19642 19643 19644 19645 19646 19647 19648 19649 19650 19651 19652 19653 19654 19655 19656 19657 19658 19659 19660 19661 19662 19663 19664 19665 19666 19667 19668 19669 19670 19671 19672 19673 19674 19675 19676 19677 19678 19679 19680 19681 19682 19683 19684 19685 19686 19687 19688 19689 19690 19691 19692 19693 19694 19695 19696 19697 19698 19699 19700 19701 19702 19703 19704 19705 19706 19707 19708 19709 19710 19711 19712 19713 19714 19715 19716 19717 19718 19719 19720 19721 19722 19723 19724 19725 19726 19727 19728 19729 19730 19731 19732 19733 19734 19735 19736 19737 19738 19739 19740 19741 19742 19743 19744 19745 19746 19747 19748 19749 19750 19751 19752 19753 19754 19755 19756 19757 19758 19759 19760 19761 19762 19763 19764 19765 19766 19767 19768 19769 19770 19771 19772 19773 19774 19775 19776 19777 19778 19779 19780 19781 19782 19783 19784 19785 19786 19787 19788 19789 19790 19791 19792 19793 19794 19795 19796 19797 19798 19799 19800 19801 19802 19803 19804 19805 19806 19807 19808 19809 19810 19811 19812 19813 19814 19815 19816 19817 19818 19819 19820 19821 19822 19823 19824 19825 19826 19827 19828 19829 19830 19831 19832 19833 19834 19835 19836 19837 19838 19839 19840 19841 19842 19843 19844 19845 19846 19847 19848 19849 19850 19851 19852 19853 19854 19855 19856 19857 19858 19859 19860 19861 19862 19863 19864 19865 19866 19867 19868 19869 19870 19871 19872 19873 19874 19875 19876 19877 19878 19879 19880 19881 19882 19883 19884 19885 19886 19887 19888 19889 19890 19891 19892 19893 19894 19895 19896 19897 19898 19899 19900 19901 19902 19903 19904 19905 19906 19907 19908 19909 19910 19911 19912 19913 19914 19915 19916 19917 19918 19919 19920 19921 19922 19923 19924 19925 19926 19927 19928 19929 19930 19931 19932 19933 19934 19935 19936 19937 19938 19939 19940 19941 19942 19943 19944 19945 19946 19947 19948 19949 19950 19951 19952 19953 19954 19955 19956 19957 19958 19959 19960 19961 19962 19963 19964 19965 19966 19967 19968 19969 19970 19971 19972 19973 19974 19975 19976 19977 19978 19979 19980 19981 19982 19983 19984 19985 19986 19987 19988 19989 19990 19991 19992 19993 19994 19995 19996 19997 19998 19999 20000 20001 20002 20003 20004 20005 20006 20007 20008 20009 20010 20011 20012 20013 20014 20015 20016 20017 20018 20019 20020 20021 20022 20023 20024 20025 20026 20027 20028 20029 20030 20031 20032 20033 20034 20035 20036 20037 20038 20039 20040 20041 20042 20043 20044 20045 20046 20047 20048 20049 20050 20051 20052 20053 20054 20055 20056 20057 20058 20059 20060 20061 20062 20063 20064 20065 20066 20067 20068 20069 20070 20071 20072 20073 20074 20075 20076 20077 20078 20079 20080 20081 20082 20083 20084 20085 20086 20087 20088 20089 20090 20091 20092 20093 20094 20095 20096 20097 20098 20099 20100 20101 20102 20103 20104 20105 20106 20107 20108 20109 20110 20111 20112 20113 20114 20115 20116 20117 20118 20119 20120 20121 20122 20123 20124 20125 20126 20127 20128 20129 20130 20131 20132 20133 20134 20135 20136 20137 20138 20139 20140 20141 20142 20143 20144 20145 20146 20147 20148 20149 20150 20151 20152 20153 20154 20155 20156 20157 20158 20159 20160 20161 20162 20163 20164 20165 20166 20167 20168 20169 20170 20171 20172 20173 20174 20175 20176 20177 20178 20179 20180 20181 20182 20183 20184 20185 20186 20187 20188 20189 20190 20191 20192 20193 20194 20195 20196 20197 20198 20199 20200 20201 20202 20203 20204 20205 20206 20207 20208 20209 20210 20211 20212 20213 20214 20215 20216 20217 20218 20219 20220 20221 20222 20223 20224 20225 20226 20227 20228 20229 20230 20231 20232 20233 20234 20235 20236 20237 20238 20239 20240 20241 20242 20243 20244 20245 20246 20247 20248 20249 20250 20251 20252 20253 20254 20255 20256 20257 20258 20259 20260 20261 20262 20263 20264 20265 20266 20267 20268 20269 20270 20271 20272 20273 20274 20275 20276 20277 20278 20279 20280 20281 20282 20283 20284 20285 20286 20287 20288 20289 20290 20291 20292 20293 20294 20295 20296 20297 20298 20299 20300 20301 20302 20303 20304 20305 20306 20307 20308 20309 20310 20311 20312 20313 20314 20315 20316 20317 20318 20319 20320 20321 20322 20323 20324 20325 20326 20327 20328 20329 20330 20331 20332 20333 20334 20335 20336 20337 20338 20339 20340 20341 20342 20343 20344 20345 20346 20347 20348 20349 20350 20351 20352 20353 20354 20355 20356 20357 20358 20359 20360 20361 20362 20363 20364 20365 20366 20367 20368 20369 20370 20371 20372 20373 20374 20375 20376 20377 20378 20379 20380 20381 20382 20383 20384 20385 20386 20387 20388 20389 20390 20391 20392 20393 20394 20395 20396 20397 20398 20399 20400 20401 20402 20403 20404 20405 20406 20407 20408 20409 20410 20411 20412 20413 20414 20415 20416 20417 20418 20419 20420 20421 20422 20423 20424 20425 20426 20427 20428 20429 20430 20431 20432 20433 20434 20435 20436 20437 20438 20439 20440 20441 20442 20443 20444 20445 20446 20447 20448 20449 20450 20451 20452 20453 20454 20455 20456 20457 20458 20459 20460 20461 20462 20463 20464 20465 20466 20467 20468 20469 20470 20471 20472 20473 20474 20475 20476 20477 20478 20479 20480 20481 20482 20483 20484 20485 20486 20487 20488 20489 20490 20491 20492 20493 20494 20495 20496 20497 20498 20499 20500 20501 20502 20503 20504 20505 20506 20507 20508 20509 20510 20511 20512 20513 20514 20515 20516 20517 20518 20519 20520 20521 20522 20523 20524 20525 20526 20527 20528 20529 20530 20531 20532 20533 20534 20535 20536 20537 20538 20539 20540 20541 20542 20543 20544 20545 20546 20547 20548 20549 20550 20551 20552 20553 20554 20555 20556 20557 20558 20559 20560 20561 20562 20563 20564 20565 20566 20567 20568 20569 20570 20571 20572 20573 20574 20575 20576 20577 20578 20579 20580 20581 20582 20583 20584 20585 20586 20587 20588 20589 20590 20591 20592 20593 20594 20595 20596 20597 20598 20599 20600 20601 20602 20603 20604 20605 20606 20607 20608 20609 20610 20611 20612 20613 20614 20615 20616 20617 20618 20619 20620 20621 20622 20623 20624 20625 20626 20627 20628 20629 20630 20631 20632 20633 20634 20635 20636 20637 20638 20639 20640 20641 20642 20643 20644 20645 20646 20647 20648 20649 20650 20651 20652 20653 20654 20655 20656 20657 20658 20659 20660 20661 20662 20663 20664 20665 20666 20667 20668 20669 20670 20671 20672 20673 20674 20675 20676 20677 20678 20679 20680 20681 20682 20683 20684 20685 20686 20687 20688 20689 20690 20691 20692 20693 20694 20695 20696 20697 20698 20699 20700 20701 20702 20703 20704 20705 20706 20707 20708 20709 20710 20711 20712 20713 20714 20715 20716 20717 20718 20719 20720 20721 20722 20723 20724 20725 20726 20727 20728 20729 20730 20731 20732 20733 20734 20735 20736 20737 20738 20739 20740 20741 20742 20743 20744 20745 20746 20747 20748 20749 20750 20751 20752 20753 20754 20755 20756 20757 20758 20759 20760 20761 20762 20763 20764 20765 20766 20767 20768 20769 20770 20771 20772 20773 20774 20775 20776 20777 20778 20779 20780 20781 20782 20783 20784 20785 20786 20787 20788 20789 20790 20791 20792 20793 20794 20795 20796 20797 20798 20799 20800 20801 20802 20803 20804 20805 20806 20807 20808 20809 20810 20811 20812 20813 20814 20815 20816 20817 20818 20819 20820 20821 20822 20823 20824 20825 20826 20827 20828 20829 20830 20831 20832 20833 20834 20835 20836 20837 20838 20839 20840 20841 20842 20843 20844 20845 20846 20847 20848 20849 20850 20851 20852 20853 20854 20855 20856 20857 20858 20859 20860 20861 20862 20863 20864 20865 20866 20867 20868 20869 20870 20871 20872 20873 20874 20875 20876 20877 20878 20879 20880 20881 20882 20883 20884 20885 20886 20887 20888 20889 20890 20891 20892 20893 20894 20895 20896 20897 20898 20899 20900 20901 20902 20903 20904 20905 20906 20907 20908 20909 20910 20911 20912 20913 20914 20915 20916 20917 20918 20919 20920 20921 20922 20923 20924 20925 20926 20927 20928 20929 20930 20931 20932 20933 20934 20935 20936 20937 20938 20939 20940 20941 20942 20943 20944 20945 20946 20947 20948 20949 20950 20951 20952 20953 20954 20955 20956 20957 20958 20959 20960 20961 20962 20963 20964 20965 20966 20967 20968 20969 20970 20971 20972 20973 20974 20975 20976 20977 20978 20979 20980 20981 20982 20983 20984 20985 20986 20987 20988 20989 20990 20991 20992 20993 20994 20995 20996 20997 20998 20999 21000 21001 21002 21003 21004 21005 21006 21007 21008 21009 21010 21011 21012 21013 21014 21015 21016 21017 21018 21019 21020 21021 21022 21023 21024 21025 21026 21027 21028 21029 21030 21031 21032 21033 21034 21035 21036 21037 21038 21039 21040 21041 21042 21043 21044 21045 21046 21047 21048 21049 21050 21051 21052 21053 21054 21055 21056 21057 21058 21059 21060 21061 21062 21063 21064 21065 21066 21067 21068 21069 21070 21071 21072 21073 21074 21075 21076 21077 21078 21079 21080 21081 21082 21083 21084 21085 21086 21087 21088 21089 21090 21091 21092 21093 21094 21095 21096 21097 21098 21099 21100 21101 21102 21103 21104 21105 21106 21107 21108 21109 21110 21111 21112 21113 21114 21115 21116 21117 21118 21119 21120 21121 21122 21123 21124 21125 21126 21127 21128 21129 21130 21131 21132 21133 21134 21135 21136 21137 21138 21139 21140 21141 21142 21143 21144 21145 21146 21147 21148 21149 21150 21151 21152 21153 21154 21155 21156 21157 21158 21159 21160 21161 21162 21163 21164 21165 21166 21167 21168 21169 21170 21171 21172 21173 21174 21175 21176 21177 21178 21179 21180 21181 21182 21183 21184 21185 21186 21187 21188 21189 21190 21191 21192 21193 21194 21195 21196 21197 21198 21199 21200 21201 21202 21203 21204 21205 21206 21207 21208 21209 21210 21211 21212 21213 21214 21215 21216 21217 21218 21219 21220 21221 21222 21223 21224 21225 21226 21227 21228 21229 21230 21231 21232 21233 21234 21235 21236 21237 21238 21239 21240 21241 21242 21243 21244 21245 21246 21247 21248 21249 21250 21251 21252 21253 21254 21255 21256 21257 21258 21259 21260 21261 21262 21263 21264 21265 21266 21267 21268 21269 21270 21271 21272 21273 21274 21275 21276 21277 21278 21279 21280 21281 21282 21283 21284 21285 21286 21287 21288 21289 21290 21291 21292 21293 21294 21295 21296 21297 21298 21299 21300 21301 21302 21303 21304 21305 21306 21307 21308 21309 21310 21311 21312 21313 21314 21315 21316 21317 21318 21319 21320 21321 21322 21323 21324 21325 21326 21327 21328 21329 21330 21331 21332 21333 21334 21335 21336 21337 21338 21339 21340 21341 21342 21343 21344 21345 21346 21347 21348 21349 21350 21351 21352 21353 21354 21355 21356 21357 21358 21359 21360 21361 21362 21363 21364 21365 21366 21367 21368 21369 21370 21371 21372 21373 21374 21375 21376 21377 21378 21379 21380 21381 21382 21383 21384 21385 21386 21387 21388 21389 21390 21391 21392 21393 21394 21395 21396 21397 21398 21399 21400 21401 21402 21403 21404 21405 21406 21407 21408 21409 21410 21411 21412 21413 21414 21415 21416 21417 21418 21419 21420 21421 21422 21423 21424 21425 21426 21427 21428 21429 21430 21431 21432 21433 21434 21435 21436 21437 21438 21439 21440 21441 21442 21443 21444 21445 21446 21447 21448 21449 21450 21451 21452 21453 21454 21455 21456 21457 21458 21459 21460 21461 21462 21463 21464 21465 21466 21467 21468 21469 21470 21471 21472 21473 21474 21475 21476 21477 21478 21479 21480 21481 21482 21483 21484 21485 21486 21487 21488 21489 21490 21491 21492 21493 21494 21495 21496 21497 21498 21499 21500 21501 21502 21503 21504 21505 21506 21507 21508 21509 21510 21511 21512 21513 21514 21515 21516 21517 21518 21519 21520 21521 21522 21523 21524 21525 21526 21527 21528 21529 21530 21531 21532 21533 21534 21535 21536 21537 21538 21539 21540 21541 21542 21543 21544 21545 21546 21547 21548 21549 21550 21551 21552 21553 21554 21555 21556 21557 21558 21559 21560 21561 21562 21563 21564 21565 21566 21567 21568 21569 21570 21571 21572 21573 21574 21575 21576 21577 21578 21579 21580 21581 21582 21583 21584 21585 21586 21587 21588 21589 21590 21591 21592 21593 21594 21595 21596 21597 21598 21599 21600 21601 21602 21603 21604 21605 21606 21607 21608 21609 21610 21611 21612 21613 21614 21615 21616 21617 21618 21619 21620 21621 21622 21623 21624 21625 21626 21627 21628 21629 21630 21631 21632 21633 21634 21635 21636 21637 21638 21639 21640 21641 21642 21643 21644 21645 21646 21647 21648 21649 21650 21651 21652 21653 21654 21655 21656 21657 21658 21659 21660 21661 21662 21663 21664 21665 21666 21667 21668 21669 21670 21671 21672 21673 21674 21675 21676 21677 21678 21679 21680 21681 21682 21683 21684 21685 21686 21687 21688 21689 21690 21691 21692 21693 21694 21695 21696 21697 21698 21699 21700 21701 21702 21703 21704 21705 21706 21707 21708 21709 21710 21711 21712 21713 21714 21715 21716 21717 21718 21719 21720 21721 21722 21723 21724 21725 21726 21727 21728 21729 21730 21731 21732 21733 21734 21735 21736 21737 21738 21739 21740 21741 21742 21743 21744 21745 21746 21747 21748 21749 21750 21751 21752 21753 21754 21755 21756 21757 21758 21759 21760 21761 21762 21763 21764 21765 21766 21767 21768 21769 21770 21771 21772 21773 21774 21775 21776 21777 21778 21779 21780 21781 21782 21783 21784 21785 21786 21787 21788 21789 21790 21791 21792 21793 21794 21795 21796 21797 21798 21799 21800 21801 21802 21803 21804 21805 21806 21807 21808 21809 21810 21811 21812 21813 21814 21815 21816 21817 21818 21819 21820 21821 21822 21823 21824 21825 21826 21827 21828 21829 21830 21831 21832 21833 21834 21835 21836 21837 21838 21839 21840 21841 21842 21843 21844 21845 21846 21847 21848 21849 21850 21851 21852 21853 21854 21855 21856 21857 21858 21859 21860 21861 21862 21863 21864 21865 21866 21867 21868 21869 21870 21871 21872 21873 21874 21875 21876 21877 21878 21879 21880 21881 21882 21883 21884 21885 21886 21887 21888 21889 21890 21891 21892 21893 21894 21895 21896 21897 21898 21899 21900 21901 21902 21903 21904 21905 21906 21907 21908 21909 21910 21911 21912 21913 21914 21915 21916 21917 21918 21919 21920 21921 21922 21923 21924 21925 21926 21927 21928 21929 21930 21931 21932 21933 21934 21935 21936 21937 21938 21939 21940 21941 21942 21943 21944 21945 21946 21947 21948 21949 21950 21951 21952 21953 21954 21955 21956 21957 21958 21959 21960 21961 21962 21963 21964 21965 21966 21967 21968 21969 21970 21971 21972 21973 21974 21975 21976 21977 21978 21979 21980 21981 21982 21983 21984 21985 21986 21987 21988 21989 21990 21991 21992 21993 21994 21995 21996 21997 21998 21999 22000 22001 22002 22003 22004 22005 22006 22007 22008 22009 22010 22011 22012 22013 22014 22015 22016 22017 22018 22019 22020 22021 22022 22023 22024 22025 22026 22027 22028 22029 22030 22031 22032 22033 22034 22035 22036 22037 22038 22039 22040 22041 22042 22043 22044 22045 22046 22047 22048 22049 22050 22051 22052 22053 22054 22055 22056 22057 22058 22059 22060 22061 22062 22063 22064 22065 22066 22067 22068 22069 22070 22071 22072 22073 22074 22075 22076 22077 22078 22079 22080 22081 22082 22083 22084 22085 22086 22087 22088 22089 22090 22091 22092 22093 22094 22095 22096 22097 22098 22099 22100 22101 22102 22103 22104 22105 22106 22107 22108 22109 22110 22111 22112 22113 22114 22115 22116 22117 22118 22119 22120 22121 22122 22123 22124 22125 22126 22127 22128 22129 22130 22131 22132 22133 22134 22135 22136 22137 22138 22139 22140 22141 22142 22143 22144 22145 22146 22147 22148 22149 22150 22151 22152 22153 22154 22155 22156 22157 22158 22159 22160 22161 22162 22163 22164 22165 22166 22167 22168 22169 22170 22171 22172 22173 22174 22175 22176 22177 22178 22179 22180 22181 22182 22183 22184 22185 22186 22187 22188 22189 22190 22191 22192 22193 22194 22195 22196 22197 22198 22199 22200 22201 22202 22203 22204 22205 22206 22207 22208 22209 22210 22211 22212 22213 22214 22215 22216 22217 22218 22219 22220 22221 22222 22223 22224 22225 22226 22227 22228 22229 22230 22231 22232 22233 22234 22235 22236 22237 22238 22239 22240 22241 22242 22243 22244 22245 22246 22247 22248 22249 22250 22251 22252 22253 22254 22255 22256 22257 22258 22259 22260 22261 22262 22263 22264 22265 22266 22267 22268 22269 22270 22271 22272 22273 22274 22275 22276 22277 22278 22279 22280 22281 22282 22283 22284 22285 22286 22287 22288 22289 22290 22291 22292 22293 22294 22295 22296 22297 22298 22299 22300 22301 22302 22303 22304 22305 22306 22307 22308 22309 22310 22311 22312 22313 22314 22315 22316 22317 22318 22319 22320 22321 22322 22323 22324 22325 22326 22327 22328 22329 22330 22331 22332 22333 22334 22335 22336 22337 22338 22339 22340 22341 22342 22343 22344 22345 22346 22347 22348 22349 22350 22351 22352 22353 22354 22355 22356 22357 22358 22359 22360 22361 22362 22363 22364 22365 22366 22367 22368 22369 22370 22371 22372 22373 22374 22375 22376 22377 22378 22379 22380 22381 22382 22383 22384 22385 22386 22387 22388 22389 22390 22391 22392 22393 22394 22395 22396 22397 22398 22399 22400 22401 22402 22403 22404 22405 22406 22407 22408 22409 22410 22411 22412 22413 22414 22415 22416 22417 22418 22419 22420 22421 22422 22423 22424 22425 22426 22427 22428 22429 22430 22431 22432 22433 22434 22435 22436 22437 22438 22439 22440 22441 22442 22443 22444 22445 22446 22447 22448 22449 22450 22451 22452 22453 22454 22455 22456 22457 22458 22459 22460 22461 22462 22463 22464 22465 22466 22467 22468 22469 22470 22471 22472 22473 22474 22475 22476 22477 22478 22479 22480 22481 22482 22483 22484 22485 22486 22487 22488 22489 22490 22491 22492 22493 22494 22495 22496 22497 22498 22499 22500 22501 22502 22503 22504 22505 22506 22507 22508 22509 22510 22511 22512 22513 22514 22515 22516 22517 22518 22519 22520 22521 22522 22523 22524 22525 22526 22527 22528 22529 22530 22531 22532 22533 22534 22535 22536 22537 22538 22539 22540 22541 22542 22543 22544 22545 22546 22547 22548 22549 22550 22551 22552 22553 22554 22555 22556 22557 22558 22559 22560 22561 22562 22563 22564 22565 22566 22567 22568 22569 22570 22571 22572 22573 22574 22575 22576 22577 22578 22579 22580 22581 22582 22583 22584 22585 22586 22587 22588 22589 22590 22591 22592 22593 22594 22595 22596 22597 22598 22599 22600 22601 22602 22603 22604 22605 22606 22607 22608 22609 22610 22611 22612 22613 22614 22615 22616 22617 22618 22619 22620 22621 22622 22623 22624 22625 22626 22627 22628 22629 22630 22631 22632 22633 22634 22635 22636 22637 22638 22639 22640 22641 22642 22643 22644 22645 22646 22647 22648 22649 22650 22651 22652 22653 22654 22655 22656 22657 22658 22659 22660 22661 22662 22663 22664 22665 22666 22667 22668 22669 22670 22671 22672 22673 22674 22675 22676 22677 22678 22679 22680 22681 22682 22683 22684 22685 22686 22687 22688 22689 22690 22691 22692 22693 22694 22695 22696 22697 22698 22699 22700 22701 22702 22703 22704 22705 22706 22707 22708 22709 22710 22711 22712 22713 22714 22715 22716 22717 22718 22719 22720 22721 22722 22723 22724 22725 22726 22727 22728 22729 22730 22731 22732 22733 22734 22735 22736 22737 22738 22739 22740 22741 22742 22743 22744 22745 22746 22747 22748 22749 22750 22751 22752 22753 22754 22755 22756 22757 22758 22759 22760 22761 22762 22763 22764 22765 22766 22767 22768 22769 22770 22771 22772 22773 22774 22775 22776 22777 22778 22779 22780 22781 22782 22783 22784 22785 22786 22787 22788 22789 22790 22791 22792 22793 22794 22795 22796 22797 22798 22799 22800 22801 22802 22803 22804 22805 22806 22807 22808 22809 22810 22811 22812 22813 22814 22815 22816 22817 22818 22819 22820 22821 22822 22823 22824 22825 22826 22827 22828 22829 22830 22831 22832 22833 22834 22835 22836 22837 22838 22839 22840 22841 22842 22843 22844 22845 22846 22847 22848 22849 22850 22851 22852 22853 22854 22855 22856 22857 22858 22859 22860 22861 22862 22863 22864 22865 22866 22867 22868 22869 22870 22871 22872 22873 22874 22875 22876 22877 22878 22879 22880 22881 22882 22883 22884 22885 22886 22887 22888 22889 22890 22891 22892 22893 22894 22895 22896 22897 22898 22899 22900 22901 22902 22903 22904 22905 22906 22907 22908 22909 22910 22911 22912 22913 22914 22915 22916 22917 22918 22919 22920 22921 22922 22923 22924 22925 22926 22927 22928 22929 22930 22931 22932 22933 22934 22935 22936 22937 22938 22939 22940 22941 22942 22943 22944 22945 22946 22947 22948 22949 22950 22951 22952 22953 22954 22955 22956 22957 22958 22959 22960 22961 22962 22963 22964 22965 22966 22967 22968 22969 22970 22971 22972 22973 22974 22975 22976 22977 22978 22979 22980 22981 22982 22983 22984 22985 22986 22987 22988 22989 22990 22991 22992 22993 22994 22995 22996 22997 22998 22999 23000 23001 23002 23003 23004 23005 23006 23007 23008 23009 23010 23011 23012 23013 23014 23015 23016 23017 23018 23019 23020 23021 23022 23023 23024 23025 23026 23027 23028 23029 23030 23031 23032 23033 23034 23035 23036 23037 23038 23039 23040 23041 23042 23043 23044 23045 23046 23047 23048 23049 23050 23051 23052 23053 23054 23055 23056 23057 23058 23059 23060 23061 23062 23063 23064 23065 23066 23067 23068 23069 23070 23071 23072 23073 23074 23075 23076 23077 23078 23079 23080 23081 23082 23083 23084 23085 23086 23087 23088 23089 23090 23091 23092 23093 23094 23095 23096 23097 23098 23099 23100 23101 23102 23103 23104 23105 23106 23107 23108 23109 23110 23111 23112 23113 23114 23115 23116 23117 23118 23119 23120 23121 23122 23123 23124 23125 23126 23127 23128 23129 23130 23131 23132 23133 23134 23135 23136 23137 23138 23139 23140 23141 23142 23143 23144 23145 23146 23147 23148 23149 23150 23151 23152 23153 23154 23155 23156 23157 23158 23159 23160 23161 23162 23163 23164 23165 23166 23167 23168 23169 23170 23171 23172 23173 23174 23175 23176 23177 23178 23179 23180 23181 23182 23183 23184 23185 23186 23187 23188 23189 23190 23191 23192 23193 23194 23195 23196 23197 23198 23199 23200 23201 23202 23203 23204 23205 23206 23207 23208 23209 23210 23211 23212 23213 23214 23215 23216 23217 23218 23219 23220 23221 23222 23223 23224 23225 23226 23227 23228 23229 23230 23231 23232 23233 23234 23235 23236 23237 23238 23239 23240 23241 23242 23243 23244 23245 23246 23247 23248 23249 23250 23251 23252 23253 23254 23255 23256 23257 23258 23259 23260 23261 23262 23263 23264 23265 23266 23267 23268 23269 23270 23271 23272 23273 23274 23275 23276 23277 23278 23279 23280 23281 23282 23283 23284 23285 23286 23287 23288 23289 23290 23291 23292 23293 23294 23295 23296 23297 23298 23299 23300 23301 23302 23303 23304 23305 23306 23307 23308 23309 23310 23311 23312 23313 23314 23315 23316 23317 23318 23319 23320 23321 23322 23323 23324 23325 23326 23327 23328 23329 23330 23331 23332 23333 23334 23335 23336 23337 23338 23339 23340 23341 23342 23343 23344 23345 23346 23347 23348 23349 23350 23351 23352 23353 23354 23355 23356 23357 23358 23359 23360 23361 23362 23363 23364 23365 23366 23367 23368 23369 23370 23371 23372 23373 23374 23375 23376 23377 23378 23379 23380 23381 23382 23383 23384 23385 23386 23387 23388 23389 23390 23391 23392 23393 23394 23395 23396 23397 23398 23399 23400 23401 23402 23403 23404 23405 23406 23407 23408 23409 23410 23411 23412 23413 23414 23415 23416 23417 23418 23419 23420 23421 23422 23423 23424 23425 23426 23427 23428 23429 23430 23431 23432 23433 23434 23435 23436 23437 23438 23439 23440 23441 23442 23443 23444 23445 23446 23447 23448 23449 23450 23451 23452 23453 23454 23455 23456 23457 23458 23459 23460 23461 23462 23463 23464 23465 23466 23467 23468 23469 23470 23471 23472 23473 23474 23475 23476 23477 23478 23479 23480 23481 23482 23483 23484 23485 23486 23487 23488 23489 23490 23491 23492 23493 23494 23495 23496 23497 23498 23499 23500 23501 23502 23503 23504 23505 23506 23507 23508 23509 23510 23511 23512 23513 23514 23515 23516 23517 23518 23519 23520 23521 23522 23523 23524 23525 23526 23527 23528 23529 23530 23531 23532 23533 23534 23535 23536 23537 23538 23539 23540 23541 23542 23543 23544 23545 23546 23547 23548 23549 23550 23551 23552 23553 23554 23555 23556 23557 23558 23559 23560 23561 23562 23563 23564 23565 23566 23567 23568 23569 23570 23571 23572 23573 23574 23575 23576 23577 23578 23579 23580 23581 23582 23583 23584 23585 23586 23587 23588 23589 23590 23591 23592 23593 23594 23595 23596 23597 23598 23599 23600 23601 23602 23603 23604 23605 23606 23607 23608 23609 23610 23611 23612 23613 23614 23615 23616 23617 23618 23619 23620 23621 23622 23623 23624 23625 23626 23627 23628 23629 23630 23631 23632 23633 23634 23635 23636 23637 23638 23639 23640 23641 23642 23643 23644 23645 23646 23647 23648 23649 23650 23651 23652 23653 23654 23655 23656 23657 23658 23659 23660 23661 23662 23663 23664 23665 23666 23667 23668 23669 23670 23671 23672 23673 23674 23675 23676 23677 23678 23679 23680 23681 23682 23683 23684 23685 23686 23687 23688 23689 23690 23691 23692 23693 23694 23695 23696 23697 23698 23699 23700 23701 23702 23703 23704 23705 23706 23707 23708 23709 23710 23711 23712 23713 23714 23715 23716 23717 23718 23719 23720 23721 23722 23723 23724 23725 23726 23727 23728 23729 23730 23731 23732 23733 23734 23735 23736 23737 23738 23739 23740 23741 23742 23743 23744 23745 23746 23747 23748 23749 23750 23751 23752 23753 23754 23755 23756 23757 23758 23759 23760 23761 23762 23763 23764 23765 23766 23767 23768 23769 23770 23771 23772 23773 23774 23775 23776 23777 23778 23779 23780 23781 23782 23783 23784 23785 23786 23787 23788 23789 23790 23791 23792 23793 23794 23795 23796 23797 23798 23799 23800 23801 23802 23803 23804 23805 23806 23807 23808 23809 23810 23811 23812 23813 23814 23815 23816 23817 23818 23819 23820 23821 23822 23823 23824 23825 23826 23827 23828 23829 23830 23831 23832 23833 23834 23835 23836 23837 23838 23839 23840 23841 23842 23843 23844 23845 23846 23847 23848 23849 23850 23851 23852 23853 23854 23855 23856 23857 23858 23859 23860 23861 23862 23863 23864 23865 23866 23867 23868 23869 23870 23871 23872 23873 23874 23875 23876 23877 23878 23879 23880 23881 23882 23883 23884 23885 23886 23887 23888 23889 23890 23891 23892 23893 23894 23895 23896 23897 23898 23899 23900 23901 23902 23903 23904 23905 23906 23907 23908 23909 23910 23911 23912 23913 23914 23915 23916 23917 23918 23919 23920 23921 23922 23923 23924 23925 23926 23927 23928 23929 23930 23931 23932 23933 23934 23935 23936 23937 23938 23939 23940 23941 23942 23943 23944 23945 23946 23947 23948 23949 23950 23951 23952 23953 23954 23955 23956 23957 23958 23959 23960 23961 23962 23963 23964 23965 23966 23967 23968 23969 23970 23971 23972 23973 23974 23975 23976 23977 23978 23979 23980 23981 23982 23983 23984 23985 23986 23987 23988 23989 23990 23991 23992 23993 23994 23995 23996 23997 23998 23999 24000 24001 24002 24003 24004 24005 24006 24007 24008 24009 24010 24011 24012 24013 24014 24015 24016 24017 24018 24019 24020 24021 24022 24023 24024 24025 24026 24027 24028 24029 24030 24031 24032 24033 24034 24035 24036 24037 24038 24039 24040 24041 24042 24043 24044 24045 24046 24047 24048 24049 24050 24051 24052 24053 24054 24055 24056 24057 24058 24059 24060 24061 24062 24063 24064 24065 24066 24067 24068 24069 24070 24071 24072 24073 24074 24075 24076 24077 24078 24079 24080 24081 24082 24083 24084 24085 24086 24087 24088 24089 24090 24091 24092 24093 24094 24095 24096 24097 24098 24099 24100 24101 24102 24103 24104 24105 24106 24107 24108 24109 24110 24111 24112 24113 24114 24115 24116 24117 24118 24119 24120 24121 24122 24123 24124 24125 24126 24127 24128 24129 24130 24131 24132 24133 24134 24135 24136 24137 24138 24139 24140 24141 24142 24143 24144 24145 24146 24147 24148 24149 24150 24151 24152 24153 24154 24155 24156 24157 24158 24159 24160 24161 24162 24163 24164 24165 24166 24167 24168 24169 24170 24171 24172 24173 24174 24175 24176 24177 24178 24179 24180 24181 24182 24183 24184 24185 24186 24187 24188 24189 24190 24191 24192 24193 24194 24195 24196 24197 24198 24199 24200 24201 24202 24203 24204 24205 24206 24207 24208 24209 24210 24211 24212 24213 24214 24215 24216 24217 24218 24219 24220 24221 24222 24223 24224 24225 24226 24227 24228 24229 24230 24231 24232 24233 24234 24235 24236 24237 24238 24239 24240 24241 24242 24243 24244 24245 24246 24247 24248 24249 24250 24251 24252 24253 24254 24255 24256 24257 24258 24259 24260 24261 24262 24263 24264 24265 24266 24267 24268 24269 24270 24271 24272 24273 24274 24275 24276 24277 24278 24279 24280 24281 24282 24283 24284 24285 24286 24287 24288 24289 24290 24291 24292 24293 24294 24295 24296 24297 24298 24299 24300 24301 24302 24303 24304 24305 24306 24307 24308 24309 24310 24311 24312 24313 24314 24315 24316 24317 24318 24319 24320 24321 24322 24323 24324 24325 24326 24327 24328 24329 24330 24331 24332 24333 24334 24335 24336 24337 24338 24339 24340 24341 24342 24343 24344 24345 24346 24347 24348 24349 24350 24351 24352 24353 24354 24355 24356 24357 24358 24359 24360 24361 24362 24363 24364 24365 24366 24367 24368 24369 24370 24371 24372 24373 24374 24375 24376 24377 24378 24379 24380 24381 24382 24383 24384 24385 24386 24387 24388 24389 24390 24391 24392 24393 24394 24395 24396 24397 24398 24399 24400 24401 24402 24403 24404 24405 24406 24407 24408 24409 24410 24411 24412 24413 24414 24415 24416 24417 24418 24419 24420 24421 24422 24423 24424 24425 24426 24427 24428 24429 24430 24431 24432 24433 24434 24435 24436 24437 24438 24439 24440 24441 24442 24443 24444 24445 24446 24447 24448 24449 24450 24451 24452 24453 24454 24455 24456 24457 24458 24459 24460 24461 24462 24463 24464 24465 24466 24467 24468 24469 24470 24471 24472 24473 24474 24475 24476 24477 24478 24479 24480 24481 24482 24483 24484 24485 24486 24487 24488 24489 24490 24491 24492 24493 24494 24495 24496 24497 24498 24499 24500 24501 24502 24503 24504 24505 24506 24507 24508 24509 24510 24511 24512 24513 24514 24515 24516 24517 24518 24519 24520 24521 24522 24523 24524 24525 24526 24527 24528 24529 24530 24531 24532 24533 24534 24535 24536 24537 24538 24539 24540 24541 24542 24543 24544 24545 24546 24547 24548 24549 24550 24551 24552 24553 24554 24555 24556 24557 24558 24559 24560 24561 24562 24563 24564 24565 24566 24567 24568 24569 24570 24571 24572 24573 24574 24575 24576 24577 24578 24579 24580 24581 24582 24583 24584 24585 24586 24587 24588 24589 24590 24591 24592 24593 24594 24595 24596 24597 24598 24599 24600 24601 24602 24603 24604 24605 24606 24607 24608 24609 24610 24611 24612 24613 24614 24615 24616 24617 24618 24619 24620 24621 24622 24623 24624 24625 24626 24627 24628 24629 24630 24631 24632 24633 24634 24635 24636 24637 24638 24639 24640 24641 24642 24643 24644 24645 24646 24647 24648 24649 24650 24651 24652 24653 24654 24655 24656 24657 24658 24659 24660 24661 24662 24663 24664 24665 24666 24667 24668 24669 24670 24671 24672 24673 24674 24675 24676 24677 24678 24679 24680 24681 24682 24683 24684 24685 24686 24687 24688 24689 24690 24691 24692 24693 24694 24695 24696 24697 24698 24699 24700 24701 24702 24703 24704 24705 24706 24707 24708 24709 24710 24711 24712 24713 24714 24715 24716 24717 24718 24719 24720 24721 24722 24723 24724 24725 24726 24727 24728 24729 24730 24731 24732 24733 24734 24735 24736 24737 24738 24739 24740 24741 24742 24743 24744 24745 24746 24747 24748 24749 24750 24751 24752 24753 24754 24755 24756 24757 24758 24759 24760 24761 24762 24763 24764 24765 24766 24767 24768 24769 24770 24771 24772 24773 24774 24775 24776 24777 24778 24779 24780 24781 24782 24783 24784 24785 24786 24787 24788 24789 24790 24791 24792 24793 24794 24795 24796 24797 24798 24799 24800 24801 24802 24803 24804 24805 24806 24807 24808 24809 24810 24811 24812 24813 24814 24815 24816 24817 24818 24819 24820 24821 24822 24823 24824 24825 24826 24827 24828 24829 24830 24831 24832 24833 24834 24835 24836 24837 24838 24839 24840 24841 24842 24843 24844 24845 24846 24847 24848 24849 24850 24851 24852 24853 24854 24855 24856 24857 24858 24859 24860 24861 24862 24863 24864 24865 24866 24867 24868 24869 24870 24871 24872 24873 24874 24875 24876 24877 24878 24879 24880 24881 24882 24883 24884 24885 24886 24887 24888 24889 24890 24891 24892 24893 24894 24895 24896 24897 24898 24899 24900 24901 24902 24903 24904 24905 24906 24907 24908 24909 24910 24911 24912 24913 24914 24915 24916 24917 24918 24919 24920 24921 24922 24923 24924 24925 24926 24927 24928 24929 24930 24931 24932 24933 24934 24935 24936 24937 24938 24939 24940 24941 24942 24943 24944 24945 24946 24947 24948 24949 24950 24951 24952 24953 24954 24955 24956 24957 24958 24959 24960 24961 24962 24963 24964 24965 24966 24967 24968 24969 24970 24971 24972 24973 24974 24975 24976 24977 24978 24979 24980 24981 24982 24983 24984 24985 24986 24987 24988 24989 24990 24991 24992 24993 24994 24995 24996 24997 24998 24999 25000 25001 25002 25003 25004 25005 25006 25007 25008 25009 25010 25011 25012 25013 25014 25015 25016 25017 25018 25019 25020 25021 25022 25023 25024 25025 25026 25027 25028 25029 25030 25031 25032 25033 25034 25035 25036 25037 25038 25039 25040 25041 25042 25043 25044 25045 25046 25047 25048 25049 25050 25051 25052 25053 25054 25055 25056 25057 25058 25059 25060 25061 25062 25063 25064 25065 25066 25067 25068 25069 25070 25071 25072 25073 25074 25075 25076 25077 25078 25079 25080 25081 25082 25083 25084 25085 25086 25087 25088 25089 25090 25091 25092 25093 25094 25095 25096 25097 25098 25099 25100 25101 25102 25103 25104 25105 25106 25107 25108 25109 25110 25111 25112 25113 25114 25115 25116 25117 25118 25119 25120 25121 25122 25123 25124 25125 25126 25127 25128 25129 25130 25131 25132 25133 25134 25135 25136 25137 25138 25139 25140 25141 25142 25143 25144 25145 25146 25147 25148 25149 25150 25151 25152 25153 25154 25155 25156 25157 25158 25159 25160 25161 25162 25163 25164 25165 25166 25167 25168 25169 25170 25171 25172 25173 25174 25175 25176 25177 25178 25179 25180 25181 25182 25183 25184 25185 25186 25187 25188 25189 25190 25191 25192 25193 25194 25195 25196 25197 25198 25199 25200 25201 25202 25203 25204 25205 25206 25207 25208 25209 25210 25211 25212 25213 25214 25215 25216 25217 25218 25219 25220 25221 25222 25223 25224 25225 25226 25227 25228 25229 25230 25231 25232 25233 25234 25235 25236 25237 25238 25239 25240 25241 25242 25243 25244 25245 25246 25247 25248 25249 25250 25251 25252 25253 25254 25255 25256 25257 25258 25259 25260 25261 25262 25263 25264 25265 25266 25267 25268 25269 25270 25271 25272 25273 25274 25275 25276 25277 25278 25279 25280 25281 25282 25283 25284 25285 25286 25287 25288 25289 25290 25291 25292 25293 25294 25295 25296 25297 25298 25299 25300 25301 25302 25303 25304 25305 25306 25307 25308 25309 25310 25311 25312 25313 25314 25315 25316 25317 25318 25319 25320 25321 25322 25323 25324 25325 25326 25327 25328 25329 25330 25331 25332 25333 25334 25335 25336 25337 25338 25339 25340 25341 25342 25343 25344 25345 25346 25347 25348 25349 25350 25351 25352 25353 25354 25355 25356 25357 25358 25359 25360 25361 25362 25363 25364 25365 25366 25367 25368 25369 25370 25371 25372 25373 25374 25375 25376 25377 25378 25379 25380 25381 25382 25383 25384 25385 25386 25387 25388 25389 25390 25391 25392 25393 25394 25395 25396 25397 25398 25399 25400 25401 25402 25403 25404 25405 25406 25407 25408 25409 25410 25411 25412 25413 25414 25415 25416 25417 25418 25419 25420 25421 25422 25423 25424 25425 25426 25427 25428 25429 25430 25431 25432 25433 25434 25435 25436 25437 25438 25439 25440 25441 25442 25443 25444 25445 25446 25447 25448 25449 25450 25451 25452 25453 25454 25455 25456 25457 25458 25459 25460 25461 25462 25463 25464 25465 25466 25467 25468 25469 25470 25471 25472 25473 25474 25475 25476 25477 25478 25479 25480 25481 25482 25483 25484 25485 25486 25487 25488 25489 25490 25491 25492 25493 25494 25495 25496 25497 25498 25499 25500 25501 25502 25503 25504 25505 25506 25507 25508 25509 25510 25511 25512 25513 25514 25515 25516 25517 25518 25519 25520 25521 25522 25523 25524 25525 25526 25527 25528 25529 25530 25531 25532 25533 25534 25535 25536 25537 25538 25539 25540 25541 25542 25543 25544 25545 25546 25547 25548 25549 25550 25551 25552 25553 25554 25555 25556 25557 25558 25559 25560 25561 25562 25563 25564 25565 25566 25567 25568 25569 25570 25571 25572 25573 25574 25575 25576 25577 25578 25579 25580 25581 25582 25583 25584 25585 25586 25587 25588 25589 25590 25591 25592 25593 25594 25595 25596 25597 25598 25599 25600 25601 25602 25603 25604 25605 25606 25607 25608 25609 25610 25611 25612 25613 25614 25615 25616 25617 25618 25619 25620 25621 25622 25623 25624 25625 25626 25627 25628 25629 25630 25631 25632 25633 25634 25635 25636 25637 25638 25639 25640 25641 25642 25643 25644 25645 25646 25647 25648 25649 25650 25651 25652 25653 25654 25655 25656 25657 25658 25659 25660 25661 25662 25663 25664 25665 25666 25667 25668 25669 25670 25671 25672 25673 25674 25675 25676 25677 25678 25679 25680 25681 25682 25683 25684 25685 25686 25687 25688 25689 25690 25691 25692 25693 25694 25695 25696 25697 25698 25699 25700 25701 25702 25703 25704 25705 25706 25707 25708 25709 25710 25711 25712 25713 25714 25715 25716 25717 25718 25719 25720 25721 25722 25723 25724 25725 25726 25727 25728 25729 25730 25731 25732 25733 25734 25735 25736 25737 25738 25739 25740 25741 25742 25743 25744 25745 25746 25747 25748 25749 25750 25751 25752 25753 25754 25755 25756 25757 25758 25759 25760 25761 25762 25763 25764 25765 25766 25767 25768 25769 25770 25771 25772 25773 25774 25775 25776 25777 25778 25779 25780 25781 25782 25783 25784 25785 25786 25787 25788 25789 25790 25791 25792 25793 25794 25795 25796 25797 25798 25799 25800 25801 25802 25803 25804 25805 25806 25807 25808 25809 25810 25811 25812 25813 25814 25815 25816 25817 25818 25819 25820 25821 25822 25823 25824 25825 25826 25827 25828 25829 25830 25831 25832 25833 25834 25835 25836 25837 25838 25839 25840 25841 25842 25843 25844 25845 25846 25847 25848 25849 25850 25851 25852 25853 25854 25855 25856 25857 25858 25859 25860 25861 25862 25863 25864 25865 25866 25867 25868 25869 25870 25871 25872 25873 25874 25875 25876 25877 25878 25879 25880 25881 25882 25883 25884 25885 25886 25887 25888 25889 25890 25891 25892 25893 25894 25895 25896 25897 25898 25899 25900 25901 25902 25903 25904 25905 25906 25907 25908 25909 25910 25911 25912 25913 25914 25915 25916 25917 25918 25919 25920 25921 25922 25923 25924 25925 25926 25927 25928 25929 25930 25931 25932 25933 25934 25935 25936 25937 25938 25939 25940 25941 25942 25943 25944 25945 25946 25947 25948 25949 25950 25951 25952 25953 25954 25955 25956 25957 25958 25959 25960 25961 25962 25963 25964 25965 25966 25967 25968 25969 25970 25971 25972 25973 25974 25975 25976 25977 25978 25979 25980 25981 25982 25983 25984 25985 25986 25987 25988 25989 25990 25991 25992 25993 25994 25995 25996 25997 25998 25999 26000 26001 26002 26003 26004 26005 26006 26007 26008 26009 26010 26011 26012 26013 26014 26015 26016 26017 26018 26019 26020 26021 26022 26023 26024 26025 26026 26027 26028 26029 26030 26031 26032 26033 26034 26035 26036 26037 26038 26039 26040 26041 26042 26043 26044 26045 26046 26047 26048 26049 26050 26051 26052 26053 26054 26055 26056 26057 26058 26059 26060 26061 26062 26063 26064 26065 26066 26067 26068 26069 26070 26071 26072 26073 26074 26075 26076 26077 26078 26079 26080 26081 26082 26083 26084 26085 26086 26087 26088 26089 26090 26091 26092 26093 26094 26095 26096 26097 26098 26099 26100 26101 26102 26103 26104 26105 26106 26107 26108 26109 26110 26111 26112 26113 26114 26115 26116 26117 26118 26119 26120 26121 26122 26123 26124 26125 26126 26127 26128 26129 26130 26131 26132 26133 26134 26135 26136 26137 26138 26139 26140 26141 26142 26143 26144 26145 26146 26147 26148 26149 26150 26151 26152 26153 26154 26155 26156 26157 26158 26159 26160 26161 26162 26163 26164 26165 26166 26167 26168 26169 26170 26171 26172 26173 26174 26175 26176 26177 26178 26179 26180 26181 26182 26183 26184 26185 26186 26187 26188 26189 26190 26191 26192 26193 26194 26195 26196 26197 26198 26199 26200 26201 26202 26203 26204 26205 26206 26207 26208 26209 26210 26211 26212 26213 26214 26215 26216 26217 26218 26219 26220 26221 26222 26223 26224 26225 26226 26227 26228 26229 26230 26231 26232 26233 26234 26235 26236 26237 26238 26239 26240 26241 26242 26243 26244 26245 26246 26247 26248 26249 26250 26251 26252 26253 26254 26255 26256 26257 26258 26259 26260 26261 26262 26263 26264 26265 26266 26267 26268 26269 26270 26271 26272 26273 26274 26275 26276 26277 26278 26279 26280 26281 26282 26283 26284 26285 26286 26287 26288 26289 26290 26291 26292 26293 26294 26295 26296 26297 26298 26299 26300 26301 26302 26303 26304 26305 26306 26307 26308 26309 26310 26311 26312 26313 26314 26315 26316 26317 26318 26319 26320 26321 26322 26323 26324 26325 26326 26327 26328 26329 26330 26331 26332 26333 26334 26335 26336 26337 26338 26339 26340 26341 26342 26343 26344 26345 26346 26347 26348 26349 26350 26351 26352 26353 26354 26355 26356 26357 26358 26359 26360 26361 26362 26363 26364 26365 26366 26367 26368 26369 26370 26371 26372 26373 26374 26375 26376 26377 26378 26379 26380 26381 26382 26383 26384 26385 26386 26387 26388 26389 26390 26391 26392 26393 26394 26395 26396 26397 26398 26399 26400 26401 26402 26403 26404 26405 26406 26407 26408 26409 26410 26411 26412 26413 26414 26415 26416 26417 26418 26419 26420 26421 26422 26423 26424 26425 26426 26427 26428 26429 26430 26431 26432 26433 26434 26435 26436 26437 26438 26439 26440 26441 26442 26443 26444 26445 26446 26447 26448 26449 26450 26451 26452 26453 26454 26455 26456 26457 26458 26459 26460 26461 26462 26463 26464 26465 26466 26467 26468 26469 26470 26471 26472 26473 26474 26475 26476 26477 26478 26479 26480 26481 26482 26483 26484 26485 26486 26487 26488 26489 26490 26491 26492 26493 26494 26495 26496 26497 26498 26499 26500 26501 26502 26503 26504 26505 26506 26507 26508 26509 26510 26511 26512 26513 26514 26515 26516 26517 26518 26519 26520 26521 26522 26523 26524 26525 26526 26527 26528 26529 26530 26531 26532 26533 26534 26535 26536 26537 26538 26539 26540 26541 26542 26543 26544 26545 26546 26547 26548 26549 26550 26551 26552 26553 26554 26555 26556 26557 26558 26559 26560 26561 26562 26563 26564 26565 26566 26567 26568 26569 26570 26571 26572 26573 26574 26575 26576 26577 26578 26579 26580 26581 26582 26583 26584 26585 26586 26587 26588 26589 26590 26591 26592 26593 26594 26595 26596 26597 26598 26599 26600 26601 26602 26603 26604 26605 26606 26607 26608 26609 26610 26611 26612 26613 26614 26615 26616 26617 26618 26619 26620 26621 26622 26623 26624 26625 26626 26627 26628 26629 26630 26631 26632 26633 26634 26635 26636 26637 26638 26639 26640 26641 26642 26643 26644 26645 26646 26647 26648 26649 26650 26651 26652 26653 26654 26655 26656 26657 26658 26659 26660 26661 26662 26663 26664 26665 26666 26667 26668 26669 26670 26671 26672 26673 26674 26675 26676 26677 26678 26679 26680 26681 26682 26683 26684 26685 26686 26687 26688 26689 26690 26691 26692 26693 26694 26695 26696 26697 26698 26699 26700 26701 26702 26703 26704 26705 26706 26707 26708 26709 26710 26711 26712 26713 26714 26715 26716 26717 26718 26719 26720 26721 26722 26723 26724 26725 26726 26727 26728 26729 26730 26731 26732 26733 26734 26735 26736 26737 26738 26739 26740 26741 26742 26743 26744 26745 26746 26747 26748 26749 26750 26751 26752 26753 26754 26755 26756 26757 26758 26759 26760 26761 26762 26763 26764 26765 26766 26767 26768 26769 26770 26771 26772 26773 26774 26775 26776 26777 26778 26779 26780 26781 26782 26783 26784 26785 26786 26787 26788 26789 26790 26791 26792 26793 26794 26795 26796 26797 26798 26799 26800 26801 26802 26803 26804 26805 26806 26807 26808 26809 26810 26811 26812 26813 26814 26815 26816 26817 26818 26819 26820 26821 26822 26823 26824 26825 26826 26827 26828 26829 26830 26831 26832 26833 26834 26835 26836 26837 26838 26839 26840 26841 26842 26843 26844 26845 26846 26847 26848 26849 26850 26851 26852 26853 26854 26855 26856 26857 26858 26859 26860 26861 26862 26863 26864 26865 26866 26867 26868 26869 26870 26871 26872 26873 26874 26875 26876 26877 26878 26879 26880 26881 26882 26883 26884 26885 26886 26887 26888 26889 26890 26891 26892 26893 26894 26895 26896 26897 26898 26899 26900 26901 26902 26903 26904 26905 26906 26907 26908 26909 26910 26911 26912 26913 26914 26915 26916 26917 26918 26919 26920 26921 26922 26923 26924 26925 26926 26927 26928 26929 26930 26931 26932 26933 26934 26935 26936 26937 26938 26939 26940 26941 26942 26943 26944 26945 26946 26947 26948 26949 26950 26951 26952 26953 26954 26955 26956 26957 26958 26959 26960 26961 26962 26963 26964 26965 26966 26967 26968 26969 26970 26971 26972 26973 26974 26975 26976 26977 26978 26979 26980 26981 26982 26983 26984 26985 26986 26987 26988 26989 26990 26991 26992 26993 26994 26995 26996 26997 26998 26999 27000 27001 27002 27003 27004 27005 27006 27007 27008 27009 27010 27011 27012 27013 27014 27015 27016 27017 27018 27019 27020 27021 27022 27023 27024 27025 27026 27027 27028 27029 27030 27031 27032 27033 27034 27035 27036 27037 27038 27039 27040 27041 27042 27043 27044 27045 27046 27047 27048 27049 27050 27051 27052 27053 27054 27055 27056 27057 27058 27059 27060 27061 27062 27063 27064 27065 27066 27067 27068 27069 27070 27071 27072 27073 27074 27075 27076 27077 27078 27079 27080 27081 27082 27083 27084 27085 27086 27087 27088 27089 27090 27091 27092 27093 27094 27095 27096 27097 27098 27099 27100 27101 27102 27103 27104 27105 27106 27107 27108 27109 27110 27111 27112 27113 27114 27115 27116 27117 27118 27119 27120 27121 27122 27123 27124 27125 27126 27127 27128 27129 27130 27131 27132 27133 27134 27135 27136 27137 27138 27139 27140 27141 27142 27143 27144 27145 27146 27147 27148 27149 27150 27151 27152 27153 27154 27155 27156 27157 27158 27159 27160 27161 27162 27163 27164 27165 27166 27167 27168 27169 27170 27171 27172 27173 27174 27175 27176 27177 27178 27179 27180 27181 27182 27183 27184 27185 27186 27187 27188 27189 27190 27191 27192 27193 27194 27195 27196 27197 27198 27199 27200 27201 27202 27203 27204 27205 27206 27207 27208 27209 27210 27211 27212 27213 27214 27215 27216 27217 27218 27219 27220 27221 27222 27223 27224 27225 27226 27227 27228 27229 27230 27231 27232 27233 27234 27235 27236 27237 27238 27239 27240 27241 27242 27243 27244 27245 27246 27247 27248 27249 27250 27251 27252 27253 27254 27255 27256 27257 27258 27259 27260 27261 27262 27263 27264 27265 27266 27267 27268 27269 27270 27271 27272 27273 27274 27275 27276 27277 27278 27279 27280 27281 27282 27283 27284 27285 27286 27287 27288 27289 27290 27291 27292 27293 27294 27295 27296 27297 27298 27299 27300 27301 27302 27303 27304 27305 27306 27307 27308 27309 27310 27311 27312 27313 27314 27315 27316 27317 27318 27319 27320 27321 27322 27323 27324 27325 27326 27327 27328 27329 27330 27331 27332 27333 27334 27335 27336 27337 27338 27339 27340 27341 27342 27343 27344 27345 27346 27347 27348 27349 27350 27351 27352 27353 27354 27355 27356 27357 27358 27359 27360 27361 27362 27363 27364 27365 27366 27367 27368 27369 27370 27371 27372 27373 27374 27375 27376 27377 27378 27379 27380 27381 27382 27383 27384 27385 27386 27387 27388 27389 27390 27391 27392 27393 27394 27395 27396 27397 27398 27399 27400 27401 27402 27403 27404 27405 27406 27407 27408 27409 27410 27411 27412 27413 27414 27415 27416 27417 27418 27419 27420 27421 27422 27423 27424 27425 27426 27427 27428 27429 27430 27431 27432 27433 27434 27435 27436 27437 27438 27439 27440 27441 27442 27443 27444 27445 27446 27447 27448 27449 27450 27451 27452 27453 27454 27455 27456 27457 27458 27459 27460 27461 27462 27463 27464 27465 27466 27467 27468 27469 27470 27471 27472 27473 27474 27475 27476 27477 27478 27479 27480 27481 27482 27483 27484 27485 27486 27487 27488 27489 27490 27491 27492 27493 27494 27495 27496 27497 27498 27499 27500 27501 27502 27503 27504 27505 27506 27507 27508 27509 27510 27511 27512 27513 27514 27515 27516 27517 27518 27519 27520 27521 27522 27523 27524 27525 27526 27527 27528 27529 27530 27531 27532 27533 27534 27535 27536 27537 27538 27539 27540 27541 27542 27543 27544 27545 27546 27547 27548 27549 27550 27551 27552 27553 27554 27555 27556 27557 27558 27559 27560 27561 27562 27563 27564 27565 27566 27567 27568 27569 27570 27571 27572 27573 27574 27575 27576 27577 27578 27579 27580 27581 27582 27583 27584 27585 27586 27587 27588 27589 27590 27591 27592 27593 27594 27595 27596 27597 27598 27599 27600 27601 27602 27603 27604 27605 27606 27607 27608 27609 27610 27611 27612 27613 27614 27615 27616 27617 27618 27619 27620 27621 27622 27623 27624 27625 27626 27627 27628 27629 27630 27631 27632 27633 27634 27635 27636 27637 27638 27639 27640 27641 27642 27643 27644 27645 27646 27647 27648 27649 27650 27651 27652 27653 27654 27655 27656 27657 27658 27659 27660 27661 27662 27663 27664 27665 27666 27667 27668 27669 27670 27671 27672 27673 27674 27675 27676 27677 27678 27679 27680 27681 27682 27683 27684 27685 27686 27687 27688 27689 27690 27691 27692 27693 27694 27695 27696 27697 27698 27699 27700 27701 27702 27703 27704 27705 27706 27707 27708 27709 27710 27711 27712 27713 27714 27715 27716 27717 27718 27719 27720 27721 27722 27723 27724 27725 27726 27727 27728 27729 27730 27731 27732 27733 27734 27735 27736 27737 27738 27739 27740 27741 27742 27743 27744 27745 27746 27747 27748 27749 27750 27751 27752 27753 27754 27755 27756 27757 27758 27759 27760 27761 27762 27763 27764 27765 27766 27767 27768 27769 27770 27771 27772 27773 27774 27775 27776 27777 27778 27779 27780 27781 27782 27783 27784 27785 27786 27787 27788 27789 27790 27791 27792 27793 27794 27795 27796 27797 27798 27799 27800 27801 27802 27803 27804 27805 27806 27807 27808 27809 27810 27811 27812 27813 27814 27815 27816 27817 27818 27819 27820 27821 27822 27823 27824 27825 27826 27827 27828 27829 27830 27831 27832 27833 27834 27835 27836 27837 27838 27839 27840 27841 27842 27843 27844 27845 27846 27847 27848 27849 27850 27851 27852 27853 27854 27855 27856 27857 27858 27859 27860 27861 27862 27863 27864 27865 27866 27867 27868 27869 27870 27871 27872 27873 27874 27875 27876 27877 27878 27879 27880 27881 27882 27883 27884 27885 27886 27887 27888 27889 27890 27891 27892 27893 27894 27895 27896 27897 27898 27899 27900 27901 27902 27903 27904 27905 27906 27907 27908 27909 27910 27911 27912 27913 27914 27915 27916 27917 27918 27919 27920 27921 27922 27923 27924 27925 27926 27927 27928 27929 27930 27931 27932 27933 27934 27935 27936 27937 27938 27939 27940 27941 27942 27943 27944 27945 27946 27947 27948 27949 27950 27951 27952 27953 27954 27955 27956 27957 27958 27959 27960 27961 27962 27963 27964 27965 27966 27967 27968 27969 27970 27971 27972 27973 27974 27975 27976 27977 27978 27979 27980 27981 27982 27983 27984 27985 27986 27987 27988 27989 27990 27991 27992 27993 27994 27995 27996 27997 27998 27999 28000 28001 28002 28003 28004 28005 28006 28007 28008 28009 28010 28011 28012 28013 28014 28015 28016 28017 28018 28019 28020 28021 28022 28023 28024 28025 28026 28027 28028 28029 28030 28031 28032 28033 28034 28035 28036 28037 28038 28039 28040 28041 28042 28043 28044 28045 28046 28047 28048 28049 28050 28051 28052 28053 28054 28055 28056 28057 28058 28059 28060 28061 28062 28063 28064 28065 28066 28067 28068 28069 28070 28071 28072 28073 28074 28075 28076 28077 28078 28079 28080 28081 28082 28083 28084 28085 28086 28087 28088 28089 28090 28091 28092 28093 28094 28095 28096 28097 28098 28099 28100 28101 28102 28103 28104 28105 28106 28107 28108 28109 28110 28111 28112 28113 28114 28115 28116 28117 28118 28119 28120 28121 28122 28123 28124 28125 28126 28127 28128 28129 28130 28131 28132 28133 28134 28135 28136 28137 28138 28139 28140 28141 28142 28143 28144 28145 28146 28147 28148 28149 28150 28151 28152 28153 28154 28155 28156 28157 28158 28159 28160 28161 28162 28163 28164 28165 28166 28167 28168 28169 28170 28171 28172 28173 28174 28175 28176 28177 28178 28179 28180 28181 28182 28183 28184 28185 28186 28187 28188 28189 28190 28191 28192 28193 28194 28195 28196 28197 28198 28199 28200 28201 28202 28203 28204 28205 28206 28207 28208 28209 28210 28211 28212 28213 28214 28215 28216 28217 28218 28219 28220 28221 28222 28223 28224 28225 28226 28227 28228 28229 28230 28231 28232 28233 28234 28235 28236 28237 28238 28239 28240 28241 28242 28243 28244 28245 28246 28247 28248 28249 28250 28251 28252 28253 28254 28255 28256 28257 28258 28259 28260 28261 28262 28263 28264 28265 28266 28267 28268 28269 28270 28271 28272 28273 28274 28275 28276 28277 28278 28279 28280 28281 28282 28283 28284 28285 28286 28287 28288 28289 28290 28291 28292 28293 28294 28295 28296 28297 28298 28299 28300 28301 28302 28303 28304 28305 28306 28307 28308 28309 28310 28311 28312 28313 28314 28315 28316 28317 28318 28319 28320 28321 28322 28323 28324 28325 28326 28327 28328 28329 28330 28331 28332 28333 28334 28335 28336 28337 28338 28339 28340 28341 28342 28343 28344 28345 28346 28347 28348 28349 28350 28351 28352 28353 28354 28355 28356 28357 28358 28359 28360 28361 28362 28363 28364 28365 28366 28367 28368 28369 28370 28371 28372 28373 28374 28375 28376 28377 28378 28379 28380 28381 28382 28383 28384 28385 28386 28387 28388 28389 28390 28391 28392 28393 28394 28395 28396 28397 28398 28399 28400 28401 28402 28403 28404 28405 28406 28407 28408 28409 28410 28411 28412 28413 28414 28415 28416 28417 28418 28419 28420 28421 28422 28423 28424 28425 28426 28427 28428 28429 28430 28431 28432 28433 28434 28435 28436 28437 28438 28439 28440 28441 28442 28443 28444 28445 28446 28447 28448 28449 28450 28451 28452 28453 28454 28455 28456 28457 28458 28459 28460 28461 28462 28463 28464 28465 28466 28467 28468 28469 28470 28471 28472 28473 28474 28475 28476 28477 28478 28479 28480 28481 28482 28483 28484 28485 28486 28487 28488 28489 28490 28491 28492 28493 28494 28495 28496 28497 28498 28499 28500 28501 28502 28503 28504 28505 28506 28507 28508 28509 28510 28511 28512 28513 28514 28515 28516 28517 28518 28519 28520 28521 28522 28523 28524 28525 28526 28527 28528 28529 28530 28531 28532 28533 28534 28535 28536 28537 28538 28539 28540 28541 28542 28543 28544 28545 28546 28547 28548 28549 28550 28551 28552 28553 28554 28555 28556 28557 28558 28559 28560 28561 28562 28563 28564 28565 28566 28567 28568 28569 28570 28571 28572 28573 28574 28575 28576 28577 28578 28579 28580 28581 28582 28583 28584 28585 28586 28587 28588 28589 28590 28591 28592 28593 28594 28595 28596 28597 28598 28599 28600 28601 28602 28603 28604 28605 28606 28607 28608 28609 28610 28611 28612 28613 28614 28615 28616 28617 28618 28619 28620 28621 28622 28623 28624 28625 28626 28627 28628 28629 28630 28631 28632 28633 28634 28635 28636 28637 28638 28639 28640 28641 28642 28643 28644 28645 28646 28647 28648 28649 28650 28651 28652 28653 28654 28655 28656 28657 28658 28659 28660 28661 28662 28663 28664 28665 28666 28667 28668 28669 28670 28671 28672 28673 28674 28675 28676 28677 28678 28679 28680 28681 28682 28683 28684 28685 28686 28687 28688 28689 28690 28691 28692 28693 28694 28695 28696 28697 28698 28699 28700 28701 28702 28703 28704 28705 28706 28707 28708 28709 28710 28711 28712 28713 28714 28715 28716 28717 28718 28719 28720 28721 28722 28723 28724 28725 28726 28727 28728 28729 28730 28731 28732 28733 28734 28735 28736 28737 28738 28739 28740 28741 28742 28743 28744 28745 28746 28747 28748 28749 28750 28751 28752 28753 28754 28755 28756 28757 28758 28759 28760 28761 28762 28763 28764 28765 28766 28767 28768 28769 28770 28771 28772 28773 28774 28775 28776 28777 28778 28779 28780 28781 28782 28783 28784 28785 28786 28787 28788 28789 28790 28791 28792 28793 28794 28795 28796 28797 28798 28799 28800 28801 28802 28803 28804 28805 28806 28807 28808 28809 28810 28811 28812 28813 28814 28815 28816 28817 28818 28819 28820 28821 28822 28823 28824 28825 28826 28827 28828 28829 28830 28831 28832 28833 28834 28835 28836 28837 28838 28839 28840 28841 28842 28843 28844 28845 28846 28847 28848 28849 28850 28851 28852 28853 28854 28855 28856 28857 28858 28859 28860 28861 28862 28863 28864 28865 28866 28867 28868 28869 28870 28871 28872 28873 28874 28875 28876 28877 28878 28879 28880 28881 28882 28883 28884 28885 28886 28887 28888 28889 28890 28891 28892 28893 28894 28895 28896 28897 28898 28899 28900 28901 28902 28903 28904 28905 28906 28907 28908 28909 28910 28911 28912 28913 28914 28915 28916 28917 28918 28919 28920 28921 28922 28923 28924 28925 28926 28927 28928 28929 28930 28931 28932 28933 28934 28935 28936 28937 28938 28939 28940 28941 28942 28943 28944 28945 28946 28947 28948 28949 28950 28951 28952 28953 28954 28955 28956 28957 28958 28959 28960 28961 28962 28963 28964 28965 28966 28967 28968 28969 28970 28971 28972 28973 28974 28975 28976 28977 28978 28979 28980 28981 28982 28983 28984 28985 28986 28987 28988 28989 28990 28991 28992 28993 28994 28995 28996 28997 28998 28999 29000 29001 29002 29003 29004 29005 29006 29007 29008 29009 29010 29011 29012 29013 29014 29015 29016 29017 29018 29019 29020 29021 29022 29023 29024 29025 29026 29027 29028 29029 29030 29031 29032 29033 29034 29035 29036 29037 29038 29039 29040 29041 29042 29043 29044 29045 29046 29047 29048 29049 29050 29051 29052 29053 29054 29055 29056 29057 29058 29059 29060 29061 29062 29063 29064 29065 29066 29067 29068 29069 29070 29071 29072 29073 29074 29075 29076 29077 29078 29079 29080 29081 29082 29083 29084 29085 29086 29087 29088 29089 29090 29091 29092 29093 29094 29095 29096 29097 29098 29099 29100 29101 29102 29103 29104 29105 29106 29107 29108 29109 29110 29111 29112 29113 29114 29115 29116 29117 29118 29119 29120 29121 29122 29123 29124 29125 29126 29127 29128 29129 29130 29131 29132 29133 29134 29135 29136 29137 29138 29139 29140 29141 29142 29143 29144 29145 29146 29147 29148 29149 29150 29151 29152 29153 29154 29155 29156 29157 29158 29159 29160 29161 29162 29163 29164 29165 29166 29167 29168 29169 29170 29171 29172 29173 29174 29175 29176 29177 29178 29179 29180 29181 29182 29183 29184 29185 29186 29187 29188 29189 29190 29191 29192 29193 29194 29195 29196 29197 29198 29199 29200 29201 29202 29203 29204 29205 29206 29207 29208 29209 29210 29211 29212 29213 29214 29215 29216 29217 29218 29219 29220 29221 29222 29223 29224 29225 29226 29227 29228 29229 29230 29231 29232 29233 29234 29235 29236 29237 29238 29239 29240 29241 29242 29243 29244 29245 29246 29247 29248 29249 29250 29251 29252 29253 29254 29255 29256 29257 29258 29259 29260 29261 29262 29263 29264 29265 29266 29267 29268 29269 29270 29271 29272 29273 29274 29275 29276 29277 29278 29279 29280 29281 29282 29283 29284 29285 29286 29287 29288 29289 29290 29291 29292 29293 29294 29295 29296 29297 29298 29299 29300 29301 29302 29303 29304 29305 29306 29307 29308 29309 29310 29311 29312 29313 29314 29315 29316 29317 29318 29319 29320 29321 29322 29323 29324 29325 29326 29327 29328 29329 29330 29331 29332 29333 29334 29335 29336 29337 29338 29339 29340 29341 29342 29343 29344 29345 29346 29347 29348 29349 29350 29351 29352 29353 29354 29355 29356 29357 29358 29359 29360 29361 29362 29363 29364 29365 29366 29367 29368 29369 29370 29371 29372 29373 29374 29375 29376 29377 29378 29379 29380 29381 29382 29383 29384 29385 29386 29387 29388 29389 29390 29391 29392 29393 29394 29395 29396 29397 29398 29399 29400 29401 29402 29403 29404 29405 29406 29407 29408 29409 29410 29411 29412 29413 29414 29415 29416 29417 29418 29419 29420 29421 29422 29423 29424 29425 29426 29427 29428 29429 29430 29431 29432 29433 29434 29435 29436 29437 29438 29439 29440 29441 29442 29443 29444 29445 29446 29447 29448 29449 29450 29451 29452 29453 29454 29455 29456 29457 29458 29459 29460 29461 29462 29463 29464 29465 29466 29467 29468 29469 29470 29471 29472 29473 29474 29475 29476 29477 29478 29479 29480 29481 29482 29483 29484 29485 29486 29487 29488 29489 29490 29491 29492 29493 29494 29495 29496 29497 29498 29499 29500 29501 29502 29503 29504 29505 29506 29507 29508 29509 29510 29511 29512 29513 29514 29515 29516 29517 29518 29519 29520 29521 29522 29523 29524 29525 29526 29527 29528 29529 29530 29531 29532 29533 29534 29535 29536 29537 29538 29539 29540 29541 29542 29543 29544 29545 29546 29547 29548 29549 29550 29551 29552 29553 29554 29555 29556 29557 29558 29559 29560 29561 29562 29563 29564 29565 29566 29567 29568 29569 29570 29571 29572 29573 29574 29575 29576 29577 29578 29579 29580 29581 29582 29583 29584 29585 29586 29587 29588 29589 29590 29591 29592 29593 29594 29595 29596 29597 29598 29599 29600 29601 29602 29603 29604 29605 29606 29607 29608 29609 29610 29611 29612 29613 29614 29615 29616 29617 29618 29619 29620 29621 29622 29623 29624 29625 29626 29627 29628 29629 29630 29631 29632 29633 29634 29635 29636 29637 29638 29639 29640 29641 29642 29643 29644 29645 29646 29647 29648 29649 29650 29651 29652 29653 29654 29655 29656 29657 29658 29659 29660 29661 29662 29663 29664 29665 29666 29667 29668 29669 29670 29671 29672 29673 29674 29675 29676 29677 29678 29679 29680 29681 29682 29683 29684 29685 29686 29687 29688 29689 29690 29691 29692 29693 29694 29695 29696 29697 29698 29699 29700 29701 29702 29703 29704 29705 29706 29707 29708 29709 29710 29711 29712 29713 29714 29715 29716 29717 29718 29719 29720 29721 29722 29723 29724 29725 29726 29727 29728 29729 29730 29731 29732 29733 29734 29735 29736 29737 29738 29739 29740 29741 29742 29743 29744 29745 29746 29747 29748 29749 29750 29751 29752 29753 29754 29755 29756 29757 29758 29759 29760 29761 29762 29763 29764 29765 29766 29767 29768 29769 29770 29771 29772 29773 29774 29775 29776 29777 29778 29779 29780 29781 29782 29783 29784 29785 29786 29787 29788 29789 29790 29791 29792 29793 29794 29795 29796 29797 29798 29799 29800 29801 29802 29803 29804 29805 29806 29807 29808 29809 29810 29811 29812 29813 29814 29815 29816 29817 29818 29819 29820 29821 29822 29823 29824 29825 29826 29827 29828 29829 29830 29831 29832 29833 29834 29835 29836 29837 29838 29839 29840 29841 29842 29843 29844 29845 29846 29847 29848 29849 29850 29851 29852 29853 29854 29855 29856 29857 29858 29859 29860 29861 29862 29863 29864 29865 29866 29867 29868 29869 29870 29871 29872 29873 29874 29875 29876 29877 29878 29879 29880 29881 29882 29883 29884 29885 29886 29887 29888 29889 29890 29891 29892 29893 29894 29895 29896 29897 29898 29899 29900 29901 29902 29903 29904 29905 29906 29907 29908 29909 29910 29911 29912 29913 29914 29915 29916 29917 29918 29919 29920 29921 29922 29923 29924 29925 29926 29927 29928 29929 29930 29931 29932 29933 29934 29935 29936 29937 29938 29939 29940 29941 29942 29943 29944 29945 29946 29947 29948 29949 29950 29951 29952 29953 29954 29955 29956 29957 29958 29959 29960 29961 29962 29963 29964 29965 29966 29967 29968 29969 29970 29971 29972 29973 29974 29975 29976 29977 29978 29979 29980 29981 29982 29983 29984 29985 29986 29987 29988 29989 29990 29991 29992 29993 29994 29995 29996 29997 29998 29999 30000 30001 30002 30003 30004 30005 30006 30007 30008 30009 30010 30011 30012 30013 30014 30015 30016 30017 30018 30019 30020 30021 30022 30023 30024 30025 30026 30027 30028 30029 30030 30031 30032 30033 30034 30035 30036 30037 30038 30039 30040 30041 30042 30043 30044 30045 30046 30047 30048 30049 30050 30051 30052 30053 30054 30055 30056 30057 30058 30059 30060 30061 30062 30063 30064 30065 30066 30067 30068 30069 30070 30071 30072 30073 30074 30075 30076 30077 30078 30079 30080 30081 30082 30083 30084 30085 30086 30087 30088 30089 30090 30091 30092 30093 30094 30095 30096 30097 30098 30099 30100 30101 30102 30103 30104 30105 30106 30107 30108 30109 30110 30111 30112 30113 30114 30115 30116 30117 30118 30119 30120 30121 30122 30123 30124 30125 30126 30127 30128 30129 30130 30131 30132 30133 30134 30135 30136 30137 30138 30139 30140 30141 30142 30143 30144 30145 30146 30147 30148 30149 30150 30151 30152 30153 30154 30155 30156 30157 30158 30159 30160 30161 30162 30163 30164 30165 30166 30167 30168 30169 30170 30171 30172 30173 30174 30175 30176 30177 30178 30179 30180 30181 30182 30183 30184 30185 30186 30187 30188 30189 30190 30191 30192 30193 30194 30195 30196 30197 30198 30199 30200 30201 30202 30203 30204 30205 30206 30207 30208 30209 30210 30211 30212 30213 30214 30215 30216 30217 30218 30219 30220 30221 30222 30223 30224 30225 30226 30227 30228 30229 30230 30231 30232 30233 30234 30235 30236 30237 30238 30239 30240 30241 30242 30243 30244 30245 30246 30247 30248 30249 30250 30251 30252 30253 30254 30255 30256 30257 30258 30259 30260 30261 30262 30263 30264 30265 30266 30267 30268 30269 30270 30271 30272 30273 30274 30275 30276 30277 30278 30279 30280 30281 30282 30283 30284 30285 30286 30287 30288 30289 30290 30291 30292 30293 30294 30295 30296 30297 30298 30299 30300 30301 30302 30303 30304 30305 30306 30307 30308 30309 30310 30311 30312 30313 30314 30315 30316 30317 30318 30319 30320 30321 30322 30323 30324 30325 30326 30327 30328 30329 30330 30331 30332 30333 30334 30335 30336 30337 30338 30339 30340 30341 30342 30343 30344 30345 30346 30347 30348 30349 30350 30351 30352 30353 30354 30355 30356 30357 30358 30359 30360 30361 30362 30363 30364 30365 30366 30367 30368 30369 30370 30371 30372 30373 30374 30375 30376 30377 30378 30379 30380 30381 30382 30383 30384 30385 30386 30387 30388 30389 30390 30391 30392 30393 30394 30395 30396 30397 30398 30399 30400 30401 30402 30403 30404 30405 30406 30407 30408 30409 30410 30411 30412 30413 30414 30415 30416 30417 30418 30419 30420 30421 30422 30423 30424 30425 30426 30427 30428 30429 30430 30431 30432 30433 30434 30435 30436 30437 30438 30439 30440 30441 30442 30443 30444 30445 30446 30447 30448 30449 30450 30451 30452 30453 30454 30455 30456 30457 30458 30459 30460 30461 30462 30463 30464 30465 30466 30467 30468 30469 30470 30471 30472 30473 30474 30475 30476 30477 30478 30479 30480 30481 30482 30483 30484 30485 30486 30487 30488 30489 30490 30491 30492 30493 30494 30495 30496 30497 30498 30499 30500 30501 30502 30503 30504 30505 30506 30507 30508 30509 30510 30511 30512 30513 30514 30515 30516 30517 30518 30519 30520 30521 30522 30523 30524 30525 30526 30527 30528 30529 30530 30531 30532 30533 30534 30535 30536 30537 30538 30539 30540 30541 30542 30543 30544 30545 30546 30547 30548 30549 30550 30551 30552 30553 30554 30555 30556 30557 30558 30559 30560 30561 30562 30563 30564 30565 30566 30567 30568 30569 30570 30571 30572 30573 30574 30575 30576 30577 30578 30579 30580 30581 30582 30583 30584 30585 30586 30587 30588 30589 30590 30591 30592 30593 30594 30595 30596 30597 30598 30599 30600 30601 30602 30603 30604 30605 30606 30607 30608 30609 30610 30611 30612 30613 30614 30615 30616 30617 30618 30619 30620 30621 30622 30623 30624 30625 30626 30627 30628 30629 30630 30631 30632 30633 30634 30635 30636 30637 30638 30639 30640 30641 30642 30643 30644 30645 30646 30647 30648 30649 30650 30651 30652 30653 30654 30655 30656 30657 30658 30659 30660 30661 30662 30663 30664 30665 30666 30667 30668 30669 30670 30671 30672 30673 30674 30675 30676 30677 30678 30679 30680 30681 30682 30683 30684 30685 30686 30687 30688 30689 30690 30691 30692 30693 30694 30695 30696 30697 30698 30699 30700 30701 30702 30703 30704 30705 30706 30707 30708 30709 30710 30711 30712 30713 30714 30715 30716 30717 30718 30719 30720 30721 30722 30723 30724 30725 30726 30727 30728 30729 30730 30731 30732 30733 30734 30735 30736 30737 30738 30739 30740 30741 30742 30743 30744 30745 30746 30747 30748 30749 30750 30751 30752 30753 30754 30755 30756 30757 30758 30759 30760 30761 30762 30763 30764 30765 30766 30767 30768 30769 30770 30771 30772 30773 30774 30775 30776 30777 30778 30779 30780 30781 30782 30783 30784 30785 30786 30787 30788 30789 30790 30791 30792 30793 30794 30795 30796 30797 30798 30799 30800 30801 30802 30803 30804 30805 30806 30807 30808 30809 30810 30811 30812 30813 30814 30815 30816 30817 30818 30819 30820 30821 30822 30823 30824 30825 30826 30827 30828 30829 30830 30831 30832 30833 30834 30835 30836 30837 30838 30839 30840 30841 30842 30843 30844 30845 30846 30847 30848 30849 30850 30851 30852 30853 30854 30855 30856 30857 30858 30859 30860 30861 30862 30863 30864 30865 30866 30867 30868 30869 30870 30871 30872 30873 30874 30875 30876 30877 30878 30879 30880 30881 30882 30883 30884 30885 30886 30887 30888 30889 30890 30891 30892 30893 30894 30895 30896 30897 30898 30899 30900 30901 30902 30903 30904 30905 30906 30907 30908 30909 30910 30911 30912 30913 30914 30915 30916 30917 30918 30919 30920 30921 30922 30923 30924 30925 30926 30927 30928 30929 30930 30931 30932 30933 30934 30935 30936 30937 30938 30939 30940 30941 30942 30943 30944 30945 30946 30947 30948 30949 30950 30951 30952 30953 30954 30955 30956 30957 30958 30959 30960 30961 30962 30963 30964 30965 30966 30967 30968 30969 30970 30971 30972 30973 30974 30975 30976 30977 30978 30979 30980 30981 30982 30983 30984 30985 30986 30987 30988 30989 30990 30991 30992 30993 30994 30995 30996 30997 30998 30999 31000 31001 31002 31003 31004 31005 31006 31007 31008 31009 31010 31011 31012 31013 31014 31015 31016 31017 31018 31019 31020 31021 31022 31023 31024 31025 31026 31027 31028 31029 31030 31031 31032 31033 31034 31035 31036 31037 31038 31039 31040 31041 31042 31043 31044 31045 31046 31047 31048 31049 31050 31051 31052 31053 31054 31055 31056 31057 31058 31059 31060 31061 31062 31063 31064 31065 31066 31067 31068 31069 31070 31071 31072 31073 31074 31075 31076 31077 31078 31079 31080 31081 31082 31083 31084 31085 31086 31087 31088 31089 31090 31091 31092 31093 31094 31095 31096 31097 31098 31099 31100 31101 31102 31103 31104 31105 31106 31107 31108 31109 31110 31111 31112 31113 31114 31115 31116 31117 31118 31119 31120 31121 31122 31123 31124 31125 31126 31127 31128 31129 31130 31131 31132 31133 31134 31135 31136 31137 31138 31139 31140 31141 31142 31143 31144 31145 31146 31147 31148 31149 31150 31151 31152 31153 31154 31155 31156 31157 31158 31159 31160 31161 31162 31163 31164 31165 31166 31167 31168 31169 31170 31171 31172 31173 31174 31175 31176 31177 31178 31179 31180 31181 31182 31183 31184 31185 31186 31187 31188 31189 31190 31191 31192 31193 31194 31195 31196 31197 31198 31199 31200 
</DataArray>
<DataArray type="UInt32" Name="offsets" format="ascii">
3 6 8 11 14 17 20 22 25 28 31 33 35 37 40 43 46 48 51 54 57 60 63 65 68 71 74 77 80 83 86 89 92 95 97 100 102 105 108 111 114 116 119 122 125 128 131 134 136 139 142 145 148 151 154 157 160 163 166 168 171 174 177 180 183 186 189 192 195 198 201 204 207 210 213 216 219 222 225 228 231 233 236 239 242 245 247 250 252 255 258 260 263 265 268 271 273 276 279 282 285 288 291 294 297 300 303 306 309 311 314 317 320 323 326 329 332 334 337 340 343 346 349 352 355 358 361 364 367 370 373 375 378 381 384 387 390 393 395 398 401 403 405 408 411 414 417 420 422 425 428 431 434 436 439 442 445 448 451 454 457 460 463 466 469 472 475 478 481 484 487 490 492 495 498 501 504 507 510 513 516 518 521 524 527 530 533 536 539 542 545 548 551 554 557 560 563 566 569 572 575 578 581 584 587 590 593 596 599 602 605 608 611 614 617 620 623 626 629 632 635 638 641 644 647 650 653 656 659 662 665 667 670 673 676 679 682 685 688 691 694 697 700 703 706 709 712 715 718 721 724 727 730 733 735 738 741 744 746 749 752 755 757 760 762 765 767 770 772 775 778 781 783 786 789 791 793 796 799 801 804 806 809 812 814 816 818 821 823 826 828 831 834 836 839 842 845 848 851 854 857 860 862 865 868 871 873 876 878 881 884 886 888 891 893 895 898 901 904 906 909 912 914 917 920 922 925 927 929 932 935 938 940 943 946 949 951 954 957 960 963 965 968 970 972 975 978 981 984 987 990 993 995 998 1001 1004 1007 1010 1012 1015 1018 1021 1024 1027 1030 1032 1035 1038 1041 1044 1047 1049 1052 1055 1058 1061 1064 1067 1070 1073 1076 1079 1082 1085 1088 1091 1094 1097 1100 1103 1106 1109 1112 1115 1118 1121 1124 1127 1130 1133 1136 1138 1141 1144 1147 1150 1152 1155 1158 1160 1163 1166 1169 1172 1175 1178 1181 1184 1187 1190 1193 1196 1199 1202 1205 1207 1210 1212 1215 1218 1220 1223 1225 1228 1230 1233 1236 1238 1241 1244 1247 1250 1253 1256 1259 1262 1265 1267 1270 1273 1276 1279 1282 1285 1288 1291 1293 1296 1299 1302 1304 1306 1309 1312 1315 1318 1321 1323 1326 1329 1332 1334 1337 1340 1343 1345 1347 1350 1352 1355 1358 1361 1364 1366 1368 1371 1374 1376 1378 1381 1384 1387 1389 1392 1395 1398 1401 1403 1406 1408 1411 1414 1417 1420 1422 1425 1427 1430 1433 1435 1438 1441 1444 1447 1450 1453 1455 1458 1460 1462 1465 1467 1470 1473 1476 1478 1481 1484 1486 1489 1492 1495 1498 1501 1504 1507 1509 1512 1515 1518 1521 1524 1527 1530 1533 1535 1538 1540 1542 1545 1547 1550 1553 1556 1558 1561 1564 1566 1569 1572 1575 1578 1581 1584 1587 1590 1593 1596 1599 1602 1605 1608 1611 1614 1617 1620 1622 1625 1628 1631 1634 1636 1639 1642 1645 1648 1651 1654 1657 1660 1663 1666 1669 1671 1674 1677 1680 1683 1686 1689 1692 1695 1697 1700 1703 1706 1709 1712 1715 1718 1720 1723 1726 1729 1731 1734 1737 1740 1743 1746 1749 1752 1755 1758 1761 1764 1767 1770 1773 1776 1779 1782 1785 1788 1791 1794 1797 1800 1803 1806 1809 1812 1815 1817 1820 1823 1826 1829 1832 1835 1838 1841 1844 1847 1850 1853 1856 1859 1862 1865 1868 1870 1873 1876 1879 1882 1885 1888 1891 1893 1896 1899 1901 1904 1907 1910 1913 1916 1919 1921 1924 1927 1930 1933 1936 1939 1942 1945 1948 1951 1954 1957 1960 1962 1965 1968 1971 1974 1977 1980 1983 1986 1988 1991 1994 1996 1999 2002 2005 2008 2011 2014 2017 2020 2023 2026 2029 2032 2035 2038 2041 2044 2047 2050 2053 2056 2059 2062 2065 2068 2071 2074 2076 2079 2082 2085 2087 2090 2093 2096 2098 2101 2103 2106 2108 2111 2114 2117 2120 2123 2126 2129 2132 2135 2138 2141 2144 2147 2150 2153 2156 2159 2162 2164 2167 2170 2173 2176 2178 2181 2184 2187 2189 2191 2194 2197 2200 2203 2206 2209 2212 2215 2217 2219 2222 2225 2228 2231 2234 2237 2240 2243 2245 2248 2250 2253 2255 2257 2259 2261 2264 2267 2270 2272 2275 2277 2280 2283 2286 2289 2292 2295 2298 2301 2304 2307 2310 2313 2315 2318 2321 2324 2327 2330 2333 2336 2339 2342 2345 2348 2351 2354 2357 2360 2362 2365 2368 2371 2374 2377 2380 2383 2386 2389 2391 2394 2397 2400 2402 2405 2408 2411 2414 2417 2420 2423 2426 2428 2431 2434 2437 2440 2443 2446 2449 2452 2455 2457 2460 2463 2466 2469 2472 2475 2477 2480 2482 2485 2488 2491 2494 2497 2500 2503 2506 2508 2511 2513 2516 2519 2522 2525 2528 2531 2534 2537 2540 2543 2546 2549 2552 2555 2558 2561 2563 2566 2569 2572 2575 2578 2581 2584 2587 2590 2593 2596 2599 2602 2604 2607 2610 2613 2616 2618 2621 2624 2627 2630 2633 2636 2639 2642 2645 2647 2650 2653 2656 2659 2662 2665 2667 2670 2673 2676 2679 2682 2685 2688 2690 2693 2696 2698 2701 2704 2706 2709 2712 2715 2718 2721 2724 2727 2730 2733 2736 2739 2742 2745 2748 2751 2754 2757 2760 2763 2766 2769 2772 2775 2778 2781 2784 2787 2789 2792 2795 2797 2800 2803 2806 2809 2812 2814 2817 2820 2823 2826 2829 2832 2835 2838 2841 2844 2846 2849 2852 2855 2858 2860 2863 2866 2869 2872 2875 2878 2881 2884 2887 2890 2893 2896 2899 2902 2904 2907 2910 2913 2916 2918 2921 2924 2927 2930 2933 2936 2939 2942 2945 2948 2950 2953 2956 2958 2961 2964 2967 2970 2973 2976 2979 2981 2984 2987 2990 2993 2996 2999 3001 3004 3007 3010 3013 3016 3019 3022 3025 3028 3031 3034 3037 3040 3043 3046 3049 3052 3055 3058 3061 3064 3067 3070 3073 3076 3079 3082 3085 3088 3091 3094 3097 3100 3103 3106 3108 3111 3114 3117 3120 3122 3125 3128 3131 3134 3137 3140 3143 3146 3149 3152 3155 3158 3161 3164 3167 3169 3172 3175 3178 3181 3183 3186 3189 3192 3195 3198 3201 3203 3206 3209 3212 3215 3218 3220 3223 3226 3229 3232 3235 3238 3241 3244 3247 3250 3253 3256 3259 3262 3265 3268 3271 3274 3277 3280 3283 3286 3289 3292 3295 3298 3301 3304 3307 3310 3313 3316 3318 3321 3324 3327 3329 3332 3335 3337 3340 3343 3346 3349 3352 3355 3357 3360 3363 3366 3369 3372 3375 3378 3381 3384 3386 3389 3392 3395 3398 3401 3404 3407 3409 3412 3415 3418 3421 3424 3427 3429 3431 3434 3437 3440 3443 3445 3448 3451 3454 3457 3459 3461 3464 3466 3469 3472 3475 3478 3481 3484 3487 3489 3492 3495 3497 3500 3503 3506 3509 3512 3515 3517 3520 3523 3526 3529 3532 3534 3536 3539 3542 3545 3547 3550 3553 3556 3559 3562 3565 3568 3571 3574 3577 3580 3582 3585 3588 3591 3594 3597 3600 3603 3606 3609 3612 3615 3618 3621 3624 3627 3630 3633 3636 3639 3641 3644 3647 3650 3653 3656 3659 3662 3665 3668 3671 3674 3677 3680 3683 3686 3689 3692 3695 3698 3701 3704 3707 3710 3713 3716 3719 3722 3725 3728 3731 3734 3737 3740 3743 3746 3749 3752 3755 3758 3761 3764 3766 3769 3772 3775 3778 3781 3784 3786 3789 3792 3795 3798 3801 3804 3807 3810 3813 3816 3819 3822 3825 3828 3831 3834 3837 3840 3843 3846 3849 3852 3855 3858 3861 3864 3867 3869 3872 3875 3878 3881 3883 3886 3889 3892 3895 3898 3901 3904 3907 3910 3913 3916 3919 3922 3925 3928 3931 3934 3936 3939 3942 3945 3948 3951 3954 3957 3960 3963 3966 3968 3971 3973 3976 3979 3981 3984 3986 3989 3992 3994 3997 4000 4003 4006 4008 4011 4014 4017 4020 4023 4025 4028 4030 4032 4035 4038 4041 4043 4045 4048 4051 4054 4057 4060 4063 4066 4069 4072 4075 4078 4081 4084 4086 4089 4092 4095 4098 4101 4104 4107 4110 4113 4116 4119 4122 4125 4128 4131 4134 4137 4140 4143 4146 4149 4152 4155 4158 4161 4164 4167 4170 4173 4176 4179 4182 4185 4188 4191 4194 4197 4200 4203 4206 4208 4211 4214 4217 4219 4222 4225 4228 4231 4233 4236 4239 4242 4245 4248 4251 4254 4257 4260 4263 4266 4269 4271 4274 4276 4279 4282 4285 4288 4291 4294 4296 4299 4302 4304 4307 4310 4313 4316 4318 4321 4324 4327 4330 4333 4336 4339 4342 4345 4348 4351 4354 4357 4360 4363 4366 4369 4372 4375 4378 4381 4384 4387 4390 4392 4395 4398 4400 4403 4406 4409 4412 4415 4418 4420 4423 4426 4429 4432 4435 4438 4441 4444 4447 4450 4453 4456 4459 4462 4465 4468 4471 4474 4477 4480 4483 4485 4488 4491 4494 4497 4500 4503 4506 4509 4512 4514 4517 4520 4523 4525 4528 4531 4534 4536 4539 4542 4545 4547 4550 4553 4556 4559 4561 4564 4566 4569 4572 4575 4578 4580 4582 4585 4588 4591 4594 4597 4600 4603 4606 4609 4612 4615 4618 4621 4624 4627 4629 4631 4634 4637 4640 4642 4645 4648 4651 4654 4657 4660 4663 4666 4669 4672 4675 4678 4680 4683 4686 4689 4691 4693 4696 4699 4702 4705 4708 4710 4713 4716 4719 4722 4725 4728 4731 4734 4737 4740 4743 4746 4749 4752 4755 4758 4761 4764 4767 4770 4772 4775 4778 4780 4782 4785 4788 4791 4794 4797 4800 4803 4805 4807 4809 4812 4815 4818 4820 4822 4825 4828 4831 4834 4836 4839 4841 4844 4847 4850 4853 4856 4859 4862 4865 4868 4871 4874 4877 4879 4882 4885 4888 4890 4893 4896 4899 4902 4905 4907 4910 4913 4915 4918 4920 4923 4926 4929 4932 4935 4938 4941 4944 4947 4950 4953 4956 4959 4962 4965 4968 4971 4974 4977 4980 4983 4986 4989 4991 4994 4996 4999 5002 5004 5007 5010 5012 5015 5018 5021 5024 5027 5030 5033 5036 5039 5042 5045 5048 5051 5054 5057 5060 5063 5066 5069 5072 5075 5078 5081 5084 5087 5090 5093 5096 5098 5101 5104 5107 5110 5113 5116 5119 5122 5125 5128 5131 5134 5137 5140 5143 5146 5148 5151 5154 5157 5160 5163 5165 5168 5171 5174 5177 5179 5182 5185 5187 5190 5193 5196 5198 5201 5204 5207 5210 5213 5216 5219 5221 5224 5227 5230 5233 5236 5239 5241 5244 5247 5249 5252 5254 5256 5259 5262 5265 5268 5271 5274 5277 5280 5282 5285 5288 5290 5293 5295 5298 5301 5304 5306 5309 5312 5315 5317 5320 5323 5326 5328 5330 5333 5335 5338 5340 5343 5346 5348 5351 5353 5356 5358 5360 5363 5366 5369 5372 5375 5377 5380 5383 5386 5389 5392 5395 5398 5400 5403 5406 5409 5412 5415 5418 5421 5424 5427 5430 5433 5436 5439 5442 5445 5448 5451 5454 5457 5460 5463 5466 5469 5472 5475 5478 5481 5484 5487 5490 5493 5496 5499 5502 5505 5508 5510 5513 5516 5519 5522 5525 5528 5530 5533 5536 5539 5542 5545 5548 5551 5554 5557 5560 5563 5566 5569 5572 5575 5578 5581 5584 5587 5590 5592 5595 5598 5601 5604 5607 5610 5613 5616 5619 5622 5625 5628 5631 5633 5636 5639 5642 5645 5648 5651 5654 5657 5660 5663 5666 5669 5672 5675 5678 5681 5684 5686 5689 5692 5694 5697 5700 5703 5706 5709 5712 5715 5718 5720 5723 5726 5729 5732 5735 5738 5741 5744 5747 5750 5753 5756 5759 5762 5765 5768 5770 5773 5776 5779 5782 5785 5787 5790 5792 5795 5797 5800 5803 5805 5808 5810 5812 5815 5818 5821 5823 5826 5829 5832 5835 5838 5841 5844 5847 5849 5852 5855 5858 5861 5864 5867 5870 5872 5875 5877 5880 5883 5886 5889 5892 5895 5898 5901 5904 5907 5909 5911 5914 5917 5920 5922 5925 5928 5931 5933 5936 5938 5941 5944 5946 5949 5952 5955 5958 5960 5963 5966 5968 5971 5974 5977 5980 5983 5986 5988 5990 5993 5996 5999 6002 6005 6008 6011 6014 6016 6019 6022 6025 6028 6031 6033 6036 6038 6041 6044 6047 6050 6053 6056 6058 6061 6064 6067 6070 6073 6076 6078 6081 6084 6087 6090 6093 6096 6098 6101 6104 6107 6110 6113 6116 6118 6121 6123 6126 6129 6132 6135 6138 6140 6143 6145 6148 6151 6154 6157 6160 6163 6166 6169 6172 6174 6177 6180 6183 6186 6189 6192 6195 6198 6200 6203 6205 6208 6210 6213 6216 6218 6220 6223 6225 6228 6231 6234 6237 6240 6242 6245 6247 6250 6253 6256 6259 6262 6265 6268 6271 6274 6277 6280 6283 6286 6289 6292 6295 6298 6301 6304 6307 6309 6312 6315 6317 6320 6323 6326 6329 6332 6335 6338 6341 6344 6347 6350 6353 6356 6359 6362 6365 6368 6371 6374 6376 6379 6382 6384 6387 6390 6393 6396 6399 6402 6405 6407 6409 6412 6415 6417 6420 6422 6425 6428 6431 6434 6436 6438 6441 6443 6446 6449 6452 6455 6458 6461 6464 6466 6469 6472 6475 6478 6481 6483 6485 6488 6490 6492 6495 6497 6499 6502 6505 6508 6511 6514 6517 6520 6523 6526 6529 6532 6534 6537 6540 6543 6546 6549 6551 6553 6556 6559 6562 6565 6568 6571 6574 6577 6580 6583 6586 6588 6591 6594 6597 6600 6602 6605 6608 6611 6614 6616 6619 6622 6625 6628 6631 6634 6637 6640 6642 6645 6647 6650 6653 6656 6659 6661 6664 6667 6670 6673 6676 6679 6682 6685 6688 6691 6694 6697 6699 6702 6705 6707 6710 6713 6716 6719 6722 6725 6728 6731 6734 6737 6740 6743 6746 6748 6751 6754 6757 6759 6762 6765 6768 6771 6773 6775 6778 6781 6784 6787 6790 6793 6796 6799 6802 6805 6808 6811 6814 6816 6819 6822 6825 6828 6831 6834 6837 6840 6843 6846 6849 6852 6855 6858 6861 6863 6865 6868 6871 6874 6877 6880 6883 6886 6889 6892 6895 6898 6901 6904 6907 6910 6913 6916 6919 6922 6925 6928 6931 6934 6937 6939 6942 6944 6947 6950 6953 6956 6959 6962 6965 6968 6971 6974 6977 6980 6983 6986 6989 6992 6995 6998 7001 7004 7007 7010 7013 7015 7017 7020 7022 7024 7027 7030 7033 7036 7039 7041 7044 7046 7049 7052 7055 7058 7061 7064 7067 7070 7073 7076 7079 7082 7085 7088 7091 7094 7096 7099 7102 7104 7107 7109 7112 7114 7117 7120 7123 7126 7129 7132 7135 7137 7140 7143 7146 7149 7152 7155 7158 7161 7164 7167 7170 7173 7176 7179 7182 7184 7187 7190 7193 7195 7198 7201 7204 7207 7209 7211 7214 7217 7219 7222 7225 7228 7231 7234 7237 7240 7243 7245 7248 7251 7253 7256 7258 7261 7264 7267 7269 7272 7275 7277 7280 7282 7285 7288 7290 7293 7296 7299 7301 7304 7307 7310 7313 7315 7317 7320 7323 7326 7329 7332 7335 7338 7341 7344 7347 7350 7353 7355 7358 7361 7364 7367 7370 7372 7375 7378 7381 7384 7387 7390 7392 7395 7397 7400 7403 7406 7409 7412 7415 7418 7421 7424 7427 7429 7432 7435 7437 7440 7443 7446 7449 7452 7455 7458 7461 7464 7466 7468 7471 7474 7477 7480 7483 7485 7488 7491 7494 7496 7499 7501 7504 7507 7510 7513 7516 7519 7521 7524 7527 7530 7532 7535 7538 7541 7544 7547 7550 7553 7556 7559 7562 7565 7568 7571 7574 7577 7580 7583 7586 7589 7592 7595 7598 7601 7604 7607 7610 7613 7616 7619 7621 7624 7627 7630 7633 7636 7639 7641 7644 7647 7650 7653 7656 7659 7661 7664 7666 7669 7672 7674 7676 7679 7682 7684 7687 7690 7693 7696 7699 7702 7705 7708 7711 7714 7717 7720 7723 7726 7729 7732 7735 7738 7741 7744 7747 7750 7753 7756 7759 7762 7765 7768 7770 7773 7776 7779 7782 7785 7788 7791 7794 7797 7800 7803 7806 7809 7812 7815 7818 7821 7824 7827 7830 7833 7836 7839 7842 7845 7848 7851 7854 7857 7860 7863 7866 7868 7871 7874 7877 7879 7882 7885 7888 7891 7894 7897 7899 7902 7905 7908 7911 7914 7917 7920 7923 7926 7929 7932 7935 7938 7941 7944 7947 7950 7953 7955 7958 7960 7963 7966 7969 7972 7975 7978 7981 7984 7987 7990 7993 7996 7999 8002 8005 8008 8011 8014 8017 8020 8023 8026 8029 8032 8035 8037 8039 8041 8043 8045 8047 8050 8053 8056 8059 8061 8064 8067 8069 8072 8075 8078 8081 8084 8087 8090 8093 8096 8098 8101 8104 8107 8109 8112 8115 8117 8120 8122 8125 8127 8130 8132 8135 8137 8140 8143 8146 8149 8152 8155 8157 8160 8163 8165 8168 8171 8174 8177 8180 8182 8185 8188 8191 8194 8197 8199 8202 8205 8208 8211 8214 8217 8219 8222 8225 8228 8231 8234 8237 8240 8242 8245 8248 8251 8253 8256 8259 8262 8265 8268 8271 8274 8277 8280 8283 8286 8289 8291 8294 8297 8299 8302 8305 8308 8311 8313 8316 8318 8321 8324 8327 8329 8332 8335 8338 8341 8344 8346 8349 8351 8354 8357 8360 8363 8366 8369 8372 8375 8378 8380 8383 8386 8388 8391 8394 8396 8399 8402 8404 8406 8409 8412 8415 8418 8421 8423 8425 8427 8430 8433 8436 8439 8442 8445 8447 8450 8453 8456 8459 8462 8465 8468 8471 8474 8477 8480 8483 8486 8489 8492 8495 8498 8501 8504 8507 8510 8513 8516 8519 8522 8525 8528 8531 8534 8537 8540 8543 8546 8549 8552 8555 8558 8561 8563 8566 8569 8572 8575 8578 8580 8582 8585 8588 8591 8593 8596 8599 8602 8604 8607 8609 8612 8614 8617 8619 8621 8624 8626 8629 8632 8635 8638 8640 8643 8646 8649 8652 8655 8658 8661 8664 8667 8670 8673 8676 8679 8682 8685 8688 8691 8694 8697 8700 8703 8706 8709 8712 8715 8718 8721 8724 8727 8730 8732 8735 8738 8741 8744 8747 8750 8753 8756 8759 8762 8765 8768 8771 8774 8777 8780 8783 8785 8788 8791 8794 8797 8800 8802 8805 8808 8811 8814 8816 8819 8822 8825 8828 8831 8834 8837 8839 8842 8845 8848 8851 8854 8857 8860 8863 8866 8869 8872 8875 8877 8880 8883 8886 8889 8892 8895 8898 8901 8904 8907 8910 8913 8915 8918 8921 8924 8927 8929 8931 8934 8936 8939 8942 8945 8948 8950 8953 8956 8958 8961 8964 8967 8970 8973 8976 8979 8981 8984 8987 8990 8993 8996 8999 9002 9005 9008 9011 9014 9017 9019 9022 9025 9028 9030 9032 9035 9038 9041 9043 9046 9049 9052 9055 9058 9061 9064 9066 9069 9072 9075 9077 9080 9083 9085 9088 9091 9094 9097 9100 9103 9105 9108 9111 9114 9117 9120 9123 9126 9129 9132 9135 9138 9141 9144 9146 9149 9152 9155 9158 9160 9163 9166 9169 9172 9175 9178 9181 9184 9187 9190 9192 9195 9198 9201 9203 9206 9208 9211 9214 9217 9220 9223 9226 9229 9232 9235 9238 9241 9244 9247 9250 9253 9256 9259 9262 9265 9268 9271 9274 9277 9280 9283 9285 9288 9291 9294 9297 9300 9303 9306 9309 9312 9315 9318 9321 9324 9327 9329 9332 9334 9337 9340 9342 9345 9348 9351 9354 9357 9360 9362 9364 9367 9370 9373 9376 9379 9381 9384 9387 9390 9392 9394 9397 9399 9402 9405 9408 9411 9413 9416 9418 9421 9424 9426 9429 9432 9435 9437 9439 9442 9444 9447 9449 9452 9454 9457 9460 9463 9466 9468 9471 9474 9477 9480 9482 9485 9488 9491 9494 9497 9500 9503 9506 9509 9512 9515 9518 9521 9524 9527 9530 9533 9536 9539 9541 9544 9547 9550 9553 9556 9558 9561 9563 9566 9569 9571 9574 9577 9580 9583 9586 9589 9591 9594 9597 9600 9602 9604 9607 9610 9613 9615 9618 9621 9624 9627 9629 9632 9635 9638 9641 9644 9647 9650 9653 9656 9659 9662 9665 9668 9671 9674 9677 9680 9683 9686 9689 9692 9695 9698 9701 9704 9707 9710 9713 9715 9718 9721 9724 9727 9730 9733 9736 9738 9741 9744 9747 9749 9752 9755 9757 9760 9763 9765 9768 9770 9773 9776 9778 9781 9783 9785 9788 9790 9793 9795 9798 9801 9804 9807 9810 9812 9815 9817 9820 9823 9826 9828 9831 9834 9837 9840 9842 9845 9848 9851 9854 9857 9859 9862 9865 9868 9871 9874 9877 9880 9883 9886 9889 9892 9895 9898 9901 9904 9907 9910 9913 9916 9919 9922 9925 9928 9931 9934 9937 9940 9943 9946 9949 9952 9955 9958 9961 9964 9967 9970 9973 9976 9979 9982 9985 9988 9991 9994 9997 10000 10002 10005 10008 10011 10014 10017 10020 10023 10026 10029 10032 10035 10038 10041 10044 10047 10050 10053 10056 10059 10062 10065 10068 10071 10074 10076 10079 10082 10085 10088 10091 10094 10097 10100 10103 10106 10109 10112 10115 10118 10121 10123 10126 10129 10132 10134 10137 10140 10143 10146 10149 10152 10155 10158 10161 10164 10167 10170 10173 10175 10178 10181 10184 10187 10190 10193 10196 10199 10202 10205 10208 10211 10214 10217 10220 10223 10226 10229 10232 10235 10238 10241 10244 10247 10250 10253 10256 10259 10262 10264 10267 10270 10273 10276 10278 10281 10283 10286 10289 10292 10295 10297 10300 10303 10306 10308 10311 10314 10317 10319 10322 10325 10328 10331 10333 10336 10338 10341 10344 10347 10350 10353 10356 10359 10361 10364 10367 10370 10373 10375 10378 10381 10384 10387 10390 10393 10396 10399 10402 10405 10408 10411 10414 10417 10420 10423 10426 10429 10432 10435 10438 10441 10444 10447 10450 10453 10456 10459 10462 10465 10467 10470 10473 10476 10479 10482 10485 10487 10490 10493 10495 10498 10501 10504 10507 10509 10511 10513 10516 10519 10521 10524 10527 10530 10532 10534 10537 10539 10542 10545 10548 10550 10553 10556 10559 10562 10565 10568 10571 10574 10577 10579 10582 10584 10587 10590 10593 10596 10599 10602 10605 10608 10611 10614 10616 10619 10622 10625 10628 10631 10634 10637 10640 10643 10646 10649 10651 10654 10657 10660 10663 10666 10669 10672 10675 10678 10681 10684 10687 10690 10693 10696 10699 10702 10705 10708 10711 10714 10717 10720 10723 10725 10728 10731 10734 10737 10740 10743 10746 10749 10752 10754 10757 10760 10763 10766 10769 10772 10775 10778 10781 10784 10787 10790 10793 10796 10799 10802 10804 10806 10809 10811 10814 10816 10819 10822 10824 10827 10830 10833 10835 10837 10839 10842 10845 10847 10850 10852 10854 10857 10860 10863 10866 10868 10871 10873 10875 10877 10880 10883 10886 10889 10892 10894 10897 10900 10902 10904 10907 10910 10913 10916 10918 10921 10923 10926 10929 10931 10934 10937 10940 10943 10946 10949 10952 10955 10958 10961 10964 10967 10970 10973 10976 10979 10982 10985 10988 10991 10994 10997 10999 11002 11005 11008 11010 11013 11015 11017 11020 11023 11025 11028 11031 11033 11036 11039 11042 11045 11047 11050 11052 11055 11058 11061 11064 11067 11070 11073 11076 11079 11081 11084 11087 11090 11093 11096 11099 11102 11105 11107 11110 11112 11115 11118 11121 11124 11127 11130 11133 11136 11139 11142 11145 11148 11151 11154 11156 11159 11162 11165 11167 11170 11172 11175 11178 11181 11183 11186 11189 11192 11195 11198 11201 11204 11207 11210 11213 11216 11218 11221 11224 11227 11230 11233 11236 11239 11242 11245 11248 11251 11254 11257 11260 11263 11266 11269 11272 11274 11277 11279 11282 11285 11288 11290 11292 11295 11298 11301 11304 11307 11310 11313 11316 11319 11321 11324 11327 11330 11333 11336 11338 11341 11344 11347 11349 11352 11354 11357 11359 11362 11364 11367 11370 11373 11376 11379 11382 11385 11388 11390 11393 11396 11399 11401 11403 11406 11409 11412 11415 11418 11420 11422 11425 11428 11431 11433 11436 11438 11441 11444 11447 11450 11453 11456 11459 11462 11464 11466 11469 11472 11475 11478 11480 11483 11486 11489 11492 11494 11497 11500 11503 11506 11509 11512 11515 11518 11521 11524 11527 11529 11532 11535 11538 11541 11544 11547 11550 11553 11556 11558 11561 11564 11567 11570 11573 11576 11579 11581 11584 11587 11589 11592 11595 11597 11599 11601 11604 11607 11610 11612 11615 11618 11621 11623 11626 11629 11632 11635 11638 11641 11644 11647 11650 11653 11656 11658 11661 11663 11666 11668 11671 11674 11676 11679 11682 11685 11688 11691 11694 11697 11700 11703 11706 11708 11711 11714 11716 11719 11722 11724 11727 11730 11732 11735 11737 11740 11743 11746 11749 11752 11755 11758 11761 11764 11767 11770 11773 11776 11779 11781 11784 11787 11790 11793 11796 11799 11802 11805 11808 11811 11814 11817 11820 11823 11826 11829 11832 11835 11837 11840 11843 11846 11849 11852 11854 11857 11859 11862 11865 11868 11871 11874 11877 11880 11883 11886 11888 11891 11894 11897 11900 11902 11905 11908 11911 11914 11917 11920 11923 11926 11928 11931 11933 11936 11939 11942 11944 11947 11950 11952 11955 11958 11960 11963 11966 11969 11971 11974 11977 11980 11983 11986 11989 11992 11994 11997 12000 12003 12006 12009 12012 12015 12018 12021 12024 12027 12030 12033 12036 12039 12042 12045 12048 12051 12054 12057 12060 12063 12066 12069 12072 12075 12078 12081 12084 12087 12090 12092 12095 12098 12100 12103 12106 12109 12111 12114 12116 12119 12122 12125 12128 12131 12134 12137 12140 12142 12145 12148 12151 12154 12157 12160 12163 12166 12169 12172 12175 12178 12181 12184 12187 12190 12193 12196 12199 12202 12205 12208 12211 12214 12217 12220 12222 12225 12228 12230 12233 12236 12239 12242 12245 12248 12251 12254 12257 12260 12263 12266 12269 12272 12275 12278 12281 12284 12287 12290 12293 12296 12298 12301 12304 12307 12310 12313 12316 12319 12322 12325 12328 12331 12334 12337 12339 12342 12345 12348 12351 12354 12357 12360 12363 12366 12369 12372 12375 12377 12380 12382 12385 12388 12390 12392 12395 12398 12401 12404 12407 12409 12412 12414 12417 12420 12422 12425 12427 12430 12433 12435 12437 12439 12442 12445 12447 12450 12453 12456 12458 12460 12463 12466 12469 12472 12475 12478 12481 12484 12487 12490 12493 12496 12499 12502 12504 12507 12510 12513 12516 12518 12521 12523 12525 12528 12531 12534 12536 12539 12541 12544 12547 12550 12552 12554 12557 12560 12563 12565 12568 12570 12573 12575 12578 12580 12583 12586 12588 12591 12593 12596 12599 12601 12604 12607 12610 12613 12616 12619 12621 12624 12627 12630 12633 12636 12639 12642 12645 12648 12651 12654 12657 12660 12663 12666 12669 12672 12675 12678 12680 12683 12686 12689 12692 12695 12697 12700 12703 12706 12708 12710 12713 12716 12718 12721 12724 12727 12730 12732 12735 12738 12741 12744 12747 12750 12753 12756 12759 12761 12764 12767 12770 12772 12774 12777 12779 12782 12785 12788 12791 12794 12797 12800 12802 12805 12807 12810 12813 12816 12819 12822 12825 12828 12831 12833 12836 12839 12842 12845 12848 12851 12854 12857 12860 12863 12866 12868 12871 12874 12877 12880 12883 12886 12889 12892 12895 12897 12900 12903 12905 12908 12911 12914 12917 12920 12923 12926 12929 12932 12935 12938 12941 12944 12947 12950 12953 12956 12959 12962 12965 12968 12971 12974 12977 12980 12983 12986 12989 12992 12995 12998 13001 13004 13007 13010 13013 13016 13019 13022 13025 13028 13031 13034 13037 13040 13043 13046 13049 13052 13055 13057 13060 13063 13066 13069 13072 13075 13078 13081 13084 13087 13090 13093 13096 13099 13102 13105 13108 13111 13113 13116 13119 13122 13125 13128 13131 13134 13137 13140 13143 13146 13148 13151 13154 13157 13160 13163 13165 13168 13171 13174 13177 13180 13183 13186 13189 13192 13195 13198 13201 13204 13207 13210 13213 13216 13218 13221 13224 13226 13229 13232 13235 13238 13241 13244 13247 13250 13253 13256 13258 13261 13264 13266 13269 13271 13274 13277 13280 13283 13286 13289 13292 13294 13297 13299 13302 13305 13307 13310 13313 13316 13319 13322 13324 13326 13329 13332 13335 13338 13341 13344 13347 13350 13353 13356 13359 13362 13365 13368 13370 13373 13375 13378 13381 13383 13386 13389 13392 13395 13398 13401 13404 13407 13409 13412 13415 13417 13420 13423 13426 13429 13432 13434 13437 13440 13443 13445 13447 13450 13453 13456 13458 13461 13463 13465 13468 13471 13474 13476 13479 13482 13485 13487 13490 13493 13495 13497 13499 13502 13504 13506 13509 13512 13515 13518 13521 13523 13526 13528 13531 13533 13536 13538 13541 13544 13546 13549 13551 13554 13557 13559 13561 13564 13567 13570 13572 13575 13578 13580 13583 13586 13589 13592 13595 13598 13601 13604 13607 13610 13613 13616 13618 13621 13624 13627 13630 13633 13636 13639 13642 13645 13648 13651 13654 13656 13659 13662 13665 13668 13671 13674 13677 13680 13683 13685 13688 13691 13694 13696 13699 13702 13705 13708 13711 13714 13716 13719 13721 13724 13727 13730 13733 13736 13739 13742 13745 13748 13751 13754 13757 13760 13763 13766 13768 13771 13774 13777 13780 13783 13785 13788 13790 13793 13796 13798 13801 13804 13807 13810 13813 13816 13819 13822 13825 13828 13831 13834 13837 13840 13843 13846 13849 13852 13855 13858 13861 13864 13867 13870 13873 13876 13879 13882 13885 13888 13891 13894 13897 13900 13903 13906 13909 13912 13915 13918 13921 13924 13927 13930 13933 13936 13939 13942 13945 13948 13951 13954 13957 13960 13963 13966 13969 13972 13975 13978 13981 13984 13987 13990 13993 13996 13999 14002 14005 14008 14011 14014 14017 14020 14023 14026 14028 14031 14034 14037 14040 14043 14046 14049 14052 14055 14058 14061 14064 14067 14070 14073 14076 14079 14082 14085 14087 14090 14093 14096 14099 14102 14104 14107 14110 14113 14116 14119 14122 14125 14128 14131 14134 14137 14140 14143 14146 14149 14151 14154 14157 14160 14163 14166 14168 14171 14174 14176 14179 14182 14185 14188 14191 14194 14197 14200 14203 14206 14209 14212 14215 14218 14221 14224 14227 14230 14233 14236 14239 14242 14245 14248 14251 14254 14257 14260 14263 14265 14268 14271 14274 14277 14280 14283 14286 14289 14292 14295 14298 14301 14304 14306 14309 14311 14314 14316 14318 14321 14324 14327 14329 14332 14335 14338 14341 14344 14347 14350 14353 14356 14358 14361 14364 14367 14370 14373 14376 14379 14382 14385 14388 14391 14394 14397 14400 14403 14406 14409 14412 14415 14417 14419 14422 14425 14427 14430 14433 14436 14439 14442 14445 14448 14451 14454 14457 14460 14463 14466 14469 14472 14474 14477 14480 14482 14485 14488 14491 14494 14496 14499 14501 14504 14507 14510 14513 14516 14519 14522 14525 14528 14531 14534 14537 14540 14542 14545 14548 14551 14554 14556 14559 14561 14564 14567 14570 14573 14576 14578 14581 14584 14587 14590 14593 14596 14599 14602 14605 14608 14611 14614 14617 14620 14622 14625 14628 14631 14633 14636 14639 14642 14645 14648 14651 14654 14657 14659 14662 14665 14668 14671 14673 14675 14678 14681 14684 14687 14690 14692 14695 14698 14701 14704 14707 14710 14713 14716 14719 14722 14725 14727 14730 14733 14736 14739 14742 14745 14747 14750 14752 14755 14758 14761 14764 14767 14770 14773 14776 14779 14782 14785 14787 14790 14793 14796 14798 14801 14804 14807 14809 14812 14814 14816 14818 14821 14823 14826 14828 14831 14834 14837 14839 14841 14844 14847 14849 14852 14855 14858 14860 14863 14865 14868 14870 14873 14876 14878 14880 14882 14885 14887 14890 14892 14894 14897 14900 14902 14905 14907 14910 14913 14916 14919 14922 14924 14927 14929 14932 14934 14937 14939 14941 14944 14946 14949 14952 14954 14957 14960 14963 14965 14968 14971 14973 14976 14979 14981 14984 14987 14990 14993 14995 14998 15001 15003 15006 15008 15011 15014 15017 15020 15023 15026 15029 15032 15035 15038 15041 15043 15046 15048 15051 15054 15057 15060 15063 15065 15068 15071 15074 15077 15080 15083 15086 15089 15092 15095 15098 15101 15104 15107 15110 15113 15116 15119 15122 15124 15127 15130 15133 15136 15138 15141 15144 15147 15150 15153 15156 15159 15162 15165 15168 15171 15174 15177 15179 15182 15185 15188 15191 15194 15197 15200 15203 15206 15209 15211 15214 15217 15219 15222 15225 15228 15230 15232 15235 15238 15241 15244 15247 15249 15252 15255 15258 15261 15264 15267 15270 15273 15276 15279 15282 15285 15288 15291 15294 15297 15300 15303 15306 15309 15312 15315 15318 15321 15324 15326 15329 15332 15334 15337 15339 15342 15345 15347 15350 15353 15356 15359 15362 15365 15368 15371 15374 15377 15380 15383 15386 15389 15392 15395 15398 15401 15404 15407 15410 15413 15416 15418 15420 15423 15426 15429 15432 15434 15437 15440 15443 15446 15449 15451 15454 15457 15460 15463 15466 15469 15472 15475 15478 15481 15484 15487 15490 15493 15496 15499 15501 15504 15507 15510 15513 15516 15519 15522 15525 15528 15531 15534 15537 15540 15543 15546 15549 15552 15555 15558 15561 15564 15567 15570 15572 15575 15577 15580 15583 15586 15589 15592 15595 15598 15601 15604 15607 15610 15613 15616 15619 15621 15624 15626 15629 15632 15635 15638 15641 15644 15647 15650 15653 15655 15658 15661 15663 15666 15669 15672 15675 15678 15681 15684 15687 15690 15693 15696 15699 15702 15705 15708 15711 15714 15717 15720 15723 15726 15729 15731 15733 15736 15739 15742 15745 15748 15751 15754 15757 15760 15763 15766 15769 15772 15775 15778 15781 15784 15787 15790 15792 15795 15798 15801 15804 15807 15810 15812 15815 15818 15821 15824 15827 15830 15833 15836 15839 15841 15844 15847 15850 15853 15856 15859 15862 15865 15868 15871 15874 15877 15880 15883 15886 15889 15892 15895 15898 15901 15904 15907 15910 15913 15916 15919 15922 15925 15928 15931 15934 15937 15940 15943 15946 15949 15952 15955 15958 15961 15964 15967 15970 15973 15976 15979 15982 15985 15988 15991 15994 15997 16000 16003 16006 16009 16011 16013 16016 16018 16021 16023 16025 16028 16031 16034 16037 16040 16043 16046 16048 16051 16054 16057 16060 16063 16066 16069 16072 16075 16077 16080 16083 16085 16088 16091 16094 16097 16100 16103 16106 16109 16112 16115 16118 16121 16124 16127 16130 16133 16136 16139 16142 16145 16148 16151 16154 16157 16160 16163 16166 16169 16171 16174 16177 16180 16183 16186 16189 16192 16194 16197 16200 16203 16206 16209 16212 16215 16218 16221 16224 16227 16230 16233 16236 16239 16241 16244 16246 16249 16252 16254 16256 16258 16261 16263 16266 16269 16272 16274 16277 16280 16283 16286 16289 16292 16295 16297 16300 16303 16306 16309 16312 16314 16317 16320 16323 16326 16329 16332 16335 16338 16341 16344 16347 16350 16353 16356 16359 16362 16365 16368 16371 16374 16377 16379 16382 16385 16388 16391 16394 16397 16400 16403 16406 16409 16411 16414 16417 16420 16423 16426 16429 16432 16435 16438 16441 16444 16447 16450 16452 16455 16458 16461 16463 16465 16468 16471 16474 16476 16479 16482 16484 16487 16490 16493 16495 16498 16501 16504 16507 16509 16512 16515 16518 16521 16524 16527 16530 16533 16536 16539 16542 16545 16548 16551 16553 16556 16559 16562 16565 16568 16570 16573 16576 16578 16581 16584 16587 16590 16593 16596 16599 16602 16604 16607 16610 16613 16616 16618 16621 16624 16627 16630 16633 16636 16638 16641 16644 16647 16650 16652 16655 16658 16661 16664 16667 16670 16672 16675 16678 16681 16684 16687 16690 16693 16696 16699 16702 16705 16708 16711 16714 16717 16720 16723 16726 16729 16732 16735 16738 16741 16744 16747 16750 16753 16756 16759 16762 16764 16767 16770 16773 16776 16779 16782 16785 16788 16791 16794 16797 16800 16803 16806 16809 16812 16815 16818 16821 16823 16826 16828 16830 16832 16835 16838 16841 16844 16847 16850 16852 16854 16857 16860 16863 16866 16869 16872 16875 16878 16881 16884 16886 16889 16892 16895 16898 16901 16904 16907 16910 16913 16916 16918 16921 16924 16927 16930 16933 16936 16938 16941 16944 16947 16950 16952 16955 16958 16960 16963 16966 16969 16971 16973 16976 16979 16982 16984 16987 16990 16993 16996 16999 17002 17005 17008 17010 17013 17016 17019 17022 17025 17028 17030 17033 17036 17038 17041 17043 17045 17048 17050 17053 17056 17059 17062 17064 17067 17070 17073 17076 17079 17082 17085 17088 17091 17094 17097 17100 17103 17106 17109 17112 17115 17117 17120 17123 17126 17129 17132 17135 17138 17141 17144 17147 17150 17153 17156 17159 17162 17165 17168 17171 17174 17177 17179 17182 17184 17187 17189 17192 17194 17196 17199 17202 17205 17208 17211 17214 17217 17220 17222 17225 17228 17231 17234 17237 17240 17243 17246 17249 17252 17255 17258 17261 17264 17267 17270 17273 17276 17278 17281 17284 17287 17290 17293 17296 17299 17302 17305 17307 17310 17313 17316 17319 17322 17325 17328 17331 17333 17336 17339 17342 17345 17348 17351 17353 17356 17359 17362 17364 17367 17370 17372 17375 17378 17381 17384 17387 17389 17392 17395 17398 17400 17403 17406 17409 17412 17415 17418 17421 17424 17426 17429 17432 17435 17438 17441 17444 17446 17449 17452 17455 17458 17461 17463 17466 17468 17471 17473 17476 17479 17481 17484 17487 17490 17493 17496 17499 17502 17505 17508 17510 17513 17516 17519 17522 17525 17527 17530 17533 17536 17539 17542 17544 17547 17550 17553 17556 17559 17562 17565 17568 17571 17574 17577 17580 17583 17586 17589 17592 17595 17598 17601 17604 17607 17610 17613 17616 17619 17622 17625 17628 17631 17634 17637 17640 17643 17646 17648 17651 17654 17656 17659 17662 17665 17668 17671 17674 17677 17680 17683 17686 17689 17692 17695 17698 17701 17704 17707 17710 17713 17716 17719 17722 17725 17728 17731 17734 17737 17740 17742 17745 17748 17751 17754 17756 17759 17762 17765 17768 17770 17773 17776 17779 17782 17785 17788 17791 17794 17797 17800 17803 17806 17809 17812 17815 17818 17821 17824 17827 17830 17833 17836 17839 17842 17845 17848 17851 17854 17857 17859 17862 17865 17868 17871 17874 17877 17879 17882 17885 17888 17891 17894 17897 17900 17903 17905 17908 17910 17913 17916 17919 17922 17925 17928 17931 17934 17937 17940 17943 17945 17948 17951 17954 17957 17960 17962 17965 17968 17971 17973 17976 17979 17982 17985 17988 17991 17994 17997 18000 18003 18006 18009 18012 18015 18018 18021 18024 18027 18030 18033 18036 18039 18041 18044 18047 18050 18053 18055 18058 18061 18064 18067 18070 18073 18076 18079 18082 18085 18088 18091 18094 18097 18100 18103 18106 18109 18112 18115 18118 18121 18124 18127 18130 18133 18136 18139 18142 18145 18148 18151 18154 18156 18159 18162 18165 18168 18170 18173 18176 18179 18182 18185 18187 18190 18193 18196 18198 18201 18204 18207 18210 18213 18216 18219 18222 18225 18228 18231 18234 18236 18239 18242 18245 18248 18251 18254 18257 18260 18263 18265 18267 18270 18273 18276 18279 18282 18285 18288 18291 18294 18297 18300 18303 18305 18308 18310 18312 18315 18318 18321 18324 18327 18329 18332 18335 18338 18341 18344 18347 18349 18352 18355 18357 18360 18362 18365 18368 18371 18374 18377 18380 18383 18386 18389 18392 18395 18398 18401 18404 18407 18410 18413 18416 18419 18422 18425 18428 18431 18434 18437 18440 18443 18446 18449 18452 18455 18458 18461 18464 18466 18469 18472 18474 18476 18479 18482 18485 18487 18490 18493 18496 18499 18502 18505 18508 18510 18512 18514 18516 18519 18522 18524 18527 18530 18532 18535 18537 18540 18543 18546 18549 18552 18555 18558 18561 18564 18567 18570 18573 18576 18579 18582 18585 18588 18591 18594 18597 18600 18603 18606 18609 18612 18615 18618 18621 18624 18627 18630 18633 18636 18639 18642 18644 18647 18650 18653 18656 18658 18661 18664 18667 18670 18673 18676 18679 18682 18685 18687 18690 18693 18696 18699 18702 18704 18707 18710 18713 18716 18718 18721 18724 18727 18730 18732 18735 18738 18741 18744 18746 18749 18752 18755 18758 18761 18764 18767 18770 18773 18776 18779 18782 18785 18788 18791 18794 18797 18800 18803 18806 18808 18811 18814 18816 18819 18821 18824 18827 18830 18833 18836 18839 18842 18845 18848 18851 18853 18856 18859 18862 18865 18867 18870 18873 18875 18877 18880 18883 18886 18889 18892 18895 18898 18901 18904 18907 18910 18913 18916 18919 18922 18924 18927 18930 18933 18936 18939 18942 18945 18948 18951 18954 18957 18960 18963 18966 18968 18970 18973 18976 18978 18981 18984 18987 18990 18993 18996 18999 19002 19005 19008 19011 19014 19017 19020 19023 19026 19029 19031 19034 19037 19040 19043 19045 19048 19051 19054 19057 19060 19063 19066 19069 19072 19074 19077 19080 19083 19086 19089 19091 19093 19096 19099 19102 19104 19107 19110 19113 19116 19118 19121 19124 19127 19130 19133 19136 19138 19141 19144 19147 19150 19153 19156 19159 19162 19165 19168 19171 19174 19176 19179 19181 19184 19187 19190 19192 19195 19197 19200 19203 19206 19209 19211 19213 19216 19218 19221 19224 19227 19230 19233 19236 19239 19242 19245 19247 19250 19252 19255 19258 19261 19263 19266 19269 19272 19275 19278 19281 19283 19286 19289 19292 19295 19298 19301 19303 19306 19309 19312 19314 19317 19319 19322 19324 19327 19329 19331 19334 19337 19339 19342 19345 19347 19350 19352 19355 19358 19361 19364 19367 19370 19373 19376 19379 19382 19385 19388 19391 19393 19396 19399 19402 19405 19407 19410 19413 19416 19419 19422 19425 19428 19431 19434 19437 19440 19442 19445 19447 19450 19453 19455 19457 19459 19462 19465 19468 19470 19473 19476 19478 19481 19484 19487 19490 19493 19496 19499 19502 19505 19508 19511 19513 19516 19519 19522 19525 19528 19531 19533 19535 19538 19541 19544 19547 19550 19552 19555 19557 19560 19563 19566 19569 19572 19575 19578 19581 19584 19587 19590 19593 19596 19599 19602 19605 19608 19611 19614 19617 19620 19623 19626 19629 19632 19635 19638 19640 19643 19646 19649 19652 19655 19657 19660 19663 19666 19669 19672 19675 19678 19681 19684 19686 19688 19691 19694 19696 19699 19702 19705 19707 19710 19713 19716 19719 19721 19723 19726 19728 19731 19734 19736 19739 19742 19745 19748 19751 19754 19757 19760 19763 19766 19769 19772 19775 19778 19781 19784 19787 19790 19793 19796 19799 19802 19805 19808 19811 19814 19817 19819 19821 19824 19827 19829 19832 19835 19838 19841 19844 19846 19848 19851 19853 19856 19858 19861 19864 19867 19870 19873 19876 19878 19881 19883 19886 19889 19892 19895 19898 19901 19904 19907 19910 19913 19916 19919 19922 19925 19928 19930 19933 19936 19939 19942 19945 19948 19951 19954 19956 19959 19962 19965 19968 19970 19973 19976 19979 19982 19985 19988 19991 19994 19997 20000 20003 20006 20008 20011 20014 20017 20020 20023 20026 20029 20032 20035 20038 20041 20044 20047 20050 20053 20056 20059 20062 20065 20068 20071 20074 20077 20080 20083 20086 20089 20092 20095 20098 20101 20104 20107 20110 20113 20116 20119 20122 20124 20127 20130 20133 20136 20139 20142 20145 20148 20151 20154 20157 20160 20163 20166 20169 20172 20174 20177 20180 20183 20186 20188 20191 20194 20197 20200 20203 20206 20209 20212 20215 20218 20221 20223 20226 20229 20232 20235 20238 20241 20244 20247 20249 20252 20255 20258 20261 20263 20266 20269 20272 20274 20277 20280 20283 20286 20289 20292 20295 20298 20301 20304 20307 20310 20313 20316 20319 20322 20324 20327 20330 20333 20336 20339 20342 20344 20347 20350 20353 20356 20359 20361 20364 20367 20370 20373 20375 20377 20380 20382 20384 20387 20390 20393 20396 20399 20402 20405 20408 20411 20414 20417 20420 20423 20426 20429 20432 20435 20438 20441 20444 20447 20449 20452 20455 20458 20461 20464 20466 20469 20472 20475 20478 20481 20484 20487 20490 20493 20496 20499 20502 20505 20508 20511 20514 20517 20520 20523 20525 20528 20531 20534 20536 20539 20542 20544 20546 20549 20552 20555 20557 20560 20562 20565 20568 20570 20573 20576 20579 20582 20585 20588 20590 20593 20595 20598 20601 20604 20606 20609 20612 20614 20616 20619 20621 20624 20627 20630 20633 20636 20639 20641 20644 20647 20650 20653 20656 20659 20662 20664 20666 20668 20671 20674 20677 20679 20682 20685 20688 20691 20693 20696 20699 20702 20705 20707 20710 20712 20715 20718 20721 20724 20727 20730 20733 20736 20739 20742 20745 20748 20751 20754 20756 20759 20762 20764 20767 20770 20773 20776 20778 20781 20784 20787 20790 20793 20796 20798 20801 20804 20807 20810 20813 20816 20819 20822 20824 20827 20830 20832 20835 20838 20841 20843 20845 20848 20851 20854 20857 20860 20863 20866 20868 20870 20873 20876 20878 20881 20884 20887 20890 20893 20895 20898 20901 20904 20907 20910 20913 20915 20918 20921 20923 20926 20929 20932 20934 20937 20940 20943 20946 20949 20951 20954 20957 20960 20963 20966 20969 20972 20975 20978 20981 20984 20987 20990 20993 20996 20999 21002 21005 21008 21011 21014 21017 21019 21022 21025 21028 21031 21034 21036 21038 21041 21043 21046 21048 21050 21053 21055 21058 21061 21064 21067 21070 21072 21075 21078 21081 21084 21087 21089 21092 21094 21097 21100 21102 21105 21108 21110 21112 21115 21118 21121 21124 21126 21128 21131 21134 21137 21139 21142 21144 21147 21149 21152 21155 21157 21160 21163 21166 21168 21171 21174 21177 21180 21183 21186 21188 21191 21194 21196 21198 21201 21203 21206 21209 21211 21214 21217 21220 21223 21226 21229 21232 21235 21237 21240 21243 21246 21249 21252 21255 21258 21261 21264 21267 21270 21273 21276 21278 21281 21284 21287 21289 21292 21295 21298 21301 21303 21306 21309 21312 21315 21318 21321 21324 21327 21330 21333 21336 21339 21342 21345 21348 21351 21354 21357 21360 21363 21366 21368 21371 21374 21377 21380 21382 21385 21388 21391 21394 21397 21400 21403 21406 21409 21412 21415 21418 21421 21424 21427 21430 21433 21436 21439 21442 21445 21448 21451 21454 21457 21459 21462 21465 21468 21471 21473 21476 21479 21482 21485 21488 21491 21494 21496 21499 21501 21504 21507 21510 21513 21516 21519 21522 21524 21527 21530 21532 21535 21538 21541 21544 21546 21549 21552 21555 21558 21561 21564 21567 21570 21572 21575 21578 21581 21583 21586 21588 21591 21594 21597 21600 21603 21605 21608 21610 21613 21616 21619 21622 21624 21627 21630 21632 21635 21638 21641 21644 21647 21649 21652 21655 21658 21661 21664 21667 21670 21672 21675 21678 21680 21683 21686 21689 21692 21695 21698 21701 21704 21707 21709 21711 21714 21717 21719 21722 21725 21728 21731 21734 21737 21740 21742 21744 21746 21749 21752 21754 21757 21760 21763 21765 21768 21771 21774 21776 21779 21782 21785 21788 21791 21794 21797 21800 21802 21805 21807 21810 21813 21816 21818 21821 21824 21827 21830 21833 21836 21839 21841 21844 21847 21850 21853 21856 21859 21862 21865 21868 21870 21873 21876 21879 21882 21885 21888 21891 21894 21897 21900 21903 21906 21909 21912 21915 21917 21920 21923 21926 21929 21932 21935 21937 21940 21943 21946 21948 21950 21953 21956 21959 21962 21965 21968 21971 21974 21977 21979 21982 21985 21988 21991 21994 21997 21999 22002 22005 22007 22010 22012 22015 22018 22021 22024 22027 22030 22033 22036 22039 22042 22045 22048 22051 22054 22057 22060 22063 22066 22068 22071 22074 22077 22080 22083 22085 22088 22090 22093 22096 22099 22102 22105 22108 22110 22113 22115 22118 22121 22124 22126 22129 22132 22135 22138 22140 22143 22146 22149 22152 22155 22157 22160 22163 22166 22169 22172 22175 22178 22181 22184 22186 22189 22191 22193 22196 22199 22202 22205 22208 22210 22213 22216 22219 22222 22225 22228 22231 22233 22236 22238 22240 22242 22245 22248 22251 22254 22257 22259 22262 22265 22267 22270 22273 22276 22279 22282 22284 22287 22290 22292 22295 22298 22301 22304 22307 22310 22313 22316 22319 22322 22325 22327 22329 22332 22335 22338 22341 22343 22346 22349 22352 22355 22358 22361 22364 22367 22370 22373 22376 22379 22382 22385 22388 22391 22394 22397 22400 22403 22406 22408 22411 22414 22417 22420 22423 22426 22429 22431 22434 22437 22440 22443 22446 22448 22450 22452 22455 22458 22461 22464 22467 22470 22472 22475 22477 22480 22483 22486 22488 22491 22494 22497 22500 22503 22506 22509 22512 22515 22518 22521 22523 22525 22528 22531 22534 22537 22540 22542 22545 22548 22551 22554 22557 22560 22563 22565 22568 22571 22574 22577 22580 22583 22586 22589 22592 22595 22598 22601 22603 22606 22609 22612 22615 22618 22621 22624 22627 22630 22633 22636 22639 22642 22645 22647 22650 22653 22656 22659 22662 22665 22668 22671 22673 22676 22679 22682 22685 22688 22691 22694 22697 22700 22703 22706 22709 22712 22715 22717 22720 22723 22726 22729 22732 22735 22737 22740 22743 22746 22748 22751 22754 22756 22759 22762 22765 22767 22770 22772 22774 22776 22778 22781 22784 22786 22788 22791 22794 22797 22799 22802 22805 22807 22810 22812 22815 22818 22821 22824 22827 22830 22833 22836 22838 22840 22843 22846 22848 22851 22854 22856 22859 22862 22865 22868 22870 22873 22876 22879 22882 22885 22888 22890 22893 22896 22899 22902 22905 22908 22911 22913 22916 22919 22922 22925 22928 22930 22933 22936 22938 22940 22943 22946 22949 22952 22955 22958 22961 22964 22967 22970 22973 22976 22979 22982 22985 22988 22991 22994 22996 22999 23002 23005 23008 23011 23014 23017 23020 23023 23026 23029 23032 23035 23038 23041 23044 23047 23050 23053 23056 23058 23061 23064 23067 23070 23073 23076 23079 23082 23085 23088 23091 23094 23097 23099 23102 23105 23108 23111 23113 23116 23119 23122 23125 23128 23130 23133 23136 23139 23142 23145 23148 23151 23154 23157 23160 23163 23166 23169 23172 23175 23178 23181 23184 23187 23190 23193 23196 23199 23202 23205 23208 23211 23214 23217 23220 23223 23226 23229 23232 23235 23238 23241 23244 23247 23250 23253 23256 23259 23262 23265 23268 23271 23274 23277 23279 23282 23285 23288 23291 23294 23297 23300 23303 23306 23309 23312 23315 23318 23321 23324 23327 23330 23333 23336 23339 23342 23345 23348 23351 23354 23357 23360 23363 23366 23369 23372 23374 23377 23380 23383 23386 23389 23392 23395 23398 23400 23403 23406 23409 23412 23415 23418 23420 23423 23426 23429 23432 23435 23438 23440 23443 23446 23448 23451 23454 23457 23460 23462 23465 23468 23470 23473 23476 23479 23482 23485 23488 23491 23494 23497 23500 23503 23506 23509 23512 23515 23518 23521 23524 23527 23530 23532 23535 23538 23541 23544 23547 23550 23553 23556 23559 23562 23565 23568 23570 23573 23575 23578 23581 23584 23587 23590 23593 23596 23599 23602 23605 23608 23611 23614 23617 23620 23622 23625 23628 23630 23633 23636 23639 23642 23645 23648 23651 23654 23657 23660 23663 23666 23669 23672 23675 23677 23679 23682 23685 23688 23691 23693 23696 23698 23701 23704 23707 23709 23712 23715 23717 23720 23723 23726 23728 23730 23733 23735 23738 23741 23743 23746 23749 23751 23754 23757 23760 23763 23766 23769 23772 23775 23778 23781 23784 23787 23790 23793 23796 23799 23802 23805 23808 23811 23814 23817 23820 23822 23824 23827 23830 23833 23835 23838 23841 23843 23846 23848 23850 23853 23855 23858 23860 23863 23865 23868 23870 23873 23875 23878 23881 23884 23886 23889 23892 23895 23898 23901 23904 23907 23910 23913 23916 23918 23921 23924 23927 23930 23933 23936 23939 23942 23944 23947 23950 23953 23956 23959 23962 23965 23968 23971 23974 23977 23980 23983 23986 23989 23992 23995 23998 24001 24004 24007 24010 24013 24016 24019 24022 24024 24027 24030 24032 24035 24038 24041 24044 24047 24050 24053 24055 24058 24060 24063 24066 24069 24072 24075 24078 24081 24084 24087 24089 24092 24094 24096 24099 24102 24105 24108 24111 24114 24117 24120 24123 24126 24129 24132 24135 24138 24141 24144 24147 24149 24151 24154 24157 24160 24163 24166 24169 24172 24175 24178 24181 24184 24187 24190 24192 24194 24196 24199 24202 24205 24208 24211 24214 24217 24220 24223 24226 24229 24232 24234 24237 24240 24242 24245 24248 24251 24254 24257 24260 24262 24265 24268 24271 24273 24276 24278 24281 24284 24287 24290 24292 24295 24298 24301 24303 24306 24309 24312 24315 24318 24321 24324 24327 24330 24333 24336 24339 24342 24345 24348 24351 24354 24357 24360 24363 24366 24369 24372 24374 24377 24379 24382 24385 24388 24391 24394 24397 24400 24403 24406 24409 24412 24414 24417 24420 24423 24425 24428 24431 24434 24437 24440 24443 24445 24448 24450 24453 24456 24458 24461 24464 24467 24470 24472 24474 24477 24480 24483 24486 24489 24491 24494 24497 24500 24503 24506 24509 24512 24515 24518 24520 24523 24526 24529 24532 24535 24538 24541 24544 24547 24549 24552 24555 24558 24561 24564 24567 24570 24573 24576 24579 24582 24584 24586 24589 24592 24595 24598 24601 24604 24607 24610 24613 24615 24618 24621 24624 24627 24630 24633 24636 24639 24642 24645 24648 24651 24654 24657 24660 24663 24666 24669 24671 24674 24676 24679 24682 24685 24688 24691 24694 24697 24700 24702 24705 24708 24711 24714 24717 24720 24723 24726 24729 24732 24734 24737 24740 24743 24745 24748 24751 24754 24757 24760 24762 24765 24768 24771 24774 24776 24779 24782 24785 24787 24790 24792 24795 24797 24800 24803 24805 24808 24811 24814 24817 24820 24823 24825 24828 24831 24834 24837 24840 24843 24846 24848 24851 24854 24857 24860 24863 24866 24869 24871 24874 24877 24880 24883 24886 24889 24892 24895 24898 24901 24904 24907 24910 24913 24916 24919 24921 24924 24927 24929 24932 24934 24937 24940 24943 24946 24949 24952 24955 24958 24960 24963 24966 24969 24971 24974 24977 24980 24983 24986 24989 24992 24995 24998 25000 25002 25005 25008 25010 25013 25016 25019 25022 25024 25027 25030 25032 25035 25038 25041 25044 25047 25050 25053 25056 25059 25061 25064 25067 25069 25072 25075 25078 25081 25083 25086 25088 25091 25094 25097 25100 25103 25106 25109 25112 25115 25118 25121 25123 25126 25128 25131 25134 25136 25139 25142 25145 25148 25151 25153 25156 25158 25161 25164 25167 25169 25171 25174 25177 25180 25183 25186 25189 25192 25194 25197 25200 25203 25206 25208 25211 25214 25217 25220 25223 25226 25229 25231 25234 25237 25239 25242 25245 25248 25251 25253 25256 25258 25260 25263 25266 25268 25271 25274 25277 25280 25282 25285 25288 25291 25294 25297 25300 25302 25305 25308 25311 25314 25316 25319 25322 25325 25328 25331 25334 25336 25339 25342 25344 25347 25350 25352 25355 25358 25361 25364 25367 25369 25372 25375 25378 25381 25384 25386 25389 25392 25395 25398 25400 25403 25406 25409 25412 25414 25417 25420 25423 25425 25428 25431 25434 25437 25440 25443 25446 25449 25452 25455 25458 25461 25464 25467 25469 25472 25475 25477 25480 25482 25484 25487 25490 25493 25496 25498 25501 25503 25506 25508 25511 25514 25516 25518 25521 25524 25527 25530 25532 25535 25538 25541 25543 25546 25549 25551 25554 25557 25560 25562 25565 25568 25570 25573 25576 25579 25581 25584 25587 25589 25592 25595 25598 25601 25604 25607 25610 25613 25616 25619 25622 25625 25628 25631 25634 25637 25640 25642 25645 25648 25651 25654 25657 25660 25663 25666 25669 25672 25675 25678 25681 25684 25687 25690 25693 25696 25699 25702 25705 25708 25711 25714 25717 25720 25723 25726 25729 25732 25734 25737 25740 25743 25746 25749 25752 25755 25758 25761 25764 25766 25768 25771 25774 25777 25779 25782 25785 25787 25790 25793 25796 25799 25802 25805 25808 25811 25814 25816 25819 25822 25825 25828 25831 25834 25837 25840 25843 25846 25849 25852 25855 25858 25861 25864 25867 25870 25873 25875 25878 25881 25884 25887 25889 25892 25895 25897 25900 25903 25906 25909 25912 25915 25918 25921 25924 25927 25930 25933 25936 25939 25942 25945 25948 25951 25953 25956 25959 25962 25964 25967 25970 25973 25976 25979 25981 25984 25987 25990 25993 25996 25999 26002 26005 26008 26011 26014 26017 26020 26023 26026 26029 26032 26035 26038 26041 26044 26047 26050 26053 26056 26059 26062 26065 26068 26071 26074 26077 26080 26083 26086 26089 26092 26095 26098 26101 26104 26107 26110 26113 26116 26119 26122 26125 26128 26130 26133 26136 26138 26141 26143 26146 26149 26151 26154 26157 26160 26162 26165 26168 26171 26174 26177 26180 26183 26186 26189 26192 26194 26196 26199 26202 26204 26207 26210 26213 26216 26219 26222 26225 26228 26231 26234 26237 26240 26243 26246 26249 26251 26253 26256 26259 26262 26265 26268 26271 26274 26277 26280 26283 26286 26288 26291 26294 26297 26300 26303 26306 26309 26312 26315 26317 26320 26323 26326 26329 26332 26335 26338 26341 26343 26346 26349 26351 26354 26357 26360 26363 26365 26368 26371 26374 26377 26380 26382 26385 26387 26390 26393 26396 26399 26401 26404 26407 26410 26413 26415 26418 26421 26423 26426 26429 26432 26435 26438 26441 26444 26447 26450 26453 26456 26459 26462 26465 26468 26471 26474 26476 26479 26481 26484 26486 26489 26492 26495 26498 26501 26504 26507 26510 26513 26516 26519 26522 26525 26528 26531 26534 26537 26540 26543 26546 26549 26551 26554 26557 26560 26563 26566 26569 26572 26575 26578 26580 26583 26586 26589 26592 26595 26598 26601 26604 26607 26610 26613 26616 26619 26622 26625 26628 26630 26632 26635 26638 26641 26644 26647 26650 26653 26656 26659 26662 26665 26668 26671 26674 26677 26679 26682 26685 26688 26691 26694 26697 26700 26703 26706 26709 26712 26714 26717 26720 26722 26725 26728 26731 26734 26737 26740 26743 26746 26749 26752 26755 26757 26760 26762 26765 26768 26771 26773 26776 26779 26781 26784 26787 26790 26793 26796 26799 26802 26805 26808 26811 26814 26817 26819 26821 26824 26827 26830 26833 26836 26839 26841 26844 26847 26850 26853 26856 26858 26861 26864 26867 26870 26873 26876 26879 26882 26885 26888 26891 26894 26897 26900 26903 26906 26909 26912 26915 26918 26921 26923 26925 26928 26931 26934 26937 26940 26943 26946 26949 26952 26955 26957 26959 26962 26965 26968 26971 26973 26976 26978 26981 26983 26986 26988 26991 26994 26996 26998 27001 27004 27007 27009 27011 27014 27016 27019 27022 27025 27027 27030 27032 27035 27038 27040 27043 27046 27049 27052 27055 27057 27060 27063 27066 27069 27072 27074 27077 27079 27082 27085 27088 27091 27094 27097 27100 27103 27106 27109 27112 27114 27117 27119 27121 27124 27126 27129 27132 27134 27137 27140 27142 27145 27147 27150 27153 27155 27158 27161 27164 27167 27170 27172 27175 27178 27181 27184 27187 27190 27193 27196 27198 27201 27204 27207 27209 27212 27215 27218 27221 27223 27226 27228 27231 27233 27236 27239 27241 27244 27247 27249 27251 27254 27256 27259 27262 27264 27266 27269 27272 27274 27277 27279 27282 27285 27287 27289 27292 27294 27297 27300 27302 27305 27308 27311 27313 27316 27319 27321 27324 27327 27330 27333 27336 27339 27342 27345 27348 27351 27354 27357 27360 27363 27366 27369 27371 27374 27377 27380 27383 27386 27389 27392 27395 27397 27400 27403 27406 27408 27410 27413 27416 27419 27422 27424 27427 27430 27432 27434 27437 27440 27443 27446 27449 27451 27453 27456 27459 27461 27463 27466 27468 27471 27474 27476 27479 27482 27485 27488 27491 27494 27497 27500 27503 27506 27509 27512 27515 27518 27521 27524 27527 27530 27533 27535 27538 27541 27544 27547 27550 27553 27555 27558 27561 27563 27566 27568 27571 27574 27577 27580 27583 27586 27588 27591 27594 27597 27599 27602 27605 27608 27611 27614 27617 27619 27622 27624 27627 27630 27633 27636 27639 27642 27645 27648 27650 27653 27656 27659 27662 27665 27668 27671 27674 27677 27680 27682 27685 27688 27690 27693 27696 27699 27702 27705 27708 27711 27713 27716 27719 27722 27725 27728 27731 27734 27737 27740 27743 27746 27749 27752 27755 27757 27760 27763 27766 27769 27772 27775 27777 27780 27783 27786 27789 27792 27795 27798 27801 27804 27807 27810 27813 27816 27818 27821 27824 27827 27830 27833 27835 27838 27841 27844 27847 27850 27853 27856 27858 27861 27864 27867 27870 27873 27876 27879 27881 27884 27887 27890 27893 27895 27897 27899 27902 27904 27907 27910 27913 27916 27919 27922 27924 27927 27930 27933 27936 27938 27941 27943 27945 27947 27949 27952 27954 27957 27959 27961 27964 27967 27970 27973 27976 27979 27982 27984 27987 27989 27992 27995 27998 28001 28004 28007 28010 28012 28015 28018 28021 28024 28026 28029 28032 28035 28038 28041 28044 28046 28049 28052 28055 28058 28061 28064 28066 28068 28071 28074 28077 28080 28082 28085 28087 28090 28093 28096 28099 28102 28105 28108 28111 28114 28117 28119 28122 28125 28127 28130 28132 28135 28138 28140 28143 28145 28148 28150 28153 28156 28159 28162 28165 28168 28171 28174 28177 28180 28182 28185 28188 28191 28194 28197 28200 28203 28206 28208 28210 28213 28216 28219 28221 28224 28227 28230 28233 28236 28239 28241 28244 28246 28249 28252 28255 28258 28261 28263 28266 28269 28272 28275 28278 28281 28284 28287 28290 28292 28295 28298 28300 28303 28306 28309 28311 28314 28317 28320 28323 28326 28329 28331 28334 28337 28340 28343 28346 28349 28352 28354 28357 28360 28363 28366 28369 28372 28375 28378 28381 28384 28387 28390 28392 28395 28398 28401 28404 28407 28409 28412 28415 28417 28420 28423 28426 28429 28432 28435 28438 28441 28444 28447 28450 28453 28456 28459 28462 28465 28468 28471 28474 28476 28479 28482 28484 28487 28490 28493 28496 28499 28501 28504 28507 28509 28512 28515 28518 28521 28524 28527 28530 28533 28535 28538 28541 28544 28546 28549 28552 28555 28558 28561 28564 28567 28570 28573 28576 28579 28582 28585 28587 28590 28593 28596 28599 28602 28605 28608 28611 28614 28617 28620 28623 28626 28629 28632 28635 28638 28641 28644 28647 28650 28653 28656 28659 28662 28664 28667 28670 28673 28676 28679 28682 28685 28687 28690 28692 28695 28698 28701 28703 28706 28708 28711 28714 28717 28719 28721 28724 28727 28729 28732 28734 28737 28740 28743 28746 28749 28751 28754 28757 28760 28763 28766 28768 28771 28774 28777 28780 28783 28786 28789 28792 28795 28798 28800 28803 28806 28809 28811 28814 28817 28820 28823 28826 28829 28832 28835 28838 28841 28844 28847 28850 28853 28856 28859 28862 28864 28867 28870 28872 28875 28878 28880 28883 28886 28889 28892 28895 28898 28901 28904 28907 28910 28913 28916 28919 28922 28925 28928 28931 28934 28937 28940 28943 28946 28949 28952 28954 28956 28959 28962 28965 28968 28971 28974 28976 28979 28982 28985 28988 28991 28994 28996 28999 29002 29005 29007 29010 29012 29015 29017 29020 29023 29026 29029 29032 29035 29037 29040 29043 29046 29048 29051 29053 29056 29059 29062 29064 29067 29070 29073 29076 29079 29082 29085 29088 29091 29094 29097 29099 29102 29105 29107 29110 29113 29116 29118 29121 29124 29127 29130 29133 29136 29139 29142 29145 29147 29150 29153 29155 29158 29161 29164 29167 29169 29172 29174 29177 29180 29183 29186 29189 29192 29195 29198 29201 29204 29207 29209 29212 29215 29218 29220 29223 29226 29229 29232 29235 29238 29241 29244 29247 29250 29252 29255 29258 29261 29264 29267 29269 29272 29275 29278 29281 29283 29286 29289 29292 29295 29298 29301 29304 29307 29310 29313 29316 29319 29322 29325 29328 29331 29334 29337 29340 29343 29346 29349 29351 29354 29356 29359 29362 29365 29368 29371 29374 29377 29380 29382 29385 29388 29391 29394 29397 29400 29403 29406 29409 29412 29415 29418 29421 29424 29427 29430 29433 29436 29439 29442 29445 29448 29451 29454 29457 29460 29463 29465 29467 29470 29473 29476 29479 29482 29485 29488 29491 29494 29497 29500 29503 29506 29509 29512 29515 29518 29521 29524 29527 29530 29533 29536 29539 29542 29545 29548 29551 29554 29557 29560 29563 29566 29569 29572 29575 29578 29581 29584 29587 29590 29593 29596 29599 29602 29605 29608 29611 29614 29617 29620 29623 29626 29629 29632 29635 29638 29641 29644 29647 29650 29653 29656 29659 29662 29665 29668 29671 29674 29677 29680 29683 29686 29689 29692 29695 29698 29701 29704 29706 29709 29711 29714 29717 29720 29723 29726 29729 29732 29735 29738 29740 29742 29745 29747 29750 29753 29755 29758 29761 29764 29767 29770 29773 29776 29779 29782 29784 29787 29790 29793 29796 29799 29802 29805 29807 29809 29812 29815 29817 29820 29822 29825 29828 29830 29832 29835 29838 29841 29844 29847 29849 29852 29855 29858 29860 29863 29866 29868 29871 29874 29877 29880 29883 29885 29888 29890 29893 29896 29898 29901 29904 29907 29910 29912 29915 29918 29921 29924 29927 29930 29933 29935 29938 29940 29943 29946 29949 29952 29955 29958 29961 29964 29967 29970 29973 29976 29979 29982 29985 29988 29991 29994 29997 30000 30003 30006 30009 30011 30014 30017 30020 30023 30026 30029 30032 30035 30037 30040 30042 30045 30048 30051 30054 30057 30060 30063 30065 30068 30071 30074 30077 30080 30083 30086 30088 30091 30094 30097 30100 30103 30105 30108 30111 30114 30117 30120 30123 30126 30128 30131 30134 30137 30140 30142 30145 30148 30151 30154 30157 30160 30163 30165 30168 30171 30174 30177 30180 30182 30184 30187 30190 30192 30194 30197 30199 30202 30205 30207 30210 30213 30215 30218 30221 30224 30227 30229 30232 30234 30236 30239 30242 30245 30247 30250 30253 30255 30258 30260 30263 30266 30269 30272 30275 30278 30281 30284 30287 30290 30293 30296 30299 30302 30305 30308 30310 30313 30316 30319 30322 30325 30327 30330 30333 30336 30339 30342 30344 30347 30350 30352 30355 30358 30361 30364 30367 30370 30373 30376 30379 30382 30385 30388 30391 30393 30396 30399 30402 30404 30407 30410 30413 30416 30419 30422 30425 30428 30431 30434 30437 30440 30443 30446 30449 30452 30455 30457 30460 30463 30466 30468 30471 30474 30477 30480 30483 30485 30488 30491 30494 30496 30499 30502 30505 30507 30509 30512 30515 30518 30520 30523 30526 30529 30532 30535 30538 30541 30544 30547 30550 30553 30555 30558 30561 30564 30567 30570 30573 30576 30579 30582 30585 30587 30590 30593 30596 30599 30602 30605 30608 30611 30614 30617 30620 30623 30626 30629 30632 30635 30638 30641 30644 30647 30650 30653 30656 30659 30662 30665 30668 30671 30674 30677 30680 30683 30686 30689 30692 30695 30698 30701 30704 30707 30710 30713 30716 30719 30722 30725 30728 30731 30734 30737 30740 30743 30746 30749 30752 30755 30758 30760 30763 30766 30768 30771 30774 30777 30780 30783 30786 30789 30792 30795 30798 30801 30804 30806 30809 30812 30815 30818 30821 30824 30827 30830 30833 30836 30839 30841 30844 30847 30850 30853 30855 30858 30861 30864 30867 30870 30873 30876 30879 30882 30885 30888 30890 30893 30896 30899 30902 30905 30908 30911 30913 30916 30919 30922 30925 30927 30930 30933 30936 30939 30942 30945 30948 30951 30954 30957 30960 30963 30966 30969 30972 30975 30978 30981 30984 30987 30989 30992 30995 30998 31001 31004 31006 31009 31012 31014 31017 31020 31023 31026 31028 31031 31034 31037 31040 31043 31046 31049 31051 31054 31057 31060 31063 31066 31069 31072 31075 31078 31081 31084 31087 31090 31093 31096 31099 31101 31104 31107 31110 31113 31115 31118 31121 31124 31127 31129 31132 31135 31138 31141 31143 31146 31149 31152 31155 31157 31160 31163 31166 31169 31171 31174 31177 31179 31182 31185 31188 31191 31193 31196 31198 31201 
</DataArray>
<DataArray type="UInt32" Name="types" format="ascii">
5 5 3 5 5 5 5 3 5 5 5 3 3 3 5 5 5 3 5 5 5 5 5 3 5 5 5 5 5 5 5 5 5 5 3 5 3 5 5 5 5 3 5 5 5 5 5 5 3 5 5 5 5 5 5 5 5 5 5 3 5 5 5 5 5 5 5 5 5 5 5 5 5 5 5 5 5 5 5 5 5 3 5 5 5 5 3 5 3 5 5 3 5 3 5 5 3 5 5 5 5 5 5 5 5 5 5 5 5 3 5 5 5 5 5 5 5 3 5 5 5 5 5 5 5 5 5 5 5 5 5 3 5 5 5 5 5 5 3 5 5 3 3 5 5 5 5 5 3 5 5 5 5 3 5 5 5 5 5 5 5 5 5 5 5 5 5 5 5 5 5 5 3 5 5 5 5 5 5 5 5 3 5 5 5 5 5 5 5 5 5 5 5 5 5 5 5 5 5 5 5 5 5 5 5 5 5 5 5 5 5 5 5 5 5 5 5 5 5 5 5 5 5 5 5 5 5 5 5 5 5 3 5 5 5 5 5 5 5 5 5 5 5 5 5 5 5 5 5 5 5 5 5 5 3 5 5 5 3 5 5 5 3 5 3 5 3 5 3 5 5 5 3 5 5 3 3 5 5 3 5 3 5 5 3 3 3 5 3 5 3 5 5 3 5 5 5 5 5 5 5 5 3 5 5 5 3 5 3 5 5 3 3 5 3 3 5 5 5 3 5 5 3 5 5 3 5 3 3 5 5 5 3 5 5 5 3 5 5 5 5 3 5 3 3 5 5 5 5 5 5 5 3 5 5 5 5 5 3 5 5 5 5 5 5 3 5 5 5 5 5 3 5 5 5 5 5 5 5 5 5 5 5 5 5 5 5 5 5 5 5 5 5 5 5 5 5 5 5 5 5 3 5 5 5 5 3 5 5 3 5 5 5 5 5 5 5 5 5 5 5 5 5 5 5 3 5 3 5 5 3 5 3 5 3 5 5 3 5 5 5 5 5 5 5 5 5 3 5 5 5 5 5 5 5 5 3 5 5 5 3 3 5 5 5 5 5 3 5 5 5 3 5 5 5 3 3 5 3 5 5 5 5 3 3 5 5 3 3 5 5 5 3 5 5 5 5 3 5 3 5 5 5 5 3 5 3 5 5 3 5 5 5 5 5 5 3 5 3 3 5 3 5 5 5 3 5 5 3 5 5 5 5 5 5 5 3 5 5 5 5 5 5 5 5 3 5 3 3 5 3 5 5 5 3 5 5 3 5 5 5 5 5 5 5 5 5 5 5 5 5 5 5 5 5 5 3 5 5 5 5 3 5 5 5 5 5 5 5 5 5 5 5 3 5 5 5 5 5 5 5 5 3 5 5 5 5 5 5 5 3 5 5 5 3 5 5 5 5 5 5 5 5 5 5 5 5 5 5 5 5 5 5 5 5 5 5 5 5 5 5 5 5 3 5 5 5 5 5 5 5 5 5 5 5 5 5 5 5 5 5 3 5 5 5 5 5 5 5 3 5 5 3 5 5 5 5 5 5 3 5 5 5 5 5 5 5 5 5 5 5 5 5 3 5 5 5 5 5 5 5 5 3 5 5 3 5 5 5 5 5 5 5 5 5 5 5 5 5 5 5 5 5 5 5 5 5 5 5 5 5 5 3 5 5 5 3 5 5 5 3 5 3 5 3 5 5 5 5 5 5 5 5 5 5 5 5 5 5 5 5 5 5 3 5 5 5 5 3 5 5 5 3 3 5 5 5 5 5 5 5 5 3 3 5 5 5 5 5 5 5 5 3 5 3 5 3 3 3 3 5 5 5 3 5 3 5 5 5 5 5 5 5 5 5 5 5 5 3 5 5 5 5 5 5 5 5 5 5 5 5 5 5 5 3 5 5 5 5 5 5 5 5 5 3 5 5 5 3 5 5 5 5 5 5 5 5 3 5 5 5 5 5 5 5 5 5 3 5 5 5 5 5 5 3 5 3 5 5 5 5 5 5 5 5 3 5 3 5 5 5 5 5 5 5 5 5 5 5 5 5 5 5 5 3 5 5 5 5 5 5 5 5 5 5 5 5 5 3 5 5 5 5 3 5 5 5 5 5 5 5 5 5 3 5 5 5 5 5 5 3 5 5 5 5 5 5 5 3 5 5 3 5 5 3 5 5 5 5 5 5 5 5 5 5 5 5 5 5 5 5 5 5 5 5 5 5 5 5 5 5 5 3 5 5 3 5 5 5 5 5 3 5 5 5 5 5 5 5 5 5 5 3 5 5 5 5 3 5 5 5 5 5 5 5 5 5 5 5 5 5 5 3 5 5 5 5 3 5 5 5 5 5 5 5 5 5 5 3 5 5 3 5 5 5 5 5 5 5 3 5 5 5 5 5 5 3 5 5 5 5 5 5 5 5 5 5 5 5 5 5 5 5 5 5 5 5 5 5 5 5 5 5 5 5 5 5 5 5 5 5 5 3 5 5 5 5 3 5 5 5 5 5 5 5 5 5 5 5 5 5 5 5 3 5 5 5 5 3 5 5 5 5 5 5 3 5 5 5 5 5 3 5 5 5 5 5 5 5 5 5 5 5 5 5 5 5 5 5 5 5 5 5 5 5 5 5 5 5 5 5 5 5 5 3 5 5 5 3 5 5 3 5 5 5 5 5 5 3 5 5 5 5 5 5 5 5 5 3 5 5 5 5 5 5 5 3 5 5 5 5 5 5 3 3 5 5 5 5 3 5 5 5 5 3 3 5 3 5 5 5 5 5 5 5 3 5 5 3 5 5 5 5 5 5 3 5 5 5 5 5 3 3 5 5 5 3 5 5 5 5 5 5 5 5 5 5 5 3 5 5 5 5 5 5 5 5 5 5 5 5 5 5 5 5 5 5 5 3 5 5 5 5 5 5 5 5 5 5 5 5 5 5 5 5 5 5 5 5 5 5 5 5 5 5 5 5 5 5 5 5 5 5 5 5 5 5 5 5 5 3 5 5 5 5 5 5 3 5 5 5 5 5 5 5 5 5 5 5 5 5 5 5 5 5 5 5 5 5 5 5 5 5 5 5 3 5 5 5 5 3 5 5 5 5 5 5 5 5 5 5 5 5 5 5 5 5 5 3 5 5 5 5 5 5 5 5 5 5 3 5 3 5 5 3 5 3 5 5 3 5 5 5 5 3 5 5 5 5 5 3 5 3 3 5 5 5 3 3 5 5 5 5 5 5 5 5 5 5 5 5 5 3 5 5 5 5 5 5 5 5 5 5 5 5 5 5 5 5 5 5 5 5 5 5 5 5 5 5 5 5 5 5 5 5 5 5 5 5 5 5 5 5 3 5 5 5 3 5 5 5 5 3 5 5 5 5 5 5 5 5 5 5 5 5 3 5 3 5 5 5 5 5 5 3 5 5 3 5 5 5 5 3 5 5 5 5 5 5 5 5 5 5 5 5 5 5 5 5 5 5 5 5 5 5 5 5 3 5 5 3 5 5 5 5 5 5 3 5 5 5 5 5 5 5 5 5 5 5 5 5 5 5 5 5 5 5 5 5 3 5 5 5 5 5 5 5 5 5 3 5 5 5 3 5 5 5 3 5 5 5 3 5 5 5 5 3 5 3 5 5 5 5 3 3 5 5 5 5 5 5 5 5 5 5 5 5 5 5 5 3 3 5 5 5 3 5 5 5 5 5 5 5 5 5 5 5 5 3 5 5 5 3 3 5 5 5 5 5 3 5 5 5 5 5 5 5 5 5 5 5 5 5 5 5 5 5 5 5 5 3 5 5 3 3 5 5 5 5 5 5 5 3 3 3 5 5 5 3 3 5 5 5 5 3 5 3 5 5 5 5 5 5 5 5 5 5 5 5 3 5 5 5 3 5 5 5 5 5 3 5 5 3 5 3 5 5 5 5 5 5 5 5 5 5 5 5 5 5 5 5 5 5 5 5 5 5 5 3 5 3 5 5 3 5 5 3 5 5 5 5 5 5 5 5 5 5 5 5 5 5 5 5 5 5 5 5 5 5 5 5 5 5 5 5 3 5 5 5 5 5 5 5 5 5 5 5 5 5 5 5 5 3 5 5 5 5 5 3 5 5 5 5 3 5 5 3 5 5 5 3 5 5 5 5 5 5 5 3 5 5 5 5 5 5 3 5 5 3 5 3 3 5 5 5 5 5 5 5 5 3 5 5 3 5 3 5 5 5 3 5 5 5 3 5 5 5 3 3 5 3 5 3 5 5 3 5 3 5 3 3 5 5 5 5 5 3 5 5 5 5 5 5 5 3 5 5 5 5 5 5 5 5 5 5 5 5 5 5 5 5 5 5 5 5 5 5 5 5 5 5 5 5 5 5 5 5 5 5 5 5 3 5 5 5 5 5 5 3 5 5 5 5 5 5 5 5 5 5 5 5 5 5 5 5 5 5 5 5 3 5 5 5 5 5 5 5 5 5 5 5 5 5 3 5 5 5 5 5 5 5 5 5 5 5 5 5 5 5 5 5 3 5 5 3 5 5 5 5 5 5 5 5 3 5 5 5 5 5 5 5 5 5 5 5 5 5 5 5 5 3 5 5 5 5 5 3 5 3 5 3 5 5 3 5 3 3 5 5 5 3 5 5 5 5 5 5 5 5 3 5 5 5 5 5 5 5 3 5 3 5 5 5 5 5 5 5 5 5 5 3 3 5 5 5 3 5 5 5 3 5 3 5 5 3 5 5 5 5 3 5 5 3 5 5 5 5 5 5 3 3 5 5 5 5 5 5 5 5 3 5 5 5 5 5 3 5 3 5 5 5 5 5 5 3 5 5 5 5 5 5 3 5 5 5 5 5 5 3 5 5 5 5 5 5 3 5 3 5 5 5 5 5 3 5 3 5 5 5 5 5 5 5 5 5 3 5 5 5 5 5 5 5 5 3 5 3 5 3 5 5 3 3 5 3 5 5 5 5 5 3 5 3 5 5 5 5 5 5 5 5 5 5 5 5 5 5 5 5 5 5 5 5 3 5 5 3 5 5 5 5 5 5 5 5 5 5 5 5 5 5 5 5 5 5 5 3 5 5 3 5 5 5 5 5 5 5 3 3 5 5 3 5 3 5 5 5 5 3 3 5 3 5 5 5 5 5 5 5 3 5 5 5 5 5 3 3 5 3 3 5 3 3 5 5 5 5 5 5 5 5 5 5 5 3 5 5 5 5 5 3 3 5 5 5 5 5 5 5 5 5 5 5 3 5 5 5 5 3 5 5 5 5 3 5 5 5 5 5 5 5 5 3 5 3 5 5 5 5 3 5 5 5 5 5 5 5 5 5 5 5 5 3 5 5 3 5 5 5 5 5 5 5 5 5 5 5 5 5 3 5 5 5 3 5 5 5 5 3 3 5 5 5 5 5 5 5 5 5 5 5 5 5 3 5 5 5 5 5 5 5 5 5 5 5 5 5 5 5 3 3 5 5 5 5 5 5 5 5 5 5 5 5 5 5 5 5 5 5 5 5 5 5 5 5 3 5 3 5 5 5 5 5 5 5 5 5 5 5 5 5 5 5 5 5 5 5 5 5 5 5 3 3 5 3 3 5 5 5 5 5 3 5 3 5 5 5 5 5 5 5 5 5 5 5 5 5 5 5 5 3 5 5 3 5 3 5 3 5 5 5 5 5 5 5 3 5 5 5 5 5 5 5 5 5 5 5 5 5 5 5 3 5 5 5 3 5 5 5 5 3 3 5 5 3 5 5 5 5 5 5 5 5 3 5 5 3 5 3 5 5 5 3 5 5 3 5 3 5 5 3 5 5 5 3 5 5 5 5 3 3 5 5 5 5 5 5 5 5 5 5 5 5 3 5 5 5 5 5 3 5 5 5 5 5 5 3 5 3 5 5 5 5 5 5 5 5 5 5 3 5 5 3 5 5 5 5 5 5 5 5 5 3 3 5 5 5 5 5 3 5 5 5 3 5 3 5 5 5 5 5 5 3 5 5 5 3 5 5 5 5 5 5 5 5 5 5 5 5 5 5 5 5 5 5 5 5 5 5 5 5 5 5 5 5 5 3 5 5 5 5 5 5 3 5 5 5 5 5 5 3 5 3 5 5 3 3 5 5 3 5 5 5 5 5 5 5 5 5 5 5 5 5 5 5 5 5 5 5 5 5 5 5 5 5 5 5 5 3 5 5 5 5 5 5 5 5 5 5 5 5 5 5 5 5 5 5 5 5 5 5 5 5 5 5 5 5 5 5 5 5 3 5 5 5 3 5 5 5 5 5 5 3 5 5 5 5 5 5 5 5 5 5 5 5 5 5 5 5 5 5 3 5 3 5 5 5 5 5 5 5 5 5 5 5 5 5 5 5 5 5 5 5 5 5 5 5 5 5 3 3 3 3 3 3 5 5 5 5 3 5 5 3 5 5 5 5 5 5 5 5 5 3 5 5 5 3 5 5 3 5 3 5 3 5 3 5 3 5 5 5 5 5 5 3 5 5 3 5 5 5 5 5 3 5 5 5 5 5 3 5 5 5 5 5 5 3 5 5 5 5 5 5 5 3 5 5 5 3 5 5 5 5 5 5 5 5 5 5 5 5 3 5 5 3 5 5 5 5 3 5 3 5 5 5 3 5 5 5 5 5 3 5 3 5 5 5 5 5 5 5 5 5 3 5 5 3 5 5 3 5 5 3 3 5 5 5 5 5 3 3 3 5 5 5 5 5 5 3 5 5 5 5 5 5 5 5 5 5 5 5 5 5 5 5 5 5 5 5 5 5 5 5 5 5 5 5 5 5 5 5 5 5 5 5 5 5 3 5 5 5 5 5 3 3 5 5 5 3 5 5 5 3 5 3 5 3 5 3 3 5 3 5 5 5 5 3 5 5 5 5 5 5 5 5 5 5 5 5 5 5 5 5 5 5 5 5 5 5 5 5 5 5 5 5 5 5 3 5 5 5 5 5 5 5 5 5 5 5 5 5 5 5 5 5 3 5 5 5 5 5 3 5 5 5 5 3 5 5 5 5 5 5 5 3 5 5 5 5 5 5 5 5 5 5 5 5 3 5 5 5 5 5 5 5 5 5 5 5 5 3 5 5 5 5 3 3 5 3 5 5 5 5 3 5 5 3 5 5 5 5 5 5 5 3 5 5 5 5 5 5 5 5 5 5 5 5 3 5 5 5 3 3 5 5 5 3 5 5 5 5 5 5 5 3 5 5 5 3 5 5 3 5 5 5 5 5 5 3 5 5 5 5 5 5 5 5 5 5 5 5 5 3 5 5 5 5 3 5 5 5 5 5 5 5 5 5 5 3 5 5 5 3 5 3 5 5 5 5 5 5 5 5 5 5 5 5 5 5 5 5 5 5 5 5 5 5 5 5 5 3 5 5 5 5 5 5 5 5 5 5 5 5 5 5 3 5 3 5 5 3 5 5 5 5 5 5 3 3 5 5 5 5 5 3 5 5 5 3 3 5 3 5 5 5 5 3 5 3 5 5 3 5 5 5 3 3 5 3 5 3 5 3 5 5 5 5 3 5 5 5 5 3 5 5 5 5 5 5 5 5 5 5 5 5 5 5 5 5 5 5 5 3 5 5 5 5 5 3 5 3 5 5 3 5 5 5 5 5 5 3 5 5 5 3 3 5 5 5 3 5 5 5 5 3 5 5 5 5 5 5 5 5 5 5 5 5 5 5 5 5 5 5 5 5 5 5 5 5 5 5 5 5 3 5 5 5 5 5 5 5 3 5 5 5 3 5 5 3 5 5 3 5 3 5 5 3 5 3 3 5 3 5 3 5 5 5 5 5 3 5 3 5 5 5 3 5 5 5 5 3 5 5 5 5 5 3 5 5 5 5 5 5 5 5 5 5 5 5 5 5 5 5 5 5 5 5 5 5 5 5 5 5 5 5 5 5 5 5 5 5 5 5 5 5 5 5 5 5 5 5 5 5 5 3 5 5 5 5 5 5 5 5 5 5 5 5 5 5 5 5 5 5 5 5 5 5 5 5 3 5 5 5 5 5 5 5 5 5 5 5 5 5 5 5 3 5 5 5 3 5 5 5 5 5 5 5 5 5 5 5 5 5 3 5 5 5 5 5 5 5 5 5 5 5 5 5 5 5 5 5 5 5 5 5 5 5 5 5 5 5 5 5 3 5 5 5 5 3 5 3 5 5 5 5 3 5 5 5 3 5 5 5 3 5 5 5 5 3 5 3 5 5 5 5 5 5 5 3 5 5 5 5 3 5 5 5 5 5 5 5 5 5 5 5 5 5 5 5 5 5 5 5 5 5 5 5 5 5 5 5 5 5 5 3 5 5 5 5 5 5 3 5 5 3 5 5 5 5 3 3 3 5 5 3 5 5 5 3 3 5 3 5 5 5 3 5 5 5 5 5 5 5 5 5 3 5 3 5 5 5 5 5 5 5 5 5 5 3 5 5 5 5 5 5 5 5 5 5 5 3 5 5 5 5 5 5 5 5 5 5 5 5 5 5 5 5 5 5 5 5 5 5 5 5 3 5 5 5 5 5 5 5 5 5 3 5 5 5 5 5 5 5 5 5 5 5 5 5 5 5 5 3 3 5 3 5 3 5 5 3 5 5 5 3 3 3 5 5 3 5 3 3 5 5 5 5 3 5 3 3 3 5 5 5 5 5 3 5 5 3 3 5 5 5 5 3 5 3 5 5 3 5 5 5 5 5 5 5 5 5 5 5 5 5 5 5 5 5 5 5 5 5 5 3 5 5 5 3 5 3 3 5 5 3 5 5 3 5 5 5 5 3 5 3 5 5 5 5 5 5 5 5 5 3 5 5 5 5 5 5 5 5 3 5 3 5 5 5 5 5 5 5 5 5 5 5 5 5 5 3 5 5 5 3 5 3 5 5 5 3 5 5 5 5 5 5 5 5 5 5 5 3 5 5 5 5 5 5 5 5 5 5 5 5 5 5 5 5 5 5 3 5 3 5 5 5 3 3 5 5 5 5 5 5 5 5 5 3 5 5 5 5 5 3 5 5 5 3 5 3 5 3 5 3 5 5 5 5 5 5 5 5 3 5 5 5 3 3 5 5 5 5 5 3 3 5 5 5 3 5 3 5 5 5 5 5 5 5 5 3 3 5 5 5 5 3 5 5 5 5 3 5 5 5 5 5 5 5 5 5 5 5 3 5 5 5 5 5 5 5 5 5 3 5 5 5 5 5 5 5 3 5 5 3 5 5 3 3 3 5 5 5 3 5 5 5 3 5 5 5 5 5 5 5 5 5 5 5 3 5 3 5 3 5 5 3 5 5 5 5 5 5 5 5 5 5 3 5 5 3 5 5 3 5 5 3 5 3 5 5 5 5 5 5 5 5 5 5 5 5 5 5 3 5 5 5 5 5 5 5 5 5 5 5 5 5 5 5 5 5 5 3 5 5 5 5 5 3 5 3 5 5 5 5 5 5 5 5 5 3 5 5 5 5 3 5 5 5 5 5 5 5 5 3 5 3 5 5 5 3 5 5 3 5 5 3 5 5 5 3 5 5 5 5 5 5 5 3 5 5 5 5 5 5 5 5 5 5 5 5 5 5 5 5 5 5 5 5 5 5 5 5 5 5 5 5 5 5 5 5 3 5 5 3 5 5 5 3 5 3 5 5 5 5 5 5 5 5 3 5 5 5 5 5 5 5 5 5 5 5 5 5 5 5 5 5 5 5 5 5 5 5 5 5 5 3 5 5 3 5 5 5 5 5 5 5 5 5 5 5 5 5 5 5 5 5 5 5 5 5 5 3 5 5 5 5 5 5 5 5 5 5 5 5 5 3 5 5 5 5 5 5 5 5 5 5 5 5 3 5 3 5 5 3 3 5 5 5 5 5 3 5 3 5 5 3 5 3 5 5 3 3 3 5 5 3 5 5 5 3 3 5 5 5 5 5 5 5 5 5 5 5 5 5 5 3 5 5 5 5 3 5 3 3 5 5 5 3 5 3 5 5 5 3 3 5 5 5 3 5 3 5 3 5 3 5 5 3 5 3 5 5 3 5 5 5 5 5 5 3 5 5 5 5 5 5 5 5 5 5 5 5 5 5 5 5 5 5 5 3 5 5 5 5 5 3 5 5 5 3 3 5 5 3 5 5 5 5 3 5 5 5 5 5 5 5 5 5 3 5 5 5 3 3 5 3 5 5 5 5 5 5 5 3 5 3 5 5 5 5 5 5 5 5 3 5 5 5 5 5 5 5 5 5 5 5 3 5 5 5 5 5 5 5 5 5 3 5 5 3 5 5 5 5 5 5 5 5 5 5 5 5 5 5 5 5 5 5 5 5 5 5 5 5 5 5 5 5 5 5 5 5 5 5 5 5 5 5 5 5 5 5 5 5 5 5 5 5 5 5 3 5 5 5 5 5 5 5 5 5 5 5 5 5 5 5 5 5 5 3 5 5 5 5 5 5 5 5 5 5 5 3 5 5 5 5 5 3 5 5 5 5 5 5 5 5 5 5 5 5 5 5 5 5 5 3 5 5 3 5 5 5 5 5 5 5 5 5 5 3 5 5 3 5 3 5 5 5 5 5 5 5 3 5 3 5 5 3 5 5 5 5 5 3 3 5 5 5 5 5 5 5 5 5 5 5 5 5 5 3 5 3 5 5 3 5 5 5 5 5 5 5 5 3 5 5 3 5 5 5 5 5 3 5 5 5 3 3 5 5 5 3 5 3 3 5 5 5 3 5 5 5 3 5 5 3 3 3 5 3 3 5 5 5 5 5 3 5 3 5 3 5 3 5 5 3 5 3 5 5 3 3 5 5 5 3 5 5 3 5 5 5 5 5 5 5 5 5 5 5 5 3 5 5 5 5 5 5 5 5 5 5 5 5 3 5 5 5 5 5 5 5 5 5 3 5 5 5 3 5 5 5 5 5 5 3 5 3 5 5 5 5 5 5 5 5 5 5 5 5 5 5 5 3 5 5 5 5 5 3 5 3 5 5 3 5 5 5 5 5 5 5 5 5 5 5 5 5 5 5 5 5 5 5 5 5 5 5 5 5 5 5 5 5 5 5 5 5 5 5 5 5 5 5 5 5 5 5 5 5 5 5 5 5 5 5 5 5 5 5 5 5 5 5 5 5 5 5 5 5 5 5 5 5 5 5 5 5 5 5 5 3 5 5 5 5 5 5 5 5 5 5 5 5 5 5 5 5 5 5 5 3 5 5 5 5 5 3 5 5 5 5 5 5 5 5 5 5 5 5 5 5 5 3 5 5 5 5 5 3 5 5 3 5 5 5 5 5 5 5 5 5 5 5 5 5 5 5 5 5 5 5 5 5 5 5 5 5 5 5 5 5 3 5 5 5 5 5 5 5 5 5 5 5 5 5 3 5 3 5 3 3 5 5 5 3 5 5 5 5 5 5 5 5 5 3 5 5 5 5 5 5 5 5 5 5 5 5 5 5 5 5 5 5 5 3 3 5 5 3 5 5 5 5 5 5 5 5 5 5 5 5 5 5 5 3 5 5 3 5 5 5 5 3 5 3 5 5 5 5 5 5 5 5 5 5 5 5 5 3 5 5 5 5 3 5 3 5 5 5 5 5 3 5 5 5 5 5 5 5 5 5 5 5 5 5 5 3 5 5 5 3 5 5 5 5 5 5 5 5 3 5 5 5 5 3 3 5 5 5 5 5 3 5 5 5 5 5 5 5 5 5 5 5 3 5 5 5 5 5 5 3 5 3 5 5 5 5 5 5 5 5 5 5 5 3 5 5 5 3 5 5 5 3 5 3 3 3 5 3 5 3 5 5 5 3 3 5 5 3 5 5 5 3 5 3 5 3 5 5 3 3 3 5 3 5 3 3 5 5 3 5 3 5 5 5 5 5 3 5 3 5 3 5 3 3 5 3 5 5 3 5 5 5 3 5 5 3 5 5 3 5 5 5 5 3 5 5 3 5 3 5 5 5 5 5 5 5 5 5 5 5 3 5 3 5 5 5 5 5 3 5 5 5 5 5 5 5 5 5 5 5 5 5 5 5 5 5 5 5 3 5 5 5 5 3 5 5 5 5 5 5 5 5 5 5 5 5 5 3 5 5 5 5 5 5 5 5 5 5 3 5 5 3 5 5 5 3 3 5 5 5 5 5 3 5 5 5 5 5 5 5 5 5 5 5 5 5 5 5 5 5 5 5 5 5 5 5 5 5 3 5 5 3 5 3 5 5 3 5 5 5 5 5 5 5 5 5 5 5 5 5 5 5 5 5 5 5 5 5 5 5 3 3 5 5 5 5 3 5 5 5 5 5 3 5 5 5 5 5 5 5 5 5 5 5 5 5 5 5 5 3 5 5 5 5 5 5 5 5 5 5 5 5 5 5 5 5 5 5 5 5 5 5 5 3 5 3 5 5 5 5 5 5 5 5 5 5 5 5 5 5 3 5 3 5 5 5 5 5 5 5 5 5 3 5 5 3 5 5 5 5 5 5 5 5 5 5 5 5 5 5 5 5 5 5 5 5 5 5 3 3 5 5 5 5 5 5 5 5 5 5 5 5 5 5 5 5 5 5 5 3 5 5 5 5 5 5 3 5 5 5 5 5 5 5 5 5 3 5 5 5 5 5 5 5 5 5 5 5 5 5 5 5 5 5 5 5 5 5 5 5 5 5 5 5 5 5 5 5 5 5 5 5 5 5 5 5 5 5 5 5 5 5 5 5 5 5 5 5 5 5 5 5 5 3 3 5 3 5 3 3 5 5 5 5 5 5 5 3 5 5 5 5 5 5 5 5 5 3 5 5 3 5 5 5 5 5 5 5 5 5 5 5 5 5 5 5 5 5 5 5 5 5 5 5 5 5 5 5 5 3 5 5 5 5 5 5 5 3 5 5 5 5 5 5 5 5 5 5 5 5 5 5 5 3 5 3 5 5 3 3 3 5 3 5 5 5 3 5 5 5 5 5 5 5 3 5 5 5 5 5 3 5 5 5 5 5 5 5 5 5 5 5 5 5 5 5 5 5 5 5 5 5 3 5 5 5 5 5 5 5 5 5 5 3 5 5 5 5 5 5 5 5 5 5 5 5 5 3 5 5 5 3 3 5 5 5 3 5 5 3 5 5 5 3 5 5 5 5 3 5 5 5 5 5 5 5 5 5 5 5 5 5 5 3 5 5 5 5 5 3 5 5 3 5 5 5 5 5 5 5 5 3 5 5 5 5 3 5 5 5 5 5 5 3 5 5 5 5 3 5 5 5 5 5 5 3 5 5 5 5 5 5 5 5 5 5 5 5 5 5 5 5 5 5 5 5 5 5 5 5 5 5 5 5 5 5 3 5 5 5 5 5 5 5 5 5 5 5 5 5 5 5 5 5 5 5 3 5 3 3 3 5 5 5 5 5 5 3 3 5 5 5 5 5 5 5 5 5 5 3 5 5 5 5 5 5 5 5 5 5 3 5 5 5 5 5 5 3 5 5 5 5 3 5 5 3 5 5 5 3 3 5 5 5 3 5 5 5 5 5 5 5 5 3 5 5 5 5 5 5 3 5 5 3 5 3 3 5 3 5 5 5 5 3 5 5 5 5 5 5 5 5 5 5 5 5 5 5 5 5 5 3 5 5 5 5 5 5 5 5 5 5 5 5 5 5 5 5 5 5 5 5 3 5 3 5 3 5 3 3 5 5 5 5 5 5 5 5 3 5 5 5 5 5 5 5 5 5 5 5 5 5 5 5 5 5 5 3 5 5 5 5 5 5 5 5 5 3 5 5 5 5 5 5 5 5 3 5 5 5 5 5 5 3 5 5 5 3 5 5 3 5 5 5 5 5 3 5 5 5 3 5 5 5 5 5 5 5 5 3 5 5 5 5 5 5 3 5 5 5 5 5 3 5 3 5 3 5 5 3 5 5 5 5 5 5 5 5 5 3 5 5 5 5 5 3 5 5 5 5 5 3 5 5 5 5 5 5 5 5 5 5 5 5 5 5 5 5 5 5 5 5 5 5 5 5 5 5 5 5 5 5 5 5 5 5 3 5 5 3 5 5 5 5 5 5 5 5 5 5 5 5 5 5 5 5 5 5 5 5 5 5 5 5 5 5 5 5 3 5 5 5 5 3 5 5 5 5 3 5 5 5 5 5 5 5 5 5 5 5 5 5 5 5 5 5 5 5 5 5 5 5 5 5 5 5 5 5 3 5 5 5 5 5 5 3 5 5 5 5 5 5 5 5 3 5 3 5 5 5 5 5 5 5 5 5 5 5 3 5 5 5 5 5 3 5 5 5 3 5 5 5 5 5 5 5 5 5 5 5 5 5 5 5 5 5 5 5 5 5 5 3 5 5 5 5 3 5 5 5 5 5 5 5 5 5 5 5 5 5 5 5 5 5 5 5 5 5 5 5 5 5 5 5 5 5 5 5 5 5 3 5 5 5 5 3 5 5 5 5 5 3 5 5 5 3 5 5 5 5 5 5 5 5 5 5 5 5 3 5 5 5 5 5 5 5 5 5 3 3 5 5 5 5 5 5 5 5 5 5 5 5 3 5 3 3 5 5 5 5 5 3 5 5 5 5 5 5 3 5 5 3 5 3 5 5 5 5 5 5 5 5 5 5 5 5 5 5 5 5 5 5 5 5 5 5 5 5 5 5 5 5 5 5 5 5 5 5 3 5 5 3 3 5 5 5 3 5 5 5 5 5 5 5 3 3 3 3 5 5 3 5 5 3 5 3 5 5 5 5 5 5 5 5 5 5 5 5 5 5 5 5 5 5 5 5 5 5 5 5 5 5 5 5 5 5 5 5 5 5 5 3 5 5 5 5 3 5 5 5 5 5 5 5 5 5 3 5 5 5 5 5 3 5 5 5 5 3 5 5 5 5 3 5 5 5 5 3 5 5 5 5 5 5 5 5 5 5 5 5 5 5 5 5 5 5 5 5 3 5 5 3 5 3 5 5 5 5 5 5 5 5 5 5 3 5 5 5 5 3 5 5 3 3 5 5 5 5 5 5 5 5 5 5 5 5 5 5 5 3 5 5 5 5 5 5 5 5 5 5 5 5 5 5 3 3 5 5 3 5 5 5 5 5 5 5 5 5 5 5 5 5 5 5 5 5 3 5 5 5 5 3 5 5 5 5 5 5 5 5 5 3 5 5 5 5 5 3 3 5 5 5 3 5 5 5 5 3 5 5 5 5 5 5 3 5 5 5 5 5 5 5 5 5 5 5 5 3 5 3 5 5 5 3 5 3 5 5 5 5 3 3 5 3 5 5 5 5 5 5 5 5 5 3 5 3 5 5 5 3 5 5 5 5 5 5 3 5 5 5 5 5 5 3 5 5 5 3 5 3 5 3 5 3 3 5 5 3 5 5 3 5 3 5 5 5 5 5 5 5 5 5 5 5 5 5 3 5 5 5 5 3 5 5 5 5 5 5 5 5 5 5 5 3 5 3 5 5 3 3 3 5 5 5 3 5 5 3 5 5 5 5 5 5 5 5 5 5 5 3 5 5 5 5 5 5 3 3 5 5 5 5 5 3 5 3 5 5 5 5 5 5 5 5 5 5 5 5 5 5 5 5 5 5 5 5 5 5 5 5 5 5 5 3 5 5 5 5 5 3 5 5 5 5 5 5 5 5 5 3 3 5 5 3 5 5 5 3 5 5 5 5 3 3 5 3 5 5 3 5 5 5 5 5 5 5 5 5 5 5 5 5 5 5 5 5 5 5 5 5 5 5 5 5 5 5 3 3 5 5 3 5 5 5 5 5 3 3 5 3 5 3 5 5 5 5 5 5 3 5 3 5 5 5 5 5 5 5 5 5 5 5 5 5 5 5 3 5 5 5 5 5 5 5 5 3 5 5 5 5 3 5 5 5 5 5 5 5 5 5 5 5 5 3 5 5 5 5 5 5 5 5 5 5 5 5 5 5 5 5 5 5 5 5 5 5 5 5 5 5 5 5 5 5 5 5 5 5 5 5 5 5 3 5 5 5 5 5 5 5 5 5 5 5 5 5 5 5 5 3 5 5 5 5 3 5 5 5 5 5 5 5 5 5 5 5 3 5 5 5 5 5 5 5 5 3 5 5 5 5 3 5 5 5 3 5 5 5 5 5 5 5 5 5 5 5 5 5 5 5 5 3 5 5 5 5 5 5 3 5 5 5 5 5 3 5 5 5 5 3 3 5 3 3 5 5 5 5 5 5 5 5 5 5 5 5 5 5 5 5 5 5 5 5 5 3 5 5 5 5 5 3 5 5 5 5 5 5 5 5 5 5 5 5 5 5 5 5 5 5 5 3 5 5 5 3 5 5 3 3 5 5 5 3 5 3 5 5 3 5 5 5 5 5 5 3 5 3 5 5 5 3 5 5 3 3 5 3 5 5 5 5 5 5 3 5 5 5 5 5 5 5 3 3 3 5 5 5 3 5 5 5 5 3 5 5 5 5 3 5 3 5 5 5 5 5 5 5 5 5 5 5 5 5 5 3 5 5 3 5 5 5 5 3 5 5 5 5 5 5 3 5 5 5 5 5 5 5 5 3 5 5 3 5 5 5 3 3 5 5 5 5 5 5 5 3 3 5 5 3 5 5 5 5 5 3 5 5 5 5 5 5 3 5 5 3 5 5 5 3 5 5 5 5 5 3 5 5 5 5 5 5 5 5 5 5 5 5 5 5 5 5 5 5 5 5 5 5 3 5 5 5 5 5 3 3 5 3 5 3 3 5 3 5 5 5 5 5 3 5 5 5 5 5 3 5 3 5 5 3 5 5 3 3 5 5 5 5 3 3 5 5 5 3 5 3 5 3 5 5 3 5 5 5 3 5 5 5 5 5 5 3 5 5 3 3 5 3 5 5 3 5 5 5 5 5 5 5 5 3 5 5 5 5 5 5 5 5 5 5 5 5 5 3 5 5 5 3 5 5 5 5 3 5 5 5 5 5 5 5 5 5 5 5 5 5 5 5 5 5 5 5 5 5 3 5 5 5 5 3 5 5 5 5 5 5 5 5 5 5 5 5 5 5 5 5 5 5 5 5 5 5 5 5 5 3 5 5 5 5 3 5 5 5 5 5 5 5 3 5 3 5 5 5 5 5 5 5 3 5 5 3 5 5 5 5 3 5 5 5 5 5 5 5 5 3 5 5 5 3 5 3 5 5 5 5 5 3 5 3 5 5 5 5 3 5 5 3 5 5 5 5 5 3 5 5 5 5 5 5 5 3 5 5 3 5 5 5 5 5 5 5 5 5 3 3 5 5 3 5 5 5 5 5 5 5 3 3 3 5 5 3 5 5 5 3 5 5 5 3 5 5 5 5 5 5 5 5 3 5 3 5 5 5 3 5 5 5 5 5 5 5 3 5 5 5 5 5 5 5 5 5 3 5 5 5 5 5 5 5 5 5 5 5 5 5 5 5 3 5 5 5 5 5 5 3 5 5 5 3 3 5 5 5 5 5 5 5 5 5 3 5 5 5 5 5 5 3 5 5 3 5 3 5 5 5 5 5 5 5 5 5 5 5 5 5 5 5 5 5 5 3 5 5 5 5 5 3 5 3 5 5 5 5 5 5 3 5 3 5 5 5 3 5 5 5 5 3 5 5 5 5 5 3 5 5 5 5 5 5 5 5 5 3 5 3 3 5 5 5 5 5 3 5 5 5 5 5 5 5 3 5 3 3 3 5 5 5 5 5 3 5 5 3 5 5 5 5 5 3 5 5 3 5 5 5 5 5 5 5 5 5 5 5 3 3 5 5 5 5 3 5 5 5 5 5 5 5 5 5 5 5 5 5 5 5 5 5 5 5 5 5 3 5 5 5 5 5 5 5 3 5 5 5 5 5 3 3 3 5 5 5 5 5 5 3 5 3 5 5 5 3 5 5 5 5 5 5 5 5 5 5 5 3 3 5 5 5 5 5 3 5 5 5 5 5 5 5 3 5 5 5 5 5 5 5 5 5 5 5 5 3 5 5 5 5 5 5 5 5 5 5 5 5 5 5 3 5 5 5 5 5 5 5 5 3 5 5 5 5 5 5 5 5 5 5 5 5 5 5 3 5 5 5 5 5 5 3 5 5 5 3 5 5 3 5 5 5 3 5 3 3 3 3 5 5 3 3 5 5 5 3 5 5 3 5 3 5 5 5 5 5 5 5 5 3 3 5 5 3 5 5 3 5 5 5 5 3 5 5 5 5 5 5 3 5 5 5 5 5 5 5 3 5 5 5 5 5 3 5 5 3 3 5 5 5 5 5 5 5 5 5 5 5 5 5 5 5 5 5 5 3 5 5 5 5 5 5 5 5 5 5 5 5 5 5 5 5 5 5 5 5 3 5 5 5 5 5 5 5 5 5 5 5 5 5 3 5 5 5 5 3 5 5 5 5 5 3 5 5 5 5 5 5 5 5 5 5 5 5 5 5 5 5 5 5 5 5 5 5 5 5 5 5 5 5 5 5 5 5 5 5 5 5 5 5 5 5 5 5 5 5 5 5 5 5 5 3 5 5 5 5 5 5 5 5 5 5 5 5 5 5 5 5 5 5 5 5 5 5 5 5 5 5 5 5 5 5 5 3 5 5 5 5 5 5 5 5 3 5 5 5 5 5 5 3 5 5 5 5 5 5 3 5 5 3 5 5 5 5 3 5 5 3 5 5 5 5 5 5 5 5 5 5 5 5 5 5 5 5 5 5 5 5 3 5 5 5 5 5 5 5 5 5 5 5 5 3 5 3 5 5 5 5 5 5 5 5 5 5 5 5 5 5 5 3 5 5 3 5 5 5 5 5 5 5 5 5 5 5 5 5 5 5 3 3 5 5 5 5 3 5 3 5 5 5 3 5 5 3 5 5 5 3 3 5 3 5 5 3 5 5 3 5 5 5 5 5 5 5 5 5 5 5 5 5 5 5 5 5 5 5 5 5 5 5 3 3 5 5 5 3 5 5 3 5 3 3 5 3 5 3 5 3 5 3 5 3 5 5 5 3 5 5 5 5 5 5 5 5 5 5 3 5 5 5 5 5 5 5 5 3 5 5 5 5 5 5 5 5 5 5 5 5 5 5 5 5 5 5 5 5 5 5 5 5 5 5 3 5 5 3 5 5 5 5 5 5 5 3 5 3 5 5 5 5 5 5 5 5 5 3 5 3 3 5 5 5 5 5 5 5 5 5 5 5 5 5 5 5 5 5 3 3 5 5 5 5 5 5 5 5 5 5 5 5 5 3 3 3 5 5 5 5 5 5 5 5 5 5 5 5 3 5 5 3 5 5 5 5 5 5 3 5 5 5 3 5 3 5 5 5 5 3 5 5 5 3 5 5 5 5 5 5 5 5 5 5 5 5 5 5 5 5 5 5 5 5 5 5 5 3 5 3 5 5 5 5 5 5 5 5 5 5 5 3 5 5 5 3 5 5 5 5 5 5 3 5 3 5 5 3 5 5 5 5 3 3 5 5 5 5 5 3 5 5 5 5 5 5 5 5 5 3 5 5 5 5 5 5 5 5 5 3 5 5 5 5 5 5 5 5 5 5 5 3 3 5 5 5 5 5 5 5 5 5 3 5 5 5 5 5 5 5 5 5 5 5 5 5 5 5 5 5 5 3 5 3 5 5 5 5 5 5 5 5 3 5 5 5 5 5 5 5 5 5 5 3 5 5 5 3 5 5 5 5 5 3 5 5 5 5 3 5 5 5 3 5 3 5 3 5 5 3 5 5 5 5 5 5 3 5 5 5 5 5 5 5 3 5 5 5 5 5 5 5 3 5 5 5 5 5 5 5 5 5 5 5 5 5 5 5 5 3 5 5 3 5 3 5 5 5 5 5 5 5 5 3 5 5 5 3 5 5 5 5 5 5 5 5 5 3 3 5 5 3 5 5 5 5 3 5 5 3 5 5 5 5 5 5 5 5 5 3 5 5 3 5 5 5 5 3 5 3 5 5 5 5 5 5 5 5 5 5 5 3 5 3 5 5 3 5 5 5 5 5 3 5 3 5 5 5 3 3 5 5 5 5 5 5 5 3 5 5 5 5 3 5 5 5 5 5 5 5 3 5 5 3 5 5 5 5 3 5 3 3 5 5 3 5 5 5 5 3 5 5 5 5 5 5 3 5 5 5 5 3 5 5 5 5 5 5 3 5 5 3 5 5 3 5 5 5 5 5 3 5 5 5 5 5 3 5 5 5 5 3 5 5 5 5 3 5 5 5 3 5 5 5 5 5 5 5 5 5 5 5 5 5 5 3 5 5 3 5 3 3 5 5 5 5 3 5 3 5 3 5 5 3 3 5 5 5 5 3 5 5 5 3 5 5 3 5 5 5 3 5 5 3 5 5 5 3 5 5 3 5 5 5 5 5 5 5 5 5 5 5 5 5 5 5 5 5 3 5 5 5 5 5 5 5 5 5 5 5 5 5 5 5 5 5 5 5 5 5 5 5 5 5 5 5 5 5 5 3 5 5 5 5 5 5 5 5 5 5 3 3 5 5 5 3 5 5 3 5 5 5 5 5 5 5 5 5 3 5 5 5 5 5 5 5 5 5 5 5 5 5 5 5 5 5 5 5 3 5 5 5 5 3 5 5 3 5 5 5 5 5 5 5 5 5 5 5 5 5 5 5 5 5 5 3 5 5 5 3 5 5 5 5 5 3 5 5 5 5 5 5 5 5 5 5 5 5 5 5 5 5 5 5 5 5 5 5 5 5 5 5 5 5 5 5 5 5 5 5 5 5 5 5 5 5 5 5 5 5 5 5 5 5 5 3 5 5 3 5 3 5 5 3 5 5 5 3 5 5 5 5 5 5 5 5 5 5 3 3 5 5 3 5 5 5 5 5 5 5 5 5 5 5 5 5 5 5 3 3 5 5 5 5 5 5 5 5 5 5 5 3 5 5 5 5 5 5 5 5 5 3 5 5 5 5 5 5 5 5 3 5 5 3 5 5 5 5 3 5 5 5 5 5 3 5 3 5 5 5 5 3 5 5 5 5 3 5 5 3 5 5 5 5 5 5 5 5 5 5 5 5 5 5 5 5 5 3 5 3 5 3 5 5 5 5 5 5 5 5 5 5 5 5 5 5 5 5 5 5 5 5 5 3 5 5 5 5 5 5 5 5 5 3 5 5 5 5 5 5 5 5 5 5 5 5 5 5 5 5 3 3 5 5 5 5 5 5 5 5 5 5 5 5 5 5 5 3 5 5 5 5 5 5 5 5 5 5 5 3 5 5 3 5 5 5 5 5 5 5 5 5 5 5 3 5 3 5 5 5 3 5 5 3 5 5 5 5 5 5 5 5 5 5 5 5 3 3 5 5 5 5 5 5 3 5 5 5 5 5 3 5 5 5 5 5 5 5 5 5 5 5 5 5 5 5 5 5 5 5 5 5 3 3 5 5 5 5 5 5 5 5 5 5 3 3 5 5 5 5 3 5 3 5 3 5 3 5 5 3 3 5 5 5 3 3 5 3 5 5 5 3 5 3 5 5 3 5 5 5 5 5 3 5 5 5 5 5 3 5 3 5 5 5 5 5 5 5 5 5 5 5 3 5 3 3 5 3 5 5 3 5 5 3 5 3 5 5 3 5 5 5 5 5 3 5 5 5 5 5 5 5 5 3 5 5 5 3 5 5 5 5 3 5 3 5 3 5 5 3 5 5 3 3 5 3 5 5 3 3 5 5 3 5 3 5 5 3 3 5 3 5 5 3 5 5 5 3 5 5 3 5 5 5 5 5 5 5 5 5 5 5 5 5 5 5 5 3 5 5 5 5 5 5 5 5 3 5 5 5 3 3 5 5 5 5 3 5 5 3 3 5 5 5 5 5 3 3 5 5 3 3 5 3 5 5 3 5 5 5 5 5 5 5 5 5 5 5 5 5 5 5 5 5 5 5 3 5 5 5 5 5 5 3 5 5 3 5 3 5 5 5 5 5 5 3 5 5 5 3 5 5 5 5 5 5 3 5 3 5 5 5 5 5 5 5 5 3 5 5 5 5 5 5 5 5 5 5 3 5 5 3 5 5 5 5 5 5 5 3 5 5 5 5 5 5 5 5 5 5 5 5 5 5 3 5 5 5 5 5 5 3 5 5 5 5 5 5 5 5 5 5 5 5 5 3 5 5 5 5 5 3 5 5 5 5 5 5 5 3 5 5 5 5 5 5 5 3 5 5 5 5 3 3 3 5 3 5 5 5 5 5 5 3 5 5 5 5 3 5 3 3 3 3 5 3 5 3 3 5 5 5 5 5 5 5 3 5 3 5 5 5 5 5 5 5 3 5 5 5 5 3 5 5 5 5 5 5 3 5 5 5 5 5 5 3 3 5 5 5 5 3 5 3 5 5 5 5 5 5 5 5 5 5 3 5 5 3 5 3 5 5 3 5 3 5 3 5 5 5 5 5 5 5 5 5 5 3 5 5 5 5 5 5 5 5 3 3 5 5 5 3 5 5 5 5 5 5 3 5 3 5 5 5 5 5 3 5 5 5 5 5 5 5 5 5 3 5 5 3 5 5 5 3 5 5 5 5 5 5 3 5 5 5 5 5 5 5 3 5 5 5 5 5 5 5 5 5 5 5 5 3 5 5 5 5 5 3 5 5 3 5 5 5 5 5 5 5 5 5 5 5 5 5 5 5 5 5 5 5 3 5 5 3 5 5 5 5 5 3 5 5 3 5 5 5 5 5 5 5 5 3 5 5 5 3 5 5 5 5 5 5 5 5 5 5 5 5 5 3 5 5 5 5 5 5 5 5 5 5 5 5 5 5 5 5 5 5 5 5 5 5 5 5 5 3 5 5 5 5 5 5 5 3 5 3 5 5 5 3 5 3 5 5 5 3 3 5 5 3 5 3 5 5 5 5 5 3 5 5 5 5 5 3 5 5 5 5 5 5 5 5 5 5 3 5 5 5 3 5 5 5 5 5 5 5 5 5 5 5 5 5 5 5 5 5 3 5 5 3 5 5 3 5 5 5 5 5 5 5 5 5 5 5 5 5 5 5 5 5 5 5 5 5 5 5 5 3 3 5 5 5 5 5 5 3 5 5 5 5 5 5 3 5 5 5 3 5 3 5 3 5 5 5 5 5 5 3 5 5 5 3 5 3 5 5 5 3 5 5 5 5 5 5 5 5 5 5 5 3 5 5 3 5 5 5 3 5 5 5 5 5 5 5 5 5 3 5 5 3 5 5 5 5 3 5 3 5 5 5 5 5 5 5 5 5 5 5 3 5 5 5 3 5 5 5 5 5 5 5 5 5 5 3 5 5 5 5 5 3 5 5 5 5 3 5 5 5 5 5 5 5 5 5 5 5 5 5 5 5 5 5 5 5 5 5 5 3 5 3 5 5 5 5 5 5 5 5 3 5 5 5 5 5 5 5 5 5 5 5 5 5 5 5 5 5 5 5 5 5 5 5 5 5 5 5 3 3 5 5 5 5 5 5 5 5 5 5 5 5 5 5 5 5 5 5 5 5 5 5 5 5 5 5 5 5 5 5 5 5 5 5 5 5 5 5 5 5 5 5 5 5 5 5 5 5 5 5 5 5 5 5 5 5 5 5 5 5 5 5 5 5 5 5 5 5 5 5 5 5 5 5 5 5 5 5 5 3 5 3 5 5 5 5 5 5 5 5 5 3 3 5 3 5 5 3 5 5 5 5 5 5 5 5 5 3 5 5 5 5 5 5 5 3 3 5 5 3 5 3 5 5 3 3 5 5 5 5 5 3 5 5 5 3 5 5 3 5 5 5 5 5 3 5 3 5 5 3 5 5 5 5 3 5 5 5 5 5 5 5 3 5 3 5 5 5 5 5 5 5 5 5 5 5 5 5 5 5 5 5 5 5 5 5 5 5 3 5 5 5 5 5 5 5 5 3 5 3 5 5 5 5 5 5 5 3 5 5 5 5 5 5 5 3 5 5 5 5 5 3 5 5 5 5 5 5 5 3 5 5 5 5 3 5 5 5 5 5 5 5 3 5 5 5 5 5 3 3 5 5 3 3 5 3 5 5 3 5 5 3 5 5 5 5 3 5 3 3 5 5 5 3 5 5 3 5 3 5 5 5 5 5 5 5 5 5 5 5 5 5 5 5 5 3 5 5 5 5 5 3 5 5 5 5 5 3 5 5 3 5 5 5 5 5 5 5 5 5 5 5 5 5 3 5 5 5 3 5 5 5 5 5 5 5 5 5 5 5 5 5 5 5 5 5 3 5 5 5 3 5 5 5 5 5 3 5 5 5 3 5 5 5 3 3 5 5 5 3 5 5 5 5 5 5 5 5 5 5 5 3 5 5 5 5 5 5 5 5 5 5 3 5 5 5 5 5 5 5 5 5 5 5 5 5 5 5 5 5 5 5 5 5 5 5 5 5 5 5 5 5 5 5 5 5 5 5 5 5 5 5 5 5 5 5 5 5 5 5 5 5 5 5 5 5 5 5 5 5 3 5 5 3 5 5 5 5 5 5 5 5 5 5 5 5 3 5 5 5 5 5 5 5 5 5 5 5 3 5 5 5 5 3 5 5 5 5 5 5 5 5 5 5 5 3 5 5 5 5 5 5 5 3 5 5 5 5 3 5 5 5 5 5 5 5 5 5 5 5 5 5 5 5 5 5 5 5 5 3 5 5 5 5 5 3 5 5 3 5 5 5 5 3 5 5 5 5 5 5 5 3 5 5 5 5 5 5 5 5 5 5 5 5 5 5 5 5 3 5 5 5 5 3 5 5 5 5 3 5 5 5 5 3 5 5 5 5 3 5 5 5 5 3 5 5 3 5 5 5 5 3 5 3 5 
</DataArray>
</Cells>
<PointData Scalars="" Vectors="displacement," Tensors="">
<DataArray type="Float64" Name="displacement" NumberOfComponents="3" format="ascii">
0.024998176214730702 3.8752857968360113e-07 0 0.024840277727486763 2.8763311270075035e-05 0 0.024022384463691794 -6.0933315068701869e-07 0 0.024998176214730702 3.8752857968360113e-07 0 0.024840277727486763 2.8763311270075035e-05 0 0.024845018397131359 -6.6379657604403954e-07 0 0.024440915955094577 -9.7445860633548856e-05 0 0.02477464597709024 -3.0445496871873774e-06 0 0.023961923015126622 -0.0002322963077622206 0 0.024136678341789862 -0.0003140559579227731 0 0.024845018397131359 -6.6379657604403954e-07 0 0.023961923015126622 -0.0002322963077622206 0 0.024039217525764107 -0.00028405099919369951 0 0.024050071910552601 -0.00024579380273230257 0 0.023961923015126622 -0.0002322963077622206 0 0.024136678341789862 -0.0003140559579227731 0 0.024039217525764107 -0.00028405099919369951 0 0.024136678341789862 -0.0003140559579227731 0 0.024039217525764107 -0.00028405099919369951 0 0.023973432394579424 -0.00028145995413287635 0 0.024440915955094577 -9.7445860633548856e-05 0 0.023924555007563127 -4.8221801772399115e-05 0 0.023961923015126622 -0.0002322963077622206 0 0.024033423741742926 -0.0002439444150036729 0 0.024050071910552601 -0.00024579380273230257 0 0.024840277727486763 2.8763311270075035e-05 0 0.024140930259553002 -0.00011345914431404742 0 0.024022384463691794 -6.0933315068701869e-07 0 0.023892914717774206 2.6878282972870754e-08 0 0.024019178371169882 9.4287106533355721e-11 0 0.023823037871778849 6.5483205283416627e-12 0 0.023924555007563127 -4.8221801772399115e-05 0 0.02382275110924801 -1.9358421566149608e-07 0 0.023924555007563127 -4.8221801772399115e-05 0 0.024019447466625706 -1.5092136495154948e-07 0 0.023924555007563127 -4.8221801772399115e-05 0 0.023571127914748351 -0.00011367420616209412 0 0.023654528204599051 -0.00010599977551214087 0 0.023820801507435731 -6.7415578259405263e-07 0 0.022928032200398414 5.5031553957728263e-05 0 0.023820801507435731 -6.7415578259405263e-07 0 0.022928032200398414 5.5031553957728263e-05 0 0.022502229259857665 6.7579187384662013e-07 0 0.022681182987137369 1.5260872840522169e-05 0 0.022928032200398414 5.5031553957728263e-05 0 0.022502229259857665 6.7579187384662013e-07 0 0.023571127914748351 -0.00011367420616209412 0 0.022924073407811035 0.00029624515765318607 0 0.024039217525764107 -0.00028405099919369951 0 0.024050071910552601 -0.00024579380273230257 0 0.024037742377951782 -6.9322662407739539e-05 0 0.024039217525764107 -0.00028405099919369951 0 0.023973432394579424 -0.00028145995413287635 0 0.024037742377951782 -6.9322662407739539e-05 0 0.022681182987137369 1.5260872840522169e-05 0 0.022928032200398414 5.5031553957728263e-05 0 0.022811512944083272 2.7362184857925289e-05 0 0.021641019267991279 0.00062468889209319639 0 0.021080931100676645 0.00043075038252519596 0 0.021609060449721041 0.00034875596773448241 0 0.021687989420383434 0.0013001008910785113 0 0.021641019267991279 0.00062468889209319639 0 0.021080931100676645 0.00043075038252519596 0 0.022924073407811035 0.00029624515765318607 0 0.021735012264022965 0.0002916674101501575 0 0.022681182987137369 1.5260872840522169e-05 0 0.022811512944083272 2.7362184857925289e-05 0 0.022463896831990359 -2.4006485064648469e-05 0 0.021687989420383434 0.0013001008910785113 0 0.021641019267991279 0.00062468889209319639 0 0.022432872351307385 0.00070496446370730929 0 0.022463896831990359 -2.4006485064648469e-05 0 0.022502229259857665 6.7579187384662013e-07 0 0.021182151849117654 -6.7333042308410307e-07 0 0.022681182987137369 1.5260872840522169e-05 0 0.022463896831990359 -2.4006485064648469e-05 0 0.022502229259857665 6.7579187384662013e-07 0 0.022200427958679561 0.00049812338198874234 0 0.0223393692841398 0.00049339721668459097 0 0.022164587443151522 0.00046303953907756036 0 0.022200427958679561 0.00049812338198874234 0 0.022432872351307385 0.00070496446370730929 0 0.0223393692841398 0.00049339721668459097 0 0.022200427958679561 0.00049812338198874234 0 0.022432872351307385 0.00070496446370730929 0 0.022092567603589828 0.0004587784117137439 0 0.022432872351307385 0.00070496446370730929 0 0.021609060449721041 0.00034875596773448241 0 0.022092567603589828 0.0004587784117137439 0 0.021641019267991279 0.00062468889209319639 0 0.022432872351307385 0.00070496446370730929 0 0.021609060449721041 0.00034875596773448241 0 0.022432872351307385 0.00070496446370730929 0 0.022912254585077545 0.00036443141764193657 0 0.0223393692841398 0.00049339721668459097 0 0.022924073407811035 0.00029624515765318607 0 0.022353513202724436 0.00083746288660262061 0 0.023353850401948553 0.0004268666573735642 0 0.022432872351307385 0.00070496446370730929 0 0.022912254585077545 0.00036443141764193657 0 0.022924073407811035 0.00029624515765318607 0 0.023678064916507542 -0.0001021040883920544 0 0.023973432394579424 -0.00028145995413287635 0 0.024037742377951782 -6.9322662407739539e-05 0 0.023674790091395927 -0.00020441073371991038 0 0.023353850401948553 0.0004268666573735642 0 0.022912254585077545 0.00036443141764193657 0 0.023674790091395927 -0.00020441073371991038 0 0.022912254585077545 0.00036443141764193657 0 0.022308284401981231 0.00016260649172197808 0 0.023674790091395927 -0.00020441073371991038 0 0.022308284401981231 0.00016260649172197808 0 0.0223393692841398 0.00049339721668459097 0 0.022164587443151522 0.00046303953907756036 0 0.023591090551402447 -0.00027810739132443448 0 0.023592613072086266 -0.0002783277969118987 0 0.022912254585077545 0.00036443141764193657 0 0.022308284401981231 0.00016260649172197808 0 0.0223393692841398 0.00049339721668459097 0 0.024768900846404582 -0.0007446253905087929 0 0.024019921776639201 -0.00040976051271906892 0 0.024833314470136682 -0.00014672109698507887 0 0.024998176214730702 3.8752857968360113e-07 0 0.024845018397131359 -6.6379657604403954e-07 0 0.024999591371916 -1.2681007051301471e-07 0 0.024768900846404582 -0.0007446253905087929 0 0.024833314470136682 -0.00014672109698507887 0 0.025161392669087058 -0.00040926541784892139 0 0.024019921776639201 -0.00040976051271906892 0 0.024511023327638336 -0.00019646607794145633 0 0.024833314470136682 -0.00014672109698507887 0 0.022308284401981231 0.00016260649172197808 0 0.023674790091395927 -0.00020441073371991038 0 0.024019921776639201 -0.00040976051271906892 0 0.023591090551402447 -0.00027810739132443448 0 0.023902420607005852 -0.00039033187604622422 0 0.023973432394579424 -0.00028145995413287635 0 0.023674790091395927 -0.00020441073371991038 0 0.024019921776639201 -0.00040976051271906892 0 0.024136678341789862 -0.0003140559579227731 0 0.023973432394579424 -0.00028145995413287635 0 0.024019921776639201 -0.00040976051271906892 0 0.024019921776639201 -0.00040976051271906892 0 0.024378743217016802 -0.00022778534412172974 0 0.024511023327638336 -0.00019646607794145633 0 0.024136678341789862 -0.0003140559579227731 0 0.024019921776639201 -0.00040976051271906892 0 0.024378743217016802 -0.00022778534412172974 0 0.024378743217016802 -0.00022778534412172974 0 0.024511023327638336 -0.00019646607794145633 0 0.024845018397131359 -6.6379657604403954e-07 0 0.024136678341789862 -0.0003140559579227731 0 0.024378743217016802 -0.00022778534412172974 0 0.024845018397131359 -6.6379657604403954e-07 0 0.024511023327638336 -0.00019646607794145633 0 0.024845018397131359 -6.6379657604403954e-07 0 0.024833314470136682 -0.00014672109698507887 0 0.024845018397131359 -6.6379657604403954e-07 0 0.024833314470136682 -0.00014672109698507887 0 0.024999591371916 -1.2681007051301471e-07 0 0.024833314470136682 -0.00014672109698507887 0 0.024999591371916 -1.2681007051301471e-07 0 0.024998831348412468 1.6757309878371842e-06 0 0.024833314470136682 -0.00014672109698507887 0 0.024998831348412468 1.6757309878371842e-06 0 0.025161392669087058 -0.00040926541784892139 0 0.025000011801835895 -1.7417133517583543e-06 0 0.02518762269014339 -0.00025093110622127003 0 0.024998831348412468 1.6757309878371842e-06 0 0.024975258369775023 7.6499715163538328e-06 0 0.02495878693204967 1.0833697254077288e-05 0 0.024998831348412468 1.6757309878371842e-06 0 0.024975258369775023 7.6499715163538328e-06 0 0.024998748752370393 6.4728572369194481e-06 0 0.024999591371916 -1.2681007051301471e-07 0 0.024998831348412468 1.6757309878371842e-06 0 0.024932315381825967 6.5864246019473783e-08 0 0.024998831348412468 1.6757309878371842e-06 0 0.02495878693204967 1.0833697254077288e-05 0 0.024932315381825967 6.5864246019473783e-08 0 0.024975258369775023 7.6499715163538328e-06 0 0.024949605038442405 2.2873658099979083e-05 0 0.02495878693204967 1.0833697254077288e-05 0 0.024949605038442405 2.2873658099979083e-05 0 0.024998748752370393 6.4728572369194481e-06 0 0.024918240407180013 4.524585369506957e-05 0 0.024975258369775023 7.6499715163538328e-06 0 0.024949605038442405 2.2873658099979083e-05 0 0.024998748752370393 6.4728572369194481e-06 0 0.024940422137991778 8.2996854175754457e-06 0 0.02495878693204967 1.0833697254077288e-05 0 0.024932315381825967 6.5864246019473783e-08 0 0.024940422137991778 8.2996854175754457e-06 0 0.02495878693204967 1.0833697254077288e-05 0 0.024944645083855025 1.997065188141924e-05 0 0.024949605038442405 2.2873658099979083e-05 0 0.02495878693204967 1.0833697254077288e-05 0 0.024945125190800627 2.5010281089731463e-05 0 0.024949605038442405 2.2873658099979083e-05 0 0.024945125190800627 2.5010281089731463e-05 0 0.02493559033036339 3.7798194746944827e-05 0 0.024945125190800627 2.5010281089731463e-05 0 0.024938165253579732 3.2231021655764249e-05 0 0.02493559033036339 3.7798194746944827e-05 0 0.024945125190800627 2.5010281089731463e-05 0 0.024944645083855025 1.997065188141924e-05 0 0.024938165253579732 3.2231021655764249e-05 0 0.02495878693204967 1.0833697254077288e-05 0 0.024945125190800627 2.5010281089731463e-05 0 0.024944645083855025 1.997065188141924e-05 0 0.024940422137991778 8.2996854175754457e-06 0 0.024944645083855025 1.997065188141924e-05 0 0.024935093773333403 2.4428338139445261e-05 0 0.024944645083855025 1.997065188141924e-05 0 0.024935093773333403 2.4428338139445261e-05 0 0.024938165253579732 3.2231021655764249e-05 0 0.024935093773333403 2.4428338139445261e-05 0 0.024928543876143558 3.4701081655242855e-05 0 0.024923247592033817 2.3939104598184103e-05 0 0.024940422137991778 8.2996854175754457e-06 0 0.024935093773333403 2.4428338139445261e-05 0 0.024923247592033817 2.3939104598184103e-05 0 0.024928543876143558 3.4701081655242855e-05 0 0.024938165253579732 3.2231021655764249e-05 0 0.024936683225240584 4.3604415915315912e-05 0 0.024935093773333403 2.4428338139445261e-05 0 0.024928543876143558 3.4701081655242855e-05 0 0.024938165253579732 3.2231021655764249e-05 0 0.02493559033036339 3.7798194746944827e-05 0 0.024936683225240584 4.3604415915315912e-05 0 0.024918240407180013 4.524585369506957e-05 0 0.024697383163978247 0.00013786828968720858 0 0.024889145769530972 4.9491394801605597e-05 0 0.024938165253579732 3.2231021655764249e-05 0 0.02493559033036339 3.7798194746944827e-05 0 0.024936683225240584 4.3604415915315912e-05 0 0.024406141334257392 0.0002283457035842172 0 0.024918240407180013 4.524585369506957e-05 0 0.024771170035439039 0.00038087193837979495 0 0.024928543876143558 3.4701081655242855e-05 0 0.024936683225240584 4.3604415915315912e-05 0 0.024920589755839398 4.601994265491871e-05 0 0.024936683225240584 4.3604415915315912e-05 0 0.024920589755839398 4.601994265491871e-05 0 0.024905473153815173 6.7349701284501493e-05 0 0.024697383163978247 0.00013786828968720858 0 0.0242409374717984 0.00027625881065857655 0 0.024768900846404582 -0.0007446253905087929 0 0.025161392669087058 -0.00040926541784892139 0 0.025194524076343774 -0.0010220295045390022 0 0.02518762269014339 -0.00025093110622127003 0 0.023592613072086266 -0.0002783277969118987 0 0.024998748752370393 6.4728572369194481e-06 0 0.025043000668049816 0.00012731934447387879 0 0.024918240407180013 4.524585369506957e-05 0 0.024949605038442405 2.2873658099979083e-05 0 0.02493559033036339 3.7798194746944827e-05 0 0.024918240407180013 4.524585369506957e-05 0 0.023592613072086266 -0.0002783277969118987 0 0.023232084823775548 -9.7821993732510434e-05 0 0.025043000668049816 0.00012731934447387879 0 0.024918240407180013 4.524585369506957e-05 0 0.024771170035439039 0.00038087193837979495 0 0.023592613072086266 -0.0002783277969118987 0 0.022199574961671829 -1.8088870974388159e-05 0 0.022200427958679561 0.00049812338198874234 0 0.022164587443151522 0.00046303953907756036 0 0.022232771807315744 0.0003977692052607804 0 0.0222358069018837 -0.00090654945934051699 0 0.021691496135096439 -0.0005420846598903447 0 0.022195283173170582 -0.00047259989538500077 0 0.022199574961671829 -1.8088870974388159e-05 0 0.02216779017924652 2.5664255134507007e-05 0 0.022232771807315744 0.0003977692052607804 0 0.022146369124778034 2.984602217897328e-05 0 0.022123471173109092 0.00025247924683346172 0 0.022195283173170582 -0.00047259989538500077 0 0.021894723024081849 -0.00026874443960237226 0 0.022146369124778034 2.984602217897328e-05 0 0.021691496135096439 -0.0005420846598903447 0 0.022195283173170582 -0.00047259989538500077 0 0.021894723024081849 -0.00026874443960237226 0 0.021691496135096439 -0.0005420846598903447 0 0.021894723024081849 -0.00026874443960237226 0 0.021648526435077205 -0.00010355001848957072 0 0.021648526435077205 -0.00010355001848957072 0 0.021905155493246349 9.0089171191402414e-05 0 0.021452304436417855 0.00036302748220168036 0 0.021894723024081849 -0.00026874443960237226 0 0.021905155493246349 9.0089171191402414e-05 0 0.022146369124778034 2.984602217897328e-05 0 0.021894723024081849 -0.00026874443960237226 0 0.021648526435077205 -0.00010355001848957072 0 0.021905155493246349 9.0089171191402414e-05 0 0.021905155493246349 9.0089171191402414e-05 0 0.022078119887859508 8.6121020368825263e-05 0 0.022146369124778034 2.984602217897328e-05 0 0.022078119887859508 8.6121020368825263e-05 0 0.022052950031593386 1.9918618847784335e-05 0 0.022068559369211302 6.7433051470524054e-05 0 0.022078119887859508 8.6121020368825263e-05 0 0.022146369124778034 2.984602217897328e-05 0 0.022068559369211302 6.7433051470524054e-05 0 0.022146369124778034 2.984602217897328e-05 0 0.022123471173109092 0.00025247924683346172 0 0.022068559369211302 6.7433051470524054e-05 0 0.024406141334257392 0.0002283457035842172 0 0.024324975134408212 0.00069971936386305613 0 0.023831406415687893 0.00052329151447256216 0 0.023232084823775548 -9.7821993732510434e-05 0 0.022778683529110059 0.00022837734544321059 0 0.024406141334257392 0.0002283457035842172 0 0.024771170035439039 0.00038087193837979495 0 0.024324975134408212 0.00069971936386305613 0 0.021691496135096439 -0.0005420846598903447 0 0.021648526435077205 -0.00010355001848957072 0 0.021171519871022684 -0.00025185856348977474 0 0.021648526435077205 -0.00010355001848957072 0 0.021328249583214554 4.4932185363202519e-05 0 0.021452304436417855 0.00036302748220168036 0 0.021648526435077205 -0.00010355001848957072 0 0.021171519871022684 -0.00025185856348977474 0 0.021328249583214554 4.4932185363202519e-05 0 0.021171519871022684 -0.00025185856348977474 0 0.021328249583214554 4.4932185363202519e-05 0 0.021032540558624264 0.00021468926540650694 0 0.024324975134408212 0.00069971936386305613 0 0.023919235390158125 0.00068476765697689625 0 0.023839254793626138 0.0010251347333025275 0 0.021171519871022684 -0.00025185856348977474 0 0.021032540558624264 0.00021468926540650694 0 0.020639239141581237 6.3573416559563898e-05 0 0.022778683529110059 0.00022837734544321059 0 0.022021806027217757 0.00047474497646260308 0 0.020870882862955534 0.00047056612642372447 0 0.021032540558624264 0.00021468926540650694 0 0.020632168129817167 0.00032735021930102592 0 0.020870882862955534 0.00047056612642372447 0 0.021032540558624264 0.00021468926540650694 0 0.021121610096209126 0.00049003203078171404 0 0.021328249583214554 4.4932185363202519e-05 0 0.021032540558624264 0.00021468926540650694 0 0.021452304436417855 0.00036302748220168036 0 0.021032540558624264 0.00021468926540650694 0 0.021121610096209126 0.00049003203078171404 0 0.021452304436417855 0.00036302748220168036 0 0.021452304436417855 0.00036302748220168036 0 0.021303060433099524 0.00067802104463382203 0 0.02155397002818071 0.0005910715449992934 0 0.021121610096209126 0.00049003203078171404 0 0.021452304436417855 0.00036302748220168036 0 0.021303060433099524 0.00067802104463382203 0 0.021303060433099524 0.00067802104463382203 0 0.02155397002818071 0.0005910715449992934 0 0.021434923136926399 0.00090685943406217443 0 0.021303060433099524 0.00067802104463382203 0 0.02109946119207164 0.00090675231919658847 0 0.021434923136926399 0.00090685943406217443 0 0.021121610096209126 0.00049003203078171404 0 0.021303060433099524 0.00067802104463382203 0 0.02093790888001993 0.00071680237371162068 0 0.021303060433099524 0.00067802104463382203 0 0.02093790888001993 0.00071680237371162068 0 0.02109946119207164 0.00090675231919658847 0 0.02093790888001993 0.00071680237371162068 0 0.020611508626469509 0.00081539337743399614 0 0.020822424104790693 0.00096207624040337155 0 0.020870882862955534 0.00047056612642372447 0 0.02093790888001993 0.00071680237371162068 0 0.020603539298171009 0.0006008715600599755 0 0.020870882862955534 0.00047056612642372447 0 0.021121610096209126 0.00049003203078171404 0 0.02093790888001993 0.00071680237371162068 0 0.022149878054411546 0.0003591632112149493 0 0.020611432310219877 -0.0001486827521664709 0 0.02173774421779321 0.00046093025480963061 0 0.021748720775937654 0.00061417257812644002 0 0.021919619669788004 0.00046934102545797011 0 0.022049230358229224 0.00021305400275730861 0 0.021992540169626935 -0.00014307105344487883 0 0.022052950031593386 1.9918618847784335e-05 0 0.022078119887859508 8.6121020368825263e-05 0 0.022049230358229224 0.00021305400275730861 0 0.022052950031593386 1.9918618847784335e-05 0 0.021905155493246349 9.0089171191402414e-05 0 0.022078119887859508 8.6121020368825263e-05 0 0.022049230358229224 0.00021305400275730861 0 0.021452304436417855 0.00036302748220168036 0 0.02173774421779321 0.00046093025480963061 0 0.02155397002818071 0.0005910715449992934 0 0.021905155493246349 9.0089171191402414e-05 0 0.021452304436417855 0.00036302748220168036 0 0.022049230358229224 0.00021305400275730861 0 0.021358059262620403 0.00034546444679900846 0 0.022149878054411546 0.0003591632112149493 0 0.02173774421779321 0.00046093025480963061 0 0.02155397002818071 0.0005910715449992934 0 0.021748720775937654 0.00061417257812644002 0 0.02155397002818071 0.0005910715449992934 0 0.021748720775937654 0.00061417257812644002 0 0.021434923136926399 0.00090685943406217443 0 0.018819593743686198 1.4188843656463744e-05 0 0.018987524792534481 0.00023201095009653904 0 0.018819593743686198 1.4188843656463744e-05 0 0.020611432310219877 -0.0001486827521664709 0 0.016312289798211879 -0.00064222576885515929 0 0.016897309245545868 -0.00061876780907094543 0 0.016455139424955668 -0.00033681604132879524 0 0.016312289798211879 -0.00064222576885515929 0 0.016897309245545868 -0.00061876780907094543 0 0.017237174703335117 -0.0012484122243816053 0 0.016897309245545868 -0.00061876780907094543 0 0.01737842012461302 -0.00078117546999084447 0 0.017724194981426973 -0.00041965535121630626 0 0.016897309245545868 -0.00061876780907094543 0 0.01737842012461302 -0.00078117546999084447 0 0.017237174703335117 -0.0012484122243816053 0 0.01737842012461302 -0.00078117546999084447 0 0.017237174703335117 -0.0012484122243816053 0 0.017770180089540805 -0.00081312621028485231 0 0.020611432310219877 -0.0001486827521664709 0 0.021848202454321296 -0.00048101944051272445 0 0.021992540169626935 -0.00014307105344487883 0 0.021966820423385939 -6.3450857172504075e-05 0 0.021790769259980563 -0.00023485693537742813 0 0.021992540169626935 -0.00014307105344487883 0 0.021966820423385939 -6.3450857172504075e-05 0 0.022052950031593386 1.9918618847784335e-05 0 0.017237174703335117 -0.0012484122243816053 0 0.018344662651978497 -0.0011102913240333822 0 0.017770180089540805 -0.00081312621028485231 0 0.022180852516074025 -0.00043403646758429187 0 0.021790769259980563 -0.00023485693537742813 0 0.021321381816353773 -0.000594049425415086 0 0.020611432310219877 -0.0001486827521664709 0 0.019621583429068036 -0.00080473000440963425 0 0.021390872709625905 -0.00010053263436834908 0 0.021790769259980563 -0.00023485693537742813 0 0.021321381816353773 -0.000594049425415086 0 0.021966820423385939 -6.3450857172504075e-05 0 0.021790769259980563 -0.00023485693537742813 0 0.021776554816238861 6.1435545039202218e-05 0 0.021390872709625905 -0.00010053263436834908 0 0.021790769259980563 -0.00023485693537742813 0 0.021776554816238861 6.1435545039202218e-05 0 0.018344662651978497 -0.0011102913240333822 0 0.018318786590826433 -0.00053206618893674915 0 0.017770180089540805 -0.00081312621028485231 0 0.018318786590826433 -0.00053206618893674915 0 0.017770180089540805 -0.00081312621028485231 0 0.017724194981426973 -0.00041965535121630626 0 0.01737842012461302 -0.00078117546999084447 0 0.017770180089540805 -0.00081312621028485231 0 0.017724194981426973 -0.00041965535121630626 0 0.018318786590826433 -0.00053206618893674915 0 0.017724194981426973 -0.00041965535121630626 0 0.018497351740712147 -0.00018982618665173891 0 0.018849662275143807 -0.00020429420769503217 0 0.018903784400809226 -1.4058041224981992e-05 0 0.01977554369382659 -0.0003646955400257689 0 0.018318786590826433 -0.00053206618893674915 0 0.018497351740712147 -0.00018982618665173891 0 0.018849662275143807 -0.00020429420769503217 0 0.018497351740712147 -0.00018982618665173891 0 0.018849662275143807 -0.00020429420769503217 0 0.018791835544759654 -4.7006675693340232e-05 0 0.018849662275143807 -0.00020429420769503217 0 0.018903784400809226 -1.4058041224981992e-05 0 0.018791835544759654 -4.7006675693340232e-05 0 0.018849662275143807 -0.00020429420769503217 0 0.018819077828954749 -0.00054093344386904173 0 0.01977554369382659 -0.0003646955400257689 0 0.018318786590826433 -0.00053206618893674915 0 0.018849662275143807 -0.00020429420769503217 0 0.018819077828954749 -0.00054093344386904173 0 0.018344662651978497 -0.0011102913240333822 0 0.018318786590826433 -0.00053206618893674915 0 0.018819077828954749 -0.00054093344386904173 0 0.018903784400809226 -1.4058041224981992e-05 0 0.019752444515049299 -8.2014154030009659e-07 0 0.01832618626272571 5.3707607572557669e-08 0 0.018903784400809226 -1.4058041224981992e-05 0 0.019752444515049299 -8.2014154030009659e-07 0 0.01977554369382659 -0.0003646955400257689 0 0.019752444515049299 -8.2014154030009659e-07 0 0.01977554369382659 -0.0003646955400257689 0 0.020531549401169753 3.1781177417815349e-05 0 0.018344662651978497 -0.0011102913240333822 0 0.018819077828954749 -0.00054093344386904173 0 0.01977554369382659 -0.0003646955400257689 0 0.019621583429068036 -0.00080473000440963425 0 0.019830094406737903 -0.00050878578648499821 0 0.021321381816353773 -0.000594049425415086 0 0.01977554369382659 -0.0003646955400257689 0 0.020732844374938414 -0.00010475071694700121 0 0.01977554369382659 -0.0003646955400257689 0 0.020732844374938414 -0.00010475071694700121 0 0.020531549401169753 3.1781177417815349e-05 0 0.021390872709625905 -0.00010053263436834908 0 0.021321381816353773 -0.000594049425415086 0 0.020732844374938414 -0.00010475071694700121 0 0.021390872709625905 -0.00010053263436834908 0 0.020732844374938414 -0.00010475071694700121 0 0.021237947734086708 0.00012392010795130763 0 0.020732844374938414 -0.00010475071694700121 0 0.021237947734086708 0.00012392010795130763 0 0.020531549401169753 3.1781177417815349e-05 0 0.021237947734086708 0.00012392010795130763 0 0.020531549401169753 3.1781177417815349e-05 0 0.021039344428585131 0.00016177906051897831 0 0.019752444515049299 -8.2014154030009659e-07 0 0.020531549401169753 3.1781177417815349e-05 0 0.021179490355074326 9.3010193802488798e-07 0 0.020531549401169753 3.1781177417815349e-05 0 0.021179490355074326 9.3010193802488798e-07 0 0.021039344428585131 0.00016177906051897831 0 0.021735012264022965 0.0002916674101501575 0 0.021181514845168975 2.0991875346917805e-07 0 0.021080931100676645 0.00043075038252519596 0 0.021179490355074326 9.3010193802488798e-07 0 0.021039344428585131 0.00016177906051897831 0 0.021080931100676645 0.00043075038252519596 0 0.021039344428585131 0.00016177906051897831 0 0.021609060449721041 0.00034875596773448241 0 0.021237947734086708 0.00012392010795130763 0 0.021039344428585131 0.00016177906051897831 0 0.021609060449721041 0.00034875596773448241 0 0.021237947734086708 0.00012392010795130763 0 0.021609060449721041 0.00034875596773448241 0 0.021708891154854755 0.00024577932592485569 0 0.021609060449721041 0.00034875596773448241 0 0.021708891154854755 0.00024577932592485569 0 0.022092567603589828 0.0004587784117137439 0 0.021708891154854755 0.00024577932592485569 0 0.022092567603589828 0.0004587784117137439 0 0.021986465228936745 0.00027889199750444994 0 0.022200427958679561 0.00049812338198874234 0 0.022123471173109092 0.00025247924683346172 0 0.021986465228936745 0.00027889199750444994 0 0.022200427958679561 0.00049812338198874234 0 0.022232771807315744 0.0003977692052607804 0 0.022123471173109092 0.00025247924683346172 0 0.022200427958679561 0.00049812338198874234 0 0.022092567603589828 0.0004587784117137439 0 0.021986465228936745 0.00027889199750444994 0 0.021986465228936745 0.00027889199750444994 0 0.022068559369211302 6.7433051470524054e-05 0 0.021776554816238861 6.1435545039202218e-05 0 0.022123471173109092 0.00025247924683346172 0 0.021986465228936745 0.00027889199750444994 0 0.022068559369211302 6.7433051470524054e-05 0 0.021966820423385939 -6.3450857172504075e-05 0 0.022052950031593386 1.9918618847784335e-05 0 0.022068559369211302 6.7433051470524054e-05 0 0.021966820423385939 -6.3450857172504075e-05 0 0.022068559369211302 6.7433051470524054e-05 0 0.021776554816238861 6.1435545039202218e-05 0 0.021390872709625905 -0.00010053263436834908 0 0.021237947734086708 0.00012392010795130763 0 0.021776554816238861 6.1435545039202218e-05 0 0.021237947734086708 0.00012392010795130763 0 0.021708891154854755 0.00024577932592485569 0 0.021776554816238861 6.1435545039202218e-05 0 0.021708891154854755 0.00024577932592485569 0 0.021986465228936745 0.00027889199750444994 0 0.021776554816238861 6.1435545039202218e-05 0 0.024951170717511212 -3.5403993661380689e-05 0 0.024948589832989369 -3.3019223064720717e-05 0 0.024957528170898732 -2.5838455398492901e-05 0 0.024951170717511212 -3.5403993661380689e-05 0 0.024957528170898732 -2.5838455398492901e-05 0 0.024961098568394329 -2.8366948929193496e-05 0 0.024951170717511212 -3.5403993661380689e-05 0 0.024961098568394329 -2.8366948929193496e-05 0 0.024950949573142367 -3.8732137764644142e-05 0 0.024951170717511212 -3.5403993661380689e-05 0 0.02494230121545166 -4.1775977942249301e-05 0 0.024950949573142367 -3.8732137764644142e-05 0 0.024951170717511212 -3.5403993661380689e-05 0 0.024944699026484746 -3.9127972065510957e-05 0 0.024948589832989369 -3.3019223064720717e-05 0 0.024951170717511212 -3.5403993661380689e-05 0 0.024944699026484746 -3.9127972065510957e-05 0 0.02494230121545166 -4.1775977942249301e-05 0 0.024944699026484746 -3.9127972065510957e-05 0 0.024948589832989369 -3.3019223064720717e-05 0 0.024939061700682063 -3.8645619927179408e-05 0 0.024948589832989369 -3.3019223064720717e-05 0 0.02494875506108489 -2.5090409292181848e-05 0 0.024939061700682063 -3.8645619927179408e-05 0 0.02494875506108489 -2.5090409292181848e-05 0 0.02496073990712859 -1.379168340505934e-05 0 0.024957528170898732 -2.5838455398492901e-05 0 0.024948589832989369 -3.3019223064720717e-05 0 0.02494875506108489 -2.5090409292181848e-05 0 0.024957528170898732 -2.5838455398492901e-05 0 0.02494875506108489 -2.5090409292181848e-05 0 0.02496073990712859 -1.379168340505934e-05 0 0.024933096983238996 -1.3594416365154076e-05 0 0.02496073990712859 -1.379168340505934e-05 0 0.024957528170898732 -2.5838455398492901e-05 0 0.024968607112585698 -1.8181789421782525e-05 0 0.024957528170898732 -2.5838455398492901e-05 0 0.024961098568394329 -2.8366948929193496e-05 0 0.024968607112585698 -1.8181789421782525e-05 0 0.024961098568394329 -2.8366948929193496e-05 0 0.024968607112585698 -1.8181789421782525e-05 0 0.024970261956074855 -2.0796920801931989e-05 0 0.024968607112585698 -1.8181789421782525e-05 0 0.024973156322758233 -1.7360729560852987e-05 0 0.024970261956074855 -2.0796920801931989e-05 0 0.024968607112585698 -1.8181789421782525e-05 0 0.024979801067810704 -1.0542525674588111e-05 0 0.024977937337680285 -6.4954677636316943e-06 0 0.024968607112585698 -1.8181789421782525e-05 0 0.024973156322758233 -1.7360729560852987e-05 0 0.024979801067810704 -1.0542525674588111e-05 0 0.02496073990712859 -1.379168340505934e-05 0 0.024968607112585698 -1.8181789421782525e-05 0 0.024977937337680285 -6.4954677636316943e-06 0 0.024979801067810704 -1.0542525674588111e-05 0 0.024977937337680285 -6.4954677636316943e-06 0 0.02498899473089692 -3.1180109079677672e-06 0 0.024977937337680285 -6.4954677636316943e-06 0 0.02498899473089692 -3.1180109079677672e-06 0 0.024999956439487356 2.0004003527261453e-09 0 0.02498899473089692 -3.1180109079677672e-06 0 0.024999956439487356 2.0004003527261453e-09 0 0.02499998391176235 -4.6634684564949524e-09 0 0.024977937337680285 -6.4954677636316943e-06 0 0.024999956439487356 2.0004003527261453e-09 0 0.024968552413830648 -5.20375607700949e-06 0 0.02496073990712859 -1.379168340505934e-05 0 0.024977937337680285 -6.4954677636316943e-06 0 0.024968552413830648 -5.20375607700949e-06 0 0.02496073990712859 -1.379168340505934e-05 0 0.024968552413830648 -5.20375607700949e-06 0 0.024933096983238996 -1.3594416365154076e-05 0 0.024968552413830648 -5.20375607700949e-06 0 0.024951025833383569 -1.0947981808509935e-05 0 0.024933096983238996 -1.3594416365154076e-05 0 0.024999956439487356 2.0004003527261453e-09 0 0.024968552413830648 -5.20375607700949e-06 0 0.02499994984418592 -1.0420520030981724e-08 0 0.024968552413830648 -5.20375607700949e-06 0 0.02499994984418592 -1.0420520030981724e-08 0 0.024951025833383569 -1.0947981808509935e-05 0 0.02499994984418592 -1.0420520030981724e-08 0 0.024951025833383569 -1.0947981808509935e-05 0 0.024971917162647565 -1.1392338063432083e-05 0 0.024951025833383569 -1.0947981808509935e-05 0 0.024901954381103042 -1.1748696774180967e-05 0 0.024933096983238996 -1.3594416365154076e-05 0 0.024951025833383569 -1.0947981808509935e-05 0 0.024901954381103042 -1.1748696774180967e-05 0 0.024936486729217468 -1.5986182843464337e-05 0 0.024901954381103042 -1.1748696774180967e-05 0 0.024933096983238996 -1.3594416365154076e-05 0 0.024868167386391537 -5.8340321869958787e-06 0 0.02494875506108489 -2.5090409292181848e-05 0 0.024933096983238996 -1.3594416365154076e-05 0 0.024939061700682063 -3.8645619927179408e-05 0 0.024933096983238996 -1.3594416365154076e-05 0 0.024878238826774798 -8.9174051658014689e-06 0 0.024868167386391537 -5.8340321869958787e-06 0 0.024921685095961991 -2.285635756092048e-05 0 0.02494835295785975 1.2102912293952645e-05 0 0.024878238826774798 -8.9174051658014689e-06 0 0.024868167386391537 -5.8340321869958787e-06 0 0.024854201131327462 -4.0800413255025119e-05 0 0.024901954381103042 -1.1748696774180967e-05 0 0.024903795499949272 -1.1015366848031589e-05 0 0.024832752791900402 4.512417145729932e-07 0 0.024901954381103042 -1.1748696774180967e-05 0 0.024868167386391537 -5.8340321869958787e-06 0 0.024832752791900402 4.512417145729932e-07 0 0.024903795499949272 -1.1015366848031589e-05 0 0.024911909798677859 1.1497059157564005e-05 0 0.024832752791900402 4.512417145729932e-07 0 0.024903795499949272 -1.1015366848031589e-05 0 0.024911909798677859 1.1497059157564005e-05 0 0.024934850863590145 -1.1333345539524793e-05 0 0.024943320705114114 1.5596120877992434e-05 0 0.024934850863590145 -1.1333345539524793e-05 0 0.024958709968273707 -1.5865848998962863e-05 0 0.024911909798677859 1.1497059157564005e-05 0 0.024943320705114114 1.5596120877992434e-05 0 0.024934850863590145 -1.1333345539524793e-05 0 0.024934850863590145 -1.1333345539524793e-05 0 0.024957274663956648 -1.9581553730946201e-05 0 0.024958709968273707 -1.5865848998962863e-05 0 0.024901954381103042 -1.1748696774180967e-05 0 0.024903795499949272 -1.1015366848031589e-05 0 0.024936486729217468 -1.5986182843464337e-05 0 0.024903795499949272 -1.1015366848031589e-05 0 0.024934850863590145 -1.1333345539524793e-05 0 0.024936486729217468 -1.5986182843464337e-05 0 0.024934850863590145 -1.1333345539524793e-05 0 0.024936486729217468 -1.5986182843464337e-05 0 0.024957274663956648 -1.9581553730946201e-05 0 0.024936486729217468 -1.5986182843464337e-05 0 0.024971917162647565 -1.1392338063432083e-05 0 0.024957274663956648 -1.9581553730946201e-05 0 0.024951025833383569 -1.0947981808509935e-05 0 0.024936486729217468 -1.5986182843464337e-05 0 0.024971917162647565 -1.1392338063432083e-05 0 0.02499994984418592 -1.0420520030981724e-08 0 0.024971917162647565 -1.1392338063432083e-05 0 0.024999930641863878 -2.3034976878683308e-09 0 0.024971917162647565 -1.1392338063432083e-05 0 0.024999930641863878 -2.3034976878683308e-09 0 0.02497235489191368 -1.4501024239693813e-05 0 0.024999930641863878 -2.3034976878683308e-09 0 0.02497235489191368 -1.4501024239693813e-05 0 0.024951061448502305 -1.1447711290452457e-05 0 0.024971917162647565 -1.1392338063432083e-05 0 0.02497235489191368 -1.4501024239693813e-05 0 0.024957274663956648 -1.9581553730946201e-05 0 0.024957274663956648 -1.9581553730946201e-05 0 0.024961707279708346 -2.1044092827344062e-05 0 0.024958709968273707 -1.5865848998962863e-05 0 0.02497235489191368 -1.4501024239693813e-05 0 0.024957274663956648 -1.9581553730946201e-05 0 0.024961707279708346 -2.1044092827344062e-05 0 0.024956043808405177 -2.2109065398458341e-05 0 0.024961707279708346 -2.1044092827344062e-05 0 0.024958709968273707 -1.5865848998962863e-05 0 0.024956043808405177 -2.2109065398458341e-05 0 0.024961707279708346 -2.1044092827344062e-05 0 0.024951061448502305 -1.1447711290452457e-05 0 0.024956043808405177 -2.2109065398458341e-05 0 0.024951061448502305 -1.1447711290452457e-05 0 0.024932201610256634 9.4858176475153251e-09 0 0.024955496751423029 -1.7390446220607578e-05 0 0.024948613818713824 -1.1703270308095568e-05 0 0.024999930641863878 -2.3034976878683308e-09 0 0.024951061448502305 -1.1447711290452457e-05 0 0.024932201610256634 9.4858176475153251e-09 0 0.02497235489191368 -1.4501024239693813e-05 0 0.024961707279708346 -2.1044092827344062e-05 0 0.024951061448502305 -1.1447711290452457e-05 0 0.024940422137991778 8.2996854175754457e-06 0 0.024932315381825967 6.5864246019473783e-08 0 0.024932242589573439 1.3742966606994832e-05 0 0.024948613818713824 -1.1703270308095568e-05 0 0.02495149547171107 4.0639843385635032e-06 0 0.024957198104837128 -1.4403665791833335e-05 0 0.024961397882686559 -2.5866467718953488e-05 0 0.02496233370567294 -1.4514574606126781e-05 0 0.024940422137991778 8.2996854175754457e-06 0 0.024932242589573439 1.3742966606994832e-05 0 0.02493595310433221 1.5912811562692181e-05 0 0.024957198104837128 -1.4403665791833335e-05 0 0.02496233370567294 -1.4514574606126781e-05 0 0.024963940101358335 -1.4063455614981875e-06 0 0.02493781169871875 9.4768498533197422e-06 0 0.024928203554457615 2.117770854915062e-05 0 0.024932242589573439 1.3742966606994832e-05 0 0.02493595310433221 1.5912811562692181e-05 0 0.024932050768032694 2.2906902330345981e-05 0 0.02495149547171107 4.0639843385635032e-06 0 0.024852016103644028 -1.0418105117864191e-05 0 0.024928543876143558 3.4701081655242855e-05 0 0.024923247592033817 2.3939104598184103e-05 0 0.024911753290761039 3.5887758159849805e-05 0 0.024928203554457615 2.117770854915062e-05 0 0.024852016103644028 -1.0418105117864191e-05 0 0.024928543876143558 3.4701081655242855e-05 0 0.024920589755839398 4.601994265491871e-05 0 0.024911753290761039 3.5887758159849805e-05 0 0.024955496751423029 -1.7390446220607578e-05 0 0.024954329241694776 -7.7525803692978519e-06 0 0.024957198104837128 -1.4403665791833335e-05 0 0.024963940101358335 -1.4063455614981875e-06 0 0.024951887212670627 -1.2114135457229188e-06 0 0.024963940101358335 -1.4063455614981875e-06 0 0.024951887212670627 -1.2114135457229188e-06 0 0.0249603887450821 1.405718971181338e-05 0 0.024943320705114114 1.5596120877992434e-05 0 0.024951887212670627 -1.2114135457229188e-06 0 0.0249603887450821 1.405718971181338e-05 0 0.024945000736885176 1.3470722267764953e-05 0 0.024954329241694776 -7.7525803692978519e-06 0 0.024920589755839398 4.601994265491871e-05 0 0.024911753290761039 3.5887758159849805e-05 0 0.024905473153815173 6.7349701284501493e-05 0 0.024555503448008605 -4.9623997276740941e-05 0 0.02448040827819117 0.00012108617951335752 0 0.024564202658845763 0.00020132036094473228 0 0.024852016103644028 -1.0418105117864191e-05 0 0.02474609688292544 4.1458198435925483e-05 0 0.024852016103644028 -1.0418105117864191e-05 0 0.0242409374717984 0.00027625881065857655 0 0.023862444702980871 0.00034476322285667814 0 0.023858298998359007 0.00023782033179344257 0 0.023655773209120767 0.00035454571159387492 0 0.024324975134408212 0.00069971936386305613 0 0.023919235390158125 0.00068476765697689625 0 0.023831406415687893 0.00052329151447256216 0 0.023359016794504191 0.00040923409199257054 0 0.0242409374717984 0.00027625881065857655 0 0.023838185228505334 0.00071875847487082062 0 0.023919235390158125 0.00068476765697689625 0 0.023831406415687893 0.00052329151447256216 0 0.023359016794504191 0.00040923409199257054 0 0.023541263493971305 0.00040575151539908451 0 0.02448040827819117 0.00012108617951335752 0 0.024564202658845763 0.00020132036094473228 0 0.024406178065234773 0.00029156955138515323 0 0.024943320705114114 1.5596120877992434e-05 0 0.0249603887450821 1.405718971181338e-05 0 0.024953940715306398 4.5844304999189082e-05 0 0.0242409374717984 0.00027625881065857655 0 0.024220323953769208 0.00020531111414246679 0 0.02474609688292544 4.1458198435925483e-05 0 0.024220323953769208 0.00020531111414246679 0 0.023359016794504191 0.00040923409199257054 0 0.023210620174219685 0.00049543708389529918 0 0.023862444702980871 0.00034476322285667814 0 0.023655773209120767 0.00035454571159387492 0 0.023613812400195156 0.00045170660632087894 0 0.024220323953769208 0.00020531111414246679 0 0.023210620174219685 0.00049543708389529918 0 0.022555530469033601 0.00018445885394947708 0 0.022152810768989031 0.00035481935433428769 0 0.022564627411082415 0.00044700861965063022 0 0.023359016794504191 0.00040923409199257054 0 0.022021806027217757 0.00047474497646260308 0 0.023832545807886536 0.00071960558394618666 0 0.023919235390158125 0.00068476765697689625 0 0.023839254793626138 0.0010251347333025275 0 0.021032540558624264 0.00021468926540650694 0 0.020639239141581237 6.3573416559563898e-05 0 0.020632168129817167 0.00032735021930102592 0 0.022021806027217757 0.00047474497646260308 0 0.021017137539708054 0.00016449917785911217 0 0.020619168781988287 5.708919347622731e-05 0 0.020632168129817167 0.00032735021930102592 0 0.020416613863990827 0.0004455323108337215 0 0.020632168129817167 0.00032735021930102592 0 0.020603539298171009 0.0006008715600599755 0 0.020416613863990827 0.0004455323108337215 0 0.020870882862955534 0.00047056612642372447 0 0.020632168129817167 0.00032735021930102592 0 0.020603539298171009 0.0006008715600599755 0 0.020603539298171009 0.0006008715600599755 0 0.02030841546199345 0.00075241417778548357 0 0.020416613863990827 0.0004455323108337215 0 0.020603539298171009 0.0006008715600599755 0 0.020611508626469509 0.00081539337743399614 0 0.02030841546199345 0.00075241417778548357 0 0.02093790888001993 0.00071680237371162068 0 0.020603539298171009 0.0006008715600599755 0 0.020611508626469509 0.00081539337743399614 0 0.02030841546199345 0.00075241417778548357 0 0.020416613863990827 0.0004455323108337215 0 0.020051841968376442 0.00044292739086240247 0 0.019202614743998123 0.0002891744633350234 0 0.01979710211973754 0.00028757702734548868 0 0.019276822883758225 0.00076784791262753268 0 0.019927830132750398 0.00041238853261070562 0 0.020720999215551286 0.0002871536225024438 0 0.019202614743998123 0.0002891744633350234 0 0.01979710211973754 0.00028757702734548868 0 0.019143223247772345 -0.00045175399900012784 0 0.022152810768989031 0.00035481935433428769 0 0.022564627411082415 0.00044700861965063022 0 0.022084379316450603 0.00077488643433003409 0 0.020619168781988287 5.708919347622731e-05 0 0.020416613863990827 0.0004455323108337215 0 0.020051841968376442 0.00044292739086240247 0 0.022021806027217757 0.00047474497646260308 0 0.020720999215551286 0.0002871536225024438 0 0.022152810768989031 0.00035481935433428769 0 0.022007391145047562 0.00068300454557231201 0 0.022084379316450603 0.00077488643433003409 0 0.023210620174219685 0.00049543708389529918 0 0.022484558879385028 0.00064710001767466789 0 0.024177759255071221 0.00071081621306960619 0 0.023836269569775116 0.00083358034761309 0 0.023993704770950728 0.00048878748763271694 0 0.024177759255071221 0.00071081621306960619 0 0.024081772443435501 0.00094841772574617985 0 0.023836269569775116 0.00083358034761309 0 0.022484558879385028 0.00064710001767466789 0 0.024081236197085 0.00041376421480896234 0 0.022484558879385028 0.00064710001767466789 0 0.021398308036116549 0.0003420801996357388 0 0.021688585997004906 0.00034590088120042443 0 0.021741018012076379 0.00040850294219818567 0 0.021626303525168981 0.00048848541698221111 0 0.022484558879385028 0.00064710001767466789 0 0.020720999215551286 0.0002871536225024438 0 0.020720999215551286 0.0002871536225024438 0 0.021398308036116549 0.0003420801996357388 0 0.019202614743998123 0.0002891744633350234 0 0.019143223247772345 -0.00045175399900012784 0 0.018759263610442781 0.00018325323640656471 0 0.019143223247772345 -0.00045175399900012784 0 0.018678203537247969 -0.0001234451565098726 0 0.018759263610442781 0.00018325323640656471 0 0.020756531244513817 0.00055747700359718637 0 0.020808939209029622 0.00043429834282562667 0 0.021039913605965698 0.0003677860574892461 0 0.021398308036116549 0.0003420801996357388 0 0.019397463145672384 0.00027263649041916446 0 0.018678203537247969 -0.0001234451565098726 0 0.018520318730635889 0.00025819917381284988 0 0.018759263610442781 0.00018325323640656471 0 0.018521505276804923 0.0002822247268595106 0 0.018759263610442781 0.00018325323640656471 0 0.018726024643157358 0.00070049404446304248 0 0.019397463145672384 0.00027263649041916446 0 0.01902128968729724 0.00033244991825181135 0 0.019202614743998123 0.0002891744633350234 0 0.018759263610442781 0.00018325323640656471 0 0.018726024643157358 0.00070049404446304248 0 0.024081772443435501 0.00094841772574617985 0 0.02375024240631491 0.0012242269311051742 0 0.023836269569775116 0.00083358034761309 0 0.021398308036116549 0.0003420801996357388 0 0.021382525849455949 0.00038447416756886427 0 0.02375024240631491 0.0012242269311051742 0 0.023836269569775116 0.00083358034761309 0 0.023554101690097938 0.00094298750151784977 0 0.019397463145672384 0.00027263649041916446 0 0.021382525849455949 0.00038447416756886427 0 0.024543356601953441 0.00021350421122875527 0 0.023722622914015157 0.00060328481163338945 0 0.024352094465784097 0.00036829860931360297 0 0.024300854003850555 0.00030867268739614187 0 0.023750080533810596 0.00062824892659008838 0 0.024625547187911972 -1.5531079027007239e-05 0 0.02501459716500179 -8.419262341928116e-05 0 0.023829784857719392 0.00056714272750746353 0 0.023836269569775116 0.00083358034761309 0 0.023993704770950728 0.00048878748763271694 0 0.02344092961592481 0.00071018333544712806 0 0.024081236197085 0.00041376421480896234 0 0.023722622914015157 0.00060328481163338945 0 0.023836269569775116 0.00083358034761309 0 0.02344092961592481 0.00071018333544712806 0 0.023554101690097938 0.00094298750151784977 0 0.024910829409940161 7.900476434079441e-05 0 0.024923046359810089 4.0476834144001027e-05 0 0.02488349661385942 5.2358796794400041e-05 0 0.024625547187911972 -1.5531079027007239e-05 0 0.024670395719223158 -0.00011467053171679529 0 0.024720505060107357 -7.5160644367066248e-05 0 0.024543356601953441 0.00021350421122875527 0 0.024819736347638042 -1.0965770223797596e-05 0 0.024625547187911972 -1.5531079027007239e-05 0 0.02501459716500179 -8.419262341928116e-05 0 0.024670395719223158 -0.00011467053171679529 0 0.023158483458890641 0.0005742038203661265 0 0.023220961146377873 0.00042232586120876563 0 0.023303565084364215 0.000513171445941315 0 0.02389511910357606 0.00042495562443473604 0 0.023935200729688678 0.00033025542079464956 0 0.024153283290579461 0.00028004191953798549 0 0.023935200729688678 0.00033025542079464956 0 0.024127190417584238 0.00025045258012490733 0 0.024153283290579461 0.00028004191953798549 0 0.023210620174219685 0.00049543708389529918 0 0.024081236197085 0.00041376421480896234 0 0.024953940715306398 4.5844304999189082e-05 0 0.024910829409940161 7.900476434079441e-05 0 0.024923046359810089 4.0476834144001027e-05 0 0.024220323953769208 0.00020531111414246679 0 0.024543356601953441 0.00021350421122875527 0 0.024081236197085 0.00041376421480896234 0 0.024543356601953441 0.00021350421122875527 0 0.024911909798677859 1.1497059157564005e-05 0 0.024943320705114114 1.5596120877992434e-05 0 0.024923046359810089 4.0476834144001027e-05 0 0.024943320705114114 1.5596120877992434e-05 0 0.024953940715306398 4.5844304999189082e-05 0 0.024923046359810089 4.0476834144001027e-05 0 0.024911909798677859 1.1497059157564005e-05 0 0.02488349661385942 5.2358796794400041e-05 0 0.024832752791900402 4.512417145729932e-07 0 0.024911909798677859 1.1497059157564005e-05 0 0.024923046359810089 4.0476834144001027e-05 0 0.02488349661385942 5.2358796794400041e-05 0 0.024868167386391537 -5.8340321869958787e-06 0 0.024812714363314683 -5.2696402817987975e-05 0 0.024832752791900402 4.512417145729932e-07 0 0.024812714363314683 -5.2696402817987975e-05 0 0.024762756448830754 -6.4938542792632124e-05 0 0.024832752791900402 4.512417145729932e-07 0 0.024670395719223158 -0.00011467053171679529 0 0.024762756448830754 -6.4938542792632124e-05 0 0.024832752791900402 4.512417145729932e-07 0 0.024819736347638042 -1.0965770223797596e-05 0 0.02481023782734609 -1.4805971303132271e-05 0 0.024868167386391537 -5.8340321869958787e-06 0 0.024812714363314683 -5.2696402817987975e-05 0 0.024854201131327462 -4.0800413255025119e-05 0 0.024878238826774798 -8.9174051658014689e-06 0 0.024854201131327462 -4.0800413255025119e-05 0 0.024872670988406727 -6.7693995442040243e-05 0 0.024854201131327462 -4.0800413255025119e-05 0 0.024839541696361513 -6.196349184905701e-05 0 0.024857870846426437 -6.8730814758471032e-05 0 0.024854201131327462 -4.0800413255025119e-05 0 0.024857870846426437 -6.8730814758471032e-05 0 0.024872670988406727 -6.7693995442040243e-05 0 0.024812714363314683 -5.2696402817987975e-05 0 0.024854201131327462 -4.0800413255025119e-05 0 0.024839541696361513 -6.196349184905701e-05 0 0.024319789340067864 -6.228526971721375e-05 0 0.022401037789778384 -6.4498779284503536e-05 0 0.024812714363314683 -5.2696402817987975e-05 0 0.024839541696361513 -6.196349184905701e-05 0 0.024830770511455776 -8.6255814932229303e-05 0 0.024812714363314683 -5.2696402817987975e-05 0 0.024830770511455776 -8.6255814932229303e-05 0 0.024792727578590214 -0.00012680604829148898 0 0.024830770511455776 -8.6255814932229303e-05 0 0.024857870846426437 -6.8730814758471032e-05 0 0.024875897591159549 -0.00011546441875972548 0 0.024830770511455776 -8.6255814932229303e-05 0 0.024792727578590214 -0.00012680604829148898 0 0.024875897591159549 -0.00011546441875972548 0 0.024839541696361513 -6.196349184905701e-05 0 0.024830770511455776 -8.6255814932229303e-05 0 0.024857870846426437 -6.8730814758471032e-05 0 0.024625547187911972 -1.5531079027007239e-05 0 0.024792727578590214 -0.00012680604829148898 0 0.024720505060107357 -7.5160644367066248e-05 0 0.024484700484484204 -3.1343961129877436e-05 0 0.024319789340067864 -6.228526971721375e-05 0 0.024812714363314683 -5.2696402817987975e-05 0 0.024792727578590214 -0.00012680604829148898 0 0.024720505060107357 -7.5160644367066248e-05 0 0.024812714363314683 -5.2696402817987975e-05 0 0.024762756448830754 -6.4938542792632124e-05 0 0.024720505060107357 -7.5160644367066248e-05 0 0.024670395719223158 -0.00011467053171679529 0 0.024762756448830754 -6.4938542792632124e-05 0 0.024720505060107357 -7.5160644367066248e-05 0 0.024625547187911972 -1.5531079027007239e-05 0 0.023311574840812886 -2.1146112977237707e-05 0 0.023829784857719392 0.00056714272750746353 0 0.023311574840812886 -2.1146112977237707e-05 0 0.023829784857719392 0.00056714272750746353 0 0.023133660474693282 0.00048702969945229143 0 0.023418276777717285 0.00071783468873512675 0 0.023722622914015157 0.00060328481163338945 0 0.023297791425949753 0.00073842596006900283 0 0.023829784857719392 0.00056714272750746353 0 0.023133660474693282 0.00048702969945229143 0 0.023297791425949753 0.00073842596006900283 0 0.02344092961592481 0.00071018333544712806 0 0.023394009662614734 0.00089448386304583169 0 0.02344092961592481 0.00071018333544712806 0 0.023554101690097938 0.00094298750151784977 0 0.023394009662614734 0.00089448386304583169 0 0.02375024240631491 0.0012242269311051742 0 0.023554101690097938 0.00094298750151784977 0 0.023308297289736525 0.0011311598290719201 0 0.02375024240631491 0.0012242269311051742 0 0.023308297289736525 0.0011311598290719201 0 0.023094745748853968 0.001519350429245357 0 0.023554101690097938 0.00094298750151784977 0 0.023394009662614734 0.00089448386304583169 0 0.023308297289736525 0.0011311598290719201 0 0.023297791425949753 0.00073842596006900283 0 0.023394009662614734 0.00089448386304583169 0 0.023171521084294659 0.00094497855685890227 0 0.023394009662614734 0.00089448386304583169 0 0.023308297289736525 0.0011311598290719201 0 0.023171521084294659 0.00094497855685890227 0 0.022881241182115666 0.0012325452318659562 0 0.022904539687436325 0.0010054450767469621 0 0.022690526169681889 0.0010610128726256749 0 0.022626770490512867 0.0013275798790591737 0 0.022881241182115666 0.0012325452318659562 0 0.022690526169681889 0.0010610128726256749 0 0.022626770490512867 0.0013275798790591737 0 0.022881241182115666 0.0012325452318659562 0 0.022819003901672658 0.0014319080872628597 0 0.023308297289736525 0.0011311598290719201 0 0.023071270940877055 0.0012844240956976524 0 0.023029261170733919 0.0011085607271630483 0 0.022881241182115666 0.0012325452318659562 0 0.023071270940877055 0.0012844240956976524 0 0.023022563587324782 0.0014210584520405213 0 0.023308297289736525 0.0011311598290719201 0 0.023071270940877055 0.0012844240956976524 0 0.023094745748853968 0.001519350429245357 0 0.022881241182115666 0.0012325452318659562 0 0.023071270940877055 0.0012844240956976524 0 0.023029261170733919 0.0011085607271630483 0 0.022881241182115666 0.0012325452318659562 0 0.023029261170733919 0.0011085607271630483 0 0.022904539687436325 0.0010054450767469621 0 0.023029261170733919 0.0011085607271630483 0 0.023171521084294659 0.00094497855685890227 0 0.022904539687436325 0.0010054450767469621 0 0.023308297289736525 0.0011311598290719201 0 0.023029261170733919 0.0011085607271630483 0 0.023171521084294659 0.00094497855685890227 0 0.023171521084294659 0.00094497855685890227 0 0.022904539687436325 0.0010054450767469621 0 0.022987313485801068 0.00076821453521943033 0 0.022786319645029748 0.00084415106140209024 0 0.022904539687436325 0.0010054450767469621 0 0.022987313485801068 0.00076821453521943033 0 0.022786319645029748 0.00084415106140209024 0 0.022904539687436325 0.0010054450767469621 0 0.022690526169681889 0.0010610128726256749 0 0.022786319645029748 0.00084415106140209024 0 0.022690526169681889 0.0010610128726256749 0 0.022589448230350282 0.00083079458577874131 0 0.022786319645029748 0.00084415106140209024 0 0.022750689137930935 0.00052450268703001723 0 0.022987313485801068 0.00076821453521943033 0 0.023311574840812886 -2.1146112977237707e-05 0 0.022750689137930935 0.00052450268703001723 0 0.022250177146969179 6.2951881881579902e-05 0 0.022786319645029748 0.00084415106140209024 0 0.022750689137930935 0.00052450268703001723 0 0.022589448230350282 0.00083079458577874131 0 0.022750689137930935 0.00052450268703001723 0 0.022987313485801068 0.00076821453521943033 0 0.023133660474693282 0.00048702969945229143 0 0.023297791425949753 0.00073842596006900283 0 0.023171521084294659 0.00094497855685890227 0 0.022987313485801068 0.00076821453521943033 0 0.023297791425949753 0.00073842596006900283 0 0.022987313485801068 0.00076821453521943033 0 0.023133660474693282 0.00048702969945229143 0 0.023311574840812886 -2.1146112977237707e-05 0 0.022750689137930935 0.00052450268703001723 0 0.023133660474693282 0.00048702969945229143 0 0.020804555806212807 0.00032607438921765104 0 0.021177791162819797 0.0010986243692600061 0 0.019430449624408354 0.00052590513621344017 0 0.019365402767323094 0.00026664048604058431 0 0.019831878322904162 -0.00010035810836729387 0 0.019769111270015041 0.00013118039420811261 0 0.019430449624408354 0.00052590513621344017 0 0.019831878322904162 -0.00010035810836729387 0 0.019769111270015041 0.00013118039420811261 0 0.019583009145868153 0.00079606503221478129 0 0.019430449624408354 0.00052590513621344017 0 0.022750689137930935 0.00052450268703001723 0 0.022447992728871824 0.00055468604268317262 0 0.022250177146969179 6.2951881881579902e-05 0 0.020804555806212807 0.00032607438921765104 0 0.019535479670305295 0.00086167274551391597 0 0.022197059909146818 0.00033869193493150603 0 0.022447992728871824 0.00055468604268317262 0 0.022359596574057273 0.0011046137175714176 0 0.022197059909146818 0.00033869193493150603 0 0.022447992728871824 0.00055468604268317262 0 0.022250177146969179 6.2951881881579902e-05 0 0.020804555806212807 0.00032607438921765104 0 0.022401037789778384 -6.4498779284503536e-05 0 0.022750689137930935 0.00052450268703001723 0 0.022447992728871824 0.00055468604268317262 0 0.022589448230350282 0.00083079458577874131 0 0.022690526169681889 0.0010610128726256749 0 0.022589448230350282 0.00083079458577874131 0 0.022359596574057273 0.0011046137175714176 0 0.022447992728871824 0.00055468604268317262 0 0.022589448230350282 0.00083079458577874131 0 0.022359596574057273 0.0011046137175714176 0 0.019707098084224391 0.00028060170514214401 0 0.019544238318286181 0.00086925918665680931 0 0.019779986544889622 0.00091337891655455389 0 0.019544238318286181 0.00086925918665680931 0 0.019779986544889622 0.00091337891655455389 0 0.01962373882066383 0.0012496798363653926 0 0.022626770490512867 0.0013275798790591737 0 0.022690526169681889 0.0010610128726256749 0 0.022359596574057273 0.0011046137175714176 0 0.01913684736640741 0.00064607190077007053 0 0.018794938883223998 0.00040387840893754565 0 0.018886341136106426 0.0010066360657981 0 0.01923811018449156 0.0010107539369622208 0 0.01913684736640741 0.00064607190077007053 0 0.018886341136106426 0.0010066360657981 0 0.01923811018449156 0.0010107539369622208 0 0.01913684736640741 0.00064607190077007053 0 0.019430449624408354 0.00052590513621344017 0 0.019583009145868153 0.00079606503221478129 0 0.01923811018449156 0.0010107539369622208 0 0.019430449624408354 0.00052590513621344017 0 0.019077250609688772 0.00017651593176965191 0 0.019831878322904162 -0.00010035810836729387 0 0.018782096970006081 -6.6976387509961704e-05 0 0.019365402767323094 0.00026664048604058431 0 0.019077250609688772 0.00017651593176965191 0 0.019831878322904162 -0.00010035810836729387 0 0.01913684736640741 0.00064607190077007053 0 0.019077250609688772 0.00017651593176965191 0 0.018794938883223998 0.00040387840893754565 0 0.01913684736640741 0.00064607190077007053 0 0.019365402767323094 0.00026664048604058431 0 0.019077250609688772 0.00017651593176965191 0 0.01913684736640741 0.00064607190077007053 0 0.019430449624408354 0.00052590513621344017 0 0.019365402767323094 0.00026664048604058431 0 0.022401037789778384 -6.4498779284503536e-05 0 0.019961034982593166 0.00017436405694456369 0 0.022209087637988092 -0.00011093572079553277 0 0.0224754688043819 -0.00047752423761918578 0 0.021571040100729268 -0.00042971536496514854 0 0.023771076227446258 -0.00026017591541438695 0 0.022608149872896551 -8.1214573833580085e-05 0 0.022209087637988092 -0.00011093572079553277 0 0.023197253394244277 0.00020700937561278027 0 0.021593753695981523 0.00025744597075747248 0 0.022209087637988092 -0.00011093572079553277 0 0.0224754688043819 -0.00047752423761918578 0 0.023197253394244277 0.00020700937561278027 0 0.023771076227446258 -0.00026017591541438695 0 0.02436918288542346 -0.00030419807989128043 0 0.0224754688043819 -0.00047752423761918578 0 0.023197253394244277 0.00020700937561278027 0 0.023381365799888688 -0.00052428468353837485 0 0.022401037789778384 -6.4498779284503536e-05 0 0.02436918288542346 -0.00030419807989128043 0 0.024857870846426437 -6.8730814758471032e-05 0 0.024875897591159549 -0.00011546441875972548 0 0.024871606341378139 -7.1114530109318811e-05 0 0.024687867270942642 -0.00025665086666150361 0 0.02436918288542346 -0.00030419807989128043 0 0.024944699026484746 -3.9127972065510957e-05 0 0.024939061700682063 -3.8645619927179408e-05 0 0.024939226109285801 -4.2947854393985934e-05 0 0.024934998623157022 -4.3547727741134324e-05 0 0.024934843960348049 -4.5571439530647482e-05 0 0.024939226109285801 -4.2947854393985934e-05 0 0.02494835295785975 1.2102912293952645e-05 0 0.02436918288542346 -0.00030419807989128043 0 0.024939061700682063 -3.8645619927179408e-05 0 0.024934843960348049 -4.5571439530647482e-05 0 0.024939226109285801 -4.2947854393985934e-05 0 0.024934998623157022 -4.3547727741134324e-05 0 0.02494230121545166 -4.1775977942249301e-05 0 0.024928145085152311 -4.3755765867272362e-05 0 0.024944699026484746 -3.9127972065510957e-05 0 0.024939226109285801 -4.2947854393985934e-05 0 0.02494230121545166 -4.1775977942249301e-05 0 0.024934998623157022 -4.3547727741134324e-05 0 0.024939226109285801 -4.2947854393985934e-05 0 0.02494230121545166 -4.1775977942249301e-05 0 0.009587471263936229 0.00063260744129344643 0 0.0095448270387042001 0.00068254058245914833 0 0.0095654014398932185 0.00070793946894520665 0 0.0095998872135920638 0.00061093911804220016 0 0.009587471263936229 0.00063260744129344643 0 0.0095448270387042001 0.00068254058245914833 0 0.0095998872135920638 0.00061093911804220016 0 0.0095695626819120496 0.00064110795684454698 0 0.0095448270387042001 0.00068254058245914833 0 0.0095998872135920638 0.00061093911804220016 0 0.0096448669566024624 0.00057684211346561 0 0.0096555215277673665 0.00054547182328406598 0 0.0095998872135920638 0.00061093911804220016 0 0.0096555215277673665 0.00054547182328406598 0 0.0095695626819120496 0.00064110795684454698 0 0.012641350330022732 0.00067410699783923566 0 0.011929365650256006 0.00079458317444798066 0 0.0095998872135920638 0.00061093911804220016 0 0.0096448669566024624 0.00057684211346561 0 0.009587471263936229 0.00063260744129344643 0 0.014863481420452459 0.00089126246552983092 0 0.014917934386307409 0.00089149895379308207 0 0.014914337918912829 0.00092187873182284917 0 0.014917934386307409 0.00089149895379308207 0 0.014914337918912829 0.00092187873182284917 0 0.014953133717077993 0.00091249919635454709 0 0.014914337918912829 0.00092187873182284917 0 0.014944021060058668 0.00094555319211613834 0 0.014953133717077993 0.00091249919635454709 0 0.019583009145868153 0.00079606503221478129 0 0.01923811018449156 0.0010107539369622208 0 0.01932673592938812 0.0016704826219753625 0 0.019129047530400057 0.0017644544881752001 0 0.019081120802932831 0.0013741514353483714 0 0.018764635887567046 0.001437187311524254 0 0.019129047530400057 0.0017644544881752001 0 0.01932673592938812 0.0016704826219753625 0 0.019843029345349386 0.0015467668984171438 0 0.019129047530400057 0.0017644544881752001 0 0.01932673592938812 0.0016704826219753625 0 0.019081120802932831 0.0013741514353483714 0 0.019535479670305295 0.00086167274551391597 0 0.019352637866194546 0.0016087479376712612 0 0.01923811018449156 0.0010107539369622208 0 0.01932673592938812 0.0016704826219753625 0 0.019081120802932831 0.0013741514353483714 0 0.01923811018449156 0.0010107539369622208 0 0.019081120802932831 0.0013741514353483714 0 0.018886341136106426 0.0010066360657981 0 0.019544238318286181 0.00086925918665680931 0 0.01932673592938812 0.0016704826219753625 0 0.01962373882066383 0.0012496798363653926 0 0.021177791162819797 0.0010986243692600061 0 0.018375845815341532 0.0013838388469606751 0 0.016782879092363534 0.0014042976564267258 0 0.018375845815341532 0.0013838388469606751 0 0.019779986544889622 0.00091337891655455389 0 0.01962373882066383 0.0012496798363653926 0 0.019843029345349386 0.0015467668984171438 0 0.022626770490512867 0.0013275798790591737 0 0.022359596574057273 0.0011046137175714176 0 0.022427964017701068 0.0017773610478458469 0 0.01932673592938812 0.0016704826219753625 0 0.01962373882066383 0.0012496798363653926 0 0.019843029345349386 0.0015467668984171438 0 0.014914337918912829 0.00092187873182284917 0 0.014944021060058668 0.00094555319211613834 0 0.014912812166647305 0.00096183054268106426 0 0.014863481420452459 0.00089126246552983092 0 0.014914337918912829 0.00092187873182284917 0 0.014912812166647305 0.00096183054268106426 0 0.012641350330022732 0.00067410699783923566 0 0.018375845815341532 0.0013838388469606751 0 0.016255310955382973 0.00065606411035837222 0 0.016354936358587237 0.0011473182599168962 0 0.016211789645193965 0.00098297564795771751 0 0.015986808941774341 0.00085080669096924901 0 0.016211789645193965 0.00098297564795771751 0 0.015959042558122555 0.0011678473246472087 0 0.015986808941774341 0.00085080669096924901 0 0.016211789645193965 0.00098297564795771751 0 0.016108563309933651 0.0007814257719907609 0 0.015843680030628565 0.0012927597219123471 0 0.017618839165058471 0.00088923925032279255 0 0.016354936358587237 0.0011473182599168962 0 0.016211789645193965 0.00098297564795771751 0 0.016130768697738291 0.0011998895468758957 0 0.016211789645193965 0.00098297564795771751 0 0.016130768697738291 0.0011998895468758957 0 0.016082858313210199 0.0011127162467713054 0 0.022427964017701068 0.0017773610478458469 0 0.02308934249132066 0.0015666505536292396 0 0.022819003901672658 0.0014319080872628597 0 0.018375845815341532 0.0013838388469606751 0 0.020276599608273483 0.0011053984306108801 0 0.020276599608273483 0.0011053984306108801 0 0.017618839165058471 0.00088923925032279255 0 0.02308934249132066 0.0015666505536292396 0 0.023022563587324782 0.0014210584520405213 0 0.022819003901672658 0.0014319080872628597 0 0.020276599608273483 0.0011053984306108801 0 0.020968812919813107 0.0016232559919959722 0 0.023071270940877055 0.0012844240956976524 0 0.023094745748853968 0.001519350429245357 0 0.023022563587324782 0.0014210584520405213 0 0.022881241182115666 0.0012325452318659562 0 0.023022563587324782 0.0014210584520405213 0 0.022819003901672658 0.0014319080872628597 0 0.022626770490512867 0.0013275798790591737 0 0.022427964017701068 0.0017773610478458469 0 0.022819003901672658 0.0014319080872628597 0 0.021010575213249054 0.00012565935559300293 0 0.018903100356516017 0.00077429050349811035 0 0.019227516043259684 0.0013630361587116139 0 0.021382525849455949 0.00038447416756886427 0 0.017618839165058471 0.00088923925032279255 0 0.021382525849455949 0.00038447416756886427 0 0.020276599608273483 0.0011053984306108801 0 0.017788534966271353 0.00054533756891479593 0 0.018328655452278266 0.0015489986015308251 0 0.018710467904850488 0.00070106693041634496 0 0.015986808941774341 0.00085080669096924901 0 0.015959042558122555 0.0011678473246472087 0 0.015661448531951651 0.00067585487401851786 0 0.017618839165058471 0.00088923925032279255 0 0.015912186761941071 0.0010350175263633579 0 0.01424517350896601 0.00080888225704885055 0 0.012730815158284767 0.00050754393984086079 0 0.015986808941774341 0.00085080669096924901 0 0.01597561930832072 0.00063580410490449537 0 0.015661448531951651 0.00067585487401851786 0 0.015678614880627165 0.00063024558655291006 0 0.01597561930832072 0.00063580410490449537 0 0.015661448531951651 0.00067585487401851786 0 0.0099962868582541657 0.00034962802263971421 0 0.009818790827605426 0.00034497649448952158 0 0.0098664579115663523 0.00041904994125409052 0 0.01424517350896601 0.00080888225704885055 0 0.015912186761941071 0.0010350175263633579 0 0.0096588921383228572 0.00035042702370255787 0 0.009818790827605426 0.00034497649448952158 0 0.0097780937712863038 0.00046807564511731962 0 0.016255310955382973 0.00065606411035837222 0 0.016108563309933651 0.0007814257719907609 0 0.01597561930832072 0.00063580410490449537 0 0.015986808941774341 0.00085080669096924901 0 0.016108563309933651 0.0007814257719907609 0 0.01597561930832072 0.00063580410490449537 0 0.016255310955382973 0.00065606411035837222 0 0.016211789645193965 0.00098297564795771751 0 0.016108563309933651 0.0007814257719907609 0 0.012641350330022732 0.00067410699783923566 0 0.012730815158284767 0.00050754393984086079 0 0.0096588921383228572 0.00035042702370255787 0 0.0097780937712863038 0.00046807564511731962 0 0.0096555215277673665 0.00054547182328406598 0 0.012641350330022732 0.00067410699783923566 0 0.0097512961048725304 0.00035061383722748493 0 0.0097780937712863038 0.00046807564511731962 0 0.0096555215277673665 0.00054547182328406598 0 0.0097564672131675752 0.00050606737862296904 0 0.0097780937712863038 0.00046807564511731962 0 0.0098715544326844849 0.00050966193120442456 0 0.0097564672131675752 0.00050606737862296904 0 0.0099962868582541657 0.00034962802263971421 0 0.0098715544326844849 0.00050966193120442456 0 0.0098664579115663523 0.00041904994125409052 0 0.0099599263649793254 0.00023198759628731075 0 0.010273884890146211 -2.6320565071204138e-06 0 0.01009399399204693 0.00036128013657107157 0 0.01424517350896601 0.00080888225704885055 0 0.010709513510488877 0.0008931444819220278 0 0.012631516581898039 0.00045599493722742039 0 0.012288527380129083 0.0012835383341781705 0 0.012979971774988023 0.00090032688365172179 0 0.010709513510488877 0.0008931444819220278 0 0.012033532697443556 0.00036004574871876784 0 0.0097780937712863038 0.00046807564511731962 0 0.0098715544326844849 0.00050966193120442456 0 0.0098664579115663523 0.00041904994125409052 0 0.009818790827605426 0.00034497649448952158 0 0.0097780937712863038 0.00046807564511731962 0 0.0098664579115663523 0.00041904994125409052 0 0.012033532697443556 0.00036004574871876784 0 0.014846381656269659 0.00053151951344903865 0 0.011552321676970389 0.00042524662379207621 0 0.012051989324469213 0.0006205591148546847 0 0.012047074916823211 0.0012813050446461415 0 0.011552321676970389 0.00042524662379207621 0 0.012051989324469213 0.0006205591148546847 0 0.012156071318057293 6.4422087215343862e-05 0 0.012051989324469213 0.0006205591148546847 0 0.012156071318057293 6.4422087215343862e-05 0 0.012455856472084947 0.00068549260926586183 0 0.018517629005663783 0.0017773083836058183 0 0.01826077816529724 0.0016385635127308912 0 0.018477493734665316 0.0014992178451906431 0 0.018517629005663783 0.0017773083836058183 0 0.01826077816529724 0.0016385635127308912 0 0.018042388889567204 0.001809242061738975 0 0.014034777955261282 0.00069406752162181945 0 0.01438462124101951 0.00049751946769280265 0 0.013930323257136579 0.00049795458879749632 0 0.014846381656269659 0.00053151951344903865 0 0.015413506506348255 0.00093076916327578115 0 0.012631516581898039 0.00045599493722742039 0 0.012979971774988023 0.00090032688365172179 0 0.012739562245522505 0.00045713574436205746 0 0.012033532697443556 0.00036004574871876784 0 0.015413506506348255 0.00093076916327578115 0 0.01424517350896601 0.00080888225704885055 0 0.015413506506348255 0.00093076916327578115 0 0.015821989598629446 0.00025143328132345419 0 0.015129582632118372 0.0002449455641804871 0 0.015526141120164122 0.00095848963013076276 0 0.015413506506348255 0.00093076916327578115 0 0.015912186761941071 0.0010350175263633579 0 0.01826077816529724 0.0016385635127308912 0 0.018042388889567204 0.001809242061738975 0 0.01801621729030857 0.0017590460073969598 0 0.01826077816529724 0.0016385635127308912 0 0.01801621729030857 0.0017590460073969598 0 0.018177711390462006 0.0013086475003125848 0 0.01826077816529724 0.0016385635127308912 0 0.018177711390462006 0.0013086475003125848 0 0.018477493734665316 0.0014992178451906431 0 0.015912186761941071 0.0010350175263633579 0 0.01861827768562118 0.001002236327130331 0 0.018587135569847205 -4.4875686229648467e-06 0 0.017788534966271353 0.00054533756891479593 0 0.018710467904850488 0.00070106693041634496 0 0.019091583433533319 -0.00015744794243796085 0 0.018587135569847205 -4.4875686229648467e-06 0 0.018710467904850488 0.00070106693041634496 0 0.019397463145672384 0.00027263649041916446 0 0.01861827768562118 0.001002236327130331 0 0.018521505276804923 0.0002822247268595106 0 0.018177711390462006 0.0013086475003125848 0 0.018726024643157358 0.00070049404446304248 0 0.019202614743998123 0.0002891744633350234 0 0.018726024643157358 0.00070049404446304248 0 0.019276822883758225 0.00076784791262753268 0 0.018177711390462006 0.0013086475003125848 0 0.018726024643157358 0.00070049404446304248 0 0.0186008465474721 0.0012758231919248423 0 0.018726024643157358 0.00070049404446304248 0 0.0186008465474721 0.0012758231919248423 0 0.019276822883758225 0.00076784791262753268 0 0.0186008465474721 0.0012758231919248423 0 0.018477493734665316 0.0014992178451906431 0 0.018699842473301156 0.0014372639256579568 0 0.018517629005663783 0.0017773083836058183 0 0.018477493734665316 0.0014992178451906431 0 0.018699842473301156 0.0014372639256579568 0 0.018177711390462006 0.0013086475003125848 0 0.0186008465474721 0.0012758231919248423 0 0.018477493734665316 0.0014992178451906431 0 0.018444791921449762 0.0012806984452831342 0 0.019925335553607367 0.0014546671338666434 0 0.0186008465474721 0.0012758231919248423 0 0.018699842473301156 0.0014372639256579568 0 0.018829128410924469 0.0013786203233975879 0 0.018699842473301156 0.0014372639256579568 0 0.018844001677329407 0.0014972252846026676 0 0.018829128410924469 0.0013786203233975879 0 0.01979710211973754 0.00028757702734548868 0 0.019996828803122604 0.0013911722507314599 0 0.019276822883758225 0.00076784791262753268 0 0.0186008465474721 0.0012758231919248423 0 0.019996828803122604 0.0013911722507314599 0 0.019276822883758225 0.00076784791262753268 0 0.019996828803122604 0.0013911722507314599 0 0.020457786674341238 0.001081673362642101 0 0.020945307824609148 0.0013098683763457541 0 0.01979710211973754 0.00028757702734548868 0 0.019996828803122604 0.0013911722507314599 0 0.020457786674341238 0.001081673362642101 0 0.020611508626469509 0.00081539337743399614 0 0.020457786674341238 0.001081673362642101 0 0.020822424104790693 0.00096207624040337155 0 0.020611508626469509 0.00081539337743399614 0 0.02030841546199345 0.00075241417778548357 0 0.020457786674341238 0.001081673362642101 0 0.019927830132750398 0.00041238853261070562 0 0.020470551839727583 0.001066736015175094 0 0.018844001677329407 0.0014972252846026676 0 0.018829128410924469 0.0013786203233975879 0 0.018967518407194846 0.001372946370354222 0 0.019925335553607367 0.0014546671338666434 0 0.017518600955625102 0.00044711617312650842 0 0.016114199908818367 0.00065730725060883131 0 0.017518600955625102 0.00044711617312650842 0 0.013419487272357616 -0.00025509308171505797 0 0.014050040324287064 -0.00026096579073628737 0 0.014139612067709448 -0.00073654623450988648 0 0.013827929385859731 7.5625617710058297e-05 0 0.012699380762595679 3.5952206543834137e-05 0 0.013755158150141295 9.0311761876071966e-05 0 0.012850528125187013 3.871349955164348e-05 0 0.013217738276469437 0.00057500864933442391 0 0.013419487272357616 -0.00025509308171505797 0 0.013755158150141295 9.0311761876071966e-05 0 0.014050040324287064 -0.00026096579073628737 0 0.013419487272357616 -0.00025509308171505797 0 0.013755158150141295 9.0311761876071966e-05 0 0.013344637393522036 3.2268180757539081e-05 0 0.014846381656269659 0.00053151951344903865 0 0.016114199908818367 0.00065730725060883131 0 0.018517629005663783 0.0017773083836058183 0 0.018699842473301156 0.0014372639256579568 0 0.018844001677329407 0.0014972252846026676 0 0.013011006635555357 4.5303815226555305e-05 0 0.013419487272357616 -0.00025509308171505797 0 0.013344637393522036 3.2268180757539081e-05 0 0.014846381656269659 0.00053151951344903865 0 0.012699380762595679 3.5952206543834137e-05 0 0.012156071318057293 6.4422087215343862e-05 0 0.012850528125187013 3.871349955164348e-05 0 0.012455856472084947 0.00068549260926586183 0 0.012850528125187013 3.871349955164348e-05 0 0.012455856472084947 0.00068549260926586183 0 0.013217738276469437 0.00057500864933442391 0 0.012455856472084947 0.00068549260926586183 0 0.013217738276469437 0.00057500864933442391 0 0.013026100099197142 0.0010600790521006502 0 0.013217738276469437 0.00057500864933442391 0 0.013473922031451493 0.00090526937151504301 0 0.013766447219720146 0.00059959382748896531 0 0.013755158150141295 9.0311761876071966e-05 0 0.013217738276469437 0.00057500864933442391 0 0.013766447219720146 0.00059959382748896531 0 0.013026100099197142 0.0010600790521006502 0 0.012735208636520515 0.0013650969417199693 0 0.013106394958280563 0.0015664991988946703 0 0.013586397785967774 0.0012689187469777689 0 0.013026100099197142 0.0010600790521006502 0 0.013106394958280563 0.0015664991988946703 0 0.013586397785967774 0.0012689187469777689 0 0.013473922031451493 0.00090526937151504301 0 0.013026100099197142 0.0010600790521006502 0 0.013217738276469437 0.00057500864933442391 0 0.013473922031451493 0.00090526937151504301 0 0.013026100099197142 0.0010600790521006502 0 0.012455856472084947 0.00068549260926586183 0 0.013026100099197142 0.0010600790521006502 0 0.012503097680056882 0.0011657605315530096 0 0.013026100099197142 0.0010600790521006502 0 0.012503097680056882 0.0011657605315530096 0 0.012735208636520515 0.0013650969417199693 0 0.01232294455728971 0.0014805566011540973 0 0.01241449847507629 0.0016842964651688417 0 0.012117062297192898 0.0017846760906753108 0 0.012735208636520515 0.0013650969417199693 0 0.012633552685285191 0.0015857094482713721 0 0.013106394958280563 0.0015664991988946703 0 0.012735208636520515 0.0013650969417199693 0 0.01232294455728971 0.0014805566011540973 0 0.012633552685285191 0.0015857094482713721 0 0.012503097680056882 0.0011657605315530096 0 0.012735208636520515 0.0013650969417199693 0 0.01232294455728971 0.0014805566011540973 0 0.01232294455728971 0.0014805566011540973 0 0.01241449847507629 0.0016842964651688417 0 0.012633552685285191 0.0015857094482713721 0 0.01241449847507629 0.0016842964651688417 0 0.012633552685285191 0.0015857094482713721 0 0.012571726679770065 0.0018625383667921053 0 0.013106394958280563 0.0015664991988946703 0 0.012571726679770065 0.0018625383667921053 0 0.013811288312006096 0.0019495013032602281 0 0.012657230659782625 0.0018934622494098346 0 0.013475604080202288 0.0018119679455647917 0 0.013586397785967774 0.0012689187469777689 0 0.013106394958280563 0.0015664991988946703 0 0.013811288312006096 0.0019495013032602281 0 0.012633552685285191 0.0015857094482713721 0 0.013106394958280563 0.0015664991988946703 0 0.012571726679770065 0.0018625383667921053 0 0.0092533833409287683 0.00117482463795266 0 0.0094242132421120308 0.0010357731535440506 0 0.0096097155155245723 0.0012320690321802694 0 0.012946189411378629 0.0019955577834097158 0 0.012571726679770065 0.0018625383667921053 0 0.013100087245316932 0.0017362703747657202 0 0.011102435200268429 0.0015935910805603328 0 0.010908038823844026 0.0015570551287923235 0 0.0092052067377315968 0.00090706813407495624 0 0.0094051473739808784 0.00085762630335293045 0 0.0091154055145481645 0.00059265275020137231 0 0.0092533833409287683 0.00117482463795266 0 0.0092052067377315968 0.00090706813407495624 0 0.0094242132421120308 0.0010357731535440506 0 0.0092052067377315968 0.00090706813407495624 0 0.0094242132421120308 0.0010357731535440506 0 0.0094051473739808784 0.00085762630335293045 0 0.0094242132421120308 0.0010357731535440506 0 0.0094051473739808784 0.00085762630335293045 0 0.0096187960052231958 0.0010073919706313475 0 0.0094242132421120308 0.0010357731535440506 0 0.0096187960052231958 0.0010073919706313475 0 0.0096097155155245723 0.0012320690321802694 0 0.012946189411378629 0.0019955577834097158 0 0.012223842966357205 0.0019577421896455685 0 0.012571726679770065 0.0018625383667921053 0 0.01241449847507629 0.0016842964651688417 0 0.012571726679770065 0.0018625383667921053 0 0.012117062297192898 0.0017846760906753108 0 0.012223842966357205 0.0019577421896455685 0 0.012571726679770065 0.0018625383667921053 0 0.012117062297192898 0.0017846760906753108 0 0.012117062297192898 0.0017846760906753108 0 0.010126457880376423 0.0013201112771088182 0 0.010531969292058987 0.00098480584268696258 0 0.012223842966357205 0.0019577421896455685 0 0.012117062297192898 0.0017846760906753108 0 0.010126457880376423 0.0013201112771088182 0 0.0096097155155245723 0.0012320690321802694 0 0.0098202773558645918 0.0010688027287368547 0 0.010126457880376423 0.0013201112771088182 0 0.010908038823844026 0.0015570551287923235 0 0.010236638636959956 0.0013853098832484929 0 0.0096187960052231958 0.0010073919706313475 0 0.0096097155155245723 0.0012320690321802694 0 0.0098202773558645918 0.0010688027287368547 0 0.0098202773558645918 0.0010688027287368547 0 0.0099033571966776843 0.0010373395967157148 0 0.0097654979589609087 0.00090987188149268248 0 0.0096187960052231958 0.0010073919706313475 0 0.0098202773558645918 0.0010688027287368547 0 0.0097654979589609087 0.00090987188149268248 0 0.0098202773558645918 0.0010688027287368547 0 0.0099033571966776843 0.0010373395967157148 0 0.010126457880376423 0.0013201112771088182 0 0.0099033571966776843 0.0010373395967157148 0 0.010126457880376423 0.0013201112771088182 0 0.0098618140859131967 0.0010582332254162421 0 0.010126457880376423 0.0013201112771088182 0 0.0099724044681980088 0.00078414907294900485 0 0.0098618140859131967 0.0010582332254162421 0 0.010531969292058987 0.00098480584268696258 0 0.010685837920685148 0.00032554276224032902 0 0.0099724044681980088 0.00078414907294900485 0 0.010126457880376423 0.0013201112771088182 0 0.010531969292058987 0.00098480584268696258 0 0.0099724044681980088 0.00078414907294900485 0 0.012135791507449962 0.0018191696664448128 0 0.011214249108568271 0.00075818490850969691 0 0.012117062297192898 0.0017846760906753108 0 0.010531969292058987 0.00098480584268696258 0 0.010685837920685148 0.00032554276224032902 0 0.01232294455728971 0.0014805566011540973 0 0.012117062297192898 0.0017846760906753108 0 0.012047074916823211 0.0012813050446461415 0 0.012051989324469213 0.0006205591148546847 0 0.012455856472084947 0.00068549260926586183 0 0.012047074916823211 0.0012813050446461415 0 0.012455856472084947 0.00068549260926586183 0 0.012503097680056882 0.0011657605315530096 0 0.012047074916823211 0.0012813050446461415 0 0.012503097680056882 0.0011657605315530096 0 0.01232294455728971 0.0014805566011540973 0 0.012047074916823211 0.0012813050446461415 0 0.010685837920685148 0.00032554276224032902 0 0.01009399399204693 0.00036128013657107157 0 0.0099724044681980088 0.00078414907294900485 0 0.010273884890146211 -2.6320565071204138e-06 0 0.010685837920685148 0.00032554276224032902 0 0.01009399399204693 0.00036128013657107157 0 0.012033532697443556 0.00036004574871876784 0 0.011214249108568271 0.00075818490850969691 0 0.0099599263649793254 0.00023198759628731075 0 0.01009399399204693 0.00036128013657107157 0 0.0097564672131675752 0.00050606737862296904 0 0.01009399399204693 0.00036128013657107157 0 0.0098702478842329702 0.00058322135442840631 0 0.0099724044681980088 0.00078414907294900485 0 0.01009399399204693 0.00036128013657107157 0 0.0098702478842329702 0.00058322135442840631 0 0.0097564672131675752 0.00050606737862296904 0 0.010709513510488877 0.0008931444819220278 0 0.0098511602958228119 0.00069703716131893538 0 0.0098702478842329702 0.00058322135442840631 0 0.0097564672131675752 0.00050606737862296904 0 0.0097225794581970639 0.00070422926314843664 0 0.0096476918585915363 0.00060924712608279269 0 0.0097225794581970639 0.00070422926314843664 0 0.0095956856701920976 0.00069985892678478198 0 0.0097564672131675752 0.00050606737862296904 0 0.0096476918585915363 0.00060924712608279269 0 0.0097225794581970639 0.00070422926314843664 0 0.0096555215277673665 0.00054547182328406598 0 0.0097564672131675752 0.00050606737862296904 0 0.0096476918585915363 0.00060924712608279269 0 0.0097225794581970639 0.00070422926314843664 0 0.0096870235279365342 0.00089584454508835284 0 0.0096201585400656278 0.00080246256812450175 0 0.0097225794581970639 0.00070422926314843664 0 0.0095956856701920976 0.00069985892678478198 0 0.0096201585400656278 0.00080246256812450175 0 0.0097225794581970639 0.00070422926314843664 0 0.009804847729112871 0.00086037810190343195 0 0.0096870235279365342 0.00089584454508835284 0 0.0097225794581970639 0.00070422926314843664 0 0.0099724044681980088 0.00078414907294900485 0 0.009804847729112871 0.00086037810190343195 0 0.0098702478842329702 0.00058322135442840631 0 0.0097225794581970639 0.00070422926314843664 0 0.0099724044681980088 0.00078414907294900485 0 0.0099724044681980088 0.00078414907294900485 0 0.009804847729112871 0.00086037810190343195 0 0.0098618140859131967 0.0010582332254162421 0 0.009804847729112871 0.00086037810190343195 0 0.0098618140859131967 0.0010582332254162421 0 0.0096870235279365342 0.00089584454508835284 0 0.0098618140859131967 0.0010582332254162421 0 0.009762434097970233 0.00098514582895462672 0 0.0096774984022193148 0.0009654453558611422 0 0.0099033571966776843 0.0010373395967157148 0 0.0098618140859131967 0.0010582332254162421 0 0.009762434097970233 0.00098514582895462672 0 0.009762434097970233 0.00098514582895462672 0 0.0096774984022193148 0.0009654453558611422 0 0.0095846921031637212 0.00095338813815489291 0 0.0096774984022193148 0.0009654453558611422 0 0.0095522762652416639 0.00093894480043286944 0 0.0095846921031637212 0.00095338813815489291 0 0.0096774984022193148 0.0009654453558611422 0 0.0096038143136427685 0.00089897506675694252 0 0.0095522762652416639 0.00093894480043286944 0 0.0098618140859131967 0.0010582332254162421 0 0.0096774984022193148 0.0009654453558611422 0 0.0096870235279365342 0.00089584454508835284 0 0.0096774984022193148 0.0009654453558611422 0 0.0096870235279365342 0.00089584454508835284 0 0.0096038143136427685 0.00089897506675694252 0 0.0096870235279365342 0.00089584454508835284 0 0.0096038143136427685 0.00089897506675694252 0 0.0096201585400656278 0.00080246256812450175 0 0.0095526274346296285 0.00083341677570949687 0 0.0095414275520010246 0.00090706880767583043 0 0.0094888340621790569 0.00092668926416400617 0 0.0095526274346296285 0.00083341677570949687 0 0.0096038143136427685 0.00089897506675694252 0 0.0096201585400656278 0.00080246256812450175 0 0.0095526274346296285 0.00083341677570949687 0 0.0096038143136427685 0.00089897506675694252 0 0.0095414275520010246 0.00090706880767583043 0 0.0095414275520010246 0.00090706880767583043 0 0.0095522762652416639 0.00093894480043286944 0 0.0094888340621790569 0.00092668926416400617 0 0.0096038143136427685 0.00089897506675694252 0 0.0095414275520010246 0.00090706880767583043 0 0.0095522762652416639 0.00093894480043286944 0 0.0095522762652416639 0.00093894480043286944 0 0.0094888340621790569 0.00092668926416400617 0 0.0094409941516221309 0.00094098692486519061 0 0.0092171736129491779 0.0006783214665342501 0 0.00914431195594698 0.00070360504380714687 0 0.0092214720136903159 0.00067513345609432091 0 0.0092171736129491779 0.0006783214665342501 0 0.0093580969670829465 0.00069708156369165325 0 0.0092214720136903159 0.00067513345609432091 0 0.0092171736129491779 0.0006783214665342501 0 0.0094345296668105223 0.00073957564238125444 0 0.0093580969670829465 0.00069708156369165325 0 0.009356045706430699 0.00079202794372772493 0 0.0094135869362845341 0.00073995181891461134 0 0.0095526274346296285 0.00083341677570949687 0 0.0094888340621790569 0.00092668926416400617 0 0.0094345296668105223 0.00073957564238125444 0 0.0095232095029026357 0.00071099000557575426 0 0.0094345296668105223 0.00073957564238125444 0 0.0095055995290915692 0.0006984154879358203 0 0.0095526274346296285 0.00083341677570949687 0 0.0095232095029026357 0.00071099000557575426 0 0.0094345296668105223 0.00073957564238125444 0 0.0095526274346296285 0.00083341677570949687 0 0.0095232095029026357 0.00071099000557575426 0 0.0095956856701920976 0.00069985892678478198 0 0.0095526274346296285 0.00083341677570949687 0 0.0095956856701920976 0.00069985892678478198 0 0.0096201585400656278 0.00080246256812450175 0 0.0096555215277673665 0.00054547182328406598 0 0.0096476918585915363 0.00060924712608279269 0 0.0095695626819120496 0.00064110795684454698 0 0.0095232095029026357 0.00071099000557575426 0 0.0095956856701920976 0.00069985892678478198 0 0.0095695626819120496 0.00064110795684454698 0 0.0096476918585915363 0.00060924712608279269 0 0.0095956856701920976 0.00069985892678478198 0 0.0095695626819120496 0.00064110795684454698 0 0.0095695626819120496 0.00064110795684454698 0 0.0095055995290915692 0.0006984154879358203 0 0.0095448270387042001 0.00068254058245914833 0 0.0095232095029026357 0.00071099000557575426 0 0.0095695626819120496 0.00064110795684454698 0 0.0095055995290915692 0.0006984154879358203 0 0.016671989364655672 0.00038022247810595776 0 0.016988728949601056 0.00023718395743696188 0 0.016753169329650142 2.0203530579083703e-05 0 0.016671989364655672 0.00038022247810595776 0 0.016489818343764468 0.00012013494374617177 0 0.016234517223627971 0.00058565286345946721 0 0.016671989364655672 0.00038022247810595776 0 0.016489818343764468 0.00012013494374617177 0 0.016753169329650142 2.0203530579083703e-05 0 0.016568224706997335 0.00069951920672340013 0 0.016234517223627971 0.00058565286345946721 0 0.016367049961254921 0.00089358942451664121 0 0.016671989364655672 0.00038022247810595776 0 0.016568224706997335 0.00069951920672340013 0 0.016234517223627971 0.00058565286345946721 0 0.016671989364655672 0.00038022247810595776 0 0.016568224706997335 0.00069951920672340013 0 0.016958258078597056 0.00071639457891015763 0 0.016671989364655672 0.00038022247810595776 0 0.016988728949601056 0.00023718395743696188 0 0.016958258078597056 0.00071639457891015763 0 0.016648295754509979 0.00015507475089049347 0 0.016182421939433114 0.00057093223757948659 0 0.015993475639058619 3.1232517998313482e-05 0 0.016361657161654813 7.0742196223262988e-05 0 0.015231848789885745 -8.256925561291162e-06 0 0.015993475639058619 3.1232517998313482e-05 0 0.01550380546322238 -8.643645264906068e-08 0 0.015231848789885745 -8.256925561291162e-06 0 0.015993475639058619 3.1232517998313482e-05 0 0.016914179127988441 4.7295403972419586e-07 0 0.01550380546322238 -8.643645264906068e-08 0 0.016914179127988441 4.7295403972419586e-07 0 0.016361657161654813 7.0742196223262988e-05 0 0.017157006724774604 2.6428755682367398e-05 0 0.015993475639058619 3.1232517998313482e-05 0 0.016914179127988441 4.7295403972419586e-07 0 0.016361657161654813 7.0742196223262988e-05 0 0.016988728949601056 0.00023718395743696188 0 0.016882888255184785 -2.2636059329251532e-05 0 0.017036113519921292 -0.00014811012496411248 0 0.016361657161654813 7.0742196223262988e-05 0 0.017157006724774604 2.6428755682367398e-05 0 0.017036113519921292 -0.00014811012496411248 0 0.016648295754509979 0.00015507475089049347 0 0.016974186103224268 -9.2037463687757705e-05 0 0.016914179127988441 4.7295403972419586e-07 0 0.017157006724774604 2.6428755682367398e-05 0 0.018321482436566432 -1.0995880636443412e-06 0 0.017157006724774604 2.6428755682367398e-05 0 0.018321482436566432 -1.0995880636443412e-06 0 0.017036113519921292 -0.00014811012496411248 0 0.018323702280896009 -1.1518501250099564e-08 0 0.017742587857978082 -3.483401762063859e-05 0 0.018903784400809226 -1.4058041224981992e-05 0 0.01832618626272571 5.3707607572557669e-08 0 0.018736506768548523 0.00019337194685933385 0 0.018903784400809226 -1.4058041224981992e-05 0 0.018736506768548523 0.00019337194685933385 0 0.018791835544759654 -4.7006675693340232e-05 0 0.018321482436566432 -1.0995880636443412e-06 0 0.016811041344678826 -0.0002609073906131975 0 0.017036113519921292 -0.00014811012496411248 0 0.016882888255184785 -2.2636059329251532e-05 0 0.016811041344678826 -0.0002609073906131975 0 0.017036113519921292 -0.00014811012496411248 0 0.018497351740712147 -0.00018982618665173891 0 0.018736506768548523 0.00019337194685933385 0 0.018791835544759654 -4.7006675693340232e-05 0 0.017724194981426973 -0.00041965535121630626 0 0.018497351740712147 -0.00018982618665173891 0 0.018736506768548523 0.00019337194685933385 0 0.017742587857978082 -3.483401762063859e-05 0 0.01685268377328808 -4.4222649186598803e-05 0 0.017724194981426973 -0.00041965535121630626 0 0.018736506768548523 0.00019337194685933385 0 0.016756555520959397 -5.2016391864838916e-05 0 0.016882888255184785 -2.2636059329251532e-05 0 0.016811041344678826 -0.0002609073906131975 0 0.016753169329650142 2.0203530579083703e-05 0 0.016811041344678826 -0.0002609073906131975 0 0.016753169329650142 2.0203530579083703e-05 0 0.016756555520959397 -5.2016391864838916e-05 0 0.016988728949601056 0.00023718395743696188 0 0.016882888255184785 -2.2636059329251532e-05 0 0.016753169329650142 2.0203530579083703e-05 0 0.016489818343764468 0.00012013494374617177 0 0.016753169329650142 2.0203530579083703e-05 0 0.016756555520959397 -5.2016391864838916e-05 0 0.016897309245545868 -0.00061876780907094543 0 0.016756555520959397 -5.2016391864838916e-05 0 0.016455139424955668 -0.00033681604132879524 0 0.016897309245545868 -0.00061876780907094543 0 0.017724194981426973 -0.00041965535121630626 0 0.016756555520959397 -5.2016391864838916e-05 0 0.016756555520959397 -5.2016391864838916e-05 0 0.016455139424955668 -0.00033681604132879524 0 0.016257323973669403 -0.00023596634743262011 0 0.016455139424955668 -0.00033681604132879524 0 0.016227173083569819 -0.00033621935619579423 0 0.016257323973669403 -0.00023596634743262011 0 0.016312289798211879 -0.00064222576885515929 0 0.016455139424955668 -0.00033681604132879524 0 0.016227173083569819 -0.00033621935619579423 0 0.016227173083569819 -0.00033621935619579423 0 0.016257323973669403 -0.00023596634743262011 0 0.016115694327944484 -0.0002767219457843096 0 0.016312289798211879 -0.00064222576885515929 0 0.016227173083569819 -0.00033621935619579423 0 0.016102368145592134 -0.00034330754758539846 0 0.016227173083569819 -0.00033621935619579423 0 0.016102368145592134 -0.00034330754758539846 0 0.016115694327944484 -0.0002767219457843096 0 0.01640215316263241 -0.00027084892432138556 0 0.015099785049604035 -0.00053461620027164564 0 0.016257323973669403 -0.00023596634743262011 0 0.015140695968409321 -0.00066205915057925696 0 0.015580915051522757 1.0452424133415306e-05 0 0.015140695968409321 -0.00066205915057925696 0 0.015022267306042879 -0.00016073616993440753 0 0.015580915051522757 1.0452424133415306e-05 0 0.016489818343764468 0.00012013494374617177 0 0.016257323973669403 -0.00023596634743262011 0 0.01606930859865115 0.00021101788708595361 0 0.016257323973669403 -0.00023596634743262011 0 0.01606930859865115 0.00021101788708595361 0 0.015580915051522757 1.0452424133415306e-05 0 0.016489818343764468 0.00012013494374617177 0 0.016756555520959397 -5.2016391864838916e-05 0 0.016257323973669403 -0.00023596634743262011 0 0.020457786674341238 0.001081673362642101 0 0.020822424104790693 0.00096207624040337155 0 0.020945307824609148 0.0013098683763457541 0 0.020822424104790693 0.00096207624040337155 0 0.02109946119207164 0.00090675231919658847 0 0.020945307824609148 0.0013098683763457541 0 0.02093790888001993 0.00071680237371162068 0 0.020822424104790693 0.00096207624040337155 0 0.02109946119207164 0.00090675231919658847 0 0.018987524792534481 0.00023201095009653904 0 0.017518600955625102 0.00044711617312650842 0 0.016102368145592134 -0.00034330754758539846 0 0.016115694327944484 -0.0002767219457843096 0 0.016073260186442884 -0.00027252023106215416 0 0.02109946119207164 0.00090675231919658847 0 0.021434923136926399 0.00090685943406217443 0 0.020945307824609148 0.0013098683763457541 0 0.015099785049604035 -0.00053461620027164564 0 0.017518600955625102 0.00044711617312650842 0 0.015140695968409321 -0.00066205915057925696 0 0.014561800029176434 -0.00036279443417355729 0 0.014139612067709448 -0.00073654623450988648 0 0.015140695968409321 -0.00066205915057925696 0 0.015022267306042879 -0.00016073616993440753 0 0.014561800029176434 -0.00036279443417355729 0 0.014561800029176434 -0.00036279443417355729 0 0.014050040324287064 -0.00026096579073628737 0 0.014139612067709448 -0.00073654623450988648 0 0.014561800029176434 -0.00036279443417355729 0 0.014050040324287064 -0.00026096579073628737 0 0.014487954818484845 -1.1440282014826719e-05 0 0.013755158150141295 9.0311761876071966e-05 0 0.014487954818484845 -1.1440282014826719e-05 0 0.014288483375510627 0.00045258283150423671 0 0.013755158150141295 9.0311761876071966e-05 0 0.014050040324287064 -0.00026096579073628737 0 0.014487954818484845 -1.1440282014826719e-05 0 0.014487954818484845 -1.1440282014826719e-05 0 0.014979898626663928 0.00034211531101936867 0 0.014288483375510627 0.00045258283150423671 0 0.015022267306042879 -0.00016073616993440753 0 0.014561800029176434 -0.00036279443417355729 0 0.014487954818484845 -1.1440282014826719e-05 0 0.015022267306042879 -0.00016073616993440753 0 0.014487954818484845 -1.1440282014826719e-05 0 0.014979898626663928 0.00034211531101936867 0 0.015022267306042879 -0.00016073616993440753 0 0.014979898626663928 0.00034211531101936867 0 0.015580915051522757 1.0452424133415306e-05 0 0.014979898626663928 0.00034211531101936867 0 0.014659082041538733 0.00075003300805632817 0 0.015183352773162361 0.00081844736386529264 0 0.014659082041538733 0.00075003300805632817 0 0.015183352773162361 0.00081844736386529264 0 0.014717958662766248 0.0012039301854061535 0 0.014979898626663928 0.00034211531101936867 0 0.014659082041538733 0.00075003300805632817 0 0.014288483375510627 0.00045258283150423671 0 0.014659082041538733 0.00075003300805632817 0 0.014288483375510627 0.00045258283150423671 0 0.014103197551972157 0.00096651960516765654 0 0.014288483375510627 0.00045258283150423671 0 0.013766447219720146 0.00059959382748896531 0 0.014103197551972157 0.00096651960516765654 0 0.013473922031451493 0.00090526937151504301 0 0.013766447219720146 0.00059959382748896531 0 0.014103197551972157 0.00096651960516765654 0 0.013755158150141295 9.0311761876071966e-05 0 0.014288483375510627 0.00045258283150423671 0 0.013766447219720146 0.00059959382748896531 0 0.016489818343764468 0.00012013494374617177 0 0.01606930859865115 0.00021101788708595361 0 0.016234517223627971 0.00058565286345946721 0 0.014979898626663928 0.00034211531101936867 0 0.015580915051522757 1.0452424133415306e-05 0 0.015642446860182211 0.00048340871719956363 0 0.01606930859865115 0.00021101788708595361 0 0.015580915051522757 1.0452424133415306e-05 0 0.015642446860182211 0.00048340871719956363 0 0.014979898626663928 0.00034211531101936867 0 0.015642446860182211 0.00048340871719956363 0 0.015183352773162361 0.00081844736386529264 0 0.015642446860182211 0.00048340871719956363 0 0.015183352773162361 0.00081844736386529264 0 0.015656960356651217 0.00091906642259234844 0 0.015642446860182211 0.00048340871719956363 0 0.015656960356651217 0.00091906642259234844 0 0.016234517223627971 0.00058565286345946721 0 0.01606930859865115 0.00021101788708595361 0 0.015642446860182211 0.00048340871719956363 0 0.016234517223627971 0.00058565286345946721 0 0.015656960356651217 0.00091906642259234844 0 0.016234517223627971 0.00058565286345946721 0 0.015877965408339998 0.0014991894427245048 0 0.016234517223627971 0.00058565286345946721 0 0.016130294667947038 0.00094357423126351981 0 0.016011725841321631 0.00097592516665165948 0 0.01632984886336792 0.00060657437131723295 0 0.015430895398942268 0.0011932926812680622 0 0.016234517223627971 0.00058565286345946721 0 0.016130294667947038 0.00094357423126351981 0 0.016367049961254921 0.00089358942451664121 0 0.016130294667947038 0.00094357423126351981 0 0.016255271944880197 0.0011269840448409588 0 0.016367049961254921 0.00089358942451664121 0 0.016130294667947038 0.00094357423126351981 0 0.015963457512006261 0.00097604885606892536 0 0.016115250051443746 0.0011136139924933898 0 0.015962732241092546 0.0010196786520901384 0 0.015430895398942268 0.0011932926812680622 0 0.015656960356651217 0.00091906642259234844 0 0.015877965408339998 0.0014991894427245048 0 0.015293236199520745 0.0012493548872520718 0 0.015877965408339998 0.0014991894427245048 0 0.015293236199520745 0.0012493548872520718 0 0.014912703459046142 0.0017665961894998013 0 0.015183352773162361 0.00081844736386529264 0 0.015656960356651217 0.00091906642259234844 0 0.015293236199520745 0.0012493548872520718 0 0.015430895398942268 0.0011932926812680622 0 0.0140899163781376 0.001725204187476171 0 0.013909253397060759 0.0014676903640627784 0 0.013750095213890791 0.0015359955380462569 0 0.013495170545130074 0.0016002505104921506 0 0.015430895398942268 0.0011932926812680622 0 0.01255580702033603 0.00093353566878628675 0 0.013750095213890791 0.0015359955380462569 0 0.013735326793123353 0.001834559923991309 0 0.013686880388456897 0.0018419610862527181 0 0.013780742641412368 0.0017509618668644005 0 0.012241405608169005 0.0011403333976240044 0 0.013750095213890791 0.0015359955380462569 0 0.013604798857505032 0.0016985615399605614 0 0.013688806391823178 0.0018732639020007538 0 0.013909253397060759 0.0014676903640627784 0 0.013750095213890791 0.0015359955380462569 0 0.013735326793123353 0.001834559923991309 0 0.013750095213890791 0.0015359955380462569 0 0.013604798857505032 0.0016985615399605614 0 0.013495170545130074 0.0016002505104921506 0 0.013604798857505032 0.0016985615399605614 0 0.013485796738233597 0.001783157177648038 0 0.013688806391823178 0.0018732639020007538 0 0.016126344008039431 0.0012610695431863961 0 0.015734488197749225 0.0014552727022961302 0 0.016359976115754422 0.0013331189891852998 0 0.016008195570669723 0.0012294317421629093 0 0.016126344008039431 0.0012610695431863961 0 0.015734488197749225 0.0014552727022961302 0 0.015963457512006261 0.00097604885606892536 0 0.016008195570669723 0.0012294317421629093 0 0.015734488197749225 0.0014552727022961302 0 0.016008195570669723 0.0012294317421629093 0 0.016126344008039431 0.0012610695431863961 0 0.016115250051443746 0.0011136139924933898 0 0.016130294667947038 0.00094357423126351981 0 0.016115250051443746 0.0011136139924933898 0 0.016255271944880197 0.0011269840448409588 0 0.016126344008039431 0.0012610695431863961 0 0.016115250051443746 0.0011136139924933898 0 0.016255271944880197 0.0011269840448409588 0 0.015963457512006261 0.00097604885606892536 0 0.016008195570669723 0.0012294317421629093 0 0.016115250051443746 0.0011136139924933898 0 0.013586397785967774 0.0012689187469777689 0 0.014103197551972157 0.00096651960516765654 0 0.014227200337978895 0.0014256762250559169 0 0.013586397785967774 0.0012689187469777689 0 0.013473922031451493 0.00090526937151504301 0 0.014103197551972157 0.00096651960516765654 0 0.014103197551972157 0.00096651960516765654 0 0.014227200337978895 0.0014256762250559169 0 0.014717958662766248 0.0012039301854061535 0 0.014227200337978895 0.0014256762250559169 0 0.014717958662766248 0.0012039301854061535 0 0.014912703459046142 0.0017665961894998013 0 0.014659082041538733 0.00075003300805632817 0 0.014103197551972157 0.00096651960516765654 0 0.014717958662766248 0.0012039301854061535 0 0.015183352773162361 0.00081844736386529264 0 0.015293236199520745 0.0012493548872520718 0 0.014717958662766248 0.0012039301854061535 0 0.015293236199520745 0.0012493548872520718 0 0.014717958662766248 0.0012039301854061535 0 0.014912703459046142 0.0017665961894998013 0 0.0140899163781376 0.001725204187476171 0 0.013475604080202288 0.0018119679455647917 0 0.013495170545130074 0.0016002505104921506 0 0.013485796738233597 0.001783157177648038 0 0.013100087245316932 0.0017362703747657202 0 0.013604798857505032 0.0016985615399605614 0 0.013495170545130074 0.0016002505104921506 0 0.013485796738233597 0.001783157177648038 0 0.013586397785967774 0.0012689187469777689 0 0.014227200337978895 0.0014256762250559169 0 0.013811288312006096 0.0019495013032602281 0 0.014227200337978895 0.0014256762250559169 0 0.014912703459046142 0.0017665961894998013 0 0.013811288312006096 0.0019495013032602281 0 0.011102435200268429 0.0015935910805603328 0 0.01103686413679005 0.0014021110626144567 0 0.0092533833409287683 0.00117482463795266 0 0.0087256800650676765 0.0011037386157245863 0 0.00890442679306532 0.00082456302242415287 0 0.012946189411378629 0.0019955577834097158 0 0.013100087245316932 0.0017362703747657202 0 0.013380091456442087 0.0019332256091329095 0 0.013485796738233597 0.001783157177648038 0 0.013380091456442087 0.0019332256091329095 0 0.013688806391823178 0.0018732639020007538 0 0.01103686413679005 0.0014021110626144567 0 0.010894726141978155 0.00062281902610536455 0 0.01103686413679005 0.0014021110626144567 0 0.012241405608169005 0.0011403333976240044 0 0.0087256800650676765 0.0011037386157245863 0 0.0085914059817721253 0.00083480835070039053 0 0.0083786070965105614 0.00087303273196855232 0 0.013485796738233597 0.001783157177648038 0 0.013100087245316932 0.0017362703747657202 0 0.013380091456442087 0.0019332256091329095 0 0.0085914059817721253 0.00083480835070039053 0 0.0084062071105933476 0.0004795685363096256 0 0.00890442679306532 0.00082456302242415287 0 0.0084062071105933476 0.0004795685363096256 0 0.00890442679306532 0.00082456302242415287 0 0.0091154055145481645 0.00059265275020137231 0 0.0085914059817721253 0.00083480835070039053 0 0.0084062071105933476 0.0004795685363096256 0 0.0083786070965105614 0.00087303273196855232 0 0.0087256800650676765 0.0011037386157245863 0 0.0085914059817721253 0.00083480835070039053 0 0.00890442679306532 0.00082456302242415287 0 0.0092052067377315968 0.00090706813407495624 0 0.00890442679306532 0.00082456302242415287 0 0.0091154055145481645 0.00059265275020137231 0 0.0092533833409287683 0.00117482463795266 0 0.0092052067377315968 0.00090706813407495624 0 0.00890442679306532 0.00082456302242415287 0 0.01024182598938201 -0.00076694760857881161 0 0.01102841650878662 0.00029941645819567199 0 0.01255580702033603 0.00093353566878628675 0 0.013944249978914837 4.6117578268701274e-05 0 0.010689942285558226 -0.00075980402425652614 0 0.0099304463672185532 -0.00075953110633587796 0 0.010151316466902947 -0.00052096711050354024 0 0.010689942285558226 -0.00075980402425652614 0 0.0099941932576654395 -0.00084105267369428125 0 0.011152006396240012 -0.0010855429726938713 0 0.010689942285558226 -0.00075980402425652614 0 0.010151316466902947 -0.00052096711050354024 0 0.010361456044821938 -0.0003882219612882054 0 0.010689942285558226 -0.00075980402425652614 0 0.010791917842509029 -0.00024192664972767384 0 0.01116291949009399 -0.00057288205027752166 0 0.010689942285558226 -0.00075980402425652614 0 0.010361456044821938 -0.0003882219612882054 0 0.010791917842509029 -0.00024192664972767384 0 0.0087256800650676765 0.0011037386157245863 0 0.0083591542648063111 0.0010556048926243114 0 0.0083786070965105614 0.00087303273196855232 0 0.010689942285558226 -0.00075980402425652614 0 0.0099941932576654395 -0.00084105267369428125 0 0.0099453560378387762 -0.00071503700563583313 0 0.011011101388758486 0.001308215130780321 0 0.011681420057318872 0.001188857826553272 0 0.01166651248616765 0.0012863340929653456 0 0.01255580702033603 0.00093353566878628675 0 0.012241405608169005 0.0011403333976240044 0 0.011759773204524834 0.00072335215188595859 0 0.011707689267319755 0.00084941092999265514 0 0.011640577304698715 0.00074337352179060549 0 0.01255580702033603 0.00093353566878628675 0 0.01102841650878662 0.00029941645819567199 0 0.011707689267319755 0.00084941092999265514 0 0.011640577304698715 0.00074337352179060549 0 0.011623594504848638 0.00085129168454995535 0 0.012241405608169005 0.0011403333976240044 0 0.010894726141978155 0.00062281902610536455 0 0.01102841650878662 0.00029941645819567199 0 0.010894726141978155 0.00062281902610536455 0 0.01102841650878662 0.00029941645819567199 0 0.0095057241276644364 0.00027151863784650559 0 0.010894726141978155 0.00062281902610536455 0 0.0095057241276644364 0.00027151863784650559 0 0.010262768497823318 0.00028410605294203493 0 0.010223716063447663 0.00028500351043827887 0 0.010195781706698302 0.00043514769412852933 0 0.009826427367416575 -0.00044724371834631039 0 0.010151316466902947 -0.00052096711050354024 0 0.010115540060343542 -0.00031156416974760585 0 0.0099304463672185532 -0.00075953110633587796 0 0.009826427367416575 -0.00044724371834631039 0 0.010151316466902947 -0.00052096711050354024 0 0.0095057241276644364 0.00027151863784650559 0 0.008115149030496184 0.00044348957635029142 0 0.010115540060343542 -0.00031156416974760585 0 0.0099897017160440055 -4.533003263191973e-05 0 0.010339237776200421 -0.00017295735595814071 0 0.0095057241276644364 0.00027151863784650559 0 0.0089531966454516054 0.00030085528657246079 0 0.0084062071105933476 0.0004795685363096256 0 0.0083786070965105614 0.00087303273196855232 0 0.0083568789069936797 0.00028163688554156378 0 0.009826427367416575 -0.00044724371834631039 0 0.0095690665529610339 0.00041227455763815035 0 0.0098437866042433569 0.00012479821260729195 0 0.009826427367416575 -0.00044724371834631039 0 0.0099897017160440055 -4.533003263191973e-05 0 0.0098437866042433569 0.00012479821260729195 0 0.009826427367416575 -0.00044724371834631039 0 0.010115540060343542 -0.00031156416974760585 0 0.0099897017160440055 -4.533003263191973e-05 0 0.0099897017160440055 -4.533003263191973e-05 0 0.010457595970586106 0.00010970396622827217 0 0.010339237776200421 -0.00017295735595814071 0 0.010339237776200421 -0.00017295735595814071 0 0.010361456044821938 -0.0003882219612882054 0 0.010791917842509029 -0.00024192664972767384 0 0.010115540060343542 -0.00031156416974760585 0 0.010339237776200421 -0.00017295735595814071 0 0.010361456044821938 -0.0003882219612882054 0 0.010151316466902947 -0.00052096711050354024 0 0.010115540060343542 -0.00031156416974760585 0 0.010361456044821938 -0.0003882219612882054 0 0.010457595970586106 0.00010970396622827217 0 0.010339237776200421 -0.00017295735595814071 0 0.010791917842509029 -0.00024192664972767384 0 0.010457595970586106 0.00010970396622827217 0 0.010791917842509029 -0.00024192664972767384 0 0.010993973138918809 0.00024205794843843367 0 0.011585097501168019 -0.00024432655956901781 0 0.010993973138918809 0.00024205794843843367 0 0.011424479776174758 0.00042240634262009886 0 0.010791917842509029 -0.00024192664972767384 0 0.011585097501168019 -0.00024432655956901781 0 0.010993973138918809 0.00024205794843843367 0 0.011573226675134347 -0.00021694468339431119 0 0.011591098342850641 0.00032199486588945257 0 0.012272970872565328 -4.0101109460349484e-05 0 0.012366261233287884 0.00010681645920203145 0 0.011826635908727162 0.00029762957641710328 0 0.011585097501168019 -0.00024432655956901781 0 0.012272970872565328 -4.0101109460349484e-05 0 0.011826635908727162 0.00029762957641710328 0 0.012272970872565328 -4.0101109460349484e-05 0 0.011918135406118543 -0.00050451077578867755 0 0.012950132044639727 -0.00036265118005369696 0 0.011585097501168019 -0.00024432655956901781 0 0.012272970872565328 -4.0101109460349484e-05 0 0.011918135406118543 -0.00050451077578867755 0 0.012212601514874598 -0.00084863633513063955 0 0.012958626870208507 -0.001348178055575382 0 0.012950132044639727 -0.00036265118005369696 0 0.011918135406118543 -0.00050451077578867755 0 0.012212601514874598 -0.00084863633513063955 0 0.012950132044639727 -0.00036265118005369696 0 0.011918135406118543 -0.00050451077578867755 0 0.012212601514874598 -0.00084863633513063955 0 0.011152006396240012 -0.0010855429726938713 0 0.010791917842509029 -0.00024192664972767384 0 0.011585097501168019 -0.00024432655956901781 0 0.01116291949009399 -0.00057288205027752166 0 0.011585097501168019 -0.00024432655956901781 0 0.011918135406118543 -0.00050451077578867755 0 0.01116291949009399 -0.00057288205027752166 0 0.011918135406118543 -0.00050451077578867755 0 0.01116291949009399 -0.00057288205027752166 0 0.011152006396240012 -0.0010855429726938713 0 0.010689942285558226 -0.00075980402425652614 0 0.01116291949009399 -0.00057288205027752166 0 0.011152006396240012 -0.0010855429726938713 0 0.016126344008039431 0.0012610695431863961 0 0.016359976115754422 0.0013331189891852998 0 0.016255271944880197 0.0011269840448409588 0 0.016359976115754422 0.0013331189891852998 0 0.016255271944880197 0.0011269840448409588 0 0.016457709080451181 0.0010807982311524086 0 0.016255271944880197 0.0011269840448409588 0 0.016457709080451181 0.0010807982311524086 0 0.016367049961254921 0.00089358942451664121 0 0.016359976115754422 0.0013331189891852998 0 0.016457709080451181 0.0010807982311524086 0 0.016675812566673991 0.0010922352175701808 0 0.013944249978914837 4.6117578268701274e-05 0 0.014410910700206322 -0.00015960711516495898 0 0.012212601514874598 -0.00084863633513063955 0 0.011152006396240012 -0.0010855429726938713 0 0.012958626870208507 -0.001348178055575382 0 0.016359976115754422 0.0013331189891852998 0 0.016675812566673991 0.0010922352175701808 0 0.016894626344010951 0.0012163670099232117 0 0.016457709080451181 0.0010807982311524086 0 0.016675812566673991 0.0010922352175701808 0 0.016604990543349962 0.00092150131887358717 0 0.016675812566673991 0.0010922352175701808 0 0.016958258078597056 0.00071639457891015763 0 0.016894626344010951 0.0012163670099232117 0 0.016568224706997335 0.00069951920672340013 0 0.016604990543349962 0.00092150131887358717 0 0.016958258078597056 0.00071639457891015763 0 0.016675812566673991 0.0010922352175701808 0 0.016604990543349962 0.00092150131887358717 0 0.016958258078597056 0.00071639457891015763 0 0.016568224706997335 0.00069951920672340013 0 0.016604990543349962 0.00092150131887358717 0 0.016367049961254921 0.00089358942451664121 0 0.016457709080451181 0.0010807982311524086 0 0.016604990543349962 0.00092150131887358717 0 0.016367049961254921 0.00089358942451664121 0 0.01550380546322238 -8.643645264906068e-08 0 0.015231848789885745 -8.256925561291162e-06 0 0.014319456219545406 -9.2564085138844261e-05 0 0.016182421939433114 0.00057093223757948659 0 0.014410910700206322 -0.00015960711516495898 0 0.015231848789885745 -8.256925561291162e-06 0 0.013905872012653196 -0.00017038502304714728 0 0.013912111233334865 -0.0001683178834446664 0 0.013676455272846151 -0.00020951378838474809 0 0.014319456219545406 -9.2564085138844261e-05 0 0.013409851051275467 -0.00011075340497478518 0 0.015231848789885745 -8.256925561291162e-06 0 0.013912111233334865 -0.0001683178834446664 0 0.014319456219545406 -9.2564085138844261e-05 0 0.014410910700206322 -0.00015960711516495898 0 0.014332971178882499 -0.00015040816497206098 0 0.013843496732305869 -0.00018063405178420506 0 0.013912111233334865 -0.0001683178834446664 0 0.013676455272846151 -0.00020951378838474809 0 0.013912111233334865 -0.0001683178834446664 0 0.013676455272846151 -0.00020951378838474809 0 0.014319456219545406 -9.2564085138844261e-05 0 0.014094134474337459 -3.0210966816800153e-07 0 0.014319456219545406 -9.2564085138844261e-05 0 0.013409851051275467 -0.00011075340497478518 0 0.01550380546322238 -8.643645264906068e-08 0 0.014094134474337459 -3.0210966816800153e-07 0 0.014319456219545406 -9.2564085138844261e-05 0 0.014094134474337459 -3.0210966816800153e-07 0 0.013409851051275467 -0.00011075340497478518 0 0.012684454066770452 1.8457459651890166e-07 0 0.013676455272846151 -0.00020951378838474809 0 0.013409851051275467 -0.00011075340497478518 0 0.012950132044639727 -0.00036265118005369696 0 0.013409851051275467 -0.00011075340497478518 0 0.012950132044639727 -0.00036265118005369696 0 0.012366261233287884 0.00010681645920203145 0 0.013843496732305869 -0.00018063405178420506 0 0.013676455272846151 -0.00020951378838474809 0 0.012950132044639727 -0.00036265118005369696 0 0.014410910700206322 -0.00015960711516495898 0 0.013437924219800938 -0.00038879433801937153 0 0.012272970872565328 -4.0101109460349484e-05 0 0.012950132044639727 -0.00036265118005369696 0 0.012366261233287884 0.00010681645920203145 0 0.013409851051275467 -0.00011075340497478518 0 0.012366261233287884 0.00010681645920203145 0 0.012684454066770452 1.8457459651890166e-07 0 0.012684454066770452 1.8457459651890166e-07 0 0.011542897917528452 0.00015971819005509516 0 0.011274553720424633 3.0732757309719631e-07 0 0.012366261233287884 0.00010681645920203145 0 0.012684454066770452 1.8457459651890166e-07 0 0.011542897917528452 0.00015971819005509516 0 0.012366261233287884 0.00010681645920203145 0 0.011542897917528452 0.00015971819005509516 0 0.011826635908727162 0.00029762957641710328 0 0.011542897917528452 0.00015971819005509516 0 0.011159639695770808 0.00015827339762309396 0 0.010520339586391755 5.9752980197567549e-05 0 0.011542897917528452 0.00015971819005509516 0 0.011274553720424633 3.0732757309719631e-07 0 0.010520339586391755 5.9752980197567549e-05 0 0.010993973138918809 0.00024205794843843367 0 0.010959625367327013 0.001002419726677627 0 0.010457478840935185 0.00052476869692969158 0 0.010993973138918809 0.00024205794843843367 0 0.011424479776174758 0.00042240634262009886 0 0.010959625367327013 0.001002419726677627 0 0.011591098342850641 0.00032199486588945257 0 0.01147459608579573 0.00084222370236898493 0 0.011424479776174758 0.00042240634262009886 0 0.010959625367327013 0.001002419726677627 0 0.011601836524322982 0.0012110320390342566 0 0.011542897917528452 0.00015971819005509516 0 0.011826635908727162 0.00029762957641710328 0 0.011159639695770808 0.00015827339762309396 0 0.010959625367327013 0.001002419726677627 0 0.011386234187792339 0.0016905250598425873 0 0.010915626519558932 0.0020085062582734063 0 0.010959625367327013 0.001002419726677627 0 0.010915626519558932 0.0020085062582734063 0 0.010348690226093703 0.0014402472427405626 0 0.011601836524322982 0.0012110320390342566 0 0.011386234187792339 0.0016905250598425873 0 0.011818611705996209 0.0020688945239689814 0 0.010959625367327013 0.001002419726677627 0 0.011601836524322982 0.0012110320390342566 0 0.011386234187792339 0.0016905250598425873 0 0.01147459608579573 0.00084222370236898493 0 0.010188329696369765 0.0006037637652880906 0 0.011386234187792339 0.0016905250598425873 0 0.010915626519558932 0.0020085062582734063 0 0.011818611705996209 0.0020688945239689814 0 0.0097842824622162705 0.0010732876523723749 0 0.010188329696369765 0.0006037637652880906 0 0.0087841402672482177 0.00017089781032868779 0 0.0085112113930682562 3.3384044277154857e-05 0 0.0091422909821616046 -2.7886614415628086e-05 0 0.0087841402672482177 0.00017089781032868779 0 0.0091422909821616046 -2.7886614415628086e-05 0 0.0091860432600041307 7.7504236973774881e-05 0 0.011274553720424633 3.0732757309719631e-07 0 0.0098649679326499925 -1.0357757565369352e-07 0 0.0099663720618092741 -1.0549279906848637e-05 0 0.011274553720424633 3.0732757309719631e-07 0 0.010520339586391755 5.9752980197567549e-05 0 0.0099663720618092741 -1.0549279906848637e-05 0 0.011159639695770808 0.00015827339762309396 0 0.010520339586391755 5.9752980197567549e-05 0 0.010088470656272157 -0.00011989134970755117 0 0.0099663720618092741 -1.0549279906848637e-05 0 0.0090930565898516332 8.7303012832213686e-05 0 0.0093579064911143185 7.2131148893985999e-05 0 0.010520339586391755 5.9752980197567549e-05 0 0.009725173758889356 -0.00010523316586209386 0 0.0099663720618092741 -1.0549279906848637e-05 0 0.010520339586391755 5.9752980197567549e-05 0 0.010088470656272157 -0.00011989134970755117 0 0.009725173758889356 -0.00010523316586209386 0 0.010188329696369765 0.0006037637652880906 0 0.0098509226887252329 0.00041725155235427771 0 0.0091571613181303385 -0.00025569994639575844 0 0.009725173758889356 -0.00010523316586209386 0 0.0091860432600041307 7.7504236973774881e-05 0 0.010188329696369765 0.0006037637652880906 0 0.0099246194837103868 0.00021242366611517544 0 0.009725173758889356 -0.00010523316586209386 0 0.0091860432600041307 7.7504236973774881e-05 0 0.0093579064911143185 7.2131148893985999e-05 0 0.009725173758889356 -0.00010523316586209386 0 0.0099663720618092741 -1.0549279906848637e-05 0 0.0093579064911143185 7.2131148893985999e-05 0 0.0098649679326499925 -1.0357757565369352e-07 0 0.0099663720618092741 -1.0549279906848637e-05 0 0.0090930565898516332 8.7303012832213686e-05 0 0.0090930565898516332 8.7303012832213686e-05 0 0.0084549590610018231 2.7659385287115392e-07 0 0.0084855367224335315 0.00021699521217803544 0 0.0098649679326499925 -1.0357757565369352e-07 0 0.0090930565898516332 8.7303012832213686e-05 0 0.0084549590610018231 2.7659385287115392e-07 0 0.0084549590610018231 2.7659385287115392e-07 0 0.0084855367224335315 0.00021699521217803544 0 0.0075458747697622792 -2.3702931441190776e-05 0 0.0084855367224335315 0.00021699521217803544 0 0.0088170806895146864 0.00036695309591794546 0 0.0075458747697622792 -2.3702931441190776e-05 0 0.0084855367224335315 0.00021699521217803544 0 0.0090177039541494541 0.00021947327906253366 0 0.0088216178479635469 0.00030036456669918943 0 0.0090930565898516332 8.7303012832213686e-05 0 0.0084855367224335315 0.00021699521217803544 0 0.0090177039541494541 0.00021947327906253366 0 0.0090930565898516332 8.7303012832213686e-05 0 0.0093579064911143185 7.2131148893985999e-05 0 0.0090177039541494541 0.00021947327906253366 0 0.0091860432600041307 7.7504236973774881e-05 0 0.0093579064911143185 7.2131148893985999e-05 0 0.0090177039541494541 0.00021947327906253366 0 0.0087841402672482177 0.00017089781032868779 0 0.0090177039541494541 0.00021947327906253366 0 0.0088216178479635469 0.00030036456669918943 0 0.0087841402672482177 0.00017089781032868779 0 0.0091860432600041307 7.7504236973774881e-05 0 0.0090177039541494541 0.00021947327906253366 0 0.0087841402672482177 0.00017089781032868779 0 0.0088216178479635469 0.00030036456669918943 0 0.0088170806895146864 0.00036695309591794546 0 0.0087841402672482177 0.00017089781032868779 0 0.0088170806895146864 0.00036695309591794546 0 0.0081938834244040162 0.00061778154089255359 0 0.0087841402672482177 0.00017089781032868779 0 0.0085112113930682562 3.3384044277154857e-05 0 0.0081938834244040162 0.00061778154089255359 0 0.0075869210686104012 0.00013293042973848255 0 0.0071048610690056732 0.00036263262096900115 0 0.0063843651764496747 -0.00013528871354821925 0 0.0062019724217918289 0.00013668526376831288 0 0.006016436050546351 0.00012372197801107022 0 0.0084855367224335315 0.00021699521217803544 0 0.0088216178479635469 0.00030036456669918943 0 0.0088170806895146864 0.00036695309591794546 0 0.0063843651764496747 -0.00013528871354821925 0 0.006526392688647068 0.00021927382174381229 0 0.0075458747697622792 -2.3702931441190776e-05 0 0.0063843651764496747 -0.00013528871354821925 0 0.006526392688647068 0.00021927382174381229 0 0.0062019724217918289 0.00013668526376831288 0 0.006526392688647068 0.00021927382174381229 0 0.0062019724217918289 0.00013668526376831288 0 0.0063241524585507317 0.00031118249517437114 0 0.0063241524585507317 0.00031118249517437114 0 0.006136306817124744 0.00034409757240338226 0 0.0062944535092191167 0.00047402549223756472 0 0.0062019724217918289 0.00013668526376831288 0 0.0063241524585507317 0.00031118249517437114 0 0.006136306817124744 0.00034409757240338226 0 0.006526392688647068 0.00021927382174381229 0 0.0066300800283822185 0.00024203498434190838 0 0.0064726147501010444 0.00037892259192249481 0 0.006526392688647068 0.00021927382174381229 0 0.0063241524585507317 0.00031118249517437114 0 0.0064726147501010444 0.00037892259192249481 0 0.0066300800283822185 0.00024203498434190838 0 0.0070452155565350087 7.2991390036383179e-10 0 0.0056354747988833003 3.3087316457109078e-07 0 0.0084549590610018231 2.7659385287115392e-07 0 0.0075458747697622792 -2.3702931441190776e-05 0 0.0070452155565350087 7.2991390036383179e-10 0 0.0066300800283822185 0.00024203498434190838 0 0.0075458747697622792 -2.3702931441190776e-05 0 0.0070452155565350087 7.2991390036383179e-10 0 0.006526392688647068 0.00021927382174381229 0 0.0066300800283822185 0.00024203498434190838 0 0.0075458747697622792 -2.3702931441190776e-05 0 0.0075869210686104012 0.00013293042973848255 0 0.0075683042573676442 -4.5975081353236852e-06 0 0.0059293555159998209 0.00026054605997797697 0 0.0059757204178397709 0.00028327213198353748 0 0.0057943041090571731 0.00031984947915420512 0 0.0059293555159998209 0.00026054605997797697 0 0.0057943041090571731 0.00031984947915420512 0 0.0059490874127747029 0.0003127403404690149 0 0.0059293555159998209 0.00026054605997797697 0 0.0059757204178397709 0.00028327213198353748 0 0.0061461403435564823 0.00033892273082731264 0 0.0059757204178397709 0.00028327213198353748 0 0.0057943041090571731 0.00031984947915420512 0 0.0058858080999046316 0.00018342236303011108 0 0.0057461867283755122 0.0003267119567755192 0 0.0056055367032017888 0.0003471103786354299 0 0.0057943041090571731 0.00031984947915420512 0 0.0059490874127747029 0.0003127403404690149 0 0.0059579057148648083 0.00044238340430750465 0 0.0059490874127747029 0.0003127403404690149 0 0.0060312215468820811 0.00036531999751797124 0 0.0059579057148648083 0.00044238340430750465 0 0.0062019724217918289 0.00013668526376831288 0 0.006136306817124744 0.00034409757240338226 0 0.0060488579103218972 0.00023634501940861431 0 0.0059490874127747029 0.0003127403404690149 0 0.0060312215468820811 0.00036531999751797124 0 0.0060488579103218972 0.00023634501940861431 0 0.006136306817124744 0.00034409757240338226 0 0.0060312215468820811 0.00036531999751797124 0 0.0060488579103218972 0.00023634501940861431 0 0.0062019724217918289 0.00013668526376831288 0 0.0060488579103218972 0.00023634501940861431 0 0.006016436050546351 0.00012372197801107022 0 0.0059293555159998209 0.00026054605997797697 0 0.0060488579103218972 0.00023634501940861431 0 0.006016436050546351 0.00012372197801107022 0 0.0059293555159998209 0.00026054605997797697 0 0.0059490874127747029 0.0003127403404690149 0 0.0060488579103218972 0.00023634501940861431 0 0.0059293555159998209 0.00026054605997797697 0 0.006016436050546351 0.00012372197801107022 0 0.0059705476379844939 0.00042083699010427407 0 0.0071048610690056732 0.00036263262096900115 0 0.0066580556422207093 0.00055171617437222375 0 0.0081938834244040162 0.00061778154089255359 0 0.0073344314912858798 0.0006944326871168577 0 0.0074951810165026214 0.0003655233965538518 0 0.0081938834244040162 0.00061778154089255359 0 0.0074951810165026214 0.0003655233965538518 0 0.0078983090913360959 0.00010532277898886794 0 0.0059293555159998209 0.00026054605997797697 0 0.0059705476379844939 0.00042083699010427407 0 0.0061810100011193076 0.00040417906049604579 0 0.0059293555159998209 0.00026054605997797697 0 0.0061461403435564823 0.00033892273082731264 0 0.0061810100011193076 0.00040417906049604579 0 0.0061461403435564823 0.00033892273082731264 0 0.0061810100011193076 0.00040417906049604579 0 0.0063835019006614705 0.00048651066139827713 0 0.0059705476379844939 0.00042083699010427407 0 0.0061810100011193076 0.00040417906049604579 0 0.0066010530439464055 0.00071602114727913795 0 0.0066580556422207093 0.00055171617437222375 0 0.0065956924668525759 0.00069079485230833914 0 0.0061810100011193076 0.00040417906049604579 0 0.0066010530439464055 0.00071602114727913795 0 0.0063835019006614705 0.00048651066139827713 0 0.0073344314912858798 0.0006944326871168577 0 0.0071226578504796877 0.00031163403612965404 0 0.0066010530439464055 0.00071602114727913795 0 0.0071226578504796877 0.00031163403612965404 0 0.0066010530439464055 0.00071602114727913795 0 0.0068453875201694271 0.00086891170105194283 0 0.0073344314912858798 0.0006944326871168577 0 0.0071226578504796877 0.00031163403612965404 0 0.0074951810165026214 0.0003655233965538518 0 0.0082586579863438616 0.0017223555106349047 0 0.0088150744315775523 0.0012551570055398778 0 0.0079162201694431659 0.0010428474427677421 0 0.0088150744315775523 0.0012551570055398778 0 0.0079162201694431659 0.0010428474427677421 0 0.00820021364018589 0.00066531075856267829 0 0.0082586579863438616 0.0017223555106349047 0 0.0079162201694431659 0.0010428474427677421 0 0.0068453875201694271 0.00086891170105194283 0 0.0077391354163692562 0.0010066742239313031 0 0.0069622182929218483 0.0008957535483341899 0 0.0079162201694431659 0.0010428474427677421 0 0.0076240485152311828 0.00069095779882813457 0 0.0068453875201694271 0.00086891170105194283 0 0.010915626519558932 0.0020085062582734063 0 0.0098290920020511416 0.0019919606223601271 0 0.010348690226093703 0.0014402472427405626 0 0.0097842824622162705 0.0010732876523723749 0 0.0088445697106571981 0.0010411505039110442 0 0.0085112113930682562 3.3384044277154857e-05 0 0.0081938834244040162 0.00061778154089255359 0 0.0078983090913360959 0.00010532277898886794 0 0.0071226578504796877 0.00031163403612965404 0 0.0074951810165026214 0.0003655233965538518 0 0.0078983090913360959 0.00010532277898886794 0 0.0077391354163692562 0.0010066742239313031 0 0.0088445697106571981 0.0010411505039110442 0 0.0088150744315775523 0.0012551570055398778 0 0.0098290920020511416 0.0019919606223601271 0 0.0097708880793890649 0.0012969922438725353 0 0.0082586579863438616 0.0017223555106349047 0 0.0088150744315775523 0.0012551570055398778 0 0.0098290920020511416 0.0019919606223601271 0 0.0088150744315775523 0.0012551570055398778 0 0.0097708880793890649 0.0012969922438725353 0 0.009578690926625992 0.00088558351197513786 0 0.0098290920020511416 0.0019919606223601271 0 0.0097708880793890649 0.0012969922438725353 0 0.010348690226093703 0.0014402472427405626 0 0.0097708880793890649 0.0012969922438725353 0 0.010348690226093703 0.0014402472427405626 0 0.010159127083334992 0.00095384050972109353 0 0.010959625367327013 0.001002419726677627 0 0.010159127083334992 0.00095384050972109353 0 0.010457478840935185 0.00052476869692969158 0 0.010959625367327013 0.001002419726677627 0 0.010348690226093703 0.0014402472427405626 0 0.010159127083334992 0.00095384050972109353 0 0.010159127083334992 0.00095384050972109353 0 0.0098228218025853149 0.00058303295007416695 0 0.010457478840935185 0.00052476869692969158 0 0.0088150744315775523 0.0012551570055398778 0 0.009578690926625992 0.00088558351197513786 0 0.0095690665529610339 0.00041227455763815035 0 0.010159127083334992 0.00095384050972109353 0 0.0098228218025853149 0.00058303295007416695 0 0.009578690926625992 0.00088558351197513786 0 0.0097708880793890649 0.0012969922438725353 0 0.010159127083334992 0.00095384050972109353 0 0.009578690926625992 0.00088558351197513786 0 0.0098228218025853149 0.00058303295007416695 0 0.009578690926625992 0.00088558351197513786 0 0.0095690665529610339 0.00041227455763815035 0 0.0084447367375098687 8.5533963552476627e-05 0 0.0084425373592916363 0.00029878916879889689 0 0.0083568789069936797 0.00028163688554156378 0 0.0098228218025853149 0.00058303295007416695 0 0.0095690665529610339 0.00041227455763815035 0 0.0098091547354828106 0.00036858682052129827 0 0.0095690665529610339 0.00041227455763815035 0 0.0098437866042433569 0.00012479821260729195 0 0.0098091547354828106 0.00036858682052129827 0 0.0099897017160440055 -4.533003263191973e-05 0 0.0098437866042433569 0.00012479821260729195 0 0.010042723260951845 0.00031396775178601307 0 0.0098437866042433569 0.00012479821260729195 0 0.010042723260951845 0.00031396775178601307 0 0.0098091547354828106 0.00036858682052129827 0 0.0098228218025853149 0.00058303295007416695 0 0.010042723260951845 0.00031396775178601307 0 0.0098091547354828106 0.00036858682052129827 0 0.0098228218025853149 0.00058303295007416695 0 0.010042723260951845 0.00031396775178601307 0 0.010457478840935185 0.00052476869692969158 0 0.010457595970586106 0.00010970396622827217 0 0.010042723260951845 0.00031396775178601307 0 0.010457478840935185 0.00052476869692969158 0 0.0099897017160440055 -4.533003263191973e-05 0 0.010457595970586106 0.00010970396622827217 0 0.010042723260951845 0.00031396775178601307 0 0.010457595970586106 0.00010970396622827217 0 0.010993973138918809 0.00024205794843843367 0 0.010457478840935185 0.00052476869692969158 0 0.0076240485152311828 0.00069095779882813457 0 0.0076529958296510424 8.2888592102936109e-05 0 0.0070713810454690112 0.00062975167463372368 0 0.0076240485152311828 0.00069095779882813457 0 0.0080102340773468613 0.00047329006438768476 0 0.0076529958296510424 8.2888592102936109e-05 0 0.0076240485152311828 0.00069095779882813457 0 0.00820021364018589 0.00066531075856267829 0 0.0080102340773468613 0.00047329006438768476 0 0.0079162201694431659 0.0010428474427677421 0 0.0076240485152311828 0.00069095779882813457 0 0.00820021364018589 0.00066531075856267829 0 0.0088150744315775523 0.0012551570055398778 0 0.0084425373592916363 0.00029878916879889689 0 0.00820021364018589 0.00066531075856267829 0 0.008832179204478029 0.0013086917994784048 0 0.0089531966454516054 0.00030085528657246079 0 0.0084425373592916363 0.00029878916879889689 0 0.00820021364018589 0.00066531075856267829 0 0.0081923585348200531 0.00037698260501222054 0 0.00820021364018589 0.00066531075856267829 0 0.0080102340773468613 0.00047329006438768476 0 0.0081923585348200531 0.00037698260501222054 0 0.0083506609137268487 0.0004678335389360932 0 0.0083567337246573618 0.00037695434078803081 0 0.0084062071105933476 0.0004795685363096256 0 0.0083568789069936797 0.00028163688554156378 0 0.0076529958296510424 8.2888592102936109e-05 0 0.0081923585348200531 0.00037698260501222054 0 0.0083568789069936797 0.00028163688554156378 0 0.0076529958296510424 8.2888592102936109e-05 0 0.0084425373592916363 0.00029878916879889689 0 0.0081923585348200531 0.00037698260501222054 0 0.0083568789069936797 0.00028163688554156378 0 0.0080102340773468613 0.00047329006438768476 0 0.0081923585348200531 0.00037698260501222054 0 0.0076529958296510424 8.2888592102936109e-05 0 0.0094051473739808784 0.00085762630335293045 0 0.0091154055145481645 0.00059265275020137231 0 0.0095406461223284719 0.00070765216395880608 0 0.0083567337246573618 0.00037695434078803081 0 0.0081658007453996161 0.00057123797395270748 0 0.0076529958296510424 8.2888592102936109e-05 0 0.0070713810454690112 0.00062975167463372368 0 0.0067816548274179031 0.00042761814549993079 0 0.0067816548274179031 0.00042761814549993079 0 0.0066331163411675522 0.00063864377250535237 0 0.0067190468178131239 0.00073374169358349554 0 0.0070713810454690112 0.00062975167463372368 0 0.0067816548274179031 0.00042761814549993079 0 0.0067190468178131239 0.00073374169358349554 0 0.0096187960052231958 0.0010073919706313475 0 0.0095406461223284719 0.00070765216395880608 0 0.0097654979589609087 0.00090987188149268248 0 0.0094051473739808784 0.00085762630335293045 0 0.0096187960052231958 0.0010073919706313475 0 0.0095406461223284719 0.00070765216395880608 0 0.0099033571966776843 0.0010373395967157148 0 0.009762434097970233 0.00098514582895462672 0 0.0097524605661502371 0.00092447239468387225 0 0.0097654979589609087 0.00090987188149268248 0 0.0097524605661502371 0.00092447239468387225 0 0.0097511080336786793 0.0008677365361318166 0 0.0099033571966776843 0.0010373395967157148 0 0.0097654979589609087 0.00090987188149268248 0 0.0097524605661502371 0.00092447239468387225 0 0.0097524605661502371 0.00092447239468387225 0 0.0097511080336786793 0.0008677365361318166 0 0.0096522233313387513 0.0010016426906032537 0 0.0095406461223284719 0.00070765216395880608 0 0.0097654979589609087 0.00090987188149268248 0 0.0097511080336786793 0.0008677365361318166 0 0.0081658007453996161 0.00057123797395270748 0 0.0081837996755694115 0.00072030063862420647 0 0.0066331163411675522 0.00063864377250535237 0 0.0066536118825893551 0.00069620457894381679 0 0.0067190468178131239 0.00073374169358349554 0 0.0066331163411675522 0.00063864377250535237 0 0.0066619354122915506 0.00067592762989445679 0 0.006683394563324052 0.00068440213221044308 0 0.0066331163411675522 0.00063864377250535237 0 0.0066619354122915506 0.00067592762989445679 0 0.0066536118825893551 0.00069620457894381679 0 0.0066619354122915506 0.00067592762989445679 0 0.0066941564049924429 0.00066408183889186446 0 0.006683394563324052 0.00068440213221044308 0 0.0081837996755694115 0.00072030063862420647 0 0.0081995793166410313 0.001040789047817826 0 0.0066619354122915506 0.00067592762989445679 0 0.0066941564049924429 0.00066408183889186446 0 0.0066536118825893551 0.00069620457894381679 0 0.0066941564049924429 0.00066408183889186446 0 0.0066536118825893551 0.00069620457894381679 0 0.0066556380399301002 0.00062207811928762034 0 0.0066536118825893551 0.00069620457894381679 0 0.0066362970640825789 0.00070142706417017722 0 0.0066095273339897669 0.00062656726201430464 0 0.0066536118825893551 0.00069620457894381679 0 0.0066095273339897669 0.00062656726201430464 0 0.0066556380399301002 0.00062207811928762034 0 0.0066536118825893551 0.00069620457894381679 0 0.0066362970640825789 0.00070142706417017722 0 0.0067190468178131239 0.00073374169358349554 0 0.0066362970640825789 0.00070142706417017722 0 0.0066902635801020516 0.00076059284494110258 0 0.0067190468178131239 0.00073374169358349554 0 0.0066362970640825789 0.00070142706417017722 0 0.0066902635801020516 0.00076059284494110258 0 0.0065509401528947185 0.00062824322772900764 0 0.0066010530439464055 0.00071602114727913795 0 0.0066902635801020516 0.00076059284494110258 0 0.0065509401528947185 0.00062824322772900764 0 0.0066010530439464055 0.00071602114727913795 0 0.0066902635801020516 0.00076059284494110258 0 0.0068453875201694271 0.00086891170105194283 0 0.0066902635801020516 0.00076059284494110258 0 0.0068453875201694271 0.00086891170105194283 0 0.0067190468178131239 0.00073374169358349554 0 0.0070713810454690112 0.00062975167463372368 0 0.0068453875201694271 0.00086891170105194283 0 0.0067190468178131239 0.00073374169358349554 0 0.0076240485152311828 0.00069095779882813457 0 0.0070713810454690112 0.00062975167463372368 0 0.0068453875201694271 0.00086891170105194283 0 0.009030031999928986 0.00077233012771899998 0 0.00914431195594698 0.00070360504380714687 0 0.0091148520682291442 0.00072164171120371492 0 0.009030031999928986 0.00077233012771899998 0 0.00914431195594698 0.00070360504380714687 0 0.0091207570983628476 0.0007200711569981639 0 0.009356045706430699 0.00079202794372772493 0 0.0092575968086123506 0.00084480590471064983 0 0.0092171736129491779 0.0006783214665342501 0 0.00914431195594698 0.00070360504380714687 0 0.0091148520682291442 0.00072164171120371492 0 0.0095522762652416639 0.00093894480043286944 0 0.0094409941516221309 0.00094098692486519061 0 0.0095846921031637212 0.00095338813815489291 0 0.0094409941516221309 0.00094098692486519061 0 0.0093516882689034745 0.00093266960406721748 0 0.0094963287185088341 0.00093633732319431775 0 0.009030031999928986 0.00077233012771899998 0 0.0091148520682291442 0.00072164171120371492 0 0.0090402749889395406 0.00094246442822305799 0 0.0092575968086123506 0.00084480590471064983 0 0.0090957865843589343 0.00093605992158011446 0 0.0094409941516221309 0.00094098692486519061 0 0.0093516882689034745 0.00093266960406721748 0 0.0090402749889395406 0.00094246442822305799 0 0.0093516882689034745 0.00093266960406721748 0 0.0095817281931544745 0.00095128788329911103 0 0.0094798432126288294 0.0010062729200627527 0 0.0093516882689034745 0.00093266960406721748 0 0.0094963287185088341 0.00093633732319431775 0 0.0095817281931544745 0.00095128788329911103 0 0.0094963287185088341 0.00093633732319431775 0 0.0096624922046352115 0.00094319068097943181 0 0.0095817281931544745 0.00095128788329911103 0 0.0094409941516221309 0.00094098692486519061 0 0.0094963287185088341 0.00093633732319431775 0 0.0095846921031637212 0.00095338813815489291 0 0.0094963287185088341 0.00093633732319431775 0 0.0095846921031637212 0.00095338813815489291 0 0.0096624922046352115 0.00094319068097943181 0 0.009762434097970233 0.00098514582895462672 0 0.0095846921031637212 0.00095338813815489291 0 0.0096624922046352115 0.00094319068097943181 0 0.009762434097970233 0.00098514582895462672 0 0.0097524605661502371 0.00092447239468387225 0 0.0096624922046352115 0.00094319068097943181 0 0.0097524605661502371 0.00092447239468387225 0 0.0095817281931544745 0.00095128788329911103 0 0.0096522233313387513 0.0010016426906032537 0 0.0097524605661502371 0.00092447239468387225 0 0.0096624922046352115 0.00094319068097943181 0 0.0095817281931544745 0.00095128788329911103 0 0.0094636975717831955 0.0011787274185016449 0 0.0081995793166410313 0.001040789047817826 0 0.0095817281931544745 0.00095128788329911103 0 0.0095864803740399861 0.0010460610189616626 0 0.0094798432126288294 0.0010062729200627527 0 0.0069262240128945942 0.0018313925158336844 0 0.0072297591547647805 0.00097713744033229395 0 0.0077046301522654863 0.0015645921065633819 0 0.0064385333002426179 0.00069750611137081825 0 0.0081995793166410313 0.001040789047817826 0 0.0064521967285105074 0.00078613602620750491 0 0.0072297591547647805 0.00097713744033229395 0 0.006928683426437281 0.00047632298537338157 0 0.0064521967285105074 0.00078613602620750491 0 0.0069262240128945942 0.0018313925158336844 0 0.0072297591547647805 0.00097713744033229395 0 0.0072297591547647805 0.00097713744033229395 0 0.0075211463979726126 0.00042702388319410184 0 0.006928683426437281 0.00047632298537338157 0 0.0072297591547647805 0.00097713744033229395 0 0.0078849158948283826 0.00093723625848594352 0 0.0077046301522654863 0.0015645921065633819 0 0.0072297591547647805 0.00097713744033229395 0 0.0078849158948283826 0.00093723625848594352 0 0.0075211463979726126 0.00042702388319410184 0 0.0078849158948283826 0.00093723625848594352 0 0.0083261721915014499 0.00065228687471453753 0 0.0075211463979726126 0.00042702388319410184 0 0.0078849158948283826 0.00093723625848594352 0 0.0077046301522654863 0.0015645921065633819 0 0.0087237879756407941 0.0010656724369307827 0 0.0081995793166410313 0.001040789047817826 0 0.0085223724495211185 0.0012973112895937253 0 0.0095864803740399861 0.0010460610189616626 0 0.0093722803502603886 0.0010965082069143079 0 0.0094798432126288294 0.0010062729200627527 0 0.0093516882689034745 0.00093266960406721748 0 0.0093722803502603886 0.0010965082069143079 0 0.0094798432126288294 0.0010062729200627527 0 0.0093516882689034745 0.00093266960406721748 0 0.0093722803502603886 0.0010965082069143079 0 0.0090402749889395406 0.00094246442822305799 0 0.0090402749889395406 0.00094246442822305799 0 0.0088520922008527483 0.0009690279040018093 0 0.0089275169852653571 0.00087887961288622609 0 0.0090402749889395406 0.00094246442822305799 0 0.0088520922008527483 0.0009690279040018093 0 0.0087237879756407941 0.0010656724369307827 0 0.0093722803502603886 0.0010965082069143079 0 0.0090402749889395406 0.00094246442822305799 0 0.0087237879756407941 0.0010656724369307827 0 0.0085223724495211185 0.0012973112895937253 0 0.0087314995373890519 0.0011302611816618388 0 0.0078849158948283826 0.00093723625848594352 0 0.0087237879756407941 0.0010656724369307827 0 0.0083261721915014499 0.00065228687471453753 0 0.0083261721915014499 0.00065228687471453753 0 0.0088261517511483423 0.0008268371612502398 0 0.0086349653861531369 0.00047033873613847374 0 0.0087237879756407941 0.0010656724369307827 0 0.0083261721915014499 0.00065228687471453753 0 0.0088261517511483423 0.0008268371612502398 0 0.0088520922008527483 0.0009690279040018093 0 0.0087237879756407941 0.0010656724369307827 0 0.0088261517511483423 0.0008268371612502398 0 0.0088261517511483423 0.0008268371612502398 0 0.0089619496603712823 0.00074230727556209896 0 0.0089275169852653571 0.00087887961288622609 0 0.0088261517511483423 0.0008268371612502398 0 0.0089389608102450127 0.00052260944692269844 0 0.0086349653861531369 0.00047033873613847374 0 0.0088261517511483423 0.0008268371612502398 0 0.0089619496603712823 0.00074230727556209896 0 0.0089389608102450127 0.00052260944692269844 0 0.009030031999928986 0.00077233012771899998 0 0.0090402749889395406 0.00094246442822305799 0 0.0089275169852653571 0.00087887961288622609 0 0.0089619496603712823 0.00074230727556209896 0 0.0089275169852653571 0.00087887961288622609 0 0.0090279385154289557 0.00075772515350358127 0 0.0088520922008527483 0.0009690279040018093 0 0.0088261517511483423 0.0008268371612502398 0 0.0089275169852653571 0.00087887961288622609 0 0.009030031999928986 0.00077233012771899998 0 0.0089275169852653571 0.00087887961288622609 0 0.0090279385154289557 0.00075772515350358127 0 0.0087664559203447824 0.0001103800757537279 0 0.0083489181508174439 -0.00047494232039770138 0 0.0090386239395290023 -2.6115595146445709e-05 0 0.0087664559203447824 0.0001103800757537279 0 0.0089389608102450127 0.00052260944692269844 0 0.0086349653861531369 0.00047033873613847374 0 0.0087664559203447824 0.0001103800757537279 0 0.0086349653861531369 0.00047033873613847374 0 0.0082272421621417818 0.00019340419509631995 0 0.0083261721915014499 0.00065228687471453753 0 0.0082272421621417818 0.00019340419509631995 0 0.0075211463979726126 0.00042702388319410184 0 0.0083261721915014499 0.00065228687471453753 0 0.0086349653861531369 0.00047033873613847374 0 0.0082272421621417818 0.00019340419509631995 0 0.0082272421621417818 0.00019340419509631995 0 0.0074525766708722187 -0.00011987710157767791 0 0.0083489181508174439 -0.00047494232039770138 0 0.0087664559203447824 0.0001103800757537279 0 0.0082272421621417818 0.00019340419509631995 0 0.0083489181508174439 -0.00047494232039770138 0 0.0074525766708722187 -0.00011987710157767791 0 0.0066471036359965485 -0.00064046711687638425 0 0.0083489181508174439 -0.00047494232039770138 0 0.0082272421621417818 0.00019340419509631995 0 0.0074525766708722187 -0.00011987710157767791 0 0.0075211463979726126 0.00042702388319410184 0 0.0074525766708722187 -0.00011987710157767791 0 0.0075211463979726126 0.00042702388319410184 0 0.0068022819185182713 1.0114958479309032e-05 0 0.0075211463979726126 0.00042702388319410184 0 0.006928683426437281 0.00047632298537338157 0 0.0068022819185182713 1.0114958479309032e-05 0 0.0064521967285105074 0.00078613602620750491 0 0.006928683426437281 0.00047632298537338157 0 0.0065418363445146942 0.00015213690688023349 0 0.006928683426437281 0.00047632298537338157 0 0.0068022819185182713 1.0114958479309032e-05 0 0.0065418363445146942 0.00015213690688023349 0 0.0074525766708722187 -0.00011987710157767791 0 0.0068022819185182713 1.0114958479309032e-05 0 0.0066471036359965485 -0.00064046711687638425 0 0.0068022819185182713 1.0114958479309032e-05 0 0.0065418363445146942 0.00015213690688023349 0 0.0063170810573656986 -0.00019780165300217477 0 0.0068022819185182713 1.0114958479309032e-05 0 0.0066471036359965485 -0.00064046711687638425 0 0.0063170810573656986 -0.00019780165300217477 0 0.0066471036359965485 -0.00064046711687638425 0 0.0064354693563327377 -0.00048010332068736729 0 0.0063170810573656986 -0.00019780165300217477 0 0.0066471036359965485 -0.00064046711687638425 0 0.0063885854481956546 -0.00054066997287724472 0 0.0064354693563327377 -0.00048010332068736729 0 0.0063885854481956546 -0.00054066997287724472 0 0.0064354693563327377 -0.00048010332068736729 0 0.0063756630170105581 -0.00046956702900856551 0 0.0063756630170105581 -0.00046956702900856551 0 0.0063142034245506698 -0.0003814274857882551 0 0.0061830651629065092 -0.00036621069100588842 0 0.0063885854481956546 -0.00054066997287724472 0 0.0063756630170105581 -0.00046956702900856551 0 0.0061830651629065092 -0.00036621069100588842 0 0.0063885854481956546 -0.00054066997287724472 0 0.0061830651629065092 -0.00036621069100588842 0 0.0060123439430352097 -0.00068360993083116329 0 0.0061830651629065092 -0.00036621069100588842 0 0.0060123439430352097 -0.00068360993083116329 0 0.0054775619738350063 -4.2125168840132253e-06 0 0.0066471036359965485 -0.00064046711687638425 0 0.0060123439430352097 -0.00068360993083116329 0 0.0054842341325158353 -0.0012269354220533497 0 0.0066343366442586068 -0.00068080294905809762 0 0.0068724253509842882 -0.00081994809600656362 0 0.0066471036359965485 -0.00064046711687638425 0 0.0063885854481956546 -0.00054066997287724472 0 0.0060123439430352097 -0.00068360993083116329 0 0.0060123439430352097 -0.00068360993083116329 0 0.0054842341325158353 -0.0012269354220533497 0 0.0050148525302379397 -0.0005909097746673211 0 0.0060123439430352097 -0.00068360993083116329 0 0.0050148525302379397 -0.0005909097746673211 0 0.0054775619738350063 -4.2125168840132253e-06 0 0.0054842341325158353 -0.0012269354220533497 0 0.0050148525302379397 -0.0005909097746673211 0 0.0043772755485128653 -0.001423301809806544 0 0.0068724253509842882 -0.00081994809600656362 0 0.006691228653840039 -0.00073092733568181755 0 0.0064539170676697951 0.00048174529767191072 0 0.0065418593284122381 0.00053793316255950664 0 0.0064939463654687581 0.00040112217254461663 0 0.0064539170676697951 0.00048174529767191072 0 0.0064939463654687581 0.00040112217254461663 0 0.0063763798774812116 0.0002866521043095711 0 0.0064539170676697951 0.00048174529767191072 0 0.0063053688272717689 0.00036798149650061512 0 0.0063763798774812116 0.0002866521043095711 0 0.0064539170676697951 0.00048174529767191072 0 0.0063053688272717689 0.00036798149650061512 0 0.0063835019006614705 0.00048651066139827713 0 0.0061461403435564823 0.00033892273082731264 0 0.0063053688272717689 0.00036798149650061512 0 0.0063835019006614705 0.00048651066139827713 0 0.0066010530439464055 0.00071602114727913795 0 0.0063835019006614705 0.00048651066139827713 0 0.0065509401528947185 0.00062824322772900764 0 0.0064539170676697951 0.00048174529767191072 0 0.0063835019006614705 0.00048651066139827713 0 0.0065509401528947185 0.00062824322772900764 0 0.0066362970640825789 0.00070142706417017722 0 0.0065509401528947185 0.00062824322772900764 0 0.0065585119010766937 0.00060391172228598335 0 0.0064539170676697951 0.00048174529767191072 0 0.0065509401528947185 0.00062824322772900764 0 0.0065585119010766937 0.00060391172228598335 0 0.0064539170676697951 0.00048174529767191072 0 0.0065585119010766937 0.00060391172228598335 0 0.0065418593284122381 0.00053793316255950664 0 0.0066362970640825789 0.00070142706417017722 0 0.0065585119010766937 0.00060391172228598335 0 0.0066095273339897669 0.00062656726201430464 0 0.0065585119010766937 0.00060391172228598335 0 0.0066095273339897669 0.00062656726201430464 0 0.0065418593284122381 0.00053793316255950664 0 0.0066095273339897669 0.00062656726201430464 0 0.0066556380399301002 0.00062207811928762034 0 0.0066011135469978884 0.00054471829022621461 0 0.0066556380399301002 0.00062207811928762034 0 0.0066011135469978884 0.00054471829022621461 0 0.0067095462594635802 0.00051498499884830053 0 0.0066095273339897669 0.00062656726201430464 0 0.0066011135469978884 0.00054471829022621461 0 0.0065418593284122381 0.00053793316255950664 0 0.0064385333002426179 0.00069750611137081825 0 0.0064875014733269702 0.00025271845458984149 0 0.0064521967285105074 0.00078613602620750491 0 0.0065418363445146942 0.00015213690688023349 0 0.0062426114393050614 -8.4645061555383322e-05 0 0.0066941564049924429 0.00066408183889186446 0 0.0066556380399301002 0.00062207811928762034 0 0.0067095462594635802 0.00051498499884830053 0 0.0062426114393050614 -8.4645061555383322e-05 0 0.0063170810573656986 -0.00019780165300217477 0 0.0064197383751787435 0.00012768980058732251 0 0.0065418363445146942 0.00015213690688023349 0 0.0062426114393050614 -8.4645061555383322e-05 0 0.0063170810573656986 -0.00019780165300217477 0 0.0064875014733269702 0.00025271845458984149 0 0.0064246175006333417 0.00012886022221909632 0 0.0067095462594635802 0.00051498499884830053 0 0.0064939463654687581 0.00040112217254461663 0 0.0064197383751787435 0.00012768980058732251 0 0.0066011135469978884 0.00054471829022621461 0 0.0065418593284122381 0.00053793316255950664 0 0.0064939463654687581 0.00040112217254461663 0 0.0066011135469978884 0.00054471829022621461 0 0.0067095462594635802 0.00051498499884830053 0 0.0064939463654687581 0.00040112217254461663 0 0.0064939463654687581 0.00040112217254461663 0 0.0064197383751787435 0.00012768980058732251 0 0.0063763798774812116 0.0002866521043095711 0 0.0064197383751787435 0.00012768980058732251 0 0.0063128574592918847 0.00020347745742754761 0 0.0063763798774812116 0.0002866521043095711 0 0.0064197383751787435 0.00012768980058732251 0 0.0063107671945105259 0.00020362330412684233 0 0.0063128574592918847 0.00020347745742754761 0 0.0063233713831000217 -0.000181440739608129 0 0.0063153944911254895 -0.00012132937449718294 0 0.0064354693563327377 -0.00048010332068736729 0 0.0063170810573656986 -0.00019780165300217477 0 0.0063668799292362216 -0.00047048295945350627 0 0.0063170810573656986 -0.00019780165300217477 0 0.0064197383751787435 0.00012768980058732251 0 0.0062910499625830297 0.00022725848403804598 0 0.0063142034245506698 -0.0003814274857882551 0 0.0063668799292362216 -0.00047048295945350627 0 0.0062622895857808733 -0.00033832570110621627 0 0.0064354693563327377 -0.00048010332068736729 0 0.0063756630170105581 -0.00046956702900856551 0 0.0063668799292362216 -0.00047048295945350627 0 0.0063756630170105581 -0.00046956702900856551 0 0.0063142034245506698 -0.0003814274857882551 0 0.0063668799292362216 -0.00047048295945350627 0 0.0062791889495275059 0.00019328733084882408 0 0.006148678586133628 7.3929227730617109e-05 0 0.0062910499625830297 0.00022725848403804598 0 0.0063107671945105259 0.00020362330412684233 0 0.0060624356168717071 7.3509688956198044e-05 0 0.0063107671945105259 0.00020362330412684233 0 0.0062596334314181388 0.00017846453440988226 0 0.0062321900704107366 9.5973876739553635e-05 0 0.0063107671945105259 0.00020362330412684233 0 0.0062596334314181388 0.00017846453440988226 0 0.0063128574592918847 0.00020347745742754761 0 0.0064197383751787435 0.00012768980058732251 0 0.0062910499625830297 0.00022725848403804598 0 0.0063107671945105259 0.00020362330412684233 0 0.0062077148253854523 0.00017518631299998189 0 0.0061937259441015207 0.00022394192700128391 0 0.0060919938762807949 0.00016413912282644806 0 0.0062077148253854523 0.00017518631299998189 0 0.0061937259441015207 0.00022394192700128391 0 0.0063128574592918847 0.00020347745742754761 0 0.0062596334314181388 0.00017846453440988226 0 0.0062077148253854523 0.00017518631299998189 0 0.0063128574592918847 0.00020347745742754761 0 0.0063128574592918847 0.00020347745742754761 0 0.0062742652683245356 0.00027883984660511952 0 0.0063763798774812116 0.0002866521043095711 0 0.0061937259441015207 0.00022394192700128391 0 0.0063128574592918847 0.00020347745742754761 0 0.0062742652683245356 0.00027883984660511952 0 0.0061937259441015207 0.00022394192700128391 0 0.0062742652683245356 0.00027883984660511952 0 0.0061582929295985684 0.00028799261045416518 0 0.0063053688272717689 0.00036798149650061512 0 0.0062742652683245356 0.00027883984660511952 0 0.0063763798774812116 0.0002866521043095711 0 0.0059757204178397709 0.00028327213198353748 0 0.0061461403435564823 0.00033892273082731264 0 0.0061582929295985684 0.00028799261045416518 0 0.0061461403435564823 0.00033892273082731264 0 0.0063053688272717689 0.00036798149650061512 0 0.0061582929295985684 0.00028799261045416518 0 0.0063053688272717689 0.00036798149650061512 0 0.0062742652683245356 0.00027883984660511952 0 0.0061582929295985684 0.00028799261045416518 0 0.0059757204178397709 0.00028327213198353748 0 0.0061582929295985684 0.00028799261045416518 0 0.0060612422952379128 0.00022363042253335897 0 0.0059757204178397709 0.00028327213198353748 0 0.0060612422952379128 0.00022363042253335897 0 0.0058858080999046316 0.00018342236303011108 0 0.0060612422952379128 0.00022363042253335897 0 0.0060919938762807949 0.00016413912282644806 0 0.0058858080999046316 0.00018342236303011108 0 0.0061937259441015207 0.00022394192700128391 0 0.0061582929295985684 0.00028799261045416518 0 0.0060612422952379128 0.00022363042253335897 0 0.0061937259441015207 0.00022394192700128391 0 0.0060612422952379128 0.00022363042253335897 0 0.0060919938762807949 0.00016413912282644806 0 0.0059773325943046334 6.0011942964785457e-05 0 0.0060919938762807949 0.00016413912282644806 0 0.0058858080999046316 0.00018342236303011108 0 0.0059773325943046334 6.0011942964785457e-05 0 0.0057442705149712723 -2.7690912406583291e-05 0 0.0058858080999046316 0.00018342236303011108 0 0.0059773325943046334 6.0011942964785457e-05 0 0.0057442705149712723 -2.7690912406583291e-05 0 0.0059278221908573804 -6.254491889996113e-05 0 0.0057442705149712723 -2.7690912406583291e-05 0 0.0059278221908573804 -6.254491889996113e-05 0 0.0058144085204574376 -0.00021807268220458436 0 0.0059278221908573804 -6.254491889996113e-05 0 0.0060739804033631412 1.7192931570696269e-05 0 0.0060994529892967678 -0.00014035407142137831 0 0.0059773325943046334 6.0011942964785457e-05 0 0.0059278221908573804 -6.254491889996113e-05 0 0.0060739804033631412 1.7192931570696269e-05 0 0.0060739804033631412 1.7192931570696269e-05 0 0.006125691666996713 0.00010760437883204441 0 0.0062321900704107366 9.5973876739553635e-05 0 0.0059773325943046334 6.0011942964785457e-05 0 0.0060739804033631412 1.7192931570696269e-05 0 0.006125691666996713 0.00010760437883204441 0 0.0059773325943046334 6.0011942964785457e-05 0 0.006125691666996713 0.00010760437883204441 0 0.0060919938762807949 0.00016413912282644806 0 0.0062077148253854523 0.00017518631299998189 0 0.006125691666996713 0.00010760437883204441 0 0.0060919938762807949 0.00016413912282644806 0 0.0062077148253854523 0.00017518631299998189 0 0.006125691666996713 0.00010760437883204441 0 0.0062321900704107366 9.5973876739553635e-05 0 0.0062910499625830297 0.00022725848403804598 0 0.0060624356168717071 7.3509688956198044e-05 0 0.0061431973884200014 -1.5799062370595961e-05 0 0.0062596334314181388 0.00017846453440988226 0 0.0062077148253854523 0.00017518631299998189 0 0.0062321900704107366 9.5973876739553635e-05 0 0.0063153944911254895 -0.00012132937449718294 0 0.0061408523562813174 -0.00017301146783952836 0 0.0063668799292362216 -0.00047048295945350627 0 0.0062622895857808733 -0.00033832570110621627 0 0.0061493890979942879 -0.0003045946139111682 0 0.0061493890979942879 -0.0003045946139111682 0 0.00597544685532645 -0.00040591221997567144 0 0.0060319136325253037 -0.00036976849797198697 0 0.0062622895857808733 -0.00033832570110621627 0 0.0061493890979942879 -0.0003045946139111682 0 0.0060319136325253037 -0.00036976849797198697 0 0.006148678586133628 7.3929227730617109e-05 0 0.0059597925516718898 -0.00019525449627254542 0 0.0060739804033631412 1.7192931570696269e-05 0 0.0062321900704107366 9.5973876739553635e-05 0 0.0060994529892967678 -0.00014035407142137831 0 0.0060624356168717071 7.3509688956198044e-05 0 0.0061431973884200014 -1.5799062370595961e-05 0 0.0058190302635731488 -0.00024512790182679265 0 0.0061408523562813174 -0.00017301146783952836 0 0.0058636140687853685 -0.00044046547870236786 0 0.0061431973884200014 -1.5799062370595961e-05 0 0.0058190302635731488 -0.00024512790182679265 0 0.0059065215272970512 -0.00042605157978670681 0 0.0058190302635731488 -0.00024512790182679265 0 0.0059065215272970512 -0.00042605157978670681 0 0.0056438951271405632 -0.000560226743638061 0 0.0061493890979942879 -0.0003045946139111682 0 0.0058168331656164056 -0.00044819999025722662 0 0.00597544685532645 -0.00040591221997567144 0 0.00597544685532645 -0.00040591221997567144 0 0.0058207271616740495 -0.00054597238693322031 0 0.0059037865552343943 -0.00052882826838359244 0 0.0058168331656164056 -0.00044819999025722662 0 0.00597544685532645 -0.00040591221997567144 0 0.0058207271616740495 -0.00054597238693322031 0 0.0058207271616740495 -0.00054597238693322031 0 0.0059037865552343943 -0.00052882826838359244 0 0.005757866717459266 -0.00065528516207582804 0 0.0058636140687853685 -0.00044046547870236786 0 0.0056752873930159152 -0.00069393341634837861 0 0.0059065215272970512 -0.00042605157978670681 0 0.0056438951271405632 -0.000560226743638061 0 0.0056474284799875986 -0.00070931542329133403 0 0.0058168331656164056 -0.00044819999025722662 0 0.0058207271616740495 -0.00054597238693322031 0 0.0056474284799875986 -0.00070931542329133403 0 0.0059024325537763113 -0.00044560470235107525 0 0.0056466148939762345 -0.00040972329907138281 0 0.0058144085204574376 -0.00021807268220458436 0 0.0059024325537763113 -0.00044560470235107525 0 0.0056466148939762345 -0.00040972329907138281 0 0.005627711784141916 -0.00059020189263718872 0 0.0056466148939762345 -0.00040972329907138281 0 0.0055189345323952838 -0.00055449284215598532 0 0.0054560105287777289 -0.00040440238380365823 0 0.0057442705149712723 -2.7690912406583291e-05 0 0.0058144085204574376 -0.00021807268220458436 0 0.0056019854541343832 -0.00022802873315896474 0 0.0056466148939762345 -0.00040972329907138281 0 0.0058144085204574376 -0.00021807268220458436 0 0.0056019854541343832 -0.00022802873315896474 0 0.0060994529892967678 -0.00014035407142137831 0 0.0059024325537763113 -0.00044560470235107525 0 0.0058144085204574376 -0.00021807268220458436 0 0.0059278221908573804 -6.254491889996113e-05 0 0.0060994529892967678 -0.00014035407142137831 0 0.0058144085204574376 -0.00021807268220458436 0 0.0059597925516718898 -0.00019525449627254542 0 0.005769240358970671 -0.00049697081684308385 0 0.0054775619738350063 -4.2125168840132253e-06 0 0.0055395459161003604 0.0010594552354595069 0 0.0047398047386253044 0.00065882935356241729 0 0.0054775619738350063 -4.2125168840132253e-06 0 0.0047398047386253044 0.00065882935356241729 0 0.0043215406510450282 -0.00012084564924318512 0 0.0050148525302379397 -0.0005909097746673211 0 0.0054775619738350063 -4.2125168840132253e-06 0 0.0043215406510450282 -0.00012084564924318512 0 0.0054775619738350063 -4.2125168840132253e-06 0 0.0061878482548693567 0.00030003755393733476 0 0.0055395459161003604 0.0010594552354595069 0 0.0061830651629065092 -0.00036621069100588842 0 0.0054775619738350063 -4.2125168840132253e-06 0 0.0061878482548693567 0.00030003755393733476 0 0.0063142034245506698 -0.0003814274857882551 0 0.0061830651629065092 -0.00036621069100588842 0 0.0061878482548693567 0.00030003755393733476 0 0.0063142034245506698 -0.0003814274857882551 0 0.0062622895857808733 -0.00033832570110621627 0 0.0061878482548693567 0.00030003755393733476 0 0.0062625060344166433 -0.00029798900596718559 0 0.0060425308552008068 -3.2079263904972185e-05 0 0.00597544685532645 -0.00040591221997567144 0 0.0060319136325253037 -0.00036976849797198697 0 0.0059933018327646198 -0.00045808214124095931 0 0.00597544685532645 -0.00040591221997567144 0 0.0059037865552343943 -0.00052882826838359244 0 0.0059933018327646198 -0.00045808214124095931 0 0.0059037865552343943 -0.00052882826838359244 0 0.0059933018327646198 -0.00045808214124095931 0 0.0059759706791515767 -0.00055578240923883509 0 0.0059759706791515767 -0.00055578240923883509 0 0.0060783999322294897 -0.00046914531348849934 0 0.0060245809735156404 -0.00061685883614812716 0 0.0059933018327646198 -0.00045808214124095931 0 0.0059759706791515767 -0.00055578240923883509 0 0.0060783999322294897 -0.00046914531348849934 0 0.0060319136325253037 -0.00036976849797198697 0 0.0059933018327646198 -0.00045808214124095931 0 0.0060783999322294897 -0.00046914531348849934 0 0.0060425308552008068 -3.2079263904972185e-05 0 0.0060695952823048935 0.00037255547160566771 0 0.0060695952823048935 0.00037255547160566771 0 0.0039172336510819609 -0.00018242152841057159 0 0.0055395459161003604 0.0010594552354595069 0 0.0046895840378218603 0.0012213105228374588 0 0.0047703886333000742 0.0017905256529342545 0 0.0055395459161003604 0.0010594552354595069 0 0.0046895840378218603 0.0012213105228374588 0 0.0047398047386253044 0.00065882935356241729 0 0.0025186059804214633 -0.001233470555312787 0 0.0033227697781852837 -0.0016948942551844742 0 0.0031331013159023578 -0.00069271829295402426 0 0.0025186059804214633 -0.001233470555312787 0 0.0025900455564826941 -0.0022089914578776924 0 0.0033227697781852837 -0.0016948942551844742 0 0.0039172336510819609 -0.00018242152841057159 0 0.0047317835913479791 -0.0011930933802930398 0 0.0060783999322294897 -0.00046914531348849934 0 0.0061624416238125982 -0.00058313018333306201 0 0.0060986274664702944 -0.00064774999331431641 0 0.0060783999322294897 -0.00046914531348849934 0 0.0060986274664702944 -0.00064774999331431641 0 0.0060245809735156404 -0.00061685883614812716 0 0.0033227697781852837 -0.0016948942551844742 0 0.0040635573832991274 -0.0011737824305149368 0 0.0031331013159023578 -0.00069271829295402426 0 0.0060986274664702944 -0.00064774999331431641 0 0.0060162625420362046 -0.00073346804521789489 0 0.0060245809735156404 -0.00061685883614812716 0 0.004890424516026037 -0.001373012695799627 0 0.0026390396291729084 -0.0015991306764755074 0 0.0047317835913479791 -0.0011930933802930398 0 0.004890424516026037 -0.001373012695799627 0 0.0060162625420362046 -0.00073346804521789489 0 0.0060245809735156404 -0.00061685883614812716 0 0.0059085689753382298 -0.0006954395378408521 0 0.004890424516026037 -0.001373012695799627 0 0.0061601567693391462 -0.00079717773295275224 0 0.0059759706791515767 -0.00055578240923883509 0 0.0060245809735156404 -0.00061685883614812716 0 0.0059085689753382298 -0.0006954395378408521 0 0.0059037865552343943 -0.00052882826838359244 0 0.0059759706791515767 -0.00055578240923883509 0 0.0058626925432863986 -0.00063020672302905158 0 0.0059759706791515767 -0.00055578240923883509 0 0.0058626925432863986 -0.00063020672302905158 0 0.0059085689753382298 -0.0006954395378408521 0 0.0058626925432863986 -0.00063020672302905158 0 0.0059085689753382298 -0.0006954395378408521 0 0.0057488817283354336 -0.00074480597832951351 0 0.0059085689753382298 -0.0006954395378408521 0 0.0058136886877863106 -0.00083171804317324694 0 0.0057488817283354336 -0.00074480597832951351 0 0.0060874174261976097 -0.00079878368060164141 0 0.0059085689753382298 -0.0006954395378408521 0 0.0058136886877863106 -0.00083171804317324694 0 0.0060874174261976097 -0.00079878368060164141 0 0.0058136886877863106 -0.00083171804317324694 0 0.0057915983130309929 -0.00099336176345459306 0 0.0054023145859677007 -0.0014841201824847565 0 0.0045957853319861085 -0.0012813108068770065 0 0.0058136886877863106 -0.00083171804317324694 0 0.0056918562189956362 -0.00094434210778069814 0 0.0057915983130309929 -0.00099336176345459306 0 0.0056918562189956362 -0.00094434210778069814 0 0.0057924839802365909 -0.0010047096470353089 0 0.0054215478960058881 -0.0010904175056231551 0 0.0054987252656957782 -0.0013385431606177075 0 0.0054023145859677007 -0.0014841201824847565 0 0.0052014046556690544 -0.0012528061525071466 0 0.005205745695755333 -0.0010900656450656943 0 0.0054215478960058881 -0.0010904175056231551 0 0.005205745695755333 -0.0010900656450656943 0 0.0052994631225208345 -0.0010403975077559978 0 0.0051151173727956353 -0.0010288821324508925 0 0.005205745695755333 -0.0010900656450656943 0 0.0050077223675206719 -0.0011286187127442541 0 0.0051151173727956353 -0.0010288821324508925 0 0.0052014046556690544 -0.0012528061525071466 0 0.005205745695755333 -0.0010900656450656943 0 0.0050077223675206719 -0.0011286187127442541 0 0.0050077223675206719 -0.0011286187127442541 0 0.0049046153439631724 -0.0010712202863666699 0 0.0049902814936941906 -0.0010217416202352046 0 0.0052507447214396562 -0.0020843275042058602 0 0.0040539832538674892 -0.0013985712895667201 0 0.0035765637150933019 -0.0025115749018805051 0 0.004890424516026037 -0.001373012695799627 0 0.0054023145859677007 -0.0014841201824847565 0 0.0037828296428800332 -0.0031374890897076348 0 0.0052507447214396562 -0.0020843275042058602 0 0.0035765637150933019 -0.0025115749018805051 0 0.0037828296428800332 -0.0031374890897076348 0 0.0035765637150933019 -0.0025115749018805051 0 0.0024484538272024586 -0.0024626721688303303 0 0.0035765637150933019 -0.0025115749018805051 0 0.0024484538272024586 -0.0024626721688303303 0 0.0022111067806542695 -0.001570419961559124 0 0.0040539832538674892 -0.0013985712895667201 0 0.0035765637150933019 -0.0025115749018805051 0 0.002881658673696746 -0.00071390249583336838 0 0.0035765637150933019 -0.0025115749018805051 0 0.0028155753394363803 -0.00069614194552843078 0 0.0022111067806542695 -0.001570419961559124 0 0.0045957853319861085 -0.0012813108068770065 0 0.0032679736674330216 -0.0011995106938808443 0 0.0033941999586995547 -0.002210102655433888 0 0.0032679736674330216 -0.0011995106938808443 0 0.0028155753394363803 -0.00069614194552843078 0 0.0022111067806542695 -0.001570419961559124 0 0.0017038128059577414 -0.00092785038518376078 0 0.0022111067806542695 -0.001570419961559124 0 0.0017038128059577414 -0.00092785038518376078 0 0.0011142384242635247 -0.0017830516092473881 0 0.0025186059804214633 -0.001233470555312787 0 0.0031331013159023578 -0.00069271829295402426 0 0.0022032133909345611 -0.00021930170040506287 0 0.0026390396291729084 -0.0015991306764755074 0 0.0018503518513446834 -0.00094295363105688596 0 0.0024484538272024586 -0.0024626721688303303 0 0.0022111067806542695 -0.001570419961559124 0 0.0011142384242635247 -0.0017830516092473881 0 0.005578305143379177 -0.00075109829998510171 0 0.0054729929988409547 -0.00083303557128437547 0 0.005478654713138768 -0.00088993785082692491 0 0.005578305143379177 -0.00075109829998510171 0 0.0055672827589604785 -0.00080309760414859943 0 0.005478654713138768 -0.00088993785082692491 0 0.005578305143379177 -0.00075109829998510171 0 0.0056474284799875986 -0.00070931542329133403 0 0.0055672827589604785 -0.00080309760414859943 0 0.0054729929988409547 -0.00083303557128437547 0 0.0054750185449538493 -0.00073042993161721729 0 0.0053751933403454527 -0.0008874100812761227 0 0.005578305143379177 -0.00075109829998510171 0 0.0054729929988409547 -0.00083303557128437547 0 0.0054750185449538493 -0.00073042993161721729 0 0.0054750185449538493 -0.00073042993161721729 0 0.0053751933403454527 -0.0008874100812761227 0 0.0053256604980331298 -0.00080726227619176791 0 0.005578305143379177 -0.00075109829998510171 0 0.0054750185449538493 -0.00073042993161721729 0 0.005627711784141916 -0.00059020189263718872 0 0.0054750185449538493 -0.00073042993161721729 0 0.0055189345323952838 -0.00055449284215598532 0 0.005627711784141916 -0.00059020189263718872 0 0.0056466148939762345 -0.00040972329907138281 0 0.0055189345323952838 -0.00055449284215598532 0 0.005627711784141916 -0.00059020189263718872 0 0.0056438951271405632 -0.000560226743638061 0 0.005578305143379177 -0.00075109829998510171 0 0.0056474284799875986 -0.00070931542329133403 0 0.005769240358970671 -0.00049697081684308385 0 0.0056138970158790547 -0.00072600000947861448 0 0.0059024325537763113 -0.00044560470235107525 0 0.005578305143379177 -0.00075109829998510171 0 0.005627711784141916 -0.00059020189263718872 0 0.0058207271616740495 -0.00054597238693322031 0 0.0056474284799875986 -0.00070931542329133403 0 0.005757866717459266 -0.00065528516207582804 0 0.0056474284799875986 -0.00070931542329133403 0 0.005757866717459266 -0.00065528516207582804 0 0.0056421382689711419 -0.00077552054594298963 0 0.0059037865552343943 -0.00052882826838359244 0 0.0058626925432863986 -0.00063020672302905158 0 0.005757866717459266 -0.00065528516207582804 0 0.0058626925432863986 -0.00063020672302905158 0 0.005757866717459266 -0.00065528516207582804 0 0.0057488817283354336 -0.00074480597832951351 0 0.005757866717459266 -0.00065528516207582804 0 0.0057488817283354336 -0.00074480597832951351 0 0.0056421382689711419 -0.00077552054594298963 0 0.0056388657538601634 -0.00085597635475467056 0 0.0056421382689711419 -0.00077552054594298963 0 0.0055349623224001544 -0.00089041274098749796 0 0.0057488817283354336 -0.00074480597832951351 0 0.0056388657538601634 -0.00085597635475467056 0 0.0056421382689711419 -0.00077552054594298963 0 0.0058136886877863106 -0.00083171804317324694 0 0.0057488817283354336 -0.00074480597832951351 0 0.0056388657538601634 -0.00085597635475467056 0 0.0055672827589604785 -0.00080309760414859943 0 0.0055349623224001544 -0.00089041274098749796 0 0.005478654713138768 -0.00088993785082692491 0 0.0056474284799875986 -0.00070931542329133403 0 0.0056421382689711419 -0.00077552054594298963 0 0.0055672827589604785 -0.00080309760414859943 0 0.0056421382689711419 -0.00077552054594298963 0 0.0055672827589604785 -0.00080309760414859943 0 0.0055349623224001544 -0.00089041274098749796 0 0.0055349623224001544 -0.00089041274098749796 0 0.0054278216472157604 -0.0010100877747607298 0 0.005478654713138768 -0.00088993785082692491 0 0.0055349623224001544 -0.00089041274098749796 0 0.0055221340144296005 -0.00096672927694338613 0 0.0054278216472157604 -0.0010100877747607298 0 0.0058136886877863106 -0.00083171804317324694 0 0.0056918562189956362 -0.00094434210778069814 0 0.0056388657538601634 -0.00085597635475467056 0 0.0056918562189956362 -0.00094434210778069814 0 0.0056388657538601634 -0.00085597635475467056 0 0.0055221340144296005 -0.00096672927694338613 0 0.0056388657538601634 -0.00085597635475467056 0 0.0055349623224001544 -0.00089041274098749796 0 0.0055221340144296005 -0.00096672927694338613 0 0.0055221340144296005 -0.00096672927694338613 0 0.0054215478960058881 -0.0010904175056231551 0 0.0054278216472157604 -0.0010100877747607298 0 0.0056918562189956362 -0.00094434210778069814 0 0.0055221340144296005 -0.00096672927694338613 0 0.0054215478960058881 -0.0010904175056231551 0 0.0054023145859677007 -0.0014841201824847565 0 0.0055374517818045652 -0.0010830556000367545 0 0.0054215478960058881 -0.0010904175056231551 0 0.0052994631225208345 -0.0010403975077559978 0 0.0054278216472157604 -0.0010100877747607298 0 0.005205745695755333 -0.0010900656450656943 0 0.0054215478960058881 -0.0010904175056231551 0 0.0052994631225208345 -0.0010403975077559978 0 0.0054278216472157604 -0.0010100877747607298 0 0.0053840906458727834 -0.00099088654774899358 0 0.005322566914821498 -0.0010225777629335046 0 0.0052994631225208345 -0.0010403975077559978 0 0.0054278216472157604 -0.0010100877747607298 0 0.005322566914821498 -0.0010225777629335046 0 0.0053840906458727834 -0.00099088654774899358 0 0.0053087086415785972 -0.0010160896967012585 0 0.005322566914821498 -0.0010225777629335046 0 0.0053840906458727834 -0.00099088654774899358 0 0.005478654713138768 -0.00088993785082692491 0 0.0054050950673047654 -0.00093162499454319892 0 0.0054278216472157604 -0.0010100877747607298 0 0.0053840906458727834 -0.00099088654774899358 0 0.005478654713138768 -0.00088993785082692491 0 0.0054729929988409547 -0.00083303557128437547 0 0.005478654713138768 -0.00088993785082692491 0 0.0054050950673047654 -0.00093162499454319892 0 0.0053751933403454527 -0.0008874100812761227 0 0.0054050950673047654 -0.00093162499454319892 0 0.0053213400777793558 -0.0010030870000541858 0 0.0054729929988409547 -0.00083303557128437547 0 0.0053751933403454527 -0.0008874100812761227 0 0.0054050950673047654 -0.00093162499454319892 0 0.0053840906458727834 -0.00099088654774899358 0 0.0053213400777793558 -0.0010030870000541858 0 0.0052829179573676503 -0.0010277547515381454 0 0.0053840906458727834 -0.00099088654774899358 0 0.0054050950673047654 -0.00093162499454319892 0 0.0053213400777793558 -0.0010030870000541858 0 0.0053213400777793558 -0.0010030870000541858 0 0.0051689031106579462 -0.0010597919971642234 0 0.005229144496504504 -0.00095152980912499747 0 0.0053213400777793558 -0.0010030870000541858 0 0.0051689031106579462 -0.0010597919971642234 0 0.005271582674653762 -0.0010425995039141764 0 0.0051689031106579462 -0.0010597919971642234 0 0.0050999013468196255 -0.0010380623834526773 0 0.005229144496504504 -0.00095152980912499747 0 0.0050999013468196255 -0.0010380623834526773 0 0.0050223841782450537 -0.0010588970382958713 0 0.0050888532519162474 -0.0010773279307996757 0 0.0051689031106579462 -0.0010597919971642234 0 0.0050999013468196255 -0.0010380623834526773 0 0.0050888532519162474 -0.0010773279307996757 0 0.0050999013468196255 -0.0010380623834526773 0 0.0050728031284827182 -0.00096465903077131213 0 0.0050223841782450537 -0.0010588970382958713 0 0.0050728031284827182 -0.00096465903077131213 0 0.0051879307394266756 -0.00081432436502134838 0 0.004921469620379754 -0.00082538789520277217 0 0.0050999013468196255 -0.0010380623834526773 0 0.0050728031284827182 -0.00096465903077131213 0 0.005229144496504504 -0.00095152980912499747 0 0.0050728031284827182 -0.00096465903077131213 0 0.005229144496504504 -0.00095152980912499747 0 0.0051879307394266756 -0.00081432436502134838 0 0.0053751933403454527 -0.0008874100812761227 0 0.0053213400777793558 -0.0010030870000541858 0 0.005229144496504504 -0.00095152980912499747 0 0.005229144496504504 -0.00095152980912499747 0 0.0053256604980331298 -0.00080726227619176791 0 0.0051879307394266756 -0.00081432436502134838 0 0.0053751933403454527 -0.0008874100812761227 0 0.005229144496504504 -0.00095152980912499747 0 0.0053256604980331298 -0.00080726227619176791 0 0.0054750185449538493 -0.00073042993161721729 0 0.0053256604980331298 -0.00080726227619176791 0 0.0053162628031579364 -0.00061855513786638347 0 0.0053256604980331298 -0.00080726227619176791 0 0.0051879307394266756 -0.00081432436502134838 0 0.0053162628031579364 -0.00061855513786638347 0 0.0051879307394266756 -0.00081432436502134838 0 0.0050737565317845656 -0.00069155016730959996 0 0.0053162628031579364 -0.00061855513786638347 0 0.0051879307394266756 -0.00081432436502134838 0 0.0050737565317845656 -0.00069155016730959996 0 0.004921469620379754 -0.00082538789520277217 0 0.0050737565317845656 -0.00069155016730959996 0 0.0051486082599517743 -0.00053219907939807841 0 0.0053162628031579364 -0.00061855513786638347 0 0.0051486082599517743 -0.00053219907939807841 0 0.0053162628031579364 -0.00061855513786638347 0 0.0052709159639257683 -0.00038051657223600409 0 0.0054750185449538493 -0.00073042993161721729 0 0.0055189345323952838 -0.00055449284215598532 0 0.0053162628031579364 -0.00061855513786638347 0 0.0055189345323952838 -0.00055449284215598532 0 0.0053162628031579364 -0.00061855513786638347 0 0.0054560105287777289 -0.00040440238380365823 0 0.0048982223400893584 -0.00057925026081958686 0 0.0044438592380744123 -0.00072515510146692298 0 0.0046331217024743084 -0.00038334058246195467 0 0.0044438592380744123 -0.00072515510146692298 0 0.0041688737197416162 -0.00046968396231659255 0 0.0046331217024743084 -0.00038334058246195467 0 0.0048982223400893584 -0.00057925026081958686 0 0.0050083260025860221 -0.00037873714252028385 0 0.0046331217024743084 -0.00038334058246195467 0 0.0051486082599517743 -0.00053219907939807841 0 0.0048982223400893584 -0.00057925026081958686 0 0.0050083260025860221 -0.00037873714252028385 0 0.0050737565317845656 -0.00069155016730959996 0 0.0051486082599517743 -0.00053219907939807841 0 0.0048982223400893584 -0.00057925026081958686 0 0.0050737565317845656 -0.00069155016730959996 0 0.0048982223400893584 -0.00057925026081958686 0 0.004921469620379754 -0.00082538789520277217 0 0.0048982223400893584 -0.00057925026081958686 0 0.004921469620379754 -0.00082538789520277217 0 0.0044438592380744123 -0.00072515510146692298 0 0.004921469620379754 -0.00082538789520277217 0 0.0044438592380744123 -0.00072515510146692298 0 0.0048556320555125975 -0.0010473018976001134 0 0.0044438592380744123 -0.00072515510146692298 0 0.0045784047175058077 -0.0015339798418029917 0 0.0042434695851825037 -0.0013123065913926216 0 0.0044465773294081815 -0.00073750545044714351 0 0.0047186941714273635 -0.0012554612121355399 0 0.0045784047175058077 -0.0015339798418029917 0 0.0043436294415033693 -0.0016030328519289754 0 0.0042434695851825037 -0.0013123065913926216 0 0.004921469620379754 -0.00082538789520277217 0 0.0048556320555125975 -0.0010473018976001134 0 0.0049700158739479309 -0.00098267174881768067 0 0.0050728031284827182 -0.00096465903077131213 0 0.004921469620379754 -0.00082538789520277217 0 0.0049700158739479309 -0.00098267174881768067 0 0.0050728031284827182 -0.00096465903077131213 0 0.0049700158739479309 -0.00098267174881768067 0 0.0050223841782450537 -0.0010588970382958713 0 0.0050223841782450537 -0.0010588970382958713 0 0.0049686188425248912 -0.0010772543453829533 0 0.0050808720083661708 -0.0011017499668290686 0 0.0048556320555125975 -0.0010473018976001134 0 0.0050223841782450537 -0.0010588970382958713 0 0.0049686188425248912 -0.0010772543453829533 0 0.0047186941714273635 -0.0012554612121355399 0 0.0048950795340742814 -0.0013724055396942372 0 0.0048556320555125975 -0.0010473018976001134 0 0.0049700158739479309 -0.00098267174881768067 0 0.0050223841782450537 -0.0010588970382958713 0 0.0043436294415033693 -0.0016030328519289754 0 0.0043936124151134305 -0.0018280887516085526 0 0.0041487390575046384 -0.0017291964046316903 0 0.0043436294415033693 -0.0016030328519289754 0 0.0041487390575046384 -0.0017291964046316903 0 0.0042434695851825037 -0.0013123065913926216 0 0.0045784047175058077 -0.0015339798418029917 0 0.0043436294415033693 -0.0016030328519289754 0 0.0043936124151134305 -0.0018280887516085526 0 0.0045784047175058077 -0.0015339798418029917 0 0.0046541897458714293 -0.0018274711436747639 0 0.0043936124151134305 -0.0018280887516085526 0 0.0046541897458714293 -0.0018274711436747639 0 0.0043936124151134305 -0.0018280887516085526 0 0.004456879009755217 -0.0020315574856762269 0 0.0043936124151134305 -0.0018280887516085526 0 0.004222530289914002 -0.0019541367830160773 0 0.0041487390575046384 -0.0017291964046316903 0 0.0043936124151134305 -0.0018280887516085526 0 0.004222530289914002 -0.0019541367830160773 0 0.004456879009755217 -0.0020315574856762269 0 0.0039451105776880085 -0.0018997818983814492 0 0.0033601997358029202 -0.0018547308240549711 0 0.0038653873294152998 -0.0021176148461207211 0 0.0039036883956802201 -0.0016252880376639548 0 0.0039451105776880085 -0.0018997818983814492 0 0.0033601997358029202 -0.0018547308240549711 0 0.004222530289914002 -0.0019541367830160773 0 0.0041487390575046384 -0.0017291964046316903 0 0.0039451105776880085 -0.0018997818983814492 0 0.004222530289914002 -0.0019541367830160773 0 0.0039451105776880085 -0.0018997818983814492 0 0.0040849485262924503 -0.0020743775415624915 0 0.0041487390575046384 -0.0017291964046316903 0 0.0039036883956802201 -0.0016252880376639548 0 0.0042434695851825037 -0.0013123065913926216 0 0.0041487390575046384 -0.0017291964046316903 0 0.0039036883956802201 -0.0016252880376639548 0 0.0039451105776880085 -0.0018997818983814492 0 0.0039036883956802201 -0.0016252880376639548 0 0.0033601997358029202 -0.0018547308240549711 0 0.0037852791318462404 -0.0013263716559078697 0 0.0033601997358029202 -0.0018547308240549711 0 0.0034247191427348588 -0.0010352308649980409 0 0.0027347931874507508 -0.0013170846962822392 0 0.0033601997358029202 -0.0018547308240549711 0 0.0034247191427348588 -0.0010352308649980409 0 0.0037852791318462404 -0.0013263716559078697 0 0.0034247191427348588 -0.0010352308649980409 0 0.0027347931874507508 -0.0013170846962822392 0 0.0029247113297527078 -0.00058144253858081942 0 0.0034247191427348588 -0.0010352308649980409 0 0.0037852791318462404 -0.0013263716559078697 0 0.0040462236861968396 -0.00092434762392644637 0 0.0042434695851825037 -0.0013123065913926216 0 0.0037852791318462404 -0.0013263716559078697 0 0.0040462236861968396 -0.00092434762392644637 0 0.0039036883956802201 -0.0016252880376639548 0 0.0042434695851825037 -0.0013123065913926216 0 0.0037852791318462404 -0.0013263716559078697 0 0.00022956857800382407 3.6319558947005899e-07 0 0.00012855439133897356 0.00013740799512764861 0 -0.00039908181514310099 0.00011724521212630778 0 0.00022956857800382407 3.6319558947005899e-07 0 0.00012855439133897356 0.00013740799512764861 0 0.00083413288242503302 2.0723820181154741e-05 0 -0.00016890183623124725 0.00012174701562081318 0 0.00012855439133897356 0.00013740799512764861 0 -0.00034960591587852559 0.00020056405332596504 0 -0.00016890183623124725 0.00012174701562081318 0 0.00012855439133897356 0.00013740799512764861 0 0.00043744212326699114 -7.9494685839012232e-05 0 0.00012855439133897356 0.00013740799512764861 0 0.00043744212326699114 -7.9494685839012232e-05 0 0.00083413288242503302 2.0723820181154741e-05 0 0.00043744212326699114 -7.9494685839012232e-05 0 0.00083413288242503302 2.0723820181154741e-05 0 0.0018570308955425639 -0.00022386605094461073 0 0.0017487451545206611 -0.00094608104974182967 0 0.0015762131338593627 -0.00058487191993402451 0 0.00022956857800382407 3.6319558947005899e-07 0 0.0015231711412688055 -3.6909742184548362e-07 0 0.00083413288242503302 2.0723820181154741e-05 0 0.0015231711412688055 -3.6909742184548362e-07 0 0.00083413288242503302 2.0723820181154741e-05 0 0.0018570308955425639 -0.00022386605094461073 0 0.0015231711412688055 -3.6909742184548362e-07 0 0.0018570308955425639 -0.00022386605094461073 0 0.0028132226516787654 -9.2968087766877545e-08 0 0.0027347931874507508 -0.0013170846962822392 0 0.0018570308955425639 -0.00022386605094461073 0 0.0029247113297527078 -0.00058144253858081942 0 0.0015762131338593627 -0.00058487191993402451 0 0.0017191046978441498 -0.0002698180175887234 0 0.0018570308955425639 -0.00022386605094461073 0 0.0029247113297527078 -0.00058144253858081942 0 0.0025952253099477212 -6.1450996638565963e-05 0 0.0029247113297527078 -0.00058144253858081942 0 0.0025952253099477212 -6.1450996638565963e-05 0 0.0030518098308168575 -0.00019721172331042334 0 0.0026268025060095551 0.0001250768082137207 0 0.0023780560965799501 1.6086824843623937e-05 0 0.0024968867361326755 0.00026499294854020436 0 0.0025952253099477212 -6.1450996638565963e-05 0 0.0028770487232920808 6.5218650758886554e-05 0 0.0030518098308168575 -0.00019721172331042334 0 0.0028770487232920808 6.5218650758886554e-05 0 0.0026268025060095551 0.0001250768082137207 0 0.0028479093286351768 0.00028205207914762707 0 0.0025952253099477212 -6.1450996638565963e-05 0 0.0028770487232920808 6.5218650758886554e-05 0 0.0026268025060095551 0.0001250768082137207 0 0.0018570308955425639 -0.00022386605094461073 0 0.0025952253099477212 -6.1450996638565963e-05 0 0.0023780560965799501 1.6086824843623937e-05 0 0.0025952253099477212 -6.1450996638565963e-05 0 0.0026268025060095551 0.0001250768082137207 0 0.0023780560965799501 1.6086824843623937e-05 0 0.0028132226516787654 -9.2968087766877545e-08 0 0.0023780560965799501 1.6086824843623937e-05 0 0.0024968867361326755 0.00026499294854020436 0 0.0018570308955425639 -0.00022386605094461073 0 0.0028132226516787654 -9.2968087766877545e-08 0 0.0023780560965799501 1.6086824843623937e-05 0 0.0040462236861968396 -0.00092434762392644637 0 0.0036990105565666066 -0.00062639681619870789 0 0.0041688737197416162 -0.00046968396231659255 0 0.0044438592380744123 -0.00072515510146692298 0 0.0042434695851825037 -0.0013123065913926216 0 0.0040462236861968396 -0.00092434762392644637 0 0.0044438592380744123 -0.00072515510146692298 0 0.0040462236861968396 -0.00092434762392644637 0 0.0041688737197416162 -0.00046968396231659255 0 0.0034247191427348588 -0.0010352308649980409 0 0.0040462236861968396 -0.00092434762392644637 0 0.0036990105565666066 -0.00062639681619870789 0 0.0034247191427348588 -0.0010352308649980409 0 0.0029247113297527078 -0.00058144253858081942 0 0.0036990105565666066 -0.00062639681619870789 0 0.0029247113297527078 -0.00058144253858081942 0 0.0036990105565666066 -0.00062639681619870789 0 0.0030518098308168575 -0.00019721172331042334 0 0.0036990105565666066 -0.00062639681619870789 0 0.0030518098308168575 -0.00019721172331042334 0 0.0032460251380475448 0.00010788709664581907 0 0.0036963180373046482 -0.00061292089394173756 0 0.0036175520295052186 -0.00018688506361116608 0 0.0036990105565666066 -0.00062639681619870789 0 0.0039477613243515614 -0.00041912999864323475 0 0.0041688737197416162 -0.00046968396231659255 0 0.0028770487232920808 6.5218650758886554e-05 0 0.0030518098308168575 -0.00019721172331042334 0 0.0032460251380475448 0.00010788709664581907 0 0.0028770487232920808 6.5218650758886554e-05 0 0.0032460251380475448 0.00010788709664581907 0 0.0028479093286351768 0.00028205207914762707 0 0.0041688737197416162 -0.00046968396231659255 0 0.0043547308691327122 -0.00028900707745735046 0 0.004120303816325375 -0.00029987822987079997 0 0.0041688737197416162 -0.00046968396231659255 0 0.0043547308691327122 -0.00028900707745735046 0 0.0046331217024743084 -0.00038334058246195467 0 0.0039477613243515614 -0.00041912999864323475 0 0.0041688737197416162 -0.00046968396231659255 0 0.004120303816325375 -0.00029987822987079997 0 0.0042749828810055299 -0.00019082677608038258 0 0.0039787427403199134 -0.00019834160080481179 0 0.0043607084390821504 1.8861939859503034e-05 0 0.0043547308691327122 -0.00028900707745735046 0 0.0042749828810055299 -0.00019082677608038258 0 0.0045388954578946938 -0.00017972106231310325 0 0.0043547308691327122 -0.00028900707745735046 0 0.0042749828810055299 -0.00019082677608038258 0 0.004120303816325375 -0.00029987822987079997 0 0.0039477613243515614 -0.00041912999864323475 0 0.004120303816325375 -0.00029987822987079997 0 0.0039787427403199134 -0.00019834160080481179 0 0.0036175520295052186 -0.00018688506361116608 0 0.0041400715158673544 0.00013682174602468696 0 0.0032460251380475448 0.00010788709664581907 0 0.0030398660760097957 0.00045949467065974499 0 0.0028479093286351768 0.00028205207914762707 0 0.0041400715158673544 0.00013682174602468696 0 0.0032533689619750512 -2.8487595773930448e-05 0 0.0042749828810055299 -0.00019082677608038258 0 0.004120303816325375 -0.00029987822987079997 0 0.0039787427403199134 -0.00019834160080481179 0 0.0057564692292930578 0.00014412408047990093 0 0.0057311932999331398 0.00031215932981671653 0 0.0059566275228977545 0.00032848588717978065 0 0.0041400715158673544 0.00013682174602468696 0 0.0052508587273469116 0.000187746187388958 0 0.0057311932999331398 0.00031215932981671653 0 0.0059566275228977545 0.00032848588717978065 0 0.0059337367840098746 0.00045176577844989208 0 0.0041400715158673544 0.00013682174602468696 0 0.0050151991400496998 0.00044579492988902131 0 0.0042749828810055299 -0.00019082677608038258 0 0.0043607084390821504 1.8861939859503034e-05 0 0.0045388954578946938 -0.00017972106231310325 0 0.0028173028630117578 -1.07816910113081e-06 0 0.0045316823452973554 -0.00018630593883750473 0 0.0042256612356002055 2.9922505458849823e-07 0 0.0028161974172657023 2.5091958343950337e-07 0 0.0034228783625349177 5.3172737331181766e-05 0 0.0029978603799224283 0.00037899221286152895 0 0.0024968867361326755 0.00026499294854020436 0 0.0028479093286351768 0.00028205207914762707 0 0.0029978603799224283 0.00037899221286152895 0 0.0029342079413122234 0.00072608656505330018 0 0.0024968867361326755 0.00026499294854020436 0 0.0026268025060095551 0.0001250768082137207 0 0.0024968867361326755 0.00026499294854020436 0 0.0028479093286351768 0.00028205207914762707 0 0.0053240874067760971 -3.1303692320004847e-05 0 0.0045316823452973554 -0.00018630593883750473 0 0.0050503139902201505 7.3745732800056753e-05 0 0.0050151991400496998 0.00044579492988902131 0 0.0034228783625349177 5.3172737331181766e-05 0 0.0045316823452973554 -0.00018630593883750473 0 0.0050503139902201505 7.3745732800056753e-05 0 0.0042256612356002055 2.9922505458849823e-07 0 0.0050503139902201505 7.3745732800056753e-05 0 0.0042256612356002055 2.9922505458849823e-07 0 0.0056354747988833003 3.3087316457109078e-07 0 0.0050503139902201505 7.3745732800056753e-05 0 0.0056945746097664864 0.00013906952685652688 0 0.0056354747988833003 3.3087316457109078e-07 0 0.0053240874067760971 -3.1303692320004847e-05 0 0.0050503139902201505 7.3745732800056753e-05 0 0.0056945746097664864 0.00013906952685652688 0 0.0066300800283822185 0.00024203498434190838 0 0.0056945746097664864 0.00013906952685652688 0 0.0056354747988833003 3.3087316457109078e-07 0 0.0064915209996927372 0.00030748011303099174 0 0.0062418703900147809 0.00036340477791471198 0 0.0066300800283822185 0.00024203498434190838 0 0.0065661497433049613 0.00057299202877414011 0 0.0064726147501010444 0.00037892259192249481 0 0.0062805827941532048 0.00065227470710003813 0 0.0060189908219447962 0.00044742100914737951 0 0.0052508587273469116 0.000187746187388958 0 0.0054070589058760592 0.00030525627809513352 0 0.0059337367840098746 0.00045176577844989208 0 0.0060818676219973541 0.00048276220331849623 0 0.0060733793653959672 0.00047505476472324017 0 0.0059566275228977545 0.00032848588717978065 0 0.0059337367840098746 0.00045176577844989208 0 0.0060733793653959672 0.00047505476472324017 0 0.0065661497433049613 0.00057299202877414011 0 0.0062955864618427764 0.00067701284461652879 0 0.0062944535092191167 0.00047402549223756472 0 0.0050151991400496998 0.00044579492988902131 0 0.0062805827941532048 0.00065227470710003813 0 0.0050151991400496998 0.00044579492988902131 0 0.0062418703900147809 0.00036340477791471198 0 0.0064895047096115068 0.00085114399675838162 0 0.0065661497433049613 0.00057299202877414011 0 0.0062955864618427764 0.00067701284461652879 0 0.0063241524585507317 0.00031118249517437114 0 0.0064726147501010444 0.00037892259192249481 0 0.0062944535092191167 0.00047402549223756472 0 0.0065661497433049613 0.00057299202877414011 0 0.0064726147501010444 0.00037892259192249481 0 0.0062944535092191167 0.00047402549223756472 0 0.0062955864618427764 0.00067701284461652879 0 0.0062944535092191167 0.00047402549223756472 0 0.0060818676219973541 0.00048276220331849623 0 0.006136306817124744 0.00034409757240338226 0 0.0062944535092191167 0.00047402549223756472 0 0.0060818676219973541 0.00048276220331849623 0 0.0060312215468820811 0.00036531999751797124 0 0.0060818676219973541 0.00048276220331849623 0 0.0059579057148648083 0.00044238340430750465 0 0.0060818676219973541 0.00048276220331849623 0 0.0060733793653959672 0.00047505476472324017 0 0.0059579057148648083 0.00044238340430750465 0 0.006136306817124744 0.00034409757240338226 0 0.0060312215468820811 0.00036531999751797124 0 0.0060818676219973541 0.00048276220331849623 0 0.0048003157255240006 0.0001812331977526823 0 0.0047313017110870896 -3.3878621819563684e-05 0 0.0050288477578318532 -3.2000907297095918e-05 0 0.0048003157255240006 0.0001812331977526823 0 0.0052004076134364516 0.00010493740914690824 0 0.0052573841884528336 0.00028699646013795229 0 0.0048003157255240006 0.0001812331977526823 0 0.0052004076134364516 0.00010493740914690824 0 0.0050288477578318532 -3.2000907297095918e-05 0 0.0052004076134364516 0.00010493740914690824 0 0.0053178897095660822 -3.9376494534830462e-05 0 0.0050288477578318532 -3.2000907297095918e-05 0 0.0052004076134364516 0.00010493740914690824 0 0.0052573841884528336 0.00028699646013795229 0 0.0055621607553304475 0.00012778722795876629 0 0.0054070589058760592 0.00030525627809513352 0 0.0056055367032017888 0.0003471103786354299 0 0.0057943041090571731 0.00031984947915420512 0 0.0052573841884528336 0.00028699646013795229 0 0.0055621607553304475 0.00012778722795876629 0 0.0057442705149712723 -2.7690912406583291e-05 0 0.0055621607553304475 0.00012778722795876629 0 0.0058858080999046316 0.00018342236303011108 0 0.0057943041090571731 0.00031984947915420512 0 0.0055621607553304475 0.00012778722795876629 0 0.0058858080999046316 0.00018342236303011108 0 0.0057442705149712723 -2.7690912406583291e-05 0 0.0055621607553304475 0.00012778722795876629 0 0.0055136700377678757 -8.9325274366805509e-05 0 0.0055621607553304475 0.00012778722795876629 0 0.0053178897095660822 -3.9376494534830462e-05 0 0.0055136700377678757 -8.9325274366805509e-05 0 0.0052004076134364516 0.00010493740914690824 0 0.0055621607553304475 0.00012778722795876629 0 0.0053178897095660822 -3.9376494534830462e-05 0 0.0053178897095660822 -3.9376494534830462e-05 0 0.0053827383698586756 -0.00022226674417172404 0 0.0055136700377678757 -8.9325274366805509e-05 0 0.0053178897095660822 -3.9376494534830462e-05 0 0.0053827383698586756 -0.00022226674417172404 0 0.0051466900870243155 -0.00020404615365836814 0 0.0057442705149712723 -2.7690912406583291e-05 0 0.0055136700377678757 -8.9325274366805509e-05 0 0.0056019854541343832 -0.00022802873315896474 0 0.0053827383698586756 -0.00022226674417172404 0 0.0055136700377678757 -8.9325274366805509e-05 0 0.0056019854541343832 -0.00022802873315896474 0 0.0053162628031579364 -0.00061855513786638347 0 0.0054560105287777289 -0.00040440238380365823 0 0.0052709159639257683 -0.00038051657223600409 0 0.0056466148939762345 -0.00040972329907138281 0 0.0056019854541343832 -0.00022802873315896474 0 0.0054560105287777289 -0.00040440238380365823 0 0.0053827383698586756 -0.00022226674417172404 0 0.0056019854541343832 -0.00022802873315896474 0 0.0054560105287777289 -0.00040440238380365823 0 0.0052709159639257683 -0.00038051657223600409 0 0.0050083260025860221 -0.00037873714252028385 0 0.0051466900870243155 -0.00020404615365836814 0 0.0053827383698586756 -0.00022226674417172404 0 0.0052709159639257683 -0.00038051657223600409 0 0.0051466900870243155 -0.00020404615365836814 0 0.0053827383698586756 -0.00022226674417172404 0 0.0054560105287777289 -0.00040440238380365823 0 0.0052709159639257683 -0.00038051657223600409 0 0.0051486082599517743 -0.00053219907939807841 0 0.0052709159639257683 -0.00038051657223600409 0 0.0050083260025860221 -0.00037873714252028385 0 0.0050083260025860221 -0.00037873714252028385 0 0.0046331217024743084 -0.00038334058246195467 0 0.0048645173670264358 -0.00019528416346647624 0 0.0050083260025860221 -0.00037873714252028385 0 0.0051466900870243155 -0.00020404615365836814 0 0.0048645173670264358 -0.00019528416346647624 0 0.0046331217024743084 -0.00038334058246195467 0 0.0045388954578946938 -0.00017972106231310325 0 0.0048645173670264358 -0.00019528416346647624 0 0.0043547308691327122 -0.00028900707745735046 0 0.0046331217024743084 -0.00038334058246195467 0 0.0045388954578946938 -0.00017972106231310325 0 0.0043607084390821504 1.8861939859503034e-05 0 0.0045388954578946938 -0.00017972106231310325 0 0.0047313017110870896 -3.3878621819563684e-05 0 0.0045388954578946938 -0.00017972106231310325 0 0.0047313017110870896 -3.3878621819563684e-05 0 0.0048645173670264358 -0.00019528416346647624 0 0.0043607084390821504 1.8861939859503034e-05 0 0.0048003157255240006 0.0001812331977526823 0 0.0047313017110870896 -3.3878621819563684e-05 0 0.0047313017110870896 -3.3878621819563684e-05 0 0.0050288477578318532 -3.2000907297095918e-05 0 0.0048645173670264358 -0.00019528416346647624 0 0.0053178897095660822 -3.9376494534830462e-05 0 0.0050288477578318532 -3.2000907297095918e-05 0 0.0051466900870243155 -0.00020404615365836814 0 0.0050288477578318532 -3.2000907297095918e-05 0 0.0051466900870243155 -0.00020404615365836814 0 0.0048645173670264358 -0.00019528416346647624 0 -0.00097928562632683337 0.00045933543867598709 0 -0.00071818250150177776 0.00028344206726516817 0 -0.0010436356102823214 0.00025033546978197067 0 -0.00097928562632683337 0.00045933543867598709 0 -0.00071818250150177776 0.00028344206726516817 0 -0.00062017295694110665 0.0006226196203594688 0 -0.00071818250150177776 0.00028344206726516817 0 -0.0010436356102823214 0.00025033546978197067 0 -0.0010550090736327995 -1.4251810946678034e-05 0 -0.0010436356102823214 0.00025033546978197067 0 -0.0012621783510459567 0.00015150760748353607 0 -0.0010550090736327995 -1.4251810946678034e-05 0 -0.0010436356102823214 0.00025033546978197067 0 -0.0012621783510459567 0.00015150760748353607 0 -0.0012986782022937481 0.00040367362558630841 0 -0.0012621783510459567 0.00015150760748353607 0 -0.0012986782022937481 0.00040367362558630841 0 -0.0015118892442359702 0.00023046267110558483 0 -0.0012621783510459567 0.00015150760748353607 0 -0.0014768783258353728 -3.3246202659710499e-05 0 -0.0015118892442359702 0.00023046267110558483 0 -0.0012986782022937481 0.00040367362558630841 0 -0.001501384793435253 0.00040275240971673746 0 -0.0015344126486688083 0.00057205720340313478 0 -0.0012986782022937481 0.00040367362558630841 0 -0.001501384793435253 0.00040275240971673746 0 -0.0015118892442359702 0.00023046267110558483 0 -0.00097928562632683337 0.00045933543867598709 0 -0.0010436356102823214 0.00025033546978197067 0 -0.0012986782022937481 0.00040367362558630841 0 -0.00097928562632683337 0.00045933543867598709 0 -0.0012986782022937481 0.00040367362558630841 0 -0.0012163777590472008 0.00073832529756675755 0 -0.0012986782022937481 0.00040367362558630841 0 -0.0012163777590472008 0.00073832529756675755 0 -0.0015344126486688083 0.00057205720340313478 0 -0.0016162604121456514 0.00069851759768657998 0 -0.0014287330708873337 0.00056096821792429624 0 -0.0016336131085778888 0.00077744379563044678 0 -0.0013303496860908061 0.00065453990678369185 0 -0.00077465055374187017 0.00051256122821348275 0 -0.00097928562632683337 0.00045933543867598709 0 -0.0012163777590472008 0.00073832529756675755 0 -0.00062017295694110665 0.0006226196203594688 0 -0.0014287330708873337 0.00056096821792429624 0 -0.0010021901194284212 0.00041643338875429239 0 -0.0010821409824441734 0.00072041445357185494 0 -0.00078721214940492184 0.00037949411582519868 0 -0.0010021901194284212 0.00041643338875429239 0 -0.00062948861664303144 0.00030681828492774556 0 -0.00077465055374187017 0.00051256122821348275 0 -0.00048464330227266332 0.00044112842226199685 0 -0.00085955951141197774 0.00055941757716470556 0 -0.0010021901194284212 0.00041643338875429239 0 -0.0010821409824441734 0.00072041445357185494 0 -0.00085955951141197774 0.00055941757716470556 0 -0.00078721214940492184 0.00037949411582519868 0 -0.0010021901194284212 0.00041643338875429239 0 -0.00085955951141197774 0.00055941757716470556 0 -0.00078721214940492184 0.00037949411582519868 0 -0.00056263852828453457 0.00072633433843743934 0 -0.00078721214940492184 0.00037949411582519868 0 -0.00060062054386570308 0.00041399693570827911 0 -0.0005869407531834377 0.00052693035994690626 0 -0.00056260901425909341 0.0007385967249677603 0 -0.0010527275402139426 -0.00027026088177312395 0 -0.00078721214940492184 0.00037949411582519868 0 -0.00060062054386570308 0.00041399693570827911 0 -0.00062948861664303144 0.00030681828492774556 0 -0.00060062054386570308 0.00041399693570827911 0 -0.00062948861664303144 0.00030681828492774556 0 -0.00050234063957318813 0.00036953608823316687 0 -2.2868600529932784e-05 0.00050489269542017528 0 -0.00014890835569964409 9.2760240360373748e-05 0 -0.00038511244972022548 0.00032151616873955617 0 -2.2868600529932784e-05 0.00050489269542017528 0 -0.00014890835569964409 9.2760240360373748e-05 0 0.00020702626164996194 9.4230817022768922e-05 0 -0.00062017295694110665 0.0006226196203594688 0 -2.2868600529932784e-05 0.00050489269542017528 0 -0.00038511244972022548 0.00032151616873955617 0 -0.00071818250150177776 0.00028344206726516817 0 -0.00062017295694110665 0.0006226196203594688 0 -0.00038511244972022548 0.00032151616873955617 0 -0.00014890835569964409 9.2760240360373748e-05 0 -0.00038511244972022548 0.00032151616873955617 0 -0.00049775907293700763 -6.7713868806421475e-06 0 -0.00071818250150177776 0.00028344206726516817 0 -0.00038511244972022548 0.00032151616873955617 0 -0.00049775907293700763 -6.7713868806421475e-06 0 -0.00049775907293700763 -6.7713868806421475e-06 0 -4.3521496175892296e-05 -0.00045146671877494194 0 -0.00081035700531974523 -0.00038996063677551471 0 -0.00014890835569964409 9.2760240360373748e-05 0 -4.3521496175892296e-05 -0.00045146671877494194 0 0.00020702626164996194 9.4230817022768922e-05 0 -0.00014890835569964409 9.2760240360373748e-05 0 -0.00049775907293700763 -6.7713868806421475e-06 0 -4.3521496175892296e-05 -0.00045146671877494194 0 0.00098494203436042113 5.4853414687384446e-05 0 0.0014760302454076891 -0.00036053643226684488 0 0.00074851358224547169 -0.00032486533265190773 0 -0.00021239284602259231 -0.00029495845728170952 0 0.00065321944227326426 -0.00057238028532893164 0 0.00098494203436042113 5.4853414687384446e-05 0 4.0741897220783707e-05 0.00012742916672465489 0 0.00074851358224547169 -0.00032486533265190773 0 0.00048080563484696818 -0.00018704674322280528 0 -0.00039200890382163115 -0.00013110619557054435 0 4.0741897220783707e-05 0.00012742916672465489 0 -8.9770397795369727e-05 -8.5318336862246483e-05 0 0.00074851358224547169 -0.00032486533265190773 0 -0.00071818250150177776 0.00028344206726516817 0 -0.00049775907293700763 -6.7713868806421475e-06 0 -0.0010550090736327995 -1.4251810946678034e-05 0 -0.00049775907293700763 -6.7713868806421475e-06 0 -0.00081035700531974523 -0.00038996063677551471 0 -0.0010550090736327995 -1.4251810946678034e-05 0 -0.0012621783510459567 0.00015150760748353607 0 -0.0010550090736327995 -1.4251810946678034e-05 0 -0.0014768783258353728 -3.3246202659710499e-05 0 -0.0010550090736327995 -1.4251810946678034e-05 0 -0.0015216480140740314 -0.00031797751049116718 0 -0.0014768783258353728 -3.3246202659710499e-05 0 -0.00081035700531974523 -0.00038996063677551471 0 -0.0010550090736327995 -1.4251810946678034e-05 0 -0.0015216480140740314 -0.00031797751049116718 0 -0.00039200890382163115 -0.00013110619557054435 0 -0.0012224204935080015 -7.7528448334716012e-05 0 -0.00037942737731149243 -0.0005020147265757985 0 -0.0012917660179300322 -0.00055000873529258045 0 -0.0014337155222363712 -0.0002839348850156659 0 -0.00037942737731149243 -0.0005020147265757985 0 -0.0012917660179300322 -0.00055000873529258045 0 -0.0012899245731210073 -0.0011292908414220484 0 -0.00021239284602259231 -0.00029495845728170952 0 -0.0012224204935080015 -7.7528448334716012e-05 0 4.0741897220783707e-05 0.00012742916672465489 0 -8.9770397795369727e-05 -8.5318336862246483e-05 0 -0.00097632283617072918 0.00018748887296004204 0 -0.0012917660179300322 -0.00055000873529258045 0 -0.0017419455915095609 -0.00054037955847634688 0 -0.0012899245731210073 -0.0011292908414220484 0 -0.0017419455915095609 -0.00054037955847634688 0 -0.0021138449589743038 -0.00067668052601287728 0 -0.0012899245731210073 -0.0011292908414220484 0 -0.0012917660179300322 -0.00055000873529258045 0 -0.001555601516370186 -0.00030302384568438637 0 -0.0017419455915095609 -0.00054037955847634688 0 -0.0012936065541260097 -9.0941155441189334e-05 0 -0.0012224204935080015 -7.7528448334716012e-05 0 -0.0012917660179300322 -0.00055000873529258045 0 -0.001555601516370186 -0.00030302384568438637 0 -0.0014337155222363712 -0.0002839348850156659 0 -0.001555601516370186 -0.00030302384568438637 0 -0.0017419455915095609 -0.00054037955847634688 0 -0.0017624397599559419 -0.00029382841628892796 0 -0.0017419455915095609 -0.00054037955847634688 0 -0.0021138449589743038 -0.00067668052601287728 0 -0.0020688083833602768 -0.00029401315427192995 0 -0.0017419455915095609 -0.00054037955847634688 0 -0.0020688083833602768 -0.00029401315427192995 0 -0.0017624397599559419 -0.00029382841628892796 0 -0.0020688083833602768 -0.00029401315427192995 0 -0.0020353962987104536 6.7831296607062196e-06 0 -0.001785724036097224 -0.00012193886019061581 0 -0.0020688083833602768 -0.00029401315427192995 0 -0.0017624397599559419 -0.00029382841628892796 0 -0.001785724036097224 -0.00012193886019061581 0 -0.0020688083833602768 -0.00029401315427192995 0 -0.0020353962987104536 6.7831296607062196e-06 0 -0.0024363549075354478 3.3523828984424709e-05 0 -0.0020353962987104536 6.7831296607062196e-06 0 -0.0018011732099380234 3.9608091372629153e-05 0 -0.0019348288177305022 0.00015547729464792737 0 -0.0020353962987104536 6.7831296607062196e-06 0 -0.0018011732099380234 3.9608091372629153e-05 0 -0.001785724036097224 -0.00012193886019061581 0 -0.0018011732099380234 3.9608091372629153e-05 0 -0.0016595602862518731 -2.7921604800104074e-05 0 -0.001785724036097224 -0.00012193886019061581 0 -0.0018011732099380234 3.9608091372629153e-05 0 -0.0016595602862518731 -2.7921604800104074e-05 0 -0.0016345564168476284 0.0001062337872898209 0 -0.0016595602862518731 -2.7921604800104074e-05 0 -0.0014768783258353728 -3.3246202659710499e-05 0 -0.0016345564168476284 0.0001062337872898209 0 -0.0016595602862518731 -2.7921604800104074e-05 0 -0.0014768783258353728 -3.3246202659710499e-05 0 -0.0016070703268753973 -0.00017017175817676206 0 -0.0015216480140740314 -0.00031797751049116718 0 -0.0014768783258353728 -3.3246202659710499e-05 0 -0.0016070703268753973 -0.00017017175817676206 0 -0.001555601516370186 -0.00030302384568438637 0 -0.0015216480140740314 -0.00031797751049116718 0 -0.0016070703268753973 -0.00017017175817676206 0 -0.001555601516370186 -0.00030302384568438637 0 -0.0016070703268753973 -0.00017017175817676206 0 -0.00165423211157884 -0.000236508213489726 0 -0.00165423211157884 -0.000236508213489726 0 -0.0017624397599559419 -0.00029382841628892796 0 -0.001785724036097224 -0.00012193886019061581 0 -0.001555601516370186 -0.00030302384568438637 0 -0.00165423211157884 -0.000236508213489726 0 -0.0017624397599559419 -0.00029382841628892796 0 -0.0016595602862518731 -2.7921604800104074e-05 0 -0.0016070703268753973 -0.00017017175817676206 0 -0.001785724036097224 -0.00012193886019061581 0 -0.0016070703268753973 -0.00017017175817676206 0 -0.00165423211157884 -0.000236508213489726 0 -0.001785724036097224 -0.00012193886019061581 0 0.00031251764820565826 0.0024880252040326749 0 -5.6987999200213301e-05 0.0018278646376039083 0 -0.00042241068700611537 0.002267655727969109 0 0.00031251764820565826 0.0024880252040326749 0 0.00052485385452182595 0.0019867585648143614 0 -5.6987999200213301e-05 0.0018278646376039083 0 -0.0021138449589743038 -0.00067668052601287728 0 -0.0020688083833602768 -0.00029401315427192995 0 -0.0027732113526782154 -0.00036221975806185558 0 0.00099165039341257786 0.0021599432799982144 0 0.00031251764820565826 0.0024880252040326749 0 0.00052485385452182595 0.0019867585648143614 0 -0.00056698886055271192 0.00073902231694268335 0 -0.0012171588142103763 0.0010578389701584694 0 -0.0020688083833602768 -0.00029401315427192995 0 -0.0027732113526782154 -0.00036221975806185558 0 -0.0024363549075354478 3.3523828984424709e-05 0 -0.0027732113526782154 -0.00036221975806185558 0 -0.0024363549075354478 3.3523828984424709e-05 0 -0.0028855770180714396 0.00028852185415782219 0 -0.0012171588142103763 0.0010578389701584694 0 -0.0019942543627468295 0.0013915860980622237 0 -0.0027732113526782154 -0.00036221975806185558 0 -0.0028855770180714396 0.00028852185415782219 0 -0.0034665413462394803 -6.0278981545190708e-05 0 -0.0024363549075354478 3.3523828984424709e-05 0 -0.0028855770180714396 0.00028852185415782219 0 -0.0024975187871031567 0.0004042462181227663 0 -0.0024363549075354478 3.3523828984424709e-05 0 -0.0024975187871031567 0.0004042462181227663 0 -0.0021682790391703444 0.00022697641815960882 0 -0.002808438720522193 0.00092228797191270184 0 -0.0022033174070912012 0.00056860075693760629 0 -0.002137048935237603 0.00091970589102046785 0 -0.0028855770180714396 0.00028852185415782219 0 -0.0024975187871031567 0.0004042462181227663 0 -0.002808438720522193 0.00092228797191270184 0 -0.0024975187871031567 0.0004042462181227663 0 -0.002808438720522193 0.00092228797191270184 0 -0.0022033174070912012 0.00056860075693760629 0 -0.0049506386840072383 0.00018474708215473719 0 -0.0054552906425142248 0.00021935368055052377 0 -0.0028855770180714396 0.00028852185415782219 0 -0.002808438720522193 0.00092228797191270184 0 -0.0034911803930367863 0.00089870673430672609 0 -0.0018481712204172099 0.0004725262028365952 0 -0.0017708195757837825 0.0002441413500152688 0 -0.0019852850892637742 0.00033439716463926652 0 -0.0018481712204172099 0.0004725262028365952 0 -0.0016598053947649647 0.00040355475875935876 0 -0.0017708195757837825 0.0002441413500152688 0 -0.0016598053947649647 0.00040355475875935876 0 -0.0015118892442359702 0.00023046267110558483 0 -0.0017708195757837825 0.0002441413500152688 0 -0.0016598053947649647 0.00040355475875935876 0 -0.001501384793435253 0.00040275240971673746 0 -0.0015344126486688083 0.00057205720340313478 0 -0.0016598053947649647 0.00040355475875935876 0 -0.001501384793435253 0.00040275240971673746 0 -0.0015118892442359702 0.00023046267110558483 0 -0.0014768783258353728 -3.3246202659710499e-05 0 -0.0015118892442359702 0.00023046267110558483 0 -0.0016345564168476284 0.0001062337872898209 0 -0.0015118892442359702 0.00023046267110558483 0 -0.0016345564168476284 0.0001062337872898209 0 -0.0017708195757837825 0.0002441413500152688 0 -0.0018011732099380234 3.9608091372629153e-05 0 -0.0016345564168476284 0.0001062337872898209 0 -0.0017708195757837825 0.0002441413500152688 0 -0.0018011732099380234 3.9608091372629153e-05 0 -0.0017708195757837825 0.0002441413500152688 0 -0.0019348288177305022 0.00015547729464792737 0 -0.0020353962987104536 6.7831296607062196e-06 0 -0.0019348288177305022 0.00015547729464792737 0 -0.0021682790391703444 0.00022697641815960882 0 -0.0019348288177305022 0.00015547729464792737 0 -0.0021682790391703444 0.00022697641815960882 0 -0.0019852850892637742 0.00033439716463926652 0 -0.0017708195757837825 0.0002441413500152688 0 -0.0019348288177305022 0.00015547729464792737 0 -0.0019852850892637742 0.00033439716463926652 0 -0.0020353962987104536 6.7831296607062196e-06 0 -0.0024363549075354478 3.3523828984424709e-05 0 -0.0021682790391703444 0.00022697641815960882 0 -0.0024975187871031567 0.0004042462181227663 0 -0.0021682790391703444 0.00022697641815960882 0 -0.0022033174070912012 0.00056860075693760629 0 -0.0021682790391703444 0.00022697641815960882 0 -0.0019852850892637742 0.00033439716463926652 0 -0.0022033174070912012 0.00056860075693760629 0 -0.0018481712204172099 0.0004725262028365952 0 -0.0019852850892637742 0.00033439716463926652 0 -0.0022033174070912012 0.00056860075693760629 0 -0.0018481712204172099 0.0004725262028365952 0 -0.0019891142999138387 0.00067236423313699783 0 -0.0022033174070912012 0.00056860075693760629 0 -0.0019891142999138387 0.00067236423313699783 0 -0.0022033174070912012 0.00056860075693760629 0 -0.002137048935237603 0.00091970589102046785 0 -0.0019891142999138387 0.00067236423313699783 0 -0.0018480153610137067 0.00080489603547911079 0 -0.002137048935237603 0.00091970589102046785 0 -0.0019891142999138387 0.00067236423313699783 0 -0.0018480153610137067 0.00080489603547911079 0 -0.0017781663803526091 0.00058794603387788986 0 -0.0013303496860908061 0.00065453990678369185 0 -0.001795165629132631 0.00078347415498401221 0 -0.0016162604121456514 0.00069851759768657998 0 -0.0014287330708873337 0.00056096821792429624 0 -0.0018480153610137067 0.00080489603547911079 0 -0.0012163777590472008 0.00073832529756675755 0 -0.0018480153610137067 0.00080489603547911079 0 -0.0015344126486688083 0.00057205720340313478 0 -0.0018481712204172099 0.0004725262028365952 0 -0.0019891142999138387 0.00067236423313699783 0 -0.0017781663803526091 0.00058794603387788986 0 -0.0018480153610137067 0.00080489603547911079 0 -0.0017781663803526091 0.00058794603387788986 0 -0.0015344126486688083 0.00057205720340313478 0 -0.0018481712204172099 0.0004725262028365952 0 -0.0016598053947649647 0.00040355475875935876 0 -0.0017781663803526091 0.00058794603387788986 0 -0.0016598053947649647 0.00040355475875935876 0 -0.0017781663803526091 0.00058794603387788986 0 -0.0015344126486688083 0.00057205720340313478 0 -0.0016162604121456514 0.00069851759768657998 0 -0.0018480153610137067 0.00080489603547911079 0 -0.0016104119806075465 0.00083610567267408003 0 -0.0018480153610137067 0.00080489603547911079 0 -0.0016104119806075465 0.00083610567267408003 0 -0.002137048935237603 0.00091970589102046785 0 -0.0065216756839885509 -0.00057884605753454011 0 -0.0068664675265995654 -0.00057731437054019152 0 -0.0068008254520464054 -0.00035951919727625017 0 -0.0033068616205064348 -0.00084756908328028973 0 -0.0046662062499297314 0.00026719434967207824 0 -0.0068664675265995654 -0.00057731437054019152 0 -0.0068008254520464054 -0.00035951919727625017 0 -0.0070515954535245841 -0.00030452837342914588 0 -0.0068008254520464054 -0.00035951919727625017 0 -0.0070515954535245841 -0.00030452837342914588 0 -0.0067995646866687541 -0.00016050563146965643 0 -0.0065216756839885509 -0.00057884605753454011 0 -0.0068008254520464054 -0.00035951919727625017 0 -0.0065680654648164177 -0.00023794714096712365 0 -0.0033068616205064348 -0.00084756908328028973 0 -0.0051053761204825337 -0.0012890306758791131 0 -0.0068008254520464054 -0.00035951919727625017 0 -0.0065680654648164177 -0.00023794714096712365 0 -0.0067995646866687541 -0.00016050563146965643 0 -0.0071701848465859017 -0.00053723326851334613 0 -0.0070515954535245841 -0.00030452837342914588 0 -0.0073133093257955854 -0.00034032463152892136 0 -0.0071701848465859017 -0.00053723326851334613 0 -0.0073133093257955854 -0.00034032463152892136 0 -0.0073970865500687264 -0.00046478444965900555 0 -0.0049506386840072383 0.00018474708215473719 0 -0.0046662062499297314 0.00026719434967207824 0 -0.0071701848465859017 -0.00053723326851334613 0 -0.0068664675265995654 -0.00057731437054019152 0 -0.0070515954535245841 -0.00030452837342914588 0 -0.0070515954535245841 -0.00030452837342914588 0 -0.0073133093257955854 -0.00034032463152892136 0 -0.0073485025357411075 -0.00018540553680989138 0 -0.0070515954535245841 -0.00030452837342914588 0 -0.0073485025357411075 -0.00018540553680989138 0 -0.0069689311510598151 -2.8361919806955887e-06 0 -0.0072612298973422709 -0.00018914538665065512 0 -0.0071711311093836912 -0.00010024724787853981 0 -0.0073485025357411075 -0.00018540553680989138 0 -0.007272842604596385 -0.00015088194210955382 0 -0.0070890004419915057 -0.00027842864412126999 0 -0.007272842604596385 -0.00015088194210955382 0 -0.0070890004419915057 -0.00027842864412126999 0 -0.0069862443339308959 -0.00013958783949999753 0 -0.0073485025357411075 -0.00018540553680989138 0 -0.007272842604596385 -0.00015088194210955382 0 -0.0075261286142347724 -0.00011437529349528145 0 -0.0065680654648164177 -0.00023794714096712365 0 -0.0067995646866687541 -0.00016050563146965643 0 -0.006594875737223331 0.000111644323976104 0 -0.0051053761204825337 -0.0012890306758791131 0 -0.0059738350007701732 -0.00043409354135034019 0 -0.0070515954535245841 -0.00030452837342914588 0 -0.0067995646866687541 -0.00016050563146965643 0 -0.0069689311510598151 -2.8361919806955887e-06 0 -0.0071711311093836912 -0.00010024724787853981 0 -0.0059738350007701732 -0.00043409354135034019 0 -0.0070890004419915057 -0.00027842864412126999 0 -0.0067033257124729049 -0.00022965048854001541 0 -0.0069862443339308959 -0.00013958783949999753 0 -0.0067995646866687541 -0.00016050563146965643 0 -0.0069689311510598151 -2.8361919806955887e-06 0 -0.006594875737223331 0.000111644323976104 0 -0.0034658009755981893 -0.0019636499510850814 0 -0.0034535944855174304 -0.0012841185552907237 0 -0.0035556134682584216 -0.0011011949593001797 0 -0.0034535944855174304 -0.0012841185552907237 0 -0.0035556134682584216 -0.0011011949593001797 0 -0.0034569147378018779 -0.0010701516178494147 0 -0.0045481914093111527 -0.0011266182465230013 0 -0.0051285456784264435 -0.00086856313686711263 0 -0.0059738350007701732 -0.00043409354135034019 0 -0.0051285456784264435 -0.00086856313686711263 0 -0.0034487079560848615 -0.0010697977513787027 0 -0.0029828100726525912 -0.0012813839026028556 0 -0.0026237825142358703 -0.00082153349359157305 0 -0.0034535944855174304 -0.0012841185552907237 0 -0.0034487079560848615 -0.0010697977513787027 0 -0.0029828100726525912 -0.0012813839026028556 0 -0.0034535944855174304 -0.0012841185552907237 0 -0.0029828100726525912 -0.0012813839026028556 0 -0.0031084156083863897 -0.0016982452697651706 0 -0.0029828100726525912 -0.0012813839026028556 0 -0.0024716181286173929 -0.0015169179998316528 0 -0.0026237825142358703 -0.00082153349359157305 0 -0.0024716181286173929 -0.0015169179998316528 0 -0.0027481356960171346 -0.0016706493173427857 0 -0.0025221867909421109 -0.0020237829728565154 0 -0.0029828100726525912 -0.0012813839026028556 0 -0.0024716181286173929 -0.0015169179998316528 0 -0.0027481356960171346 -0.0016706493173427857 0 -0.0027481356960171346 -0.0016706493173427857 0 -0.0031084156083863897 -0.0016982452697651706 0 -0.0029283681549812481 -0.0021949378748695723 0 -0.0034658009755981893 -0.0019636499510850814 0 -0.0034535944855174304 -0.0012841185552907237 0 -0.0031084156083863897 -0.0016982452697651706 0 -0.0029828100726525912 -0.0012813839026028556 0 -0.0027481356960171346 -0.0016706493173427857 0 -0.0031084156083863897 -0.0016982452697651706 0 -0.0034658009755981893 -0.0019636499510850814 0 -0.0031084156083863897 -0.0016982452697651706 0 -0.0029283681549812481 -0.0021949378748695723 0 -0.0033920257666380589 -0.0028077782920188409 0 -0.0034658009755981893 -0.0019636499510850814 0 -0.0029283681549812481 -0.0021949378748695723 0 -0.0027481356960171346 -0.0016706493173427857 0 -0.0029283681549812481 -0.0021949378748695723 0 -0.0025221867909421109 -0.0020237829728565154 0 -0.0029283681549812481 -0.0021949378748695723 0 -0.0025221867909421109 -0.0020237829728565154 0 -0.002455069093874608 -0.0027541612880350856 0 -0.0014287330708873337 0.00056096821792429624 0 -0.0016336131085778888 0.00077744379563044678 0 -0.0010821409824441734 0.00072041445357185494 0 -0.0033920257666380589 -0.0028077782920188409 0 -0.0029283681549812481 -0.0021949378748695723 0 -0.002455069093874608 -0.0027541612880350856 0 -0.0033068616205064348 -0.00084756908328028973 0 -0.0016020721873959884 -0.0011309674812635981 0 -0.002890544094732024 0.00021922709510189333 0 -0.0033068616205064348 -0.00084756908328028973 0 -0.00060062054386570308 0.00041399693570827911 0 -0.0005869407531834377 0.00052693035994690626 0 -0.00053054688988018041 0.00047027973902183384 0 -0.002455069093874608 -0.0027541612880350856 0 -0.0015198777024245872 -0.0026819725767408074 0 -0.0020088946263019285 -0.0019780066917200229 0 -0.00085955951141197774 0.00055941757716470556 0 -0.0010821409824441734 0.00072041445357185494 0 -0.00056263852828453457 0.00072633433843743934 0 -0.0016020721873959884 -0.0011309674812635981 0 -0.0010527275402139426 -0.00027026088177312395 0 -0.0025221867909421109 -0.0020237829728565154 0 -0.002455069093874608 -0.0027541612880350856 0 -0.0020088946263019285 -0.0019780066917200229 0 -0.0015198777024245872 -0.0026819725767408074 0 -0.0020088946263019285 -0.0019780066917200229 0 -0.0015253115065319925 -0.0019246142574804162 0 -0.0015198777024245872 -0.0026819725767408074 0 -0.0015253115065319925 -0.0019246142574804162 0 -0.0011440570299758074 -0.0021037749108416904 0 -0.0020088946263019285 -0.0019780066917200229 0 -0.0015942765192819783 -0.0015811848318808741 0 -0.0019955453439359661 -0.0012605378739608485 0 -0.0020088946263019285 -0.0019780066917200229 0 -0.0015253115065319925 -0.0019246142574804162 0 -0.0015942765192819783 -0.0015811848318808741 0 -0.0015253115065319925 -0.0019246142574804162 0 -0.0015942765192819783 -0.0015811848318808741 0 -0.0012206262977809649 -0.0016068763695699531 0 -0.0024716181286173929 -0.0015169179998316528 0 -0.0025221867909421109 -0.0020237829728565154 0 -0.0020088946263019285 -0.0019780066917200229 0 -0.0024716181286173929 -0.0015169179998316528 0 -0.0020088946263019285 -0.0019780066917200229 0 -0.0019955453439359661 -0.0012605378739608485 0 -0.0024716181286173929 -0.0015169179998316528 0 -0.0019955453439359661 -0.0012605378739608485 0 -0.0026237825142358703 -0.00082153349359157305 0 -0.0015942765192819783 -0.0015811848318808741 0 -0.0019955453439359661 -0.0012605378739608485 0 -0.0012338444480878455 -0.00113406462429321 0 -0.0015942765192819783 -0.0015811848318808741 0 -0.0012338444480878455 -0.00113406462429321 0 -0.0012206262977809649 -0.0016068763695699531 0 -0.0012338444480878455 -0.00113406462429321 0 -0.00056767609113324996 -0.0014874770896301636 0 -0.0010515738967700641 -0.0020890240915212781 0 -0.0012384909928564304 -0.0011390315946279512 0 -0.001094613172649476 -0.0020538446171513838 0 -0.0012338444480878455 -0.00113406462429321 0 -0.00056767609113324996 -0.0014874770896301636 0 -0.00048371630895920992 -0.00084211824981884626 0 -0.00056767609113324996 -0.0014874770896301636 0 -0.0010515738967700641 -0.0020890240915212781 0 -0.00034748795629301358 -0.0020874988555104829 0 -0.0015253115065319925 -0.0019246142574804162 0 -0.0012206262977809649 -0.0016068763695699531 0 -0.0011440570299758074 -0.0021037749108416904 0 -0.001094613172649476 -0.0020538446171513838 0 -0.00026246450454326769 -0.0010400287094246036 0 0.00083369737097603537 -0.0010514711728770517 0 -0.00026246450454326769 -0.0010400287094246036 0 -0.0010515738967700641 -0.0020890240915212781 0 -0.00034748795629301358 -0.0020874988555104829 0 -0.00090379215377239797 -0.0029123866044857166 0 0.0019178702920108074 -1.8837275897786773e-06 0 0.0019579164658725689 9.1259760082433355e-05 0 0.0019027815796190913 8.7730418231178004e-05 0 0.0019178702920108074 -1.8837275897786773e-06 0 0.0018538027244387047 3.1064542090480339e-05 0 0.0019027815796190913 8.7730418231178004e-05 0 -0.00056767609113324996 -0.0014874770896301636 0 -0.00034748795629301358 -0.0020874988555104829 0 0.00031431893969347381 -0.0012774065993046205 0 0.0019178702920108074 -1.8837275897786773e-06 0 0.0018538027244387047 3.1064542090480339e-05 0 0.0017752515600986537 -0.00014279459551440785 0 0.00083369737097603537 -0.0010514711728770517 0 0.0010473968233567655 -0.00066704237398370139 0 -0.00056767609113324996 -0.0014874770896301636 0 0.00031431893969347381 -0.0012774065993046205 0 -0.00048371630895920992 -0.00084211824981884626 0 0.0018538027244387047 3.1064542090480339e-05 0 0.0017752515600986537 -0.00014279459551440785 0 0.0017800922082891583 2.4686610634600461e-06 0 0.0017752515600986537 -0.00014279459551440785 0 0.0017800922082891583 2.4686610634600461e-06 0 0.001607348745150656 -0.00017180420872862654 0 0.0017387824817863267 -2.1962346628005698e-05 0 0.0017800922082891583 2.4686610634600461e-06 0 0.001607348745150656 -0.00017180420872862654 0 0.0017387824817863267 -2.1962346628005698e-05 0 0.0016665930986803051 -0.00010231213285850711 0 0.001607348745150656 -0.00017180420872862654 0 0.0017387824817863267 -2.1962346628005698e-05 0 0.001819258682945118 7.9687415684456743e-05 0 0.0017800922082891583 2.4686610634600461e-06 0 0.0017387824817863267 -2.1962346628005698e-05 0 0.001819258682945118 7.9687415684456743e-05 0 0.0017832254636223704 9.6654483970052944e-05 0 0.001819258682945118 7.9687415684456743e-05 0 0.0017800922082891583 2.4686610634600461e-06 0 0.0018751507451550682 0.00011601369211347645 0 0.0018538027244387047 3.1064542090480339e-05 0 0.0017800922082891583 2.4686610634600461e-06 0 0.0018751507451550682 0.00011601369211347645 0 0.001819258682945118 7.9687415684456743e-05 0 0.0018751507451550682 0.00011601369211347645 0 0.0018908027012619814 0.00012865334357559249 0 0.001819258682945118 7.9687415684456743e-05 0 0.0018908027012619814 0.00012865334357559249 0 0.0017832254636223704 9.6654483970052944e-05 0 0.0018751507451550682 0.00011601369211347645 0 0.0018908027012619814 0.00012865334357559249 0 0.0019277096939489076 0.00015865791709657697 0 0.0018908027012619814 0.00012865334357559249 0 0.0019682307851721804 0.00013552426124336341 0 0.0019899957744981358 0.0001641096176047775 0 0.0018908027012619814 0.00012865334357559249 0 0.0019277096939489076 0.00015865791709657697 0 0.0019899957744981358 0.0001641096176047775 0 0.0018751507451550682 0.00011601369211347645 0 0.0019277096939489076 0.00015865791709657697 0 0.0019192372257152181 0.00015726568670709393 0 0.0019277096939489076 0.00015865791709657697 0 0.0019192372257152181 0.00015726568670709393 0 0.0019467524854185477 0.00018458340256060499 0 0.0019192372257152181 0.00015726568670709393 0 0.0019465736673332621 0.00017363035541667607 0 0.0019326136483977328 0.0001895416630609938 0 -0.0004803798122178582 0.00047894222350046282 0 -0.00047908002939426523 0.00048493342524707432 0 -0.00048715349088117316 0.00047463686039081861 0 0.0019192372257152181 0.00015726568670709393 0 0.0019465736673332621 0.00017363035541667607 0 0.0019579164658725689 9.1259760082433355e-05 0 -0.00046886278954008333 0.00048334944017637164 0 -0.00047908002939426523 0.00048493342524707432 0 -0.00048715349088117316 0.00047463686039081861 0 0.00080397290331625667 0.00058408598835670955 0 -0.00026246450454326769 -0.0010400287094246036 0 -0.0005869407531834377 0.00052693035994690626 0 -0.00053054688988018041 0.00047027973902183384 0 -0.00047908002939426523 0.00048493342524707432 0 -0.00046886278954008333 0.00048334944017637164 0 -0.00053054688988018041 0.00047027973902183384 0 -0.00047908002939426523 0.00048493342524707432 0 -0.0010527275402139426 -0.00027026088177312395 0 -0.00035833447484987223 0.00034479677537079456 0 -0.0010527275402139426 -0.00027026088177312395 0 -0.00026246450454326769 -0.0010400287094246036 0 0.0019192372257152181 0.00015726568670709393 0 0.0019579164658725689 9.1259760082433355e-05 0 0.0019027815796190913 8.7730418231178004e-05 0 0.0018538027244387047 3.1064542090480339e-05 0 0.0018751507451550682 0.00011601369211347645 0 0.0019027815796190913 8.7730418231178004e-05 0 0.0018751507451550682 0.00011601369211347645 0 0.0019192372257152181 0.00015726568670709393 0 0.0019027815796190913 8.7730418231178004e-05 0 0.0025186059804214633 -0.001233470555312787 0 0.0022032133909345611 -0.00021930170040506287 0 0.0017838709413791087 -0.00073866489848175513 0 0.0022032133909345611 -0.00021930170040506287 0 0.0017838709413791087 -0.00073866489848175513 0 0.0012758684623485855 0.00024918552985417716 0 0.0011142384242635247 -0.0017830516092473881 0 -0.00021880445614880424 -0.0010969362853715029 0 0.00072046008385870776 -0.0005612990235912402 0 0.0017038128059577414 -0.00092785038518376078 0 0.0011142384242635247 -0.0017830516092473881 0 0.00072046008385870776 -0.0005612990235912402 0 0.0018503518513446834 -0.00094295363105688596 0 -0.00090714425644006127 -0.0018446090023689068 0 -0.00090714425644006127 -0.0018446090023689068 0 -0.002943256038819135 -0.0025864278774064935 0 -0.00090714425644006127 -0.0018446090023689068 0 -0.00062356917890304074 -0.0016031363627816205 0 0.0012758684623485855 0.00024918552985417716 0 0.0003436613075675381 -0.00028503437927612123 0 0.001087246834407022 -0.00092506281178733791 0 0.0017838709413791087 -0.00073866489848175513 0 0.0012758684623485855 0.00024918552985417716 0 0.001087246834407022 -0.00092506281178733791 0 0.0019043115471930529 0.00016529959040238843 0 0.0019645032916486634 0.00011558057792581502 0 0.0019716528910296792 0.00013625437183768387 0 0.00014026035522993438 -0.00071251978254724987 0 0.0016386907584006627 -0.00039774724097246279 0 -0.00090714425644006127 -0.0018446090023689068 0 0.00014026035522993438 -0.00071251978254724987 0 -0.0020182527148510155 -0.0029369361305187354 0 -0.0027882765166461535 -0.0033728106410965061 0 -0.0026880438480602568 -0.0026108762778189317 0 -0.0027882765166461535 -0.0033728106410965061 0 -0.0031205340382467945 -0.0026417306364744037 0 -0.0026880438480602568 -0.0026108762778189317 0 0.0017387824817863267 -2.1962346628005698e-05 0 0.0016172419170794445 4.9874271181552825e-06 0 0.0016665930986803051 -0.00010231213285850711 0 -0.0027882765166461535 -0.0033728106410965061 0 -0.0034969351223024686 -0.0027759952380702665 0 -0.0031205340382467945 -0.0026417306364744037 0 0.00014026035522993438 -0.00071251978254724987 0 -0.00097378510472053933 -0.0015509510839600837 0 0.0017387824817863267 -2.1962346628005698e-05 0 0.0016172419170794445 4.9874271181552825e-06 0 0.0017832254636223704 9.6654483970052944e-05 0 0.00014026035522993438 -0.00071251978254724987 0 0.0023650440956911874 0.00041808617067447967 0 0.0019043115471930529 0.00016529959040238843 0 0.0017832254636223704 9.6654483970052944e-05 0 0.0019040271189430444 0.00010578221830379893 0 0.0018908027012619814 0.00012865334357559249 0 0.0017832254636223704 9.6654483970052944e-05 0 0.0019040271189430444 0.00010578221830379893 0 0.0018908027012619814 0.00012865334357559249 0 0.0019040271189430444 0.00010578221830379893 0 0.0019682307851721804 0.00013552426124336341 0 0.0019040271189430444 0.00010578221830379893 0 0.0019682307851721804 0.00013552426124336341 0 0.0019925668701567568 0.00012380377536358846 0 0.0019682307851721804 0.00013552426124336341 0 0.0020563261821303618 0.00015060896163577835 0 0.0019899957744981358 0.0001641096176047775 0 0.0019682307851721804 0.00013552426124336341 0 0.0019925668701567568 0.00012380377536358846 0 0.0020563261821303618 0.00015060896163577835 0 0.0019040271189430444 0.00010578221830379893 0 0.0019925668701567568 0.00012380377536358846 0 0.0019645032916486634 0.00011558057792581502 0 0.0019925668701567568 0.00012380377536358846 0 0.0019922810003478986 0.00012653178563001315 0 0.0020138440656122729 0.0001464657668652225 0 0.0019925668701567568 0.00012380377536358846 0 0.0019645032916486634 0.00011558057792581502 0 0.0019922810003478986 0.00012653178563001315 0 0.0019043115471930529 0.00016529959040238843 0 0.0019040271189430444 0.00010578221830379893 0 0.0019645032916486634 0.00011558057792581502 0 0.0017838709413791087 -0.00073866489848175513 0 0.001087246834407022 -0.00092506281178733791 0 0.0018368751038941808 -0.0015668372817365334 0 0.0019645032916486634 0.00011558057792581502 0 0.0019716528910296792 0.00013625437183768387 0 0.001996382100962639 0.00012457436641383137 0 0.0016386907584006627 -0.00039774724097246279 0 0.0017445904616371578 -0.00070440010939411691 0 0.0019645032916486634 0.00011558057792581502 0 0.0019922810003478986 0.00012653178563001315 0 0.001996382100962639 0.00012457436641383137 0 0.0025186059804214633 -0.001233470555312787 0 0.0025900455564826941 -0.0022089914578776924 0 0.0018368751038941808 -0.0015668372817365334 0 0.0020044324779344164 0.00012851170962952465 0 0.0019922810003478986 0.00012653178563001315 0 0.001996382100962639 0.00012457436641383137 0 0.0039172336510819609 -0.00018242152841057159 0 0.0017445904616371578 -0.00070440010939411691 0 0.0025186059804214633 -0.001233470555312787 0 0.0017838709413791087 -0.00073866489848175513 0 0.0018368751038941808 -0.0015668372817365334 0 0.0046895840378218603 0.0012213105228374588 0 0.0047398047386253044 0.00065882935356241729 0 0.0040944333408892454 0.0013563803169974148 0 0.0047398047386253044 0.00065882935356241729 0 0.0040944333408892454 0.0013563803169974148 0 0.0040243999955043288 0.00058815811534425029 0 0.0020044324779344164 0.00012851170962952465 0 0.0019922810003478986 0.00012653178563001315 0 0.0019928102843800436 0.00014789690155388882 0 0.0046895840378218603 0.0012213105228374588 0 0.0047703886333000742 0.0017905256529342545 0 0.0040944333408892454 0.0013563803169974148 0 0.0039172336510819609 -0.00018242152841057159 0 0.0030169757327720638 0.00087425677751479811 0 0.0019922810003478986 0.00012653178563001315 0 0.0019928102843800436 0.00014789690155388882 0 0.0020138440656122729 0.0001464657668652225 0 0.0019928102843800436 0.00014789690155388882 0 0.0020527462001170673 0.00020559885849699353 0 0.0020138440656122729 0.0001464657668652225 0 0.0030169757327720638 0.00087425677751479811 0 0.0026946059210854177 0.00053078261399923496 0 0.0040944333408892454 0.0013563803169974148 0 0.0033490205372309987 0.00092260171572900438 0 0.0040243999955043288 0.00058815811534425029 0 0.0026946059210854177 0.00053078261399923496 0 0.0024100689239773829 0.0003014283068766014 0 0.0020527462001170673 0.00020559885849699353 0 0.0020563261821303618 0.00015060896163577835 0 0.0021816635424319643 0.00020406878855546117 0 0.0019925668701567568 0.00012380377536358846 0 0.0020138440656122729 0.0001464657668652225 0 0.0020563261821303618 0.00015060896163577835 0 0.0020527462001170673 0.00020559885849699353 0 0.0020138440656122729 0.0001464657668652225 0 0.0020563261821303618 0.00015060896163577835 0 0.0020563261821303618 0.00015060896163577835 0 0.0021816635424319643 0.00020406878855546117 0 0.0020772039585676113 0.00019526027943435838 0 0.0020563261821303618 0.00015060896163577835 0 0.0019899957744981358 0.0001641096176047775 0 0.0020772039585676113 0.00019526027943435838 0 0.0021816635424319643 0.00020406878855546117 0 0.0024012175885508862 0.00027372088060321744 0 0.0021748557616015391 0.00020730729577366302 0 0.0020527462001170673 0.00020559885849699353 0 0.0021816635424319643 0.00020406878855546117 0 0.0024012175885508862 0.00027372088060321744 0 0.0021816635424319643 0.00020406878855546117 0 0.0020772039585676113 0.00019526027943435838 0 0.0021748557616015391 0.00020730729577366302 0 0.0024012175885508862 0.00027372088060321744 0 0.0021748557616015391 0.00020730729577366302 0 0.0022306302552689504 7.4383354300766388e-05 0 0.0024012175885508862 0.00027372088060321744 0 0.0025294883959297841 -0.00013175095925282743 0 0.0029854162441819562 8.5738746898267391e-06 0 0.0024012175885508862 0.00027372088060321744 0 0.0025294883959297841 -0.00013175095925282743 0 0.0022306302552689504 7.4383354300766388e-05 0 0.0025294883959297841 -0.00013175095925282743 0 0.0029854162441819562 8.5738746898267391e-06 0 0.0028204439812309868 -0.00049316781922368799 0 0.0025294883959297841 -0.00013175095925282743 0 0.0022306302552689504 7.4383354300766388e-05 0 0.0022794805297398006 -0.00024971401104117693 0 0.0025294883959297841 -0.00013175095925282743 0 0.0022794805297398006 -0.00024971401104117693 0 0.0023871618156101741 -0.00049094599498283019 0 0.0025294883959297841 -0.00013175095925282743 0 0.0028204439812309868 -0.00049316781922368799 0 0.0023871618156101741 -0.00049094599498283019 0 0.0034111160007708622 -0.00038274005159085551 0 0.0029854162441819562 8.5738746898267391e-06 0 0.0028204439812309868 -0.00049316781922368799 0 0.0034111160007708622 -0.00038274005159085551 0 0.0029854162441819562 8.5738746898267391e-06 0 0.0035598284363493474 0.00014110188429495907 0 0.0033490205372309987 0.00092260171572900438 0 0.0024012175885508862 0.00027372088060321744 0 0.0029854162441819562 8.5738746898267391e-06 0 0.0033490205372309987 0.00092260171572900438 0 0.0029854162441819562 8.5738746898267391e-06 0 0.0035598284363493474 0.00014110188429495907 0 0.0040243999955043288 0.00058815811534425029 0 0.0035598284363493474 0.00014110188429495907 0 0.0043215406510450282 -0.00012084564924318512 0 0.0033490205372309987 0.00092260171572900438 0 0.0040243999955043288 0.00058815811534425029 0 0.0035598284363493474 0.00014110188429495907 0 0.0034111160007708622 -0.00038274005159085551 0 0.0035598284363493474 0.00014110188429495907 0 0.0043215406510450282 -0.00012084564924318512 0 0.0047398047386253044 0.00065882935356241729 0 0.0040243999955043288 0.00058815811534425029 0 0.0043215406510450282 -0.00012084564924318512 0 0.00084048683946477741 0.00017077096335583604 0 0.0012172800866655754 3.1993174830223625e-05 0 0.0019139499057956675 0.00019200157727252687 0 0.0017985647445921027 0.00021921565563132222 0 0.0018034560161898077 8.638132552267316e-05 0 0.0020615319364440574 9.1030875884487648e-05 0 0.00084048683946477741 0.00017077096335583604 0 0.0019139499057956675 0.00019200157727252687 0 0.0019284834399643184 0.00019589783774053731 0 0.0019326136483977328 0.0001895416630609938 0 -2.2868600529932784e-05 0.00050489269542017528 0 0.00020702626164996194 9.4230817022768922e-05 0 0.00058289367736386619 0.000379788608107247 0 -0.00048464330227266332 0.00044112842226199685 0 0.00084048683946477741 0.00017077096335583604 0 0.00020702626164996194 9.4230817022768922e-05 0 0.00058289367736386619 0.000379788608107247 0 0.00065551401130069915 -6.0518409816318372e-05 0 -0.00046886278954008333 0.00048334944017637164 0 -0.00040277360277118527 0.0002715354846711533 0 -0.00050234063957318813 0.00036953608823316687 0 0.00080397290331625667 0.00058408598835670955 0 0.00084048683946477741 0.00017077096335583604 0 -0.00062948861664303144 0.00030681828492774556 0 -0.00040277360277118527 0.0002715354846711533 0 -0.00050234063957318813 0.00036953608823316687 0 -0.00046886278954008333 0.00048334944017637164 0 -0.00053054688988018041 0.00047027973902183384 0 -0.00050234063957318813 0.00036953608823316687 0 -0.00060062054386570308 0.00041399693570827911 0 -0.00053054688988018041 0.00047027973902183384 0 -0.00050234063957318813 0.00036953608823316687 0 0.0019465736673332621 0.00017363035541667607 0 0.0019284834399643184 0.00019589783774053731 0 0.0019326136483977328 0.0001895416630609938 0 0.0019192372257152181 0.00015726568670709393 0 0.0019326136483977328 0.0001895416630609938 0 0.0019467524854185477 0.00018458340256060499 0 0.0019139499057956675 0.00019200157727252687 0 0.0019326136483977328 0.0001895416630609938 0 0.0019672736046583085 0.00019672492139361479 0 0.0019277096939489076 0.00015865791709657697 0 0.0019467524854185477 0.00018458340256060499 0 0.0019963073814902904 0.00019088292045072304 0 0.0019672736046583085 0.00019672492139361479 0 0.0019963073814902904 0.00019088292045072304 0 0.00205051975530164 0.00019425079571255518 0 0.0019467524854185477 0.00018458340256060499 0 0.0019672736046583085 0.00019672492139361479 0 0.0019963073814902904 0.00019088292045072304 0 0.0019326136483977328 0.0001895416630609938 0 0.0019467524854185477 0.00018458340256060499 0 0.0019672736046583085 0.00019672492139361479 0 0.0019277096939489076 0.00015865791709657697 0 0.0019899957744981358 0.0001641096176047775 0 0.0019963073814902904 0.00019088292045072304 0 0.0019899957744981358 0.0001641096176047775 0 0.0019963073814902904 0.00019088292045072304 0 0.0020772039585676113 0.00019526027943435838 0 0.0019963073814902904 0.00019088292045072304 0 0.0020772039585676113 0.00019526027943435838 0 0.00205051975530164 0.00019425079571255518 0 0.0020772039585676113 0.00019526027943435838 0 0.00205051975530164 0.00019425079571255518 0 0.0021748557616015391 0.00020730729577366302 0 0.00205051975530164 0.00019425079571255518 0 0.0021748557616015391 0.00020730729577366302 0 0.0020838340334837211 0.00013550749981533952 0 0.0019139499057956675 0.00019200157727252687 0 0.0019672736046583085 0.00019672492139361479 0 0.0019820094033261362 0.00016245609235672286 0 0.0019672736046583085 0.00019672492139361479 0 0.00205051975530164 0.00019425079571255518 0 0.0019820094033261362 0.00016245609235672286 0 0.00205051975530164 0.00019425079571255518 0 0.0019820094033261362 0.00016245609235672286 0 0.0020838340334837211 0.00013550749981533952 0 0.0019139499057956675 0.00019200157727252687 0 0.0019820094033261362 0.00016245609235672286 0 0.0019077042285726889 0.0001103889051514174 0 0.0019820094033261362 0.00016245609235672286 0 0.0019802384701682846 7.0385068673746551e-05 0 0.0019077042285726889 0.0001103889051514174 0 0.0019820094033261362 0.00016245609235672286 0 0.0019802384701682846 7.0385068673746551e-05 0 0.0020838340334837211 0.00013550749981533952 0 0.0020767992587968276 1.1465159416923304e-05 0 0.0019802384701682846 7.0385068673746551e-05 0 0.0020838340334837211 0.00013550749981533952 0 0.0020767992587968276 1.1465159416923304e-05 0 0.0019802384701682846 7.0385068673746551e-05 0 0.0019696729753607236 -5.9643087928359544e-05 0 0.0019802384701682846 7.0385068673746551e-05 0 0.0019696729753607236 -5.9643087928359544e-05 0 0.0018577516688159023 1.6449367903463663e-05 0 0.0019802384701682846 7.0385068673746551e-05 0 0.0018577516688159023 1.6449367903463663e-05 0 0.0019077042285726889 0.0001103889051514174 0 0.0021748557616015391 0.00020730729577366302 0 0.0020838340334837211 0.00013550749981533952 0 0.0022306302552689504 7.4383354300766388e-05 0 0.0020767992587968276 1.1465159416923304e-05 0 0.0020838340334837211 0.00013550749981533952 0 0.0022306302552689504 7.4383354300766388e-05 0 0.0022306302552689504 7.4383354300766388e-05 0 0.0019615863020911142 -0.00045594288275607275 0 0.0022794805297398006 -0.00024971401104117693 0 0.0022353984160834836 4.1510317561960303e-05 0 0.0019977023009547915 -0.00032984084417630099 0 0.0020767992587968276 1.1465159416923304e-05 0 0.0022306302552689504 7.4383354300766388e-05 0 0.0021305685808994113 -0.00021655618601440455 0 0.0019615863020911142 -0.00045594288275607275 0 0.0022794805297398006 -0.00024971401104117693 0 0.0023871618156101741 -0.00049094599498283019 0 0.0020767992587968276 1.1465159416923304e-05 0 0.0021305685808994113 -0.00021655618601440455 0 0.0019696729753607236 -5.9643087928359544e-05 0 0.0021305685808994113 -0.00021655618601440455 0 0.0019696729753607236 -5.9643087928359544e-05 0 0.0019046577662585778 -0.00021348635043998794 0 0.0019696729753607236 -5.9643087928359544e-05 0 0.0019046577662585778 -0.00021348635043998794 0 0.0018608425352448644 -9.9110024820694292e-05 0 0.0019046577662585778 -0.00021348635043998794 0 0.0018253517591641465 -0.00016600199684912363 0 0.001772113369243587 -0.00024069800324732704 0 0.0018253517591641465 -0.00016600199684912363 0 0.0017621329193932571 -0.00014286463554151956 0 0.001772113369243587 -0.00024069800324732704 0 0.0017621329193932571 -0.00014286463554151956 0 0.0017570797222633515 -6.4158804560272915e-05 0 0.0018608425352448644 -9.9110024820694292e-05 0 0.0018253517591641465 -0.00016600199684912363 0 0.0017621329193932571 -0.00014286463554151956 0 0.0018608425352448644 -9.9110024820694292e-05 0 0.0019046577662585778 -0.00021348635043998794 0 0.0018253517591641465 -0.00016600199684912363 0 0.0018608425352448644 -9.9110024820694292e-05 0 0.0016929887793913673 -0.000195102823660558 0 0.0015594505929683181 -0.00017159083576143852 0 0.0016363733148005214 -0.00031567120883386086 0 0.0016929887793913673 -0.000195102823660558 0 0.0017621329193932571 -0.00014286463554151956 0 0.001772113369243587 -0.00024069800324732704 0 0.0016929887793913673 -0.000195102823660558 0 0.0017621329193932571 -0.00014286463554151956 0 0.0017570797222633515 -6.4158804560272915e-05 0 0.0016929887793913673 -0.000195102823660558 0 0.0017570797222633515 -6.4158804560272915e-05 0 0.0015594505929683181 -0.00017159083576143852 0 0.0019696729753607236 -5.9643087928359544e-05 0 0.0018608425352448644 -9.9110024820694292e-05 0 0.0018577516688159023 1.6449367903463663e-05 0 0.0017570797222633515 -6.4158804560272915e-05 0 0.0018608425352448644 -9.9110024820694292e-05 0 0.0018577516688159023 1.6449367903463663e-05 0 0.0011835350349627004 -0.00037962574421340555 0 0.0012172800866655754 3.1993174830223625e-05 0 0.0017570797222633515 -6.4158804560272915e-05 0 0.0018577516688159023 1.6449367903463663e-05 0 0.0018034560161898077 8.638132552267316e-05 0 0.0018577516688159023 1.6449367903463663e-05 0 0.0018034560161898077 8.638132552267316e-05 0 0.0019077042285726889 0.0001103889051514174 0 0.0019139499057956675 0.00019200157727252687 0 0.0018034560161898077 8.638132552267316e-05 0 0.0019077042285726889 0.0001103889051514174 0 -4.3521496175892296e-05 -0.00045146671877494194 0 0.00020702626164996194 9.4230817022768922e-05 0 0.00065551401130069915 -6.0518409816318372e-05 0 -4.3521496175892296e-05 -0.00045146671877494194 0 0.00072972239987104798 -0.00050189727796030978 0 0.00065551401130069915 -6.0518409816318372e-05 0 0.00048080563484696818 -0.00018704674322280528 0 0.0011835350349627004 -0.00037962574421340555 0 0.00098494203436042113 5.4853414687384446e-05 0 0.0015594505929683181 -0.00017159083576143852 0 0.0014760302454076891 -0.00036053643226684488 0 0.00098494203436042113 5.4853414687384446e-05 0 0.0017570797222633515 -6.4158804560272915e-05 0 0.0015594505929683181 -0.00017159083576143852 0 0.0014760302454076891 -0.00036053643226684488 0 0.0014852881474342115 -0.00051624206016181236 0 0.00074851358224547169 -0.00032486533265190773 0 0.0015594505929683181 -0.00017159083576143852 0 0.0014760302454076891 -0.00036053643226684488 0 0.0016363733148005214 -0.00031567120883386086 0 0.0018950341892495933 -0.00047633904105727894 0 0.0020358007141699913 -0.00065908846268655991 0 0.0014760302454076891 -0.00036053643226684488 0 0.0014983944829596613 -0.00044705912785141736 0 0.0016363733148005214 -0.00031567120883386086 0 0.0018087672805616037 -0.0011272511968005105 0 0.0018659092191258364 -0.0020743307001790477 0 0.0011196315447072364 -0.0014228209084356414 0 0.0020358007141699913 -0.00065908846268655991 0 0.0030527071770503006 -0.00093576899663713677 0 0.0029336604069037987 -0.00048775537170745364 0 0.0029542948482632757 -0.00072478857407247378 0 0.0031436411423155989 -0.00072106389962151051 0 0.0029336604069037987 -0.00048775537170745364 0 0.0032276168221985987 -0.0005805927542475803 0 0.0031436411423155989 -0.00072106389962151051 0 0.0014983944829596613 -0.00044705912785141736 0 0.0016363733148005214 -0.00031567120883386086 0 0.0017906091365383358 -0.00036082320301889653 0 0.0020358007141699913 -0.00065908846268655991 0 0.0022974062506241092 -0.00098969772736174884 0 0.0014983944829596613 -0.00044705912785141736 0 0.0017906091365383358 -0.00036082320301889653 0 0.0019878638674385189 -0.00054086594384933036 0 0.0016363733148005214 -0.00031567120883386086 0 0.0017906091365383358 -0.00036082320301889653 0 0.001772113369243587 -0.00024069800324732704 0 0.0016929887793913673 -0.000195102823660558 0 0.0016363733148005214 -0.00031567120883386086 0 0.001772113369243587 -0.00024069800324732704 0 0.0019046577662585778 -0.00021348635043998794 0 0.0017906091365383358 -0.00036082320301889653 0 0.0019527124110422635 -0.00034811033738713039 0 0.0019046577662585778 -0.00021348635043998794 0 0.0017906091365383358 -0.00036082320301889653 0 0.001772113369243587 -0.00024069800324732704 0 0.0021305685808994113 -0.00021655618601440455 0 0.0019046577662585778 -0.00021348635043998794 0 0.0019527124110422635 -0.00034811033738713039 0 0.0019615863020911142 -0.00045594288275607275 0 0.0021421851390623983 -0.00081061481331177944 0 0.0015955931955946817 -0.0010414538123792068 0 0.0019977023009547915 -0.00032984084417630099 0 0.0022974062506241092 -0.00098969772736174884 0 0.0021305685808994113 -0.00021655618601440455 0 0.0019527124110422635 -0.00034811033738713039 0 0.0019878638674385189 -0.00054086594384933036 0 0.0017906091365383358 -0.00036082320301889653 0 0.0019527124110422635 -0.00034811033738713039 0 0.0019878638674385189 -0.00054086594384933036 0 0.0019615863020911142 -0.00045594288275607275 0 0.0021421851390623983 -0.00081061481331177944 0 0.0023871618156101741 -0.00049094599498283019 0 0.0021421851390623983 -0.00081061481331177944 0 0.0023871618156101741 -0.00049094599498283019 0 0.002565914458839527 -0.00088786481021712455 0 0.0025003883637006907 -0.0013634218700919526 0 0.002520719140400759 -0.0014168026541486523 0 0.0028131331601343838 -0.0013947778747992552 0 0.0021421851390623983 -0.00081061481331177944 0 0.0021440609266113954 -0.001226115520227641 0 0.0015955931955946817 -0.0010414538123792068 0 0.002319417447222995 -0.0012861397427897121 0 0.0027621033293042281 -0.0013967741764207768 0 0.0021421851390623983 -0.00081061481331177944 0 0.0021440609266113954 -0.001226115520227641 0 0.002565914458839527 -0.00088786481021712455 0 0.0025003883637006907 -0.0013634218700919526 0 0.0025422222740830464 -0.0013627889114397704 0 0.0025629728628290822 -0.0013233602718279655 0 0.002319417447222995 -0.0012861397427897121 0 0.0022974062506241092 -0.00098969772736174884 0 0.0025003883637006907 -0.0013634218700919526 0 0.002520719140400759 -0.0014168026541486523 0 0.0025629728628290822 -0.0013233602718279655 0 0.0022974062506241092 -0.00098969772736174884 0 0.0050837936820124947 -0.00026911339422023894 0 0.0059324216929789106 -0.00049699305820046088 0 0.0050837936820124947 -0.00026911339422023894 0 0.0088271146992308334 0.00035625900976051975 0 0.0090644445306447968 0.0003441521899104691 0 0.0087059964123495075 6.026569935383158e-05 0 0.0088271146992308334 0.00035625900976051975 0 0.0086345988680992993 0.00028613817439731936 0 0.0084914329116150458 0.00055743582156762232 0 0.0088271146992308334 0.00035625900976051975 0 0.0091439035713001028 0.00046140926446463284 0 0.0084914329116150458 0.00055743582156762232 0 0.0088271146992308334 0.00035625900976051975 0 0.0086345988680992993 0.00028613817439731936 0 0.0087059964123495075 6.026569935383158e-05 0 0.0091439035713001028 0.00046140926446463284 0 0.0090644445306447968 0.0003441521899104691 0 0.0092037339498094103 0.00032949553504823983 0 0.0088271146992308334 0.00035625900976051975 0 0.0091439035713001028 0.00046140926446463284 0 0.0090644445306447968 0.0003441521899104691 0 0.0090644445306447968 0.0003441521899104691 0 0.0092209920936348697 0.00028094518135823225 0 0.0092037339498094103 0.00032949553504823983 0 0.0092209920936348697 0.00028094518135823225 0 0.0094422146236343672 0.00032174188965189659 0 0.0093027470251292304 0.00045255102999040137 0 0.0092553390843920259 0.00022903117954178138 0 0.0089361764137682459 0.0003843722956539936 0 0.0092209920936348697 0.00028094518135823225 0 0.0092437680989135417 0.00039274700157911741 0 0.0093027470251292304 0.00045255102999040137 0 0.0090644445306447968 0.0003441521899104691 0 0.0092209920936348697 0.00028094518135823225 0 0.0087059964123495075 6.026569935383158e-05 0 0.0089361764137682459 0.0003843722956539936 0 0.0091613915125749752 0.00068022939423544439 0 0.0086345988680992993 0.00028613817439731936 0 0.0087059964123495075 6.026569935383158e-05 0 0.0084453807152809739 0.00022581997570584613 0 0.0089361764137682459 0.0003843722956539936 0 0.008554842587962519 0.00025833982346651916 0 0.0087137653920108214 1.3664526182142989e-05 0 0.0082251838388622267 0.00018130836490037389 0 0.0080606744027842507 -7.0409358089916128e-05 0 0.0087874599364785328 0.00099000317747357787 0 0.0085279010404591925 0.0009379350668308361 0 0.008685575328574514 0.0008417827593458707 0 0.0087137653920108214 1.3664526182142989e-05 0 0.0082251838388622267 0.00018130836490037389 0 0.0084453807152809739 0.00022581997570584613 0 0.0089361764137682459 0.0003843722956539936 0 0.0077483377927591666 0.00030534946257971472 0 0.0087137653920108214 1.3664526182142989e-05 0 0.0080302941082185213 -0.00011744663626711281 0 0.0080606744027842507 -7.0409358089916128e-05 0 0.0073979086043096604 -0.00012798255551838217 0 0.0073760503794331744 -0.00016046568087862428 0 0.0073790612280752992 -0.0002961328972137234 0 0.0073979086043096604 -0.00012798255551838217 0 0.0073790612280752992 -0.0002961328972137234 0 0.007826818843423778 -0.00016384816066139 0 0.0077483377927591666 0.00030534946257971472 0 0.0072215148359222143 0.00010000421857157286 0 0.0049250606304264422 0.00080733864487785825 0 0.0049194066290632341 0.00097620373828477157 0 0.0044809271671099491 0.00088599271927467188 0 0.0062590553925029949 5.6324130334939189e-05 0 0.0063011873367205817 0.00013527007738401084 0 0.0063027368241244741 6.9501201472386487e-05 0 0.0062451048588016422 5.0800791219938398e-05 0 0.0062590553925029949 5.6324130334939189e-05 0 0.0063011873367205817 0.00013527007738401084 0 0.0064356273049578101 0.00014759997470894184 0 0.0072215148359222143 0.00010000421857157286 0 0.0072215148359222143 0.00010000421857157286 0 0.0062202126263360804 2.8044237172147106e-05 0 0.0062590553925029949 5.6324130334939189e-05 0 0.0062872842559109667 6.5456356901719365e-05 0 0.0062888808649871324 3.2173202430774073e-05 0 0.0062523518410387705 4.1808949505686502e-05 0 0.0062202126263360804 2.8044237172147106e-05 0 0.0040138238297252838 -0.00043176721496166642 0 0.0039788329962279793 0.00015561725790113435 0 0.0028092998094021524 0.00014340177055020112 0 0.0064356273049578101 0.00014759997470894184 0 0.0050829568515807482 0.0002871181557363761 0 0.0062451048588016422 5.0800791219938398e-05 0 0.0062590553925029949 5.6324130334939189e-05 0 0.0062888808649871324 3.2173202430774073e-05 0 0.0048462309629697074 -0.00027790463530409307 0 0.0048228516210912752 -0.00026873100428757282 0 0.0048147049055751595 -0.00023501029896955927 0 0.0062202126263360804 2.8044237172147106e-05 0 0.0050829568515807482 0.0002871181557363761 0 0.0049194066290632341 0.00097620373828477157 0 0.0044809271671099491 0.00088599271927467188 0 0.0044247513468174291 0.0010209735173568122 0 0.0050829568515807482 0.0002871181557363761 0 0.0030527071770503006 -0.00093576899663713677 0 0.0082251838388622267 0.00018130836490037389 0 0.0084914329116150458 0.00055743582156762232 0 0.0084453807152809739 0.00022581997570584613 0 0.0064356273049578101 0.00014759997470894184 0 0.0050837936820124947 -0.00026911339422023894 0 0.0030527071770503006 -0.00093576899663713677 0 0.0050837936820124947 -0.00026911339422023894 0 0.0048462309629697074 -0.00027790463530409307 0 0.0048147049055751595 -0.00023501029896955927 0 0.0048729167942208234 -0.00023384864031677615 0 0.0086345988680992993 0.00028613817439731936 0 0.0084914329116150458 0.00055743582156762232 0 0.0084453807152809739 0.00022581997570584613 0 0.0050148525302379397 -0.0005909097746673211 0 0.0043772755485128653 -0.001423301809806544 0 0.0037905745109785417 -0.00080203556193536401 0 0.0050148525302379397 -0.0005909097746673211 0 0.0043215406510450282 -0.00012084564924318512 0 0.0037905745109785417 -0.00080203556193536401 0 0.0034111160007708622 -0.00038274005159085551 0 0.0043215406510450282 -0.00012084564924318512 0 0.0037905745109785417 -0.00080203556193536401 0 0.006691228653840039 -0.00073092733568181755 0 0.0061998774167842576 -0.00060813211253506986 0 0.0043772755485128653 -0.001423301809806544 0 0.0037905745109785417 -0.00080203556193536401 0 0.0032307994825862452 -0.0014624498158845745 0 0.0032307994825862452 -0.0014624498158845745 0 0.0030829221098322692 -0.00092490647075055559 0 0.0028131331601343838 -0.0013947778747992552 0 0.0037905745109785417 -0.00080203556193536401 0 0.0032307994825862452 -0.0014624498158845745 0 0.0030829221098322692 -0.00092490647075055559 0 0.0034111160007708622 -0.00038274005159085551 0 0.0037905745109785417 -0.00080203556193536401 0 0.0030829221098322692 -0.00092490647075055559 0 0.0034111160007708622 -0.00038274005159085551 0 0.0030829221098322692 -0.00092490647075055559 0 0.0028204439812309868 -0.00049316781922368799 0 0.0030829221098322692 -0.00092490647075055559 0 0.0028204439812309868 -0.00049316781922368799 0 0.002565914458839527 -0.00088786481021712455 0 0.0028204439812309868 -0.00049316781922368799 0 0.0023871618156101741 -0.00049094599498283019 0 0.002565914458839527 -0.00088786481021712455 0 0.0059324216929789106 -0.00049699305820046088 0 0.0061998774167842576 -0.00060813211253506986 0 0.0021440609266113954 -0.001226115520227641 0 0.002565914458839527 -0.00088786481021712455 0 0.0028131331601343838 -0.0013947778747992552 0 0.0030829221098322692 -0.00092490647075055559 0 0.002565914458839527 -0.00088786481021712455 0 0.0028131331601343838 -0.0013947778747992552 0 0.002520719140400759 -0.0014168026541486523 0 0.0032307994825862452 -0.0014624498158845745 0 0.0028131331601343838 -0.0013947778747992552 0 0.0091439035713001028 0.00046140926446463284 0 0.0092200925387047258 0.00031794932166833247 0 0.0092037339498094103 0.00032949553504823983 0 0.0091439035713001028 0.00046140926446463284 0 0.0092298904434394233 0.00023617904534760123 0 0.0092200925387047258 0.00031794932166833247 0 0.0092200925387047258 0.00031794932166833247 0 0.0092283207048010456 0.0003306147436543291 0 0.0092161211490758253 0.00033247683897873794 0 0.0092200925387047258 0.00031794932166833247 0 0.0092037339498094103 0.00032949553504823983 0 0.0092283207048010456 0.0003306147436543291 0 0.0092209920936348697 0.00028094518135823225 0 0.0092437680989135417 0.00039274700157911741 0 0.0092283207048010456 0.0003306147436543291 0 0.0092209920936348697 0.00028094518135823225 0 0.0092037339498094103 0.00032949553504823983 0 0.0092283207048010456 0.0003306147436543291 0 0.0092437680989135417 0.00039274700157911741 0 0.0092283207048010456 0.0003306147436543291 0 0.0092286417022281134 0.00042357457649027031 0 0.0092161211490758253 0.00033247683897873794 0 0.0091629967804163145 0.00042993612446973829 0 0.0091986043138843065 0.00046389324450088341 0 0.0092161211490758253 0.00033247683897873794 0 0.0091986043138843065 0.00046389324450088341 0 0.0092286417022281134 0.00042357457649027031 0 0.0092283207048010456 0.0003306147436543291 0 0.0092161211490758253 0.00033247683897873794 0 0.0092286417022281134 0.00042357457649027031 0 0.0092298904434394233 0.00023617904534760123 0 0.0092161211490758253 0.00033247683897873794 0 0.0091526746323012179 0.00028709438202076691 0 0.0092298904434394233 0.00023617904534760123 0 0.0092200925387047258 0.00031794932166833247 0 0.0092161211490758253 0.00033247683897873794 0 0.0090386239395290023 -2.6115595146445709e-05 0 0.0092298904434394233 0.00023617904534760123 0 0.0091526746323012179 0.00028709438202076691 0 0.0092161211490758253 0.00033247683897873794 0 0.0091629967804163145 0.00042993612446973829 0 0.0091526746323012179 0.00028709438202076691 0 0.0091629967804163145 0.00042993612446973829 0 0.0091526746323012179 0.00028709438202076691 0 0.0090806242745306801 0.00046327004751145468 0 0.0087664559203447824 0.0001103800757537279 0 0.0089389608102450127 0.00052260944692269844 0 0.0090170943704259432 0.00027488592917090476 0 0.0091526746323012179 0.00028709438202076691 0 0.0090806242745306801 0.00046327004751145468 0 0.0090170943704259432 0.00027488592917090476 0 0.0089389608102450127 0.00052260944692269844 0 0.0090806242745306801 0.00046327004751145468 0 0.0090170943704259432 0.00027488592917090476 0 0.0087664559203447824 0.0001103800757537279 0 0.0090386239395290023 -2.6115595146445709e-05 0 0.0090170943704259432 0.00027488592917090476 0 0.0090386239395290023 -2.6115595146445709e-05 0 0.0091526746323012179 0.00028709438202076691 0 0.0090170943704259432 0.00027488592917090476 0 0.0090279385154289557 0.00075772515350358127 0 0.0091157094970597662 0.00068530100333616362 0 0.0090859166766613687 0.00073000614712178248 0 0.0090279385154289557 0.00075772515350358127 0 0.0090628254334577021 0.00063654768684390792 0 0.0091157094970597662 0.00068530100333616362 0 0.0089619496603712823 0.00074230727556209896 0 0.0090279385154289557 0.00075772515350358127 0 0.0090628254334577021 0.00063654768684390792 0 0.0089619496603712823 0.00074230727556209896 0 0.0089389608102450127 0.00052260944692269844 0 0.0090628254334577021 0.00063654768684390792 0 0.0089389608102450127 0.00052260944692269844 0 0.0090806242745306801 0.00046327004751145468 0 0.0090628254334577021 0.00063654768684390792 0 0.0090806242745306801 0.00046327004751145468 0 0.0090628254334577021 0.00063654768684390792 0 0.0091388635619346244 0.00056372418839455065 0 0.0091629967804163145 0.00042993612446973829 0 0.0090806242745306801 0.00046327004751145468 0 0.0091388635619346244 0.00056372418839455065 0 0.0091629967804163145 0.00042993612446973829 0 0.0091388635619346244 0.00056372418839455065 0 0.0091986043138843065 0.00046389324450088341 0 0.0091388635619346244 0.00056372418839455065 0 0.0091709967916500205 0.00060069866631346121 0 0.0091986043138843065 0.00046389324450088341 0 0.0091388635619346244 0.00056372418839455065 0 0.0091709967916500205 0.00060069866631346121 0 0.0091157094970597662 0.00068530100333616362 0 0.0091709967916500205 0.00060069866631346121 0 0.0091157094970597662 0.00068530100333616362 0 0.0091753575000806768 0.00068992905733639251 0 0.0090628254334577021 0.00063654768684390792 0 0.0091388635619346244 0.00056372418839455065 0 0.0091157094970597662 0.00068530100333616362 0 0.0092023811016109427 0.00060264031309567535 0 0.0092485430477527563 0.00057860296590069732 0 0.0091753575000806768 0.00068992905733639251 0 0.0091914686579758452 0.00064534518551325707 0 0.0091749062714398862 0.00068684577818924205 0 0.0091709967916500205 0.00060069866631346121 0 0.0092023811016109427 0.00060264031309567535 0 0.0091753575000806768 0.00068992905733639251 0 0.0092023811016109427 0.00060264031309567535 0 0.0092197943139173746 0.00052429312230957675 0 0.0092485430477527563 0.00057860296590069732 0 0.0091709967916500205 0.00060069866631346121 0 0.0092023811016109427 0.00060264031309567535 0 0.0092197943139173746 0.00052429312230957675 0 0.0091709967916500205 0.00060069866631346121 0 0.0091986043138843065 0.00046389324450088341 0 0.0092197943139173746 0.00052429312230957675 0 0.0091986043138843065 0.00046389324450088341 0 0.0092197943139173746 0.00052429312230957675 0 0.0092286417022281134 0.00042357457649027031 0 0.0092481446523240193 0.0004763022659964774 0 0.0092485430477527563 0.00057860296590069732 0 0.0093027470251292304 0.00045255102999040137 0 0.0091914686579758452 0.00064534518551325707 0 0.0091613915125749752 0.00068022939423544439 0 0.0092197943139173746 0.00052429312230957675 0 0.0092481446523240193 0.0004763022659964774 0 0.0092485430477527563 0.00057860296590069732 0 0.0092197943139173746 0.00052429312230957675 0 0.0092481446523240193 0.0004763022659964774 0 0.0092286417022281134 0.00042357457649027031 0 0.0092437680989135417 0.00039274700157911741 0 0.0092481446523240193 0.0004763022659964774 0 0.0092286417022281134 0.00042357457649027031 0 0.0092437680989135417 0.00039274700157911741 0 0.0092481446523240193 0.0004763022659964774 0 0.0093027470251292304 0.00045255102999040137 0 0.0091024413169342854 0.00072185498963762236 0 0.0091482762844139164 0.00071380428312125947 0 0.0089850794716846566 0.00084078284967060339 0 0.0091482762844139164 0.00071380428312125947 0 0.0091232947888739199 0.00069615648907924137 0 0.0091454968068441795 0.00068498887020664696 0 0.0091024413169342854 0.00072185498963762236 0 0.0091482762844139164 0.00071380428312125947 0 0.0091232947888739199 0.00069615648907924137 0 0.0091024413169342854 0.00072185498963762236 0 0.0091232947888739199 0.00069615648907924137 0 0.0090999392761396333 0.00068635986979701652 0 0.0091024413169342854 0.00072185498963762236 0 0.0090999392761396333 0.00068635986979701652 0 0.0090652792986138514 0.00069053219457770724 0 0.0090999392761396333 0.00068635986979701652 0 0.009122458201383566 0.00068569773569900723 0 0.0091197890511133649 0.00067152893650214657 0 0.0091232947888739199 0.00069615648907924137 0 0.0090999392761396333 0.00068635986979701652 0 0.009122458201383566 0.00068569773569900723 0 0.0091232947888739199 0.00069615648907924137 0 0.009122458201383566 0.00068569773569900723 0 0.0091454968068441795 0.00068498887020664696 0 0.009122458201383566 0.00068569773569900723 0 0.0091454968068441795 0.00068498887020664696 0 0.0091197890511133649 0.00067152893650214657 0 0.0091400779236193181 0.00066223494389715818 0 0.0091410546057032593 0.00064171198585565405 0 0.0091624581279663112 0.00065997235956307407 0 0.0091454968068441795 0.00068498887020664696 0 0.0091400779236193181 0.00066223494389715818 0 0.0091197890511133649 0.00067152893650214657 0 0.0091400779236193181 0.00066223494389715818 0 0.0091197890511133649 0.00067152893650214657 0 0.0091174729948497232 0.00064875576881478071 0 0.0090999392761396333 0.00068635986979701652 0 0.0091197890511133649 0.00067152893650214657 0 0.0090925362193636436 0.00066168547224241788 0 0.0091197890511133649 0.00067152893650214657 0 0.0090925362193636436 0.00066168547224241788 0 0.0091174729948497232 0.00064875576881478071 0 0.0090925362193636436 0.00066168547224241788 0 0.0091174729948497232 0.00064875576881478071 0 0.0090918969474687496 0.00063477553414637889 0 0.0091174729948497232 0.00064875576881478071 0 0.0091192709428078687 0.0006226187366705436 0 0.0090918969474687496 0.00063477553414637889 0 0.0091599758704250106 0.00060076805642699253 0 0.0091016965766915654 0.00058684437416963592 0 0.0091192709428078687 0.0006226187366705436 0 0.0091577155286109487 0.0006067198782072525 0 0.0090673873094563387 0.00059622733104392226 0 0.0091489123400370805 0.00059629383650069772 0 0.0091577155286109487 0.0006067198782072525 0 0.0091593116396462611 0.00057513960852724748 0 0.0091192709428078687 0.0006226187366705436 0 0.0091577155286109487 0.0006067198782072525 0 0.0091458683683383075 0.00062643115618859146 0 0.0091577155286109487 0.0006067198782072525 0 0.0091458683683383075 0.00062643115618859146 0 0.0091622527166432006 0.00063377491394836516 0 0.0091458683683383075 0.00062643115618859146 0 0.0091410546057032593 0.00064171198585565405 0 0.0091622527166432006 0.00063377491394836516 0 0.0091192709428078687 0.0006226187366705436 0 0.0091458683683383075 0.00062643115618859146 0 0.0091410546057032593 0.00064171198585565405 0 0.0091174729948497232 0.00064875576881478071 0 0.0091192709428078687 0.0006226187366705436 0 0.0091410546057032593 0.00064171198585565405 0 0.0091400779236193181 0.00066223494389715818 0 0.0091174729948497232 0.00064875576881478071 0 0.0091410546057032593 0.00064171198585565405 0 0.0091622527166432006 0.00063377491394836516 0 0.0091624581279663112 0.00065997235956307407 0 0.0092164401841265311 0.00063290601360786963 0 0.0091489123400370805 0.00059629383650069772 0 0.0091577155286109487 0.0006067198782072525 0 0.0092164401841265311 0.00063290601360786963 0 0.0091577155286109487 0.0006067198782072525 0 0.0091622527166432006 0.00063377491394836516 0 0.0092164401841265311 0.00063290601360786963 0 0.0091410546057032593 0.00064171198585565405 0 0.0091622527166432006 0.00063377491394836516 0 0.0091624581279663112 0.00065997235956307407 0 0.0091624581279663112 0.00065997235956307407 0 0.0091753575000806768 0.00068992905733639251 0 0.0092164401841265311 0.00063290601360786963 0 0.0093492730144000072 0.00056296194429065604 0 0.0092314368995240845 0.00061581866106820296 0 0.0091454968068441795 0.00068498887020664696 0 0.0091624581279663112 0.00065997235956307407 0 0.0091753575000806768 0.00068992905733639251 0 0.0091482762844139164 0.00071380428312125947 0 0.0091454968068441795 0.00068498887020664696 0 0.0091753575000806768 0.00068992905733639251 0 0.0091454968068441795 0.00068498887020664696 0 0.0091400779236193181 0.00066223494389715818 0 0.0091624581279663112 0.00065997235956307407 0 0.0091753575000806768 0.00068992905733639251 0 0.009150660671368183 0.00070393957008062875 0 0.0092164401841265311 0.00063290601360786963 0 0.0091157094970597662 0.00068530100333616362 0 0.0091753575000806768 0.00068992905733639251 0 0.009150660671368183 0.00070393957008062875 0 0.009150660671368183 0.00070393957008062875 0 0.0092164401841265311 0.00063290601360786963 0 0.0091745692893917558 0.00068638793646371679 0 0.0092164401841265311 0.00063290601360786963 0 0.0091745692893917558 0.00068638793646371679 0 0.0092164174416663157 0.00067388700066189097 0 0.009150660671368183 0.00070393957008062875 0 0.0091745692893917558 0.00068638793646371679 0 0.0091207570983628476 0.0007200711569981639 0 0.00914431195594698 0.00070360504380714687 0 0.0091745692893917558 0.00068638793646371679 0 0.0091207570983628476 0.0007200711569981639 0 0.00914431195594698 0.00070360504380714687 0 0.0091745692893917558 0.00068638793646371679 0 0.0092214720136903159 0.00067513345609432091 0 0.009030031999928986 0.00077233012771899998 0 0.0091207570983628476 0.0007200711569981639 0 0.0090859166766613687 0.00073000614712178248 0 0.0091157094970597662 0.00068530100333616362 0 0.009150660671368183 0.00070393957008062875 0 0.0090859166766613687 0.00073000614712178248 0 0.009150660671368183 0.00070393957008062875 0 0.0091207570983628476 0.0007200711569981639 0 0.0090859166766613687 0.00073000614712178248 0 0.009030031999928986 0.00077233012771899998 0 0.0090279385154289557 0.00075772515350358127 0 0.0090859166766613687 0.00073000614712178248 0 0.0086920724906902197 0.00070267388240878895 0 0.0088432529615454294 0.00061027128339493676 0 0.0085633976403618195 0.00051430557386070175 0 0.0086920724906902197 0.00070267388240878895 0 0.0085537839554063171 0.00073009991402636534 0 0.0085633976403618195 0.00051430557386070175 0 0.0075878769002697957 0.00012974507040136579 0 0.0075726902075006642 0.00039098727430224783 0 0.0077254682785355758 0.00034223051307602189 0 0.008087953879246752 0.00043054440545415348 0 0.0082324582821714232 0.00053617112222315391 0 0.0075878769002697957 0.00012974507040136579 0 0.0077254682785355758 0.00034223051307602189 0 0.0078146540588747166 0.0002205475800159325 0 0.0075878769002697957 0.00012974507040136579 0 0.0078146540588747166 0.0002205475800159325 0 0.0077497452073929576 7.4607521504611087e-05 0 0.0077483377927591666 0.00030534946257971472 0 0.008087953879246752 0.00043054440545415348 0 0.0076186624193729955 -0.000101731041249826 0 0.0077497452073929576 7.4607521504611087e-05 0 0.007790625026934281 3.5936657848057504e-07 0 0.0076186624193729955 -0.000101731041249826 0 0.0075878769002697957 0.00012974507040136579 0 0.0077497452073929576 7.4607521504611087e-05 0 0.0085279010404591925 0.0009379350668308361 0 0.0085537839554063171 0.00073009991402636534 0 0.008685575328574514 0.0008417827593458707 0 0.0086920724906902197 0.00070267388240878895 0 0.0085537839554063171 0.00073009991402636534 0 0.008685575328574514 0.0008417827593458707 0 0.0086920724906902197 0.00070267388240878895 0 0.008685575328574514 0.0008417827593458707 0 0.0088122979064250324 0.00081262782751042044 0 0.0087874599364785328 0.00099000317747357787 0 0.008685575328574514 0.0008417827593458707 0 0.0088122979064250324 0.00081262782751042044 0 0.0087874599364785328 0.00099000317747357787 0 0.0088122979064250324 0.00081262782751042044 0 0.0089850794716846566 0.00084078284967060339 0 0.0091024413169342854 0.00072185498963762236 0 0.0089850794716846566 0.00084078284967060339 0 0.0088432529615454294 0.00061027128339493676 0 0.0090435184497899748 0.00070540233262189698 0 0.009042935201706636 0.00068256500212568038 0 0.0091024413169342854 0.00072185498963762236 0 0.0090133791216451212 0.00070747481843029308 0 0.0090652792986138514 0.00069053219457770724 0 0.0086920724906902197 0.00070267388240878895 0 0.0088122979064250324 0.00081262782751042044 0 0.0088432529615454294 0.00061027128339493676 0 0.0088122979064250324 0.00081262782751042044 0 0.0089850794716846566 0.00084078284967060339 0 0.0088432529615454294 0.00061027128339493676 0 0.0090133791216451212 0.00070747481843029308 0 0.0089905395313854795 0.00064433009477518372 0 0.0089369161828864799 0.00063386464936543592 0 0.0090133791216451212 0.00070747481843029308 0 0.0090280423851604608 0.00064389475688270224 0 0.0089905395313854795 0.00064433009477518372 0 0.0090133791216451212 0.00070747481843029308 0 0.0090280423851604608 0.00064389475688270224 0 0.0090652792986138514 0.00069053219457770724 0 0.0090999392761396333 0.00068635986979701652 0 0.0090925362193636436 0.00066168547224241788 0 0.0090652792986138514 0.00069053219457770724 0 0.0090280423851604608 0.00064389475688270224 0 0.0090652792986138514 0.00069053219457770724 0 0.0090646122748180395 0.0006453023359910561 0 0.0090925362193636436 0.00066168547224241788 0 0.0090652792986138514 0.00069053219457770724 0 0.0090646122748180395 0.0006453023359910561 0 0.0090925362193636436 0.00066168547224241788 0 0.0090646122748180395 0.0006453023359910561 0 0.0090918969474687496 0.00063477553414637889 0 0.0091489123400370805 0.00059629383650069772 0 0.0091593116396462611 0.00057513960852724748 0 0.0091745345173425853 0.00057027314351070673 0 0.0091192709428078687 0.0006226187366705436 0 0.0090918969474687496 0.00063477553414637889 0 0.0090673873094563387 0.00059622733104392226 0 0.0090646122748180395 0.0006453023359910561 0 0.0090918969474687496 0.00063477553414637889 0 0.0090673873094563387 0.00059622733104392226 0 0.0090280423851604608 0.00064389475688270224 0 0.0090646122748180395 0.0006453023359910561 0 0.0090673873094563387 0.00059622733104392226 0 0.0090280423851604608 0.00064389475688270224 0 0.0090673873094563387 0.00059622733104392226 0 0.0089838237307007969 0.00059000410289708634 0 0.0091593116396462611 0.00057513960852724748 0 0.0091937148159962137 0.00055210450598965641 0 0.0091745345173425853 0.00057027314351070673 0 0.0091016965766915654 0.00058684437416963592 0 0.0091603033224212319 0.000575229463713514 0 0.0089905395313854795 0.00064433009477518372 0 0.0089838237307007969 0.00059000410289708634 0 0.0089369161828864799 0.00063386464936543592 0 0.0090280423851604608 0.00064389475688270224 0 0.0089905395313854795 0.00064433009477518372 0 0.0089838237307007969 0.00059000410289708634 0 0.0091937148159962137 0.00055210450598965641 0 0.0092206352121012979 0.00055192375327396746 0 0.0092236683562579996 0.00055554056305792102 0 0.0089838237307007969 0.00059000410289708634 0 0.0089369161828864799 0.00063386464936543592 0 0.0088874890284186079 0.00058746505074082226 0 0.0089369161828864799 0.00063386464936543592 0 0.0088818449262105543 0.000673476856236285 0 0.0088874890284186079 0.00058746505074082226 0 0.0091603033224212319 0.000575229463713514 0 0.0086844263278973068 0.00049993993304719129 0 0.0090133791216451212 0.00070747481843029308 0 0.0089369161828864799 0.00063386464936543592 0 0.0088818449262105543 0.000673476856236285 0 0.009042935201706636 0.00068256500212568038 0 0.0082324582821714232 0.00053617112222315391 0 0.0076833353761086064 0.0004347054667146697 0 0.0077555345883788219 0.00050919055905542529 0 0.0078252890993034136 0.00047320819968691704 0 0.0082324582821714232 0.00053617112222315391 0 0.0075827885233092692 0.00040493874160739109 0 0.0075726902075006642 0.00039098727430224783 0 0.0077254682785355758 0.00034223051307602189 0 0.0078252890993034136 0.00047320819968691704 0 0.0077555345883788219 0.00050919055905542529 0 0.0076716119411301131 0.00056875357103127161 0 0.0078865968688786661 0.00059007156227889441 0 0.0082324582821714232 0.00053617112222315391 0 0.0086844263278973068 0.00049993993304719129 0 0.0076833353761086064 0.0004347054667146697 0 0.0077555345883788219 0.00050919055905542529 0 0.0076716119411301131 0.00056875357103127161 0 0.0086844263278973068 0.00049993993304719129 0 0.0084495863014678492 0.00060128118669537471 0 0.0086844263278973068 0.00049993993304719129 0 0.0088154772848304374 0.00052707602882040962 0 0.0077555345883788219 0.00050919055905542529 0 0.0078865968688786661 0.00059007156227889441 0 0.0078252890993034136 0.00047320819968691704 0 0.0078865968688786661 0.00059007156227889441 0 0.0080134814145948058 0.0004428221721559921 0 0.0078252890993034136 0.00047320819968691704 0 0.0078865968688786661 0.00059007156227889441 0 0.0080134814145948058 0.0004428221721559921 0 0.0082203202675869159 0.00060940736039230873 0 0.0084495863014678492 0.00060128118669537471 0 0.0085702608197615656 0.00060201757804782157 0 0.0091189841187353914 0.00059275827328416134 0 0.0088920365636128845 0.0006079075334369052 0 0.0090466548903877786 0.0005005753102759311 0 0.0080134814145948058 0.0004428221721559921 0 0.0082262904785163227 0.00039183353421930558 0 0.0080407298650963799 0.00025633044250293938 0 0.0080134814145948058 0.0004428221721559921 0 0.0079016741634157662 0.00035728002463383704 0 0.0080407298650963799 0.00025633044250293938 0 0.0080134814145948058 0.0004428221721559921 0 0.0079016741634157662 0.00035728002463383704 0 0.0078252890993034136 0.00047320819968691704 0 0.0077254682785355758 0.00034223051307602189 0 0.0079016741634157662 0.00035728002463383704 0 0.0078146540588747166 0.0002205475800159325 0 0.0077254682785355758 0.00034223051307602189 0 0.0079016741634157662 0.00035728002463383704 0 0.0078252890993034136 0.00047320819968691704 0 0.0082203202675869159 0.00060940736039230873 0 0.0084470461545583277 0.00044154254782617338 0 0.0086137453581891284 0.00057388218070314934 0 0.0088920365636128845 0.0006079075334369052 0 0.0086137453581891284 0.00057388218070314934 0 0.0087660688663278689 0.00049816790745930409 0 0.0085702608197615656 0.00060201757804782157 0 0.0086058506451288028 0.00058126086597387768 0 0.0082203202675869159 0.00060940736039230873 0 0.0082262904785163227 0.00039183353421930558 0 0.0084470461545583277 0.00044154254782617338 0 0.0080134814145948058 0.0004428221721559921 0 0.0082203202675869159 0.00060940736039230873 0 0.0082262904785163227 0.00039183353421930558 0 0.0082262904785163227 0.00039183353421930558 0 0.0084155231577230788 0.00022542536554996401 0 0.0080407298650963799 0.00025633044250293938 0 0.0084470461545583277 0.00044154254782617338 0 0.0084155231577230788 0.00022542536554996401 0 0.0086385395778586678 0.00054359386806326112 0 0.0082262904785163227 0.00039183353421930558 0 0.0084470461545583277 0.00044154254782617338 0 0.0084155231577230788 0.00022542536554996401 0 0.0084155231577230788 0.00022542536554996401 0 0.0080407298650963799 0.00025633044250293938 0 0.0080816682208666325 9.0645153008813583e-05 0 0.0084155231577230788 0.00022542536554996401 0 0.0081612198468996866 -5.6556440987981373e-05 0 0.0080816682208666325 9.0645153008813583e-05 0 0.0070928222443002106 0.00028311381820298847 0 0.0051440303941085556 0.00037998058803602664 0 0.0052027663804844792 0.0002496762133959333 0 0.005439356882675328 0.00056558316787399664 0 0.0050966299687383769 0.00045994178095866862 0 0.0051440303941085556 0.00037998058803602664 0 0.0034699664306125761 0.00013663452576602203 0 0.003103679203070202 0.00013063405964517305 0 0.0022107429952784264 -0.00013029812805088011 0 0.0026860319957061661 0.00057508323131964941 0 0.0079016741634157662 0.00035728002463383704 0 0.0078146540588747166 0.0002205475800159325 0 0.0080407298650963799 0.00025633044250293938 0 0.0078146540588747166 0.0002205475800159325 0 0.0078952012658125501 8.9329825606150406e-05 0 0.0077497452073929576 7.4607521504611087e-05 0 0.0078146540588747166 0.0002205475800159325 0 0.0080407298650963799 0.00025633044250293938 0 0.0078952012658125501 8.9329825606150406e-05 0 0.0080407298650963799 0.00025633044250293938 0 0.0080816682208666325 9.0645153008813583e-05 0 0.0078952012658125501 8.9329825606150406e-05 0 0.0081612198468996866 -5.6556440987981373e-05 0 0.0080816682208666325 9.0645153008813583e-05 0 0.0079017549069412395 -6.1139816946756485e-05 0 0.0080816682208666325 9.0645153008813583e-05 0 0.0079017549069412395 -6.1139816946756485e-05 0 0.0078952012658125501 8.9329825606150406e-05 0 0.0076186624193729955 -0.000101731041249826 0 0.0079017549069412395 -6.1139816946756485e-05 0 0.007790625026934281 3.5936657848057504e-07 0 0.0079017549069412395 -6.1139816946756485e-05 0 0.0078952012658125501 8.9329825606150406e-05 0 0.007790625026934281 3.5936657848057504e-07 0 0.0078952012658125501 8.9329825606150406e-05 0 0.0077497452073929576 7.4607521504611087e-05 0 0.007790625026934281 3.5936657848057504e-07 0 0.0062202126263360804 2.8044237172147106e-05 0 0.0061399618162580674 0.00024424209207145461 0 0.0077483377927591666 0.00030534946257971472 0 0.0077668479156090663 -0.00018223803429789036 0 0.0049250606304264422 0.00080733864487785825 0 0.0041822926536704153 0.0006056200192962229 0 0.0044809271671099491 0.00088599271927467188 0 0.0073979086043096604 -0.00012798255551838217 0 0.0079017549069412395 -6.1139816946756485e-05 0 0.007826818843423778 -0.00016384816066139 0 0.0041822926536704153 0.0006056200192962229 0 0.0044809271671099491 0.00088599271927467188 0 0.0041677245223208439 0.00093776052463280469 0 0.0030527071770503006 -0.00093576899663713677 0 0.0025819150087232467 0.00023796799195729599 0 0.0049194066290632341 0.00097620373828477157 0 0.0041148854864543555 0.0013613006729284252 0 0.0041422679124734742 0.0012871020846364253 0 0.0049194066290632341 0.00097620373828477157 0 0.0044247513468174291 0.0010209735173568122 0 0.0041422679124734742 0.0012871020846364253 0 0.0044809271671099491 0.00088599271927467188 0 0.0044247513468174291 0.0010209735173568122 0 0.0041677245223208439 0.00093776052463280469 0 0.0050829568515807482 0.0002871181557363761 0 0.0025819150087232467 0.00023796799195729599 0 0.0044247513468174291 0.0010209735173568122 0 0.0041677245223208439 0.00093776052463280469 0 0.0041422679124734742 0.0012871020846364253 0 0.0025819150087232467 0.00023796799195729599 0 0.0027113161186848962 0.0014225715746555808 0 0.0041148854864543555 0.0013613006729284252 0 0.0037025252682763112 0.0010656095404729749 0 0.0028525859797227174 0.0013720237598491968 0 0.0041148854864543555 0.0013613006729284252 0 0.0041422679124734742 0.0012871020846364253 0 0.0037025252682763112 0.0010656095404729749 0 0.0041621551623239571 0.0013037293560495236 0 0.0035390420270347092 0.00059640821150856965 0 0.0041422679124734742 0.0012871020846364253 0 0.0037025252682763112 0.0010656095404729749 0 0.0035598512933791146 0.00063899920666526933 0 0.0041677245223208439 0.00093776052463280469 0 0.0041422679124734742 0.0012871020846364253 0 0.0038635984566083486 0.00081112001806952507 0 0.0037025252682763112 0.0010656095404729749 0 0.0035598512933791146 0.00063899920666526933 0 0.0032209016202898247 0.00098713522261342432 0 0.0081612198468996866 -5.6556440987981373e-05 0 0.0079017549069412395 -6.1139816946756485e-05 0 0.007826818843423778 -0.00016384816066139 0 0.0051440303941085556 0.00037998058803602664 0 0.0061399618162580674 0.00024424209207145461 0 0.0035843834805063669 0.00042351393471510288 0 0.0041822926536704153 0.0006056200192962229 0 0.0038635984566083486 0.00081112001806952507 0 0.0041822926536704153 0.0006056200192962229 0 0.0041677245223208439 0.00093776052463280469 0 0.0038635984566083486 0.00081112001806952507 0 0.0051440303941085556 0.00037998058803602664 0 0.0035390420270347092 0.00059640821150856965 0 0.003103679203070202 0.00013063405964517305 0 0.0035598512933791146 0.00063899920666526933 0 0.0031252355891477571 0.00058098447403847036 0 0.003103679203070202 0.00013063405964517305 0 0.0031252355891477571 0.00058098447403847036 0 0.0026860319957061661 0.00057508323131964941 0 0.0031252355891477571 0.00058098447403847036 0 0.0026860319957061661 0.00057508323131964941 0 0.0032209016202898247 0.00098713522261342432 0 0.0035598512933791146 0.00063899920666526933 0 0.0031252355891477571 0.00058098447403847036 0 0.0032209016202898247 0.00098713522261342432 0 0.0026860319957061661 0.00057508323131964941 0 0.0021965964521315335 0.0010357611123907394 0 0.0021880148785386202 0.0004818516344829062 0 0.0022107429952784264 -0.00013029812805088011 0 0.0026860319957061661 0.00057508323131964941 0 0.0021880148785386202 0.0004818516344829062 0 0.0027113161186848962 0.0014225715746555808 0 0.001544787265904876 0.0012007835590643809 0 0.0020002117475731145 0.0010034944302623125 0 0.0031549941987829414 0.000982869454353731 0 0.0026860319957061661 0.00057508323131964941 0 0.0021965964521315335 0.0010357611123907394 0 0.0032209016202898247 0.00098713522261342432 0 0.0017624303797635276 0.00096092597341283553 0 0.0028525859797227174 0.0013720237598491968 0 0.0015719975594666214 0.0012174579667232424 0 0.0037025252682763112 0.0010656095404729749 0 0.0028525859797227174 0.0013720237598491968 0 0.0032209016202898247 0.00098713522261342432 0 0.0017624303797635276 0.00096092597341283553 0 0.0028525859797227174 0.0013720237598491968 0 0.0032209016202898247 0.00098713522261342432 0 0.0021822601079388385 0.0012303506962116251 0 0.0022357586971288512 0.001498717907135352 0 0.0018694311508432068 0.0014420561736152408 0 0.0022357586971288512 0.001498717907135352 0 0.0018694311508432068 0.0014420561736152408 0 0.0016606327349233006 0.0018246103735850042 0 0.0021822601079388385 0.0012303506962116251 0 0.0018694311508432068 0.0014420561736152408 0 0.0015719975594666214 0.0012174579667232424 0 0.0018694311508432068 0.0014420561736152408 0 0.0016606327349233006 0.0018246103735850042 0 0.0015106340862282802 0.0014805830920840502 0 0.00085559676636332667 -0.00011927326775239332 0 0.00021274345854238277 0.00035292449675738518 0 -0.00037942737731149243 -0.0005020147265757985 0 -0.00024669599380974241 -0.0016099429173994928 0 -0.0012899245731210073 -0.0011292908414220484 0 -0.00037942737731149243 -0.0005020147265757985 0 -0.00024669599380974241 -0.0016099429173994928 0 0.0007183557313286277 -0.00080216820866165254 0 0.00082142154445014818 -0.0020947580197209232 0 -0.00024669599380974241 -0.0016099429173994928 0 0.0011196315447072364 -0.0014228209084356414 0 -0.00024669599380974241 -0.0016099429173994928 0 0.0007183557313286277 -0.00080216820866165254 0 0.0011196315447072364 -0.0014228209084356414 0 0.0018087672805616037 -0.0011272511968005105 0 0.0007183557313286277 -0.00080216820866165254 0 0.0011196315447072364 -0.0014228209084356414 0 0.0020358007141699913 -0.00065908846268655991 0 0.00065321944227326426 -0.00057238028532893164 0 0.0018659092191258364 -0.0020743307001790477 0 0.00082142154445014818 -0.0020947580197209232 0 0.0011196315447072364 -0.0014228209084356414 0 0.0025819150087232467 0.00023796799195729599 0 0.00085559676636332667 -0.00011927326775239332 0 0.0027688236053747982 0.0012152095700454551 0 0.0021822601079388385 0.0012303506962116251 0 0.0022357586971288512 0.001498717907135352 0 0.00049782662784235562 0.0015007602717186886 0 0.00010779325787398226 0.0010745060744369026 0 -5.6987999200213301e-05 0.0018278646376039083 0 0.00049782662784235562 0.0015007602717186886 0 0.00052485385452182595 0.0019867585648143614 0 -5.6987999200213301e-05 0.0018278646376039083 0 0.00049782662784235562 0.0015007602717186886 0 0.00052485385452182595 0.0019867585648143614 0 0.0010897451628382169 0.0015843573272046798 0 0.00099165039341257786 0.0021599432799982144 0 0.00052485385452182595 0.0019867585648143614 0 0.0010897451628382169 0.0015843573272046798 0 0.00099165039341257786 0.0021599432799982144 0 0.0016606327349233006 0.0018246103735850042 0 0.0010897451628382169 0.0015843573272046798 0 -0.00056698886055271192 0.00073902231694268335 0 0.00021274345854238277 0.00035292449675738518 0 0.0016606327349233006 0.0018246103735850042 0 0.0015106340862282802 0.0014805830920840502 0 0.0010897451628382169 0.0015843573272046798 0 0.0015106340862282802 0.0014805830920840502 0 0.0012990407889827977 0.0012672600928540164 0 0.0015719975594666214 0.0012174579667232424 0 0.0015106340862282802 0.0014805830920840502 0 0.0012990407889827977 0.0012672600928540164 0 0.0010897451628382169 0.0015843573272046798 0 0.0018694311508432068 0.0014420561736152408 0 0.0015106340862282802 0.0014805830920840502 0 0.0015719975594666214 0.0012174579667232424 0 0.00049782662784235562 0.0015007602717186886 0 0.0010897451628382169 0.0015843573272046798 0 0.00084168868438039518 0.0010429142183704643 0 0.0012990407889827977 0.0012672600928540164 0 0.0010897451628382169 0.0015843573272046798 0 0.00084168868438039518 0.0010429142183704643 0 0.0020002117475731145 0.0010034944302623125 0 0.00099077597817814628 0.001055070360736077 0 0.0021965964521315335 0.0010357611123907394 0 0.0011591327120683173 0.0010754567728972736 0 0.0016569867008572445 0.00045189630640320855 0 0.0017624303797635276 0.00096092597341283553 0 0.0012990407889827977 0.0012672600928540164 0 0.00084168868438039518 0.0010429142183704643 0 0.0017624303797635276 0.00096092597341283553 0 0.0012990407889827977 0.0012672600928540164 0 0.0015719975594666214 0.0012174579667232424 0 0.0021965964521315335 0.0010357611123907394 0 0.0021880148785386202 0.0004818516344829062 0 0.0016569867008572445 0.00045189630640320855 0 0.0022107429952784264 -0.00013029812805088011 0 0.0021880148785386202 0.0004818516344829062 0 0.0016569867008572445 0.00045189630640320855 0 0.0011591327120683173 0.0010754567728972736 0 0.0016569867008572445 0.00045189630640320855 0 0.00082032552153075164 0.00031598367842476302 0 0.00099077597817814628 0.001055070360736077 0 0.00015157345622211763 0.0010767003377711297 0 0.00049782662784235562 0.0015007602717186886 0 0.00084168868438039518 0.0010429142183704643 0 0.00010779325787398226 0.0010745060744369026 0 0.0011591327120683173 0.0010754567728972736 0 0.00082032552153075164 0.00031598367842476302 0 0.00010779325787398226 0.0010745060744369026 0 0.00082032552153075164 0.00031598367842476302 0 0.00010779325787398226 0.0010745060744369026 0 3.0932628912552375e-05 0.00018548644696074083 0 0.00082032552153075164 0.00031598367842476302 0 0.00046142951849944381 -0.00061236644513868225 0 3.0932628912552375e-05 0.00018548644696074083 0 0.00082032552153075164 0.00031598367842476302 0 0.00046142951849944381 -0.00061236644513868225 0 0.0013198608165380639 -0.000384294662981848 0 0.0042223004846227959 0.00027493989550679586 0 0.004735902844780579 0.00037146719753412165 0 0.004669588294772627 -1.2703945179358055e-05 0 0.002383168346051537 -0.00015046554261803841 0 0.0030547983432108092 4.7873865070243191e-07 0 0.0022107429952784264 -0.00013029812805088011 0 0.0016569867008572445 0.00045189630640320855 0 0.0013198608165380639 -0.000384294662981848 0 0.0034699664306125761 0.00013663452576602203 0 0.0030547983432108092 4.7873865070243191e-07 0 0.0016569867008572445 0.00045189630640320855 0 0.00082032552153075164 0.00031598367842476302 0 0.0013198608165380639 -0.000384294662981848 0 0.004735902844780579 0.00037146719753412165 0 0.0049368838277091542 0.00019384387659032736 0 0.004669588294772627 -1.2703945179358055e-05 0 0.0052027663804844792 0.0002496762133959333 0 0.0050966299687383769 0.00045994178095866862 0 0.0049368838277091542 0.00019384387659032736 0 0.0050966299687383769 0.00045994178095866862 0 0.004735902844780579 0.00037146719753412165 0 0.0049368838277091542 0.00019384387659032736 0 0.0052027663804844792 0.0002496762133959333 0 0.0049368838277091542 0.00019384387659032736 0 0.0049365327653485176 -7.6386291890018175e-05 0 0.0070928222443002106 0.00028311381820298847 0 0.0067554419493356596 0.00021013534483942589 0 0.0049368838277091542 0.00019384387659032736 0 0.0049365327653485176 -7.6386291890018175e-05 0 0.004669588294772627 -1.2703945179358055e-05 0 0.0067554419493356596 0.00021013534483942589 0 0.0064812990511006544 0.00014564985648314398 0 0.0047418527780627925 -0.00010696494063416213 0 0.0049365327653485176 -7.6386291890018175e-05 0 0.0047871022660953867 -0.0001849492040639418 0 0.0047418527780627925 -0.00010696494063416213 0 0.0049365327653485176 -7.6386291890018175e-05 0 0.004669588294772627 -1.2703945179358055e-05 0 0.0047418527780627925 -0.00010696494063416213 0 0.0046748720806793851 -0.00015275901042027362 0 0.0047871022660953867 -0.0001849492040639418 0 0.0086385395778586678 0.00054359386806326112 0 0.0085890168324236228 0.00048358172299432073 0 0.0086259907846924916 0.00052869102221464698 0 0.0084470461545583277 0.00044154254782617338 0 0.0086385395778586678 0.00054359386806326112 0 0.0086137453581891284 0.00057388218070314934 0 0.0086385395778586678 0.00054359386806326112 0 0.0086137453581891284 0.00057388218070314934 0 0.0086259907846924916 0.00052869102221464698 0 0.0086137453581891284 0.00057388218070314934 0 0.0086654716407906385 0.000514948385041987 0 0.0086259907846924916 0.00052869102221464698 0 0.0042223004846227959 0.00027493989550679586 0 0.0041680571134071354 -0.00023087087740232868 0 0.0038959447877632424 -7.1278754752601676e-05 0 0.0042223004846227959 0.00027493989550679586 0 0.004669588294772627 -1.2703945179358055e-05 0 0.0041680571134071354 -0.00023087087740232868 0 0.0047369262791303861 -1.1915952560812431e-06 0 0.0041615557103334118 -0.00022483975837623503 0 0.0047418527780627925 -0.00010696494063416213 0 0.004669588294772627 -1.2703945179358055e-05 0 0.0046748720806793851 -0.00015275901042027362 0 0.004669588294772627 -1.2703945179358055e-05 0 0.0046748720806793851 -0.00015275901042027362 0 0.004590428340618252 -8.4442495245900783e-05 0 0.0046748720806793851 -0.00015275901042027362 0 0.004590428340618252 -8.4442495245900783e-05 0 0.004597650807874133 -0.00016666620644275481 0 0.004590428340618252 -8.4442495245900783e-05 0 0.004597650807874133 -0.00016666620644275481 0 0.0045067170230878523 -0.00011878294293280028 0 0.0072991478052034731 0.00081663842407235239 0 0.0073909205669312967 0.00065617364729658484 0 0.0071553727752248454 0.00067196203158071852 0 0.0073909205669312967 0.00065617364729658484 0 0.0075097064855517912 0.00058066649123359056 0 0.0075938199343763991 0.00069393402475860738 0 0.0046748720806793851 -0.00015275901042027362 0 0.004597650807874133 -0.00016666620644275481 0 0.0047454517971481838 -0.00024629507129421505 0 0.0072991478052034731 0.00081663842407235239 0 0.0073909205669312967 0.00065617364729658484 0 0.0075938199343763991 0.00069393402475860738 0 0.0059904009367196687 0.0003572207158163733 0 0.0064812990511006544 0.00014564985648314398 0 0.0084768040572500876 0.00040641017122492173 0 0.0084356275338469278 0.00034771467886980211 0 0.0085437424759797695 0.00038923666032841922 0 0.0079814390001329248 0.0004644481563788238 0 0.0064812990511006544 0.00014564985648314398 0 0.0073909205669312967 0.00065617364729658484 0 0.0075097064855517912 0.00058066649123359056 0 0.007430377542374831 0.00046535033292880536 0 0.0079814390001329248 0.0004644481563788238 0 0.009776271282618279 0.0011238618302272638 0 0.010256719970438468 0.0018732533178133998 0 0.010046245393630929 0.0020453297345786698 0 0.010022667667394253 0.0018588185794034763 0 0.0073909205669312967 0.00065617364729658484 0 0.007430377542374831 0.00046535033292880536 0 0.0071553727752248454 0.00067196203158071852 0 0.009776271282618279 0.0011238618302272638 0 0.0085760834554344748 0.0014436995681077472 0 0.009776271282618279 0.0011238618302272638 0 0.011320793503264034 0.0016032315074408908 0 0.010256719970438468 0.0018732533178133998 0 0.010147492253631995 0.0017077450614838741 0 0.010022667667394253 0.0018588185794034763 0 0.009776271282618279 0.0011238618302272638 0 0.010270642838831298 0.00067197460023065011 0 0.012258344170756295 0.0012320806310497088 0 0.01237032851095185 0.0013659461476175706 0 0.012243845609328174 0.0013639296475069175 0 0.012258344170756295 0.0012320806310497088 0 0.012243845609328174 0.0013639296475069175 0 0.012096638528240073 0.0013796112012793025 0 0.01237032851095185 0.0013659461476175706 0 0.012243845609328174 0.0013639296475069175 0 0.012296696945869561 0.0014735335018930249 0 0.012243845609328174 0.0013639296475069175 0 0.012200685086309214 0.0014330422392961502 0 0.012296696945869561 0.0014735335018930249 0 0.012200685086309214 0.0014330422392961502 0 0.012296696945869561 0.0014735335018930249 0 0.012184153341356757 0.001519041855383858 0 0.011320793503264034 0.0016032315074408908 0 0.012275942150382552 0.0016972877350299894 0 0.01237032851095185 0.0013659461476175706 0 0.012296696945869561 0.0014735335018930249 0 0.012474554373718106 0.001501139304667146 0 0.010270642838831298 0.00067197460023065011 0 0.011511676489587 0.001323073450426965 0 0.0085990257872183857 0.00021118625999539691 0 0.0087732665282210156 0.00021771147835713037 0 0.0087801527800189672 8.1584240210207977e-05 0 0.012243845609328174 0.0013639296475069175 0 0.012200685086309214 0.0014330422392961502 0 0.012096638528240073 0.0013796112012793025 0 0.012200685086309214 0.0014330422392961502 0 0.012096638528240073 0.0013796112012793025 0 0.012184153341356757 0.001519041855383858 0 0.0085990257872183857 0.00021118625999539691 0 0.0086213304723829955 0.0003398790671254034 0 0.0085437424759797695 0.00038923666032841922 0 0.0084356275338469278 0.00034771467886980211 0 0.0085990257872183857 0.00021118625999539691 0 0.0085437424759797695 0.00038923666032841922 0 0.0085990257872183857 0.00021118625999539691 0 0.0086931701758608589 0.00029377897117776485 0 0.0086213304723829955 0.0003398790671254034 0 0.0085990257872183857 0.00021118625999539691 0 0.0086931701758608589 0.00029377897117776485 0 0.0087732665282210156 0.00021771147835713037 0 0.0086931701758608589 0.00029377897117776485 0 0.0086665104025129454 0.00037385568423931823 0 0.0087466473938479037 0.00035983137947886285 0 0.0086665104025129454 0.00037385568423931823 0 0.0086213304723829955 0.0003398790671254034 0 0.0086100720238753026 0.00041902516428787969 0 0.0086931701758608589 0.00029377897117776485 0 0.0086665104025129454 0.00037385568423931823 0 0.0086213304723829955 0.0003398790671254034 0 0.0086665104025129454 0.00037385568423931823 0 0.0086100720238753026 0.00041902516428787969 0 0.0086601828882727269 0.00045587156436164894 0 0.0086665104025129454 0.00037385568423931823 0 0.0086601828882727269 0.00045587156436164894 0 0.0087466473938479037 0.00035983137947886285 0 0.0086213304723829955 0.0003398790671254034 0 0.0086100720238753026 0.00041902516428787969 0 0.0085437424759797695 0.00038923666032841922 0 0.0086100720238753026 0.00041902516428787969 0 0.0085437424759797695 0.00038923666032841922 0 0.0085717356465039515 0.00044254073723796355 0 0.0085437424759797695 0.00038923666032841922 0 0.0085383310599118738 0.00046014728079931674 0 0.0085717356465039515 0.00044254073723796355 0 0.0084768040572500876 0.00040641017122492173 0 0.0085437424759797695 0.00038923666032841922 0 0.0085164105431439017 0.00046724644609679133 0 0.0049365327653485176 -7.6386291890018175e-05 0 0.0047231256080127798 -0.00026311326169481787 0 0.0047871022660953867 -0.0001849492040639418 0 0.0086385395778586678 0.00054359386806326112 0 0.008521608695720587 0.000470170838274556 0 0.0085890168324236228 0.00048358172299432073 0 0.008521608695720587 0.000470170838274556 0 0.0085383310599118738 0.00046014728079931674 0 0.0085890168324236228 0.00048358172299432073 0 0.0085437424759797695 0.00038923666032841922 0 0.0085164105431439017 0.00046724644609679133 0 0.0085383310599118738 0.00046014728079931674 0 0.0064812990511006544 0.00014564985648314398 0 0.0070651936133644686 2.6521209340539863e-05 0 0.0086100720238753026 0.00041902516428787969 0 0.0085890168324236228 0.00048358172299432073 0 0.0085717356465039515 0.00044254073723796355 0 0.0085383310599118738 0.00046014728079931674 0 0.0085890168324236228 0.00048358172299432073 0 0.0085717356465039515 0.00044254073723796355 0 0.0064812990511006544 0.00014564985648314398 0 0.0050537865997490423 -0.00056773962105182839 0 0.0046748720806793851 -0.00015275901042027362 0 0.0047454517971481838 -0.00024629507129421505 0 0.0047871022660953867 -0.0001849492040639418 0 0.0086100720238753026 0.00041902516428787969 0 0.0085890168324236228 0.00048358172299432073 0 0.0086601828882727269 0.00045587156436164894 0 0.0085890168324236228 0.00048358172299432073 0 0.0086601828882727269 0.00045587156436164894 0 0.0086259907846924916 0.00052869102221464698 0 0.0086601828882727269 0.00045587156436164894 0 0.0086654716407906385 0.000514948385041987 0 0.0086259907846924916 0.00052869102221464698 0 0.0086601828882727269 0.00045587156436164894 0 0.0087660688663278689 0.00049816790745930409 0 0.0087466473938479037 0.00035983137947886285 0 0.0086137453581891284 0.00057388218070314934 0 0.0086654716407906385 0.000514948385041987 0 0.0087660688663278689 0.00049816790745930409 0 0.0086601828882727269 0.00045587156436164894 0 0.0086654716407906385 0.000514948385041987 0 0.0087660688663278689 0.00049816790745930409 0 0.0088920365636128845 0.0006079075334369052 0 0.0087660688663278689 0.00049816790745930409 0 0.0089472439323204297 0.00040792713591726376 0 0.0089472439323204297 0.00040792713591726376 0 0.0087466473938479037 0.00035983137947886285 0 0.0088812300522337923 0.0002823957901657583 0 0.0087660688663278689 0.00049816790745930409 0 0.0089472439323204297 0.00040792713591726376 0 0.0087466473938479037 0.00035983137947886285 0 0.009222250872565757 0.00057361637069195824 0 0.0091189841187353914 0.00059275827328416134 0 0.0091645702407315861 0.00050735531905925734 0 0.0091189841187353914 0.00059275827328416134 0 0.0091645702407315861 0.00050735531905925734 0 0.0090466548903877786 0.0005005753102759311 0 0.0091645702407315861 0.00050735531905925734 0 0.0090466548903877786 0.0005005753102759311 0 0.0090973957658326051 0.00037732933119591198 0 0.0088920365636128845 0.0006079075334369052 0 0.0089472439323204297 0.00040792713591726376 0 0.0090466548903877786 0.0005005753102759311 0 0.0089472439323204297 0.00040792713591726376 0 0.0090466548903877786 0.0005005753102759311 0 0.0090973957658326051 0.00037732933119591198 0 0.0089472439323204297 0.00040792713591726376 0 0.0090973957658326051 0.00037732933119591198 0 0.0090693810299651966 0.00023180059618475789 0 0.0091645702407315861 0.00050735531905925734 0 0.0090973957658326051 0.00037732933119591198 0 0.0092695191239545779 0.00030404704022116353 0 0.011126057418828833 0.0010374415466023843 0 0.010810674072213018 0.0012189168529482346 0 0.010702863154897969 0.00082806905836700965 0 0.0090973957658326051 0.00037732933119591198 0 0.0090693810299651966 0.00023180059618475789 0 0.0092695191239545779 0.00030404704022116353 0 0.010150793827411969 0.00066471867955345649 0 0.0099808001855690408 0.00056326849871761973 0 0.0089472439323204297 0.00040792713591726376 0 0.0090693810299651966 0.00023180059618475789 0 0.0088812300522337923 0.0002823957901657583 0 0.011126057418828833 0.0010374415466023843 0 0.011554236040437366 0.0012688436667006257 0 0.011151310722263585 0.0014602618642792784 0 0.010150793827411969 0.00066471867955345649 0 0.010000410764716951 0.00058865205807968879 0 0.010810674072213018 0.0012189168529482346 0 0.010796581408755626 0.0015619600014479039 0 0.011151310722263585 0.0014602618642792784 0 0.011126057418828833 0.0010374415466023843 0 0.010810674072213018 0.0012189168529482346 0 0.011151310722263585 0.0014602618642792784 0 0.0087466473938479037 0.00035983137947886285 0 0.0087732665282210156 0.00021771147835713037 0 0.0088812300522337923 0.0002823957901657583 0 0.0086931701758608589 0.00029377897117776485 0 0.0087466473938479037 0.00035983137947886285 0 0.0087732665282210156 0.00021771147835713037 0 0.0090693810299651966 0.00023180059618475789 0 0.0088812300522337923 0.0002823957901657583 0 0.0089144575138347237 0.00015983641654453311 0 0.0087732665282210156 0.00021771147835713037 0 0.0088812300522337923 0.0002823957901657583 0 0.0089144575138347237 0.00015983641654453311 0 0.0087732665282210156 0.00021771147835713037 0 0.0089144575138347237 0.00015983641654453311 0 0.0087801527800189672 8.1584240210207977e-05 0 0.010000410764716951 0.00058865205807968879 0 0.011511676489587 0.001323073450426965 0 0.011511676489587 0.001323073450426965 0 0.015231037943736985 0.0016179918918770523 0 0.011554236040437366 0.0012688436667006257 0 0.011976495521245512 0.0015135047164237499 0 0.0115563591587309 0.0018738053562459365 0 0.011554236040437366 0.0012688436667006257 0 0.0115563591587309 0.0018738053562459365 0 0.011151310722263585 0.0014602618642792784 0 0.015231037943736985 0.0016179918918770523 0 0.018139983480609898 0.00076285813287417211 0 0.019188932996894822 0.0017061255574260528 0 0.018991957223426344 0.0012823991541468828 0 0.01853947441718861 0.0017509520724364297 0 0.015231037943736985 0.0016179918918770523 0 0.017153075600682865 0.0016867200215664904 0 0.018991957223426344 0.0012823991541468828 0 0.01853947441718861 0.0017509520724364297 0 0.018290937473642965 0.0015401472570335851 0 0.014597650767601153 0.0015387113252740207 0 0.014563944752742078 0.001581843540681731 0 0.014624522955229759 0.0015868140697311069 0 0.010796581408755626 0.0015619600014479039 0 0.011151310722263585 0.0014602618642792784 0 0.011054789710726478 0.0018721258586426978 0 0.0115563591587309 0.0018738053562459365 0 0.011151310722263585 0.0014602618642792784 0 0.011054789710726478 0.0018721258586426978 0 0.015415849883617152 0.00074282866200423394 0 0.018139983480609898 0.00076285813287417211 0 0.015231037943736985 0.0016179918918770523 0 0.012237667315860359 0.0014640234476371403 0 0.015966651052864211 0.0010562221096534388 0 0.014641137127235087 0.0010331110983995253 0 0.015293772036136922 0.0016057615283688292 0 0.012237667315860359 0.0014640234476371403 0 0.013417486081533174 0.0011448071479495277 0 0.014641137127235087 0.0010331110983995253 0 0.014301592066159887 0.0013108918389331092 0 0.015293772036136922 0.0016057615283688292 0 0.010796581408755626 0.0015619600014479039 0 0.011054789710726478 0.0018721258586426978 0 0.010571039918112866 0.0018633871392290668 0 0.014641137127235087 0.0010331110983995253 0 0.014301592066159887 0.0013108918389331092 0 0.013311705554701641 0.0010115271619436537 0 0.016731036499766389 0.00034026991294711166 0 0.01691896971326369 0.00030912440293953935 0 0.01673263781308133 0.00041758367418706866 0 0.016738874904690174 0.00025006093175086101 0 0.016731036499766389 0.00034026991294711166 0 0.01691896971326369 0.00030912440293953935 0 0.016731036499766389 0.00034026991294711166 0 0.01673263781308133 0.00041758367418706866 0 0.016688366152621675 0.00040817737504226376 0 0.016738874904690174 0.00025006093175086101 0 0.016731036499766389 0.00034026991294711166 0 0.016624868706451294 0.00027850703871225063 0 0.018139983480609898 0.00076285813287417211 0 0.018925942938309442 0.00031821916571260147 0 0.020786061267021053 0.00045504531800946897 0 0.020791955474414578 0.00050189422323346819 0 0.020744324614958367 0.00048666703013246416 0 0.024941757645861765 0.00042417125931984602 0 0.024880968174952077 0.00036794871480809135 0 0.024952917728221675 0.00034447883265775796 0 0.024941757645861765 0.00042417125931984602 0 0.025013898481527689 0.00037580208576677043 0 0.024952917728221675 0.00034447883265775796 0 0.020754161355031941 0.00051816868291589208 0 0.020744324614958367 0.00048666703013246416 0 0.020711489989852668 0.00053113878447414429 0 0.020791955474414578 0.00050189422323346819 0 0.020754161355031941 0.00051816868291589208 0 0.020744324614958367 0.00048666703013246416 0 0.023184071960672986 0.00037184743764977961 0 0.023351251768068664 0.00046049711765141832 0 0.023351251768068664 0.00046049711765141832 0 0.023146801034365342 0.00052977594354077797 0 0.019720597386748438 0.00088444247622466044 0 0.018492326854266466 0.00098202478535510469 0 0.018290937473642965 0.0015401472570335851 0 0.021423211544228722 0.00080637881104329498 0 0.021592084867333265 0.00048889949265017402 0 0.021423211544228722 0.00080637881104329498 0 0.017534862846109712 0.0017555037316845108 0 0.020786061267021053 0.00045504531800946897 0 0.020791955474414578 0.00050189422323346819 0 0.020859241796905161 0.00047754655262412368 0 0.023184071960672986 0.00037184743764977961 0 0.021423211544228722 0.00080637881104329498 0 0.018139983480609898 0.00076285813287417211 0 0.021423211544228722 0.00080637881104329498 0 0.019188932996894822 0.0017061255574260528 0 0.01948311301986937 0.0014493038267772301 0 0.018991957223426344 0.0012823991541468828 0 0.024941757645861765 0.00042417125931984602 0 0.024804370756479923 0.0005198145976648788 0 0.024880968174952077 0.00036794871480809135 0 0.024804370756479923 0.0005198145976648788 0 0.02467195064642673 0.00052985958496051377 0 0.02478877432923856 0.00038779951532734881 0 0.024804370756479923 0.0005198145976648788 0 0.02478877432923856 0.00038779951532734881 0 0.024880968174952077 0.00036794871480809135 0 0.02467195064642673 0.00052985958496051377 0 0.024688213624733092 0.0004066686159918284 0 0.02478877432923856 0.00038779951532734881 0 0.019720597386748438 0.00088444247622466044 0 0.018161094369334531 0.00043397844451375633 0 0.018492326854266466 0.00098202478535510469 0 0.018161094369334531 0.00043397844451375633 0 0.018492326854266466 0.00098202478535510469 0 0.017829494125535163 0.0010661053656641649 0 0.018492326854266466 0.00098202478535510469 0 0.017829494125535163 0.0010661053656641649 0 0.018290937473642965 0.0015401472570335851 0 0.017829494125535163 0.0010661053656641649 0 0.017175936161044583 0.00082942240314937956 0 0.017210044358239762 0.0018503932601224649 0 0.018161094369334531 0.00043397844451375633 0 0.017829494125535163 0.0010661053656641649 0 0.017175936161044583 0.00082942240314937956 0 0.018161094369334531 0.00043397844451375633 0 0.017175936161044583 0.00082942240314937956 0 0.016643127475227611 -9.2874223520832938e-05 0 0.021592084867333265 0.00048889949265017402 0 0.02048505245580896 0.00026107959757546892 0 0.02467195064642673 0.00052985958496051377 0 0.02444675671960814 0.00063064630068027062 0 0.024688213624733092 0.0004066686159918284 0 0.016643127475227611 -9.2874223520832938e-05 0 0.015712667230235469 0.00021184119783460579 0 0.016405858076024245 0.00057995554047631523 0 0.017175936161044583 0.00082942240314937956 0 0.016643127475227611 -9.2874223520832938e-05 0 0.016405858076024245 0.00057995554047631523 0 0.016643127475227611 -9.2874223520832938e-05 0 0.015712667230235469 0.00021184119783460579 0 0.014810601543593932 -0.00070070185616984734 0 0.015712667230235469 0.00021184119783460579 0 0.014810601543593932 -0.00070070185616984734 0 0.014705805897742029 0.00052202074797910226 0 0.02048505245580896 0.00026107959757546892 0 0.019358925790242197 4.0367762731641011e-05 0 0.014255210091219895 0.0013658682998849534 0 0.014502186849685973 0.00033905656723292476 0 0.014206169306330325 0.00076687104260790724 0 0.014761502283508228 0.00066915709384632836 0 0.013940976894413584 0.0001596019340469819 0 0.015817371227838595 0.00075559350468174305 0 0.016096047427892425 0.0012749048375388723 0 0.014705805897742029 0.00052202074797910226 0 0.015712667230235469 0.00021184119783460579 0 0.015817371227838595 0.00075559350468174305 0 0.014705805897742029 0.00052202074797910226 0 0.015712667230235469 0.00021184119783460579 0 0.015817371227838595 0.00075559350468174305 0 0.016405858076024245 0.00057995554047631523 0 0.017175936161044583 0.00082942240314937956 0 0.016611448726198696 0.0011467800908788385 0 0.017210044358239762 0.0018503932601224649 0 0.017175936161044583 0.00082942240314937956 0 0.016405858076024245 0.00057995554047631523 0 0.016611448726198696 0.0011467800908788385 0 0.015817371227838595 0.00075559350468174305 0 0.016405858076024245 0.00057995554047631523 0 0.016096047427892425 0.0012749048375388723 0 0.016405858076024245 0.00057995554047631523 0 0.016096047427892425 0.0012749048375388723 0 0.016611448726198696 0.0011467800908788385 0 0.012289024853780878 0.0016738709027528914 0 0.012403201199540219 0.0016301273346169866 0 0.01227577164053344 0.0015964919347458638 0 0.012336829967461924 0.0017588033730690522 0 0.012289024853780878 0.0016738709027528914 0 0.012189915965027434 0.0016815319833631724 0 0.016096047427892425 0.0012749048375388723 0 0.016611448726198696 0.0011467800908788385 0 0.017210044358239762 0.0018503932601224649 0 0.014255210091219895 0.0013658682998849534 0 0.014843072596011709 0.0016408568787815749 0 0.012289024853780878 0.0016738709027528914 0 0.012241257287014405 0.0016390411215082288 0 0.012189915965027434 0.0016815319833631724 0 0.012289024853780878 0.0016738709027528914 0 0.012241257287014405 0.0016390411215082288 0 0.01227577164053344 0.0015964919347458638 0 0.012241257287014405 0.0016390411215082288 0 0.012186821258687747 0.0016047877318718356 0 0.012204510703868413 0.0016516895679309677 0 0.012241257287014405 0.0016390411215082288 0 0.012204510703868413 0.0016516895679309677 0 0.012189915965027434 0.0016815319833631724 0 0.014255210091219895 0.0013658682998849534 0 0.013385481660614172 0.0014712338084384158 0 0.014206169306330325 0.00076687104260790724 0 0.014761502283508228 0.00066915709384632836 0 0.01433014636015102 0.0013547240590312795 0 0.012336829967461924 0.0017588033730690522 0 0.012289024853780878 0.0016738709027528914 0 0.012403201199540219 0.0016301273346169866 0 0.014206169306330325 0.00076687104260790724 0 0.01433014636015102 0.0013547240590312795 0 0.013792891664825054 0.00088910946154344703 0 0.012296696945869561 0.0014735335018930249 0 0.012403201199540219 0.0016301273346169866 0 0.01227577164053344 0.0015964919347458638 0 0.013385481660614172 0.0014712338084384158 0 0.012275942150382552 0.0016972877350299894 0 0.012296696945869561 0.0014735335018930249 0 0.012403201199540219 0.0016301273346169866 0 0.012474554373718106 0.001501139304667146 0 0.012241257287014405 0.0016390411215082288 0 0.01227577164053344 0.0015964919347458638 0 0.012186821258687747 0.0016047877318718356 0 0.01227577164053344 0.0015964919347458638 0 0.012184153341356757 0.001519041855383858 0 0.012186821258687747 0.0016047877318718356 0 0.012296696945869561 0.0014735335018930249 0 0.01227577164053344 0.0015964919347458638 0 0.012184153341356757 0.001519041855383858 0 0.012096638528240073 0.0013796112012793025 0 0.012184153341356757 0.001519041855383858 0 0.012053512518421194 0.0016050522825289786 0 0.012184153341356757 0.001519041855383858 0 0.012186821258687747 0.0016047877318718356 0 0.012053512518421194 0.0016050522825289786 0 0.014597650767601153 0.0015387113252740207 0 0.014651505698653464 0.0015621875060938155 0 0.014624522955229759 0.0015868140697311069 0 0.012096638528240073 0.0013796112012793025 0 0.011922431686651667 0.0015283282907841797 0 0.012053512518421194 0.0016050522825289786 0 0.011511676489587 0.001323073450426965 0 0.013412677928740457 0.0016205581562770952 0 0.01853947441718861 0.0017509520724364297 0 0.018290937473642965 0.0015401472570335851 0 0.017210044358239762 0.0018503932601224649 0 0.017153075600682865 0.0016867200215664904 0 0.014843072596011709 0.0016408568787815749 0 0.014651505698653464 0.0015621875060938155 0 0.014624522955229759 0.0015868140697311069 0 0.014704413361158788 0.0015961111407570029 0 0.012186821258687747 0.0016047877318718356 0 0.012053512518421194 0.0016050522825289786 0 0.012189915965027434 0.0016815319833631724 0 0.017829494125535163 0.0010661053656641649 0 0.018290937473642965 0.0015401472570335851 0 0.017210044358239762 0.0018503932601224649 0 0.012186821258687747 0.0016047877318718356 0 0.012204510703868413 0.0016516895679309677 0 0.012189915965027434 0.0016815319833631724 0 0.013412677928740457 0.0016205581562770952 0 0.014843072596011709 0.0016408568787815749 0 0.0095055995290915692 0.0006984154879358203 0 0.0095349400419965542 0.00071769479989288755 0 0.0095448270387042001 0.00068254058245914833 0 0.0095055995290915692 0.0006984154879358203 0 0.0095349400419965542 0.00071769479989288755 0 0.0094945487038976817 0.00071493200447980785 0 0.0095349400419965542 0.00071769479989288755 0 0.0095979734396843801 0.00072641177955281113 0 0.0095951079448013451 0.00076551418148555447 0 0.0095349400419965542 0.00071769479989288755 0 0.0094945487038976817 0.00071493200447980785 0 0.0095979734396843801 0.00072641177955281113 0 0.0094945487038976817 0.00071493200447980785 0 0.0095997301504555255 0.00067610437353892621 0 0.0095979734396843801 0.00072641177955281113 0 0.0094945487038976817 0.00071493200447980785 0 0.0094781016090256416 0.00066826947744396846 0 0.0095997301504555255 0.00067610437353892621 0 0.0094345296668105223 0.00073957564238125444 0 0.0095055995290915692 0.0006984154879358203 0 0.0094945487038976817 0.00071493200447980785 0 0.0094945487038976817 0.00071493200447980785 0 0.0093580969670829465 0.00069708156369165325 0 0.0094781016090256416 0.00066826947744396846 0 0.0094345296668105223 0.00073957564238125444 0 0.0094945487038976817 0.00071493200447980785 0 0.0093580969670829465 0.00069708156369165325 0 0.0092214720136903159 0.00067513345609432091 0 0.0092164174416663157 0.00067388700066189097 0 0.0092242939530663651 0.00073722593902250048 0 0.0093580969670829465 0.00069708156369165325 0 0.0092214720136903159 0.00067513345609432091 0 0.0094781016090256416 0.00066826947744396846 0 0.0091745692893917558 0.00068638793646371679 0 0.0092214720136903159 0.00067513345609432091 0 0.0092164174416663157 0.00067388700066189097 0 0.0092458860551008423 0.00067826395372117714 0 0.0093544708318176132 0.00070859535544166602 0 0.0092164174416663157 0.00067388700066189097 0 0.0092242939530663651 0.00073722593902250048 0 0.0093689134757787198 0.00065827265169664619 0 0.0092164401841265311 0.00063290601360786963 0 0.0092164174416663157 0.00067388700066189097 0 0.0093689134757787198 0.00065827265169664619 0 0.0093544708318176132 0.00070859535544166602 0 0.0095094662149392273 0.00076064268756627276 0 0.0093689134757787198 0.00065827265169664619 0 0.0095280844457075898 0.00073332681559423285 0 0.0094159121941204856 0.00084942077811991305 0 0.0092242939530663651 0.00073722593902250048 0 0.0093689134757787198 0.00065827265169664619 0 0.0094159121941204856 0.00084942077811991305 0 0.0095375889528749262 0.00051253942569895168 0 0.0092164401841265311 0.00063290601360786963 0 0.0093689134757787198 0.00065827265169664619 0 0.0095375889528749262 0.00051253942569895168 0 0.0096036916273795851 0.0005791303213636054 0 0.0096936512259984536 0.00056299879341899207 0 0.0096036916273795851 0.0005791303213636054 0 0.0096798625360141558 0.00060788213136720544 0 0.0096936512259984536 0.00056299879341899207 0 0.0096036916273795851 0.0005791303213636054 0 0.0096036448558078427 0.00064112938008335947 0 0.0096798625360141558 0.00060788213136720544 0 0.0095375889528749262 0.00051253942569895168 0 0.0093689134757787198 0.00065827265169664619 0 0.0095269171818502252 0.00062856555067780477 0 0.0095375889528749262 0.00051253942569895168 0 0.0096036916273795851 0.0005791303213636054 0 0.0095269171818502252 0.00062856555067780477 0 0.0093689134757787198 0.00065827265169664619 0 0.0095269171818502252 0.00062856555067780477 0 0.0095280844457075898 0.00073332681559423285 0 0.0095269171818502252 0.00062856555067780477 0 0.0096036448558078427 0.00064112938008335947 0 0.0095280844457075898 0.00073332681559423285 0 0.0096036448558078427 0.00064112938008335947 0 0.0095280844457075898 0.00073332681559423285 0 0.009725205885157677 0.00067678829583598277 0 0.0096036916273795851 0.0005791303213636054 0 0.0095269171818502252 0.00062856555067780477 0 0.0096036448558078427 0.00064112938008335947 0 0.0095280844457075898 0.00073332681559423285 0 0.0095742302772547101 0.00082899658818118554 0 0.0094159121941204856 0.00084942077811991305 0 0.0095394099383778845 0.00074353657647210469 0 0.0097575267866718343 0.00093698489243485938 0 0.0095280844457075898 0.00073332681559423285 0 0.0095742302772547101 0.00082899658818118554 0 0.0097231210382482947 0.00082829645576325739 0 0.0095742302772547101 0.00082899658818118554 0 0.0096376421416688746 0.00090752463753190232 0 0.0097231210382482947 0.00082829645576325739 0 0.0095742302772547101 0.00082899658818118554 0 0.0094159121941204856 0.00084942077811991305 0 0.0096376421416688746 0.00090752463753190232 0 0.0095094662149392273 0.00076064268756627276 0 0.0096842990392004037 0.00080898572302052986 0 0.0095979734396843801 0.00072641177955281113 0 0.0097393843604972798 0.00071708818757369264 0 0.0096821092737052351 0.00078499880263176842 0 0.0095997301504555255 0.00067610437353892621 0 0.0095979734396843801 0.00072641177955281113 0 0.0097393843604972798 0.00071708818757369264 0 0.0097679126537295515 0.00086833335529175716 0 0.0098372752309516132 0.00086380226908601844 0 0.0097231210382482947 0.00082829645576325739 0 0.0096376421416688746 0.00090752463753190232 0 0.0097679126537295515 0.00086833335529175716 0 0.0098432017089922288 0.00085653303833244695 0 0.0097650616578152747 0.0011744892091549381 0 0.0097575267866718343 0.00093698489243485938 0 0.0096842990392004037 0.00080898572302052986 0 0.0098173799045013863 0.00085258840187955821 0 0.0096376421416688746 0.00090752463753190232 0 0.0097679126537295515 0.00086833335529175716 0 0.0097231210382482947 0.00082829645576325739 0 0.0097679126537295515 0.00086833335529175716 0 0.0098372752309516132 0.00086380226908601844 0 0.0098432017089922288 0.00085653303833244695 0 0.010013829302626679 0.0014006301552316077 0 0.010034196509478122 0.001149917157793135 0 0.0097443329815869138 0.0010390249533691277 0 0.010034196509478122 0.001149917157793135 0 0.010241387278720733 0.00107323914303578 0 0.01019454037179158 0.0012789192118953985 0 0.010013829302626679 0.0014006301552316077 0 0.010034196509478122 0.001149917157793135 0 0.01019454037179158 0.0012789192118953985 0 0.010034196509478122 0.001149917157793135 0 0.0099945345192563664 0.00096409395670335181 0 0.0097443329815869138 0.0010390249533691277 0 0.010034196509478122 0.001149917157793135 0 0.0099945345192563664 0.00096409395670335181 0 0.010241387278720733 0.00107323914303578 0 0.0099945345192563664 0.00096409395670335181 0 0.010191296845779215 0.00083839628390802864 0 0.010241387278720733 0.00107323914303578 0 0.0099945345192563664 0.00096409395670335181 0 0.0097443329815869138 0.0010390249533691277 0 0.0098122823925135237 0.00082150451669354117 0 0.0095280844457075898 0.00073332681559423285 0 0.0097443329815869138 0.0010390249533691277 0 0.0098122823925135237 0.00082150451669354117 0 0.0095280844457075898 0.00073332681559423285 0 0.0098122823925135237 0.00082150451669354117 0 0.009725205885157677 0.00067678829583598277 0 0.0098122823925135237 0.00082150451669354117 0 0.0098625757972666313 0.0007060785874416633 0 0.009725205885157677 0.00067678829583598277 0 0.0098122823925135237 0.00082150451669354117 0 0.0098625757972666313 0.0007060785874416633 0 0.0099952654777607456 0.00077084105093638974 0 0.0093492730144000072 0.00056296194429065604 0 0.0095286716598732488 0.00055665564051009427 0 0.0095375889528749262 0.00051253942569895168 0 0.009798735695423156 0.00055312832836157985 0 0.0096936512259984536 0.00056299879341899207 0 0.0095375889528749262 0.00051253942569895168 0 0.009798735695423156 0.00055312832836157985 0 0.0099114210621634204 0.00053684921489657313 0 0.0097565027363417794 0.00060056458104400083 0 0.009725205885157677 0.00067678829583598277 0 0.0098448341187685022 0.00060334401665938992 0 0.0096036448558078427 0.00064112938008335947 0 0.0096798625360141558 0.00060788213136720544 0 0.009725205885157677 0.00067678829583598277 0 0.0096798625360141558 0.00060788213136720544 0 0.0097565027363417794 0.00060056458104400083 0 0.009725205885157677 0.00067678829583598277 0 0.0098625757972666313 0.0007060785874416633 0 0.009725205885157677 0.00067678829583598277 0 0.0098448341187685022 0.00060334401665938992 0 0.0098625757972666313 0.0007060785874416633 0 0.0098448341187685022 0.00060334401665938992 0 0.0099465338478261361 0.00067046195502043395 0 0.0097565027363417794 0.00060056458104400083 0 0.0098448341187685022 0.00060334401665938992 0 0.009798735695423156 0.00055312832836157985 0 0.0098448341187685022 0.00060334401665938992 0 0.0098634112312454177 0.00055625923164844958 0 0.009798735695423156 0.00055312832836157985 0 0.0098448341187685022 0.00060334401665938992 0 0.0098697650279758325 0.0005664275566451604 0 0.0098634112312454177 0.00055625923164844958 0 0.0098697650279758325 0.0005664275566451604 0 0.0098634112312454177 0.00055625923164844958 0 0.0098867768967713151 0.00054222263172883079 0 0.0098634112312454177 0.00055625923164844958 0 0.009798735695423156 0.00055312832836157985 0 0.0099114210621634204 0.00053684921489657313 0 0.0096798625360141558 0.00060788213136720544 0 0.0097565027363417794 0.00060056458104400083 0 0.0096936512259984536 0.00056299879341899207 0 0.0097565027363417794 0.00060056458104400083 0 0.009798735695423156 0.00055312832836157985 0 0.0096936512259984536 0.00056299879341899207 0 0.0098907821890721875 0.00052468027368029395 0 0.0099673731459532684 0.00060763003623459113 0 0.010293609529348591 0.00064784984971746765 0 0.0095286716598732488 0.00055665564051009427 0 0.0093614721613572201 0.00055124725303504218 0 0.0099011965718976622 0.00052800108705367357 0 0.0099318613325408266 0.00053739732521248737 0 0.0099673731459532684 0.00060763003623459113 0 0.010096255054421084 0.00070667230402107631 0 0.010293609529348591 0.00064784984971746765 0 0.0097162580563794274 0.00050974547232777642 0 0.0098907821890721875 0.00052468027368029395 0 0.0095525581828867154 0.00041369659699161301 0 0.0097162580563794274 0.00050974547232777642 0 0.0099114210621634204 0.00053684921489657313 0 0.0095071673925877318 0.00055965621786420667 0 0.0091937148159962137 0.00055210450598965641 0 0.0091745345173425853 0.00057027314351070673 0 0.0092236683562579996 0.00055554056305792102 0 0.0097162580563794274 0.00050974547232777642 0 0.0099114210621634204 0.00053684921489657313 0 0.0098907821890721875 0.00052468027368029395 0 0.0098697650279758325 0.0005664275566451604 0 0.0098867768967713151 0.00054222263172883079 0 0.0099673731459532684 0.00060763003623459113 0 0.0098867768967713151 0.00054222263172883079 0 0.0098907821890721875 0.00052468027368029395 0 0.0099673731459532684 0.00060763003623459113 0 0.0099114210621634204 0.00053684921489657313 0 0.0098867768967713151 0.00054222263172883079 0 0.0098907821890721875 0.00052468027368029395 0 0.0098634112312454177 0.00055625923164844958 0 0.0099114210621634204 0.00053684921489657313 0 0.0098867768967713151 0.00054222263172883079 0 0.0099465338478261361 0.00067046195502043395 0 0.0099673731459532684 0.00060763003623459113 0 0.010096255054421084 0.00070667230402107631 0 0.0098448341187685022 0.00060334401665938992 0 0.0099465338478261361 0.00067046195502043395 0 0.0099673731459532684 0.00060763003623459113 0 0.0098448341187685022 0.00060334401665938992 0 0.0098697650279758325 0.0005664275566451604 0 0.0099673731459532684 0.00060763003623459113 0 0.010096255054421084 0.00070667230402107631 0 0.0099952654777607456 0.00077084105093638974 0 0.010191296845779215 0.00083839628390802864 0 0.0098625757972666313 0.0007060785874416633 0 0.0099465338478261361 0.00067046195502043395 0 0.0099952654777607456 0.00077084105093638974 0 0.0099465338478261361 0.00067046195502043395 0 0.010096255054421084 0.00070667230402107631 0 0.0099952654777607456 0.00077084105093638974 0 0.0099945345192563664 0.00096409395670335181 0 0.0098122823925135237 0.00082150451669354117 0 0.0099952654777607456 0.00077084105093638974 0 0.0099945345192563664 0.00096409395670335181 0 0.0099952654777607456 0.00077084105093638974 0 0.010191296845779215 0.00083839628390802864 0 0.010191296845779215 0.00083839628390802864 0 0.010293609529348591 0.00064784984971746765 0 0.010388239937975515 0.00089683762390621959 0 0.010096255054421084 0.00070667230402107631 0 0.010191296845779215 0.00083839628390802864 0 0.010293609529348591 0.00064784984971746765 0 0.0097162580563794274 0.00050974547232777642 0 0.0095525581828867154 0.00041369659699161301 0 0.0095071673925877318 0.00055965621786420667 0 0.0095525581828867154 0.00041369659699161301 0 0.0095071673925877318 0.00055965621786420667 0 0.0093514520719845569 0.00044361900849055648 0 0.0092206352121012979 0.00055192375327396746 0 0.0092236683562579996 0.00055554056305792102 0 0.0092201646697867481 0.00055567764598141959 0 0.0091645702407315861 0.00050735531905925734 0 0.0092236683562579996 0.00055554056305792102 0 0.0092201646697867481 0.00055567764598141959 0 0.0091645702407315861 0.00050735531905925734 0 0.0095071673925877318 0.00055965621786420667 0 0.0093514520719845569 0.00044361900849055648 0 0.0091740324753368258 0.00051386539745639599 0 0.0093614721613572201 0.00055124725303504218 0 0.009222250872565757 0.00057361637069195824 0 0.0091645702407315861 0.00050735531905925734 0 0.0092201646697867481 0.00055567764598141959 0 0.0099318613325408266 0.00053739732521248737 0 0.0099808001855690408 0.00056326849871761973 0 0.010293609529348591 0.00064784984971746765 0 0.010702863154897969 0.00082806905836700965 0 0.010388239937975515 0.00089683762390621959 0 0.0095525581828867154 0.00041369659699161301 0 0.0092695191239545779 0.00030404704022116353 0 0.0093514520719845569 0.00044361900849055648 0 0.0091645702407315861 0.00050735531905925734 0 0.0092695191239545779 0.00030404704022116353 0 0.0093514520719845569 0.00044361900849055648 0 0.010702863154897969 0.00082806905836700965 0 0.010522310729385207 0.001100059905377686 0 0.010388239937975515 0.00089683762390621959 0 0.010810674072213018 0.0012189168529482346 0 0.010702863154897969 0.00082806905836700965 0 0.010522310729385207 0.001100059905377686 0 0.010191296845779215 0.00083839628390802864 0 0.010388239937975515 0.00089683762390621959 0 0.010241387278720733 0.00107323914303578 0 0.010522310729385207 0.001100059905377686 0 0.010241387278720733 0.00107323914303578 0 0.010373758278504586 0.0012433917917199703 0 0.010522310729385207 0.001100059905377686 0 0.010388239937975515 0.00089683762390621959 0 0.010241387278720733 0.00107323914303578 0 0.010013829302626679 0.0014006301552316077 0 0.01019454037179158 0.0012789192118953985 0 0.010337293888820849 0.0014297551954031177 0 0.010241387278720733 0.00107323914303578 0 0.010373758278504586 0.0012433917917199703 0 0.01019454037179158 0.0012789192118953985 0 0.010373758278504586 0.0012433917917199703 0 0.01019454037179158 0.0012789192118953985 0 0.010337293888820849 0.0014297551954031177 0 0.010373758278504586 0.0012433917917199703 0 0.010337293888820849 0.0014297551954031177 0 0.010577930028520198 0.0013397557111847686 0 0.010810674072213018 0.0012189168529482346 0 0.010796581408755626 0.0015619600014479039 0 0.010577930028520198 0.0013397557111847686 0 0.010810674072213018 0.0012189168529482346 0 0.010522310729385207 0.001100059905377686 0 0.010577930028520198 0.0013397557111847686 0 0.010522310729385207 0.001100059905377686 0 0.010373758278504586 0.0012433917917199703 0 0.010577930028520198 0.0013397557111847686 0 0.010796581408755626 0.0015619600014479039 0 0.010502016031723359 0.0016113057950430127 0 0.010571039918112866 0.0018633871392290668 0 0.010796581408755626 0.0015619600014479039 0 0.010577930028520198 0.0013397557111847686 0 0.010502016031723359 0.0016113057950430127 0 0.010337293888820849 0.0014297551954031177 0 0.010502016031723359 0.0016113057950430127 0 0.010295367013325726 0.0015580170228748072 0 0.010337293888820849 0.0014297551954031177 0 0.010577930028520198 0.0013397557111847686 0 0.010502016031723359 0.0016113057950430127 0 0.010013829302626679 0.0014006301552316077 0 0.010337293888820849 0.0014297551954031177 0 0.010295367013325726 0.0015580170228748072 0 0.010013829302626679 0.0014006301552316077 0 0.010295367013325726 0.0015580170228748072 0 0.010331657682041905 0.0017906577620604596 0 0.010502016031723359 0.0016113057950430127 0 0.010295367013325726 0.0015580170228748072 0 0.010331657682041905 0.0017906577620604596 0 0.010502016031723359 0.0016113057950430127 0 0.010331657682041905 0.0017906577620604596 0 0.010571039918112866 0.0018633871392290668 0 0.014210842250117199 0.0010730368051776512 0 0.013417486081533174 0.0011448071479495277 0 0.011304548988311564 0.00078102163605876373 0 0.013417486081533174 0.0011448071479495277 0 0.012798738919816232 0.0012751981246871818 0 0.012584421125359915 0.0010069800738999846 0 0.013504056133441709 0.0012869649897730123 0 0.014210842250117199 0.0010730368051776512 0 0.011304548988311564 0.00078102163605876373 0 0.015415849883617152 0.00074282866200423394 0 0.013417486081533174 0.0011448071479495277 0 0.016407858398746165 0.00019617001132846883 0 0.016530522773910747 0.00018621778189067907 0 0.016624868706451294 0.00027850703871225063 0 0.016738874904690174 0.00025006093175086101 0 0.016530522773910747 0.00018621778189067907 0 0.016624868706451294 0.00027850703871225063 0 0.016731036499766389 0.00034026991294711166 0 0.016624868706451294 0.00027850703871225063 0 0.016688366152621675 0.00040817737504226376 0 0.016688366152621675 0.00040817737504226376 0 0.016734308270921212 0.00039211414024440132 0 0.01675878468915985 0.00043521030254392861 0 0.016740898372868945 0.00052765918242653122 0 0.016688366152621675 0.00040817737504226376 0 0.01675878468915985 0.00043521030254392861 0 0.014210842250117199 0.0010730368051776512 0 0.017415165569639811 0.00033105095357055308 0 0.016407858398746165 0.00019617001132846883 0 0.016624868706451294 0.00027850703871225063 0 0.016688366152621675 0.00040817737504226376 0 0.018925942938309442 0.00031821916571260147 0 0.018402546834433309 0.00060000618466722567 0 0.01673263781308133 0.00041758367418706866 0 0.016688366152621675 0.00040817737504226376 0 0.016718181160118476 0.00035547525275334441 0 0.016688366152621675 0.00040817737504226376 0 0.016734308270921212 0.00039211414024440132 0 0.016718181160118476 0.00035547525275334441 0 0.020744324614958367 0.00048666703013246416 0 0.02067758274679719 0.00051978037695259594 0 0.020711489989852668 0.00053113878447414429 0 0.016734308270921212 0.00039211414024440132 0 0.016718181160118476 0.00035547525275334441 0 0.016788088226387502 0.00036829771544896105 0 0.016734308270921212 0.00039211414024440132 0 0.016788088226387502 0.00036829771544896105 0 0.01675878468915985 0.00043521030254392861 0 0.016788088226387502 0.00036829771544896105 0 0.01675878468915985 0.00043521030254392861 0 0.01683767418207735 0.00040850918505741383 0 0.016740898372868945 0.00052765918242653122 0 0.01675878468915985 0.00043521030254392861 0 0.016817414497318411 0.0004758388798716564 0 0.01675878468915985 0.00043521030254392861 0 0.016817414497318411 0.0004758388798716564 0 0.01683767418207735 0.00040850918505741383 0 0.016817414497318411 0.0004758388798716564 0 0.016932568356261574 0.00040551749558269444 0 0.016878399972865117 0.00053012848418699881 0 0.016817414497318411 0.0004758388798716564 0 0.01683767418207735 0.00040850918505741383 0 0.016932568356261574 0.00040551749558269444 0 0.01683767418207735 0.00040850918505741383 0 0.016932568356261574 0.00040551749558269444 0 0.016866633792661553 0.00033602898251927578 0 0.016788088226387502 0.00036829771544896105 0 0.01683767418207735 0.00040850918505741383 0 0.016866633792661553 0.00033602898251927578 0 0.016932568356261574 0.00040551749558269444 0 0.017027497843390631 0.00031020436867656043 0 0.016949692035500202 0.00031985718926448294 0 0.016932568356261574 0.00040551749558269444 0 0.016949692035500202 0.00031985718926448294 0 0.016866633792661553 0.00033602898251927578 0 0.016932568356261574 0.00040551749558269444 0 0.016878399972865117 0.00053012848418699881 0 0.017012644985857726 0.00044448460361599099 0 0.016740898372868945 0.00052765918242653122 0 0.016817414497318411 0.0004758388798716564 0 0.016878399972865117 0.00053012848418699881 0 0.014210842250117199 0.0010730368051776512 0 0.013368071271558635 0.00074175843001976418 0 0.010840250683506528 0.0010003390045175955 0 0.0099875862821555451 0.0010397672500935019 0 0.010297993400851127 0.0008318850257772423 0 0.01093401681413882 0.0011156626224886046 0 0.010840250683506528 0.0010003390045175955 0 0.0099875862821555451 0.0010397672500935019 0 0.011304548988311564 0.00078102163605876373 0 0.0099294346605128848 0.00081804303145887995 0 0.0098372752309516132 0.00086380226908601844 0 0.0098824303259007085 0.00087589377677900417 0 0.0098446775882501929 0.00087086245869014416 0 0.0097650616578152747 0.0011744892091549381 0 0.011304548988311564 0.00078102163605876373 0 0.0098372752309516132 0.00086380226908601844 0 0.0098446775882501929 0.00087086245869014416 0 0.0098432017089922288 0.00085653303833244695 0 0.0099294346605128848 0.00081804303145887995 0 0.0099430803367257532 0.0008479481939875328 0 0.0099875862821555451 0.0010397672500935019 0 0.010297993400851127 0.0008318850257772423 0 0.009853933245916973 0.00083881805155968053 0 0.0097393843604972798 0.00071708818757369264 0 0.009853933245916973 0.00083881805155968053 0 0.0098432017089922288 0.00085653303833244695 0 0.0098446775882501929 0.00087086245869014416 0 0.009853933245916973 0.00083881805155968053 0 0.0098432017089922288 0.00085653303833244695 0 0.009853933245916973 0.00083881805155968053 0 0.0096821092737052351 0.00078499880263176842 0 0.009680686575265501 0.00088659683146431007 0 0.0097393843604972798 0.00071708818757369264 0 0.009853933245916973 0.00083881805155968053 0 0.0096821092737052351 0.00078499880263176842 0 0.0095979734396843801 0.00072641177955281113 0 0.0096821092737052351 0.00078499880263176842 0 0.0095951079448013451 0.00076551418148555447 0 0.0096821092737052351 0.00078499880263176842 0 0.009680686575265501 0.00088659683146431007 0 0.0095951079448013451 0.00076551418148555447 0 0.013368071271558635 0.00074175843001976418 0 0.013327857944886428 0.00073458039611034188 0 0.016878399972865117 0.00053012848418699881 0 0.017015476453970075 0.00052486304686837168 0 0.017012644985857726 0.00044448460361599099 0 0.0099875862821555451 0.0010397672500935019 0 0.009853933245916973 0.00083881805155968053 0 0.009680686575265501 0.00088659683146431007 0 0.016932568356261574 0.00040551749558269444 0 0.017012644985857726 0.00044448460361599099 0 0.017052765190502483 0.00035634276806321735 0 0.016932568356261574 0.00040551749558269444 0 0.017052765190502483 0.00035634276806321735 0 0.017027497843390631 0.00031020436867656043 0 0.017012644985857726 0.00044448460361599099 0 0.017052765190502483 0.00035634276806321735 0 0.017099568142364654 0.0003847931413018896 0 0.017052765190502483 0.00035634276806321735 0 0.017099568142364654 0.0003847931413018896 0 0.017120780007673312 0.00030387675697709723 0 0.017012644985857726 0.00044448460361599099 0 0.017099568142364654 0.0003847931413018896 0 0.017084215909649151 0.00046593050282608809 0 0.017015476453970075 0.00052486304686837168 0 0.017012644985857726 0.00044448460361599099 0 0.017084215909649151 0.00046593050282608809 0 0.017099568142364654 0.0003847931413018896 0 0.017084215909649151 0.00046593050282608809 0 0.017139780464170987 0.00041687053843776785 0 0.017084215909649151 0.00046593050282608809 0 0.017139780464170987 0.00041687053843776785 0 0.017161516349021935 0.00045540312243926001 0 0.017084215909649151 0.00046593050282608809 0 0.017161516349021935 0.00045540312243926001 0 0.017136118411317149 0.00052363894821922741 0 0.017099568142364654 0.0003847931413018896 0 0.017197419588311842 0.00032175745141676978 0 0.017120780007673312 0.00030387675697709723 0 0.017099568142364654 0.0003847931413018896 0 0.017139780464170987 0.00041687053843776785 0 0.017197419588311842 0.00032175745141676978 0 0.017139780464170987 0.00041687053843776785 0 0.017161516349021935 0.00045540312243926001 0 0.017197419588311842 0.00032175745141676978 0 0.018764635887567046 0.001437187311524254 0 0.018359845128929783 0.0019967161485120702 0 0.01834497061439384 0.00098143661471741242 0 0.017041771697035756 0.0013207754145882209 0 0.0178036211809472 0.00059114316684128561 0 0.019081120802932831 0.0013741514353483714 0 0.018764635887567046 0.001437187311524254 0 0.018886341136106426 0.0010066360657981 0 0.018764635887567046 0.001437187311524254 0 0.018886341136106426 0.0010066360657981 0 0.01834497061439384 0.00098143661471741242 0 0.014944021060058668 0.00094555319211613834 0 0.014988809510445312 0.00093151419556781806 0 0.014953133717077993 0.00091249919635454709 0 0.016782879092363534 0.0014042976564267258 0 0.017041771697035756 0.0013207754145882209 0 0.019129047530400057 0.0017644544881752001 0 0.018764635887567046 0.001437187311524254 0 0.018359845128929783 0.0019967161485120702 0 0.014917934386307409 0.00089149895379308207 0 0.014953133717077993 0.00091249919635454709 0 0.014973928711141045 0.00089071947122150961 0 0.014988809510445312 0.00093151419556781806 0 0.014953133717077993 0.00091249919635454709 0 0.014973928711141045 0.00089071947122150961 0 0.009587471263936229 0.00063260744129344643 0 0.0095752112975281741 0.00074535166443711741 0 0.0095654014398932185 0.00070793946894520665 0 0.011929365650256006 0.00079458317444798066 0 0.013560401909291012 0.00047808065313300198 0 0.017041771697035756 0.0013207754145882209 0 0.013560401909291012 0.00047808065313300198 0 0.017015476453970075 0.00052486304686837168 0 0.017084215909649151 0.00046593050282608809 0 0.017136118411317149 0.00052363894821922741 0 0.009680686575265501 0.00088659683146431007 0 0.0095752112975281741 0.00074535166443711741 0 0.0095951079448013451 0.00076551418148555447 0 0.013327857944886428 0.00073458039611034188 0 0.013560401909291012 0.00047808065313300198 0 0.0095349400419965542 0.00071769479989288755 0 0.0095951079448013451 0.00076551418148555447 0 0.0095618780204959047 0.00072787272019109162 0 0.0095752112975281741 0.00074535166443711741 0 0.0095951079448013451 0.00076551418148555447 0 0.0095618780204959047 0.00072787272019109162 0 0.0095349400419965542 0.00071769479989288755 0 0.0095618780204959047 0.00072787272019109162 0 0.0095448270387042001 0.00068254058245914833 0 0.0095752112975281741 0.00074535166443711741 0 0.0095618780204959047 0.00072787272019109162 0 0.0095654014398932185 0.00070793946894520665 0 0.0095618780204959047 0.00072787272019109162 0 0.0095448270387042001 0.00068254058245914833 0 0.0095654014398932185 0.00070793946894520665 0 0.022906867836668166 -0.00017287343018881928 0 0.022952778360381721 -9.623768572649606e-05 0 0.022961888917077362 -0.00027102638123631764 0 0.02494230121545166 -4.1775977942249301e-05 0 0.024928145085152311 -4.3755765867272362e-05 0 0.024950949573142367 -3.8732137764644142e-05 0 0.022906867836668166 -0.00017287343018881928 0 0.022862094343361967 -0.0002320251606881632 0 0.022850299056700524 -9.1391275498460301e-05 0 0.022608149872896551 -8.1214573833580085e-05 0 0.024041789129942169 -0.00014935585374023942 0 0.022906867836668166 -0.00017287343018881928 0 0.022862094343361967 -0.0002320251606881632 0 0.022961888917077362 -0.00027102638123631764 0 0.02188333738635314 -0.00029237670942365167 0 0.021731871836171084 -0.00018099791070931302 0 0.021691678018357245 -0.00035502160301908612 0 0.02237877198684151 -0.00029166786046945834 0 0.020440977518219602 -0.00012340932487680452 0 0.02188333738635314 -0.00029237670942365167 0 0.021731871836171084 -0.00018099791070931302 0 0.021871439537683834 -8.0117586554534197e-05 0 0.020440977518219602 -0.00012340932487680452 0 0.018705316302652344 0.00011465365404688446 0 0.01716342765981 0.00022884593075584399 0 0.017235157285866592 0.00026520859605666351 0 0.017120716476860663 0.00021216654076624362 0 0.017255617879860678 0.00017061952456652672 0 0.01716342765981 0.00022884593075584399 0 0.017066001664038103 0.00024325798210192079 0 0.021731871836171084 -0.00018099791070931302 0 0.021871439537683834 -8.0117586554534197e-05 0 0.021588783444693591 -6.5204964353740534e-05 0 0.020440977518219602 -0.00012340932487680452 0 0.01822004650063215 0.00027211218209622197 0 0.017255617879860678 0.00017061952456652672 0 0.01716342765981 0.00022884593075584399 0 0.017235157285866592 0.00026520859605666351 0 0.020020760650125018 -0.00017931276398330896 0 0.020032266546312294 0.00037566807803256387 0 0.020321251561889995 8.6215335854730718e-05 0 0.01822004650063215 0.00027211218209622197 0 0.019961034982593166 0.00017436405694456369 0 0.020032266546312294 0.00037566807803256387 0 0.020321251561889995 8.6215335854730718e-05 0 0.020624677084583844 0.0003572438862345432 0 0.020440977518219602 -0.00012340932487680452 0 0.022608149872896551 -8.1214573833580085e-05 0 0.022906867836668166 -0.00017287343018881928 0 0.022850299056700524 -9.1391275498460301e-05 0 0.022952778360381721 -9.623768572649606e-05 0 0.020020760650125018 -0.00017931276398330896 0 0.020321251561889995 8.6215335854730718e-05 0 0.020607191241113855 -0.00020899591645295689 0 0.022608149872896551 -8.1214573833580085e-05 0 0.019961034982593166 0.00017436405694456369 0 0.022209087637988092 -0.00011093572079553277 0 0.021571040100729268 -0.00042971536496514854 0 0.021593753695981523 0.00025744597075747248 0 0.020321251561889995 8.6215335854730718e-05 0 0.020607191241113855 -0.00020899591645295689 0 0.020624677084583844 0.0003572438862345432 0 0.018325294450296865 -3.6800929067138496e-05 0 0.018794938883223998 0.00040387840893754565 0 0.01834497061439384 0.00098143661471741242 0 0.019961034982593166 0.00017436405694456369 0 0.019060864415048971 0.00024363342306633871 0 0.019077250609688772 0.00017651593176965191 0 0.018782096970006081 -6.6976387509961704e-05 0 0.018794938883223998 0.00040387840893754565 0 0.018325294450296865 -3.6800929067138496e-05 0 0.018778675505226852 -5.0112148195011517e-05 0 0.018794938883223998 0.00040387840893754565 0 0.018794938883223998 0.00040387840893754565 0 0.018886341136106426 0.0010066360657981 0 0.01834497061439384 0.00098143661471741242 0 0.017197419588311842 0.00032175745141676978 0 0.017154570233162851 0.00025286271482899772 0 0.017120780007673312 0.00030387675697709723 0 0.01822004650063215 0.00027211218209622197 0 0.016730767600857968 0.00021884996252680687 0 0.01822004650063215 0.00027211218209622197 0 0.0178036211809472 0.00059114316684128561 0 0.01720754143332481 0.00020813581571666836 0 0.017197419588311842 0.00032175745141676978 0 0.017154570233162851 0.00025286271482899772 0 0.01720754143332481 0.00020813581571666836 0 0.017154570233162851 0.00025286271482899772 0 0.017120716476860663 0.00021216654076624362 0 0.017120716476860663 0.00021216654076624362 0 0.017122585685952561 0.00024600002689526945 0 0.01714632511110192 0.00021402612873621784 0 0.017120716476860663 0.00021216654076624362 0 0.01714632511110192 0.00021402612873621784 0 0.017243142643756353 0.00017309124139827225 0 0.017154570233162851 0.00025286271482899772 0 0.017120716476860663 0.00021216654076624362 0 0.017122585685952561 0.00024600002689526945 0 0.017154570233162851 0.00025286271482899772 0 0.017122585685952561 0.00024600002689526945 0 0.017120780007673312 0.00030387675697709723 0 0.017122585685952561 0.00024600002689526945 0 0.017120780007673312 0.00030387675697709723 0 0.017082943541487788 0.00029261491964346133 0 0.017052765190502483 0.00035634276806321735 0 0.017120780007673312 0.00030387675697709723 0 0.017082943541487788 0.00029261491964346133 0 0.017052765190502483 0.00035634276806321735 0 0.017027497843390631 0.00031020436867656043 0 0.017082943541487788 0.00029261491964346133 0 0.017027497843390631 0.00031020436867656043 0 0.017082943541487788 0.00029261491964346133 0 0.017085589743831935 0.00025393689751144555 0 0.017122585685952561 0.00024600002689526945 0 0.017082943541487788 0.00029261491964346133 0 0.017085589743831935 0.00025393689751144555 0 0.017027497843390631 0.00031020436867656043 0 0.017085589743831935 0.00025393689751144555 0 0.016999600471694867 0.00026503434681355594 0 0.017434520376288457 0.00010721908592465742 0 0.017056214684023883 2.2569496057067134e-05 0 0.017090493903942062 0.00022132326675949578 0 0.017243142643756353 0.00017309124139827225 0 0.016950822278965532 0.00019173695942187557 0 0.017085589743831935 0.00025393689751144555 0 0.017090493903942062 0.00022132326675949578 0 0.016999600471694867 0.00026503434681355594 0 0.017122585685952561 0.00024600002689526945 0 0.017085589743831935 0.00025393689751144555 0 0.01714632511110192 0.00021402612873621784 0 0.017085589743831935 0.00025393689751144555 0 0.01714632511110192 0.00021402612873621784 0 0.017090493903942062 0.00022132326675949578 0 0.01714632511110192 0.00021402612873621784 0 0.017090493903942062 0.00022132326675949578 0 0.017243142643756353 0.00017309124139827225 0 0.018705316302652344 0.00011465365404688446 0 0.021795544634988236 0.000218439609479547 0 0.021588783444693591 -6.5204964353740534e-05 0 0.021502032827438865 -0.00019871380192250487 0 0.021326031037033181 -4.7285683403183855e-05 0 0.017243142643756353 0.00017309124139827225 0 0.017066001664038103 0.00024325798210192079 0 0.01772974264181721 0.00030094733096711708 0 0.017120716476860663 0.00021216654076624362 0 0.017243142643756353 0.00017309124139827225 0 0.017066001664038103 0.00024325798210192079 0 0.01716342765981 0.00022884593075584399 0 0.017120716476860663 0.00021216654076624362 0 0.017066001664038103 0.00024325798210192079 0 0.021731871836171084 -0.00018099791070931302 0 0.021588783444693591 -6.5204964353740534e-05 0 0.021502032827438865 -0.00019871380192250487 0 0.021731871836171084 -0.00018099791070931302 0 0.021502032827438865 -0.00019871380192250487 0 0.021691678018357245 -0.00035502160301908612 0 0.023431256444421202 -0.00015126289774957863 0 0.023284635328502244 -9.9439372773092472e-05 0 0.024974976411627405 0.00012033769021338757 0 0.024916914335769966 0.00014336864880222378 0 0.024926279893716059 0.00019211443788235509 0 0.023431256444421202 -0.00015126289774957863 0 0.021795544634988236 0.000218439609479547 0 0.024916914335769966 0.00014336864880222378 0 0.024865724528695395 0.00014287588147662503 0 0.02493559907483146 8.6861665327773337e-05 0 0.024974976411627405 0.00012033769021338757 0 0.024916914335769966 0.00014336864880222378 0 0.02493559907483146 8.6861665327773337e-05 0 0.024916914335769966 0.00014336864880222378 0 0.024865724528695395 0.00014287588147662503 0 0.024880493313634549 0.00021117997642618977 0 0.024865724528695395 0.00014287588147662503 0 0.024900855277773533 6.4294910269683975e-05 0 0.02493559907483146 8.6861665327773337e-05 0 0.024865724528695395 0.00014287588147662503 0 0.024764156212884827 9.1782612344709481e-05 0 0.024900855277773533 6.4294910269683975e-05 0 0.024865724528695395 0.00014287588147662503 0 0.02483057496556846 0.00023345858934092448 0 0.024880493313634549 0.00021117997642618977 0 0.024865724528695395 0.00014287588147662503 0 0.02483057496556846 0.00023345858934092448 0 0.024761024938547906 0.00021244948461727629 0 0.02483057496556846 0.00023345858934092448 0 0.024762282648647365 0.00031095792401761757 0 0.024761024938547906 0.00021244948461727629 0 0.02483057496556846 0.00023345858934092448 0 0.024880493313634549 0.00021117997642618977 0 0.024853521099607857 0.00029711164592048932 0 0.017243142643756353 0.00017309124139827225 0 0.01772974264181721 0.00030094733096711708 0 0.018099582640434722 -0.00026480022978564021 0 0.021795544634988236 0.000218439609479547 0 0.021829543545004403 -4.8435391184547685e-05 0 0.024880493313634549 0.00021117997642618977 0 0.024910434222425136 0.000201160816528798 0 0.024853521099607857 0.00029711164592048932 0 0.024916914335769966 0.00014336864880222378 0 0.024880493313634549 0.00021117997642618977 0 0.024926279893716059 0.00019211443788235509 0 0.025325845204825007 0.00013496134345562536 0 0.021795544634988236 0.000218439609479547 0 0.01772974264181721 0.00030094733096711708 0 0.018099582640434722 -0.00026480022978564021 0 0.018444795382976841 -0.00017927676385548383 0 0.016950822278965532 0.00019173695942187557 0 0.016999600471694867 0.00026503434681355594 0 0.01691446418735849 0.0002757485410648434 0 0.017090493903942062 0.00022132326675949578 0 0.016950822278965532 0.00019173695942187557 0 0.016999600471694867 0.00026503434681355594 0 0.017027497843390631 0.00031020436867656043 0 0.016999600471694867 0.00026503434681355594 0 0.016949692035500202 0.00031985718926448294 0 0.016999600471694867 0.00026503434681355594 0 0.016949692035500202 0.00031985718926448294 0 0.01691446418735849 0.0002757485410648434 0 0.016866633792661553 0.00033602898251927578 0 0.01691446418735849 0.0002757485410648434 0 0.016821404191995973 0.00026195647177167721 0 0.016949692035500202 0.00031985718926448294 0 0.016866633792661553 0.00033602898251927578 0 0.01691446418735849 0.0002757485410648434 0 0.024853521099607857 0.00029711164592048932 0 0.024762282648647365 0.00031095792401761757 0 0.024728067125172542 0.00043008129377920199 0 0.016950822278965532 0.00019173695942187557 0 0.01691446418735849 0.0002757485410648434 0 0.016821404191995973 0.00026195647177167721 0 0.017056214684023883 2.2569496057067134e-05 0 0.020332379111836288 9.8995758208119739e-05 0 0.021829543545004403 -4.8435391184547685e-05 0 0.020332379111836288 9.8995758208119739e-05 0 0.018099582640434722 -0.00026480022978564021 0 0.018444795382976841 -0.00017927676385548383 0 0.019237669565481046 -0.00077714267784414137 0 0.02483057496556846 0.00023345858934092448 0 0.024853521099607857 0.00029711164592048932 0 0.024762282648647365 0.00031095792401761757 0 0.024762282648647365 0.00031095792401761757 0 0.024642219167323495 0.00033977773980586412 0 0.024761024938547906 0.00021244948461727629 0 0.024762282648647365 0.00031095792401761757 0 0.024728067125172542 0.00043008129377920199 0 0.024642219167323495 0.00033977773980586412 0 0.016788088226387502 0.00036829771544896105 0 0.016866633792661553 0.00033602898251927578 0 0.016821404191995973 0.00026195647177167721 0 0.018402546834433309 0.00060000618466722567 0 0.020332379111836288 9.8995758208119739e-05 0 0.016718181160118476 0.00035547525275334441 0 0.016788088226387502 0.00036829771544896105 0 0.016821404191995973 0.00026195647177167721 0 0.024504136651379248 0.00055198171985306745 0 0.024497756813762192 0.00039522928711609807 0 0.024642219167323495 0.00033977773980586412 0 0.024728067125172542 0.00043008129377920199 0 0.024504136651379248 0.00055198171985306745 0 0.024642219167323495 0.00033977773980586412 0 0.020332379111836288 9.8995758208119739e-05 0 0.023146801034365342 0.00052977594354077797 0 0.02067758274679719 0.00051978037695259594 0 0.02059782312903782 0.00055459907543827826 0 0.020711489989852668 0.00053113878447414429 0 0.024916073501263507 0.00026959917309774738 0 0.024814269050031475 0.00019358565657909223 0 0.024497756813762192 0.00039522928711609807 0 0.024642219167323495 0.00033977773980586412 0 0.024622797867625688 0.00021982338353317583 0 0.025047729269141908 0.00023655727874272183 0 0.02504486785403464 0.00012125253949627094 0 0.025001816848418457 0.00011378159639692216 0 0.024642219167323495 0.00033977773980586412 0 0.024622797867625688 0.00021982338353317583 0 0.024761024938547906 0.00021244948461727629 0 0.024622797867625688 0.00021982338353317583 0 0.024761024938547906 0.00021244948461727629 0 0.024764156212884827 9.1782612344709481e-05 0 0.024865724528695395 0.00014287588147662503 0 0.024761024938547906 0.00021244948461727629 0 0.024764156212884827 9.1782612344709481e-05 0 0.02504486785403464 0.00012125253949627094 0 0.025001816848418457 0.00011378159639692216 0 0.024992384329673881 4.5366996542935871e-05 0 0.024814269050031475 0.00019358565657909223 0 0.024888388124601417 7.3910886930975497e-05 0 0.02504486785403464 0.00012125253949627094 0 0.025012385585451418 4.3061350580551588e-05 0 0.024992384329673881 4.5366996542935871e-05 0 0.025012385585451418 4.3061350580551588e-05 0 0.024981823128672344 2.4005357791170018e-05 0 0.024992384329673881 4.5366996542935871e-05 0 0.025012385585451418 4.3061350580551588e-05 0 0.024930864872439333 2.4970996834968116e-05 0 0.024981823128672344 2.4005357791170018e-05 0 0.024888388124601417 7.3910886930975497e-05 0 0.024919262841699881 3.855211417966209e-05 0 0.024764156212884827 9.1782612344709481e-05 0 0.024930864872439333 2.4970996834968116e-05 0 0.024900855277773533 6.4294910269683975e-05 0 0.024930864872439333 2.4970996834968116e-05 0 0.024981823128672344 2.4005357791170018e-05 0 0.024976005039850233 1.5955192537432387e-05 0 0.024981823128672344 2.4005357791170018e-05 0 0.024992384329673881 4.5366996542935871e-05 0 0.024984121093059034 1.0160911813947355e-05 0 0.024981823128672344 2.4005357791170018e-05 0 0.024976005039850233 1.5955192537432387e-05 0 0.024984121093059034 1.0160911813947355e-05 0 0.024999977829702272 9.5287745020089137e-09 0 0.024976005039850233 1.5955192537432387e-05 0 0.024984121093059034 1.0160911813947355e-05 0 0.024999977829702272 9.5287745020089137e-09 0 0.024976005039850233 1.5955192537432387e-05 0 0.024999962704418739 1.3655743689949249e-08 0 0.024930864872439333 2.4970996834968116e-05 0 0.024976005039850233 1.5955192537432387e-05 0 0.024972129515888782 1.3581748172360529e-05 0 0.024976005039850233 1.5955192537432387e-05 0 0.024999962704418739 1.3655743689949249e-08 0 0.024972129515888782 1.3581748172360529e-05 0 0.024999962704418739 1.3655743689949249e-08 0 0.024999966212535439 3.8787725346996996e-09 0 0.024972129515888782 1.3581748172360529e-05 0 0.024999966212535439 3.8787725346996996e-09 0 0.024972129515888782 1.3581748172360529e-05 0 0.024991752628487011 8.70569091039917e-06 0 0.024972129515888782 1.3581748172360529e-05 0 0.024946306020258029 3.9934839696403204e-05 0 0.024980651626180597 2.5432593904001617e-05 0 0.024930864872439333 2.4970996834968116e-05 0 0.024972129515888782 1.3581748172360529e-05 0 0.024946306020258029 3.9934839696403204e-05 0 0.024930864872439333 2.4970996834968116e-05 0 0.024946306020258029 3.9934839696403204e-05 0 0.024900855277773533 6.4294910269683975e-05 0 0.024946306020258029 3.9934839696403204e-05 0 0.024900855277773533 6.4294910269683975e-05 0 0.02493559907483146 8.6861665327773337e-05 0 0.024946306020258029 3.9934839696403204e-05 0 0.02493559907483146 8.6861665327773337e-05 0 0.024974799952264579 6.0084462391723193e-05 0 0.024974976411627405 0.00012033769021338757 0 0.02493559907483146 8.6861665327773337e-05 0 0.024974799952264579 6.0084462391723193e-05 0 0.024974799952264579 6.0084462391723193e-05 0 0.024996227554716966 7.7446071629220015e-05 0 0.024996028550001305 3.920748668168877e-05 0 0.024974976411627405 0.00012033769021338757 0 0.024974799952264579 6.0084462391723193e-05 0 0.024996227554716966 7.7446071629220015e-05 0 0.024946306020258029 3.9934839696403204e-05 0 0.024974799952264579 6.0084462391723193e-05 0 0.024980651626180597 2.5432593904001617e-05 0 0.024974799952264579 6.0084462391723193e-05 0 0.024996028550001305 3.920748668168877e-05 0 0.024980651626180597 2.5432593904001617e-05 0 0.024972129515888782 1.3581748172360529e-05 0 0.024980651626180597 2.5432593904001617e-05 0 0.024991752628487011 8.70569091039917e-06 0 0.024980651626180597 2.5432593904001617e-05 0 0.024991752628487011 8.70569091039917e-06 0 0.024996966880167153 1.3146412572764236e-05 0 0.024999966212535439 3.8787725346996996e-09 0 0.024991752628487011 8.70569091039917e-06 0 0.025000009668754399 7.3582295807406397e-09 0 0.024991752628487011 8.70569091039917e-06 0 0.025000009668754399 7.3582295807406397e-09 0 0.024996966880167153 1.3146412572764236e-05 0 0.025000009668754399 7.3582295807406397e-09 0 0.024996966880167153 1.3146412572764236e-05 0 0.025002009779163305 7.0439905457110407e-06 0 0.024996028550001305 3.920748668168877e-05 0 0.024980651626180597 2.5432593904001617e-05 0 0.024996966880167153 1.3146412572764236e-05 0 0.024996028550001305 3.920748668168877e-05 0 0.024996966880167153 1.3146412572764236e-05 0 0.025012364509307286 1.9137821273298815e-05 0 0.024996966880167153 1.3146412572764236e-05 0 0.025012364509307286 1.9137821273298815e-05 0 0.025002009779163305 7.0439905457110407e-06 0 0.025012364509307286 1.9137821273298815e-05 0 0.025002009779163305 7.0439905457110407e-06 0 0.025000225844773124 1.0550992358352273e-07 0 0.025107236268227404 6.2596165239292242e-05 0 0.024982652397527057 -2.1091122027604359e-05 0 0.025000009668754399 7.3582295807406397e-09 0 0.025000225844773124 1.0550992358352273e-07 0 0.02499998391176235 -4.6634684564949524e-09 0 0.025000009668754399 7.3582295807406397e-09 0 0.025002009779163305 7.0439905457110407e-06 0 0.025000225844773124 1.0550992358352273e-07 0 0.024987291548598353 -7.9612437415221275e-06 0 0.025000225844773124 1.0550992358352273e-07 0 0.024990605470175585 -3.9883710415832992e-06 0 0.025000225844773124 1.0550992358352273e-07 0 0.02499998391176235 -4.6634684564949524e-09 0 0.024990605470175585 -3.9883710415832992e-06 0 0.02498899473089692 -3.1180109079677672e-06 0 0.02499998391176235 -4.6634684564949524e-09 0 0.024990605470175585 -3.9883710415832992e-06 0 0.024979801067810704 -1.0542525674588111e-05 0 0.024990605470175585 -3.9883710415832992e-06 0 0.024974032339452307 -2.0790929328108777e-05 0 0.025123041280325057 8.3092507631273086e-05 0 0.024191806451450987 -0.00021737376178140158 0 0.024979801067810704 -1.0542525674588111e-05 0 0.02498899473089692 -3.1180109079677672e-06 0 0.024990605470175585 -3.9883710415832992e-06 0 0.024987291548598353 -7.9612437415221275e-06 0 0.024990605470175585 -3.9883710415832992e-06 0 0.024972934845016208 -1.4406968070645596e-05 0 0.024973156322758233 -1.7360729560852987e-05 0 0.024979801067810704 -1.0542525674588111e-05 0 0.024974032339452307 -2.0790929328108777e-05 0 0.024987291548598353 -7.9612437415221275e-06 0 0.024972934845016208 -1.4406968070645596e-05 0 0.024970656105058425 -1.9019041105831153e-05 0 0.024973156322758233 -1.7360729560852987e-05 0 0.024974032339452307 -2.0790929328108777e-05 0 0.024970261956074855 -2.0796920801931989e-05 0 0.024961098568394329 -2.8366948929193496e-05 0 0.024974032339452307 -2.0790929328108777e-05 0 0.024970261956074855 -2.0796920801931989e-05 0 0.024191806451450987 -0.00021737376178140158 0 0.023659565029569181 -0.00021553152075704971 0 0.024996028550001305 3.920748668168877e-05 0 0.025012364509307286 1.9137821273298815e-05 0 0.025012451285564927 5.087975830600459e-05 0 0.025107236268227404 6.2596165239292242e-05 0 0.023659565029569181 -0.00021553152075704971 0 0.02188333738635314 -0.00029237670942365167 0 0.021691678018357245 -0.00035502160301908612 0 0.021893643554954309 -0.00051049853246065702 0 0.024996227554716966 7.7446071629220015e-05 0 0.024996028550001305 3.920748668168877e-05 0 0.025012451285564927 5.087975830600459e-05 0 0.02237877198684151 -0.00029166786046945834 0 0.023659565029569181 -0.00021553152075704971 0 0.023284635328502244 -9.9439372773092472e-05 0 0.023659565029569181 -0.00021553152075704971 0 0.022970356155440332 -0.00044661085737748065 0 0.022871023616177273 -0.00037290301540460609 0 0.022961888917077362 -0.00027102638123631764 0 0.022862094343361967 -0.0002320251606881632 0 0.022871023616177273 -0.00037290301540460609 0 0.022961888917077362 -0.00027102638123631764 0 0.024191806451450987 -0.00021737376178140158 0 0.024041789129942169 -0.00014935585374023942 0 0.024961098568394329 -2.8366948929193496e-05 0 0.024974032339452307 -2.0790929328108777e-05 0 0.024950949573142367 -3.8732137764644142e-05 0 0.024785189464095685 5.9322073129475104e-05 0 0.024578837265487121 5.3716841410551183e-05 0 0.024645472791537379 0.00025769534249035656 0 0.024785189464095685 5.9322073129475104e-05 0 0.024660321576357606 -7.0036818588091102e-05 0 0.024578837265487121 5.3716841410551183e-05 0 0.024785189464095685 5.9322073129475104e-05 0 0.024854217448595083 6.4233569500000401e-05 0 0.024864443852590901 1.6307897244261911e-06 0 0.024785189464095685 5.9322073129475104e-05 0 0.024864443852590901 1.6307897244261911e-06 0 0.024790794731046489 -2.8887451504363969e-05 0 0.024785189464095685 5.9322073129475104e-05 0 0.024660321576357606 -7.0036818588091102e-05 0 0.024790794731046489 -2.8887451504363969e-05 0 0.024660321576357606 -7.0036818588091102e-05 0 0.024541451416943246 -0.0001145674408972154 0 0.02439329181930058 -0.00015304733813258206 0 0.024660321576357606 -7.0036818588091102e-05 0 0.024541451416943246 -0.0001145674408972154 0 0.024682308800294237 -0.00015744122604072496 0 0.024541451416943246 -0.0001145674408972154 0 0.02439329181930058 -0.00015304733813258206 0 0.024554768454013453 -0.00012497416503521089 0 0.024660321576357606 -7.0036818588091102e-05 0 0.02439329181930058 -0.00015304733813258206 0 0.024578837265487121 5.3716841410551183e-05 0 0.02439329181930058 -0.00015304733813258206 0 0.024578837265487121 5.3716841410551183e-05 0 0.024391796505829271 0.00032532622310512359 0 0.024578837265487121 5.3716841410551183e-05 0 0.024391796505829271 0.00032532622310512359 0 0.024645472791537379 0.00025769534249035656 0 0.02439329181930058 -0.00015304733813258206 0 0.024391796505829271 0.00032532622310512359 0 0.024002803807476627 0.00030791218597832874 0 0.024391796505829271 0.00032532622310512359 0 0.023933946763649839 0.00076885421350976631 0 0.024002803807476627 0.00030791218597832874 0 0.02444675671960814 0.00063064630068027062 0 0.024391796505829271 0.00032532622310512359 0 0.023933946763649839 0.00076885421350976631 0 0.02444675671960814 0.00063064630068027062 0 0.024391796505829271 0.00032532622310512359 0 0.024645472791537379 0.00025769534249035656 0 0.02444675671960814 0.00063064630068027062 0 0.024645472791537379 0.00025769534249035656 0 0.024688213624733092 0.0004066686159918284 0 0.024785189464095685 5.9322073129475104e-05 0 0.024645472791537379 0.00025769534249035656 0 0.024783431750348379 0.00024952380217463908 0 0.024645472791537379 0.00025769534249035656 0 0.024783431750348379 0.00024952380217463908 0 0.024688213624733092 0.0004066686159918284 0 0.024783431750348379 0.00024952380217463908 0 0.024688213624733092 0.0004066686159918284 0 0.02478877432923856 0.00038779951532734881 0 0.024783431750348379 0.00024952380217463908 0 0.02478877432923856 0.00038779951532734881 0 0.024866493100963939 0.00026158257038897407 0 0.024880968174952077 0.00036794871480809135 0 0.024866493100963939 0.00026158257038897407 0 0.024934398349927243 0.00026436545135528233 0 0.02478877432923856 0.00038779951532734881 0 0.024880968174952077 0.00036794871480809135 0 0.024866493100963939 0.00026158257038897407 0 0.024866493100963939 0.00026158257038897407 0 0.024934398349927243 0.00026436545135528233 0 0.024923194183457273 0.00016366206002629938 0 0.024866493100963939 0.00026158257038897407 0 0.024864306923785252 0.00015666197200814124 0 0.024923194183457273 0.00016366206002629938 0 0.024783431750348379 0.00024952380217463908 0 0.024866493100963939 0.00026158257038897407 0 0.024864306923785252 0.00015666197200814124 0 0.024387333802865258 0.0006045093700169918 0 0.024504136651379248 0.00055198171985306745 0 0.024497756813762192 0.00039522928711609807 0 0.025013898481527689 0.00037580208576677043 0 0.025047729269141908 0.00023655727874272183 0 0.024985373215205671 0.00028072550065032638 0 0.023351251768068664 0.00046049711765141832 0 0.024916073501263507 0.00026959917309774738 0 0.025013898481527689 0.00037580208576677043 0 0.024985373215205671 0.00028072550065032638 0 0.024952917728221675 0.00034447883265775796 0 0.024985373215205671 0.00028072550065032638 0 0.024952917728221675 0.00034447883265775796 0 0.024934398349927243 0.00026436545135528233 0 0.024880968174952077 0.00036794871480809135 0 0.024952917728221675 0.00034447883265775796 0 0.024934398349927243 0.00026436545135528233 0 0.024975086431329223 0.00018559408335680285 0 0.024934398349927243 0.00026436545135528233 0 0.024923194183457273 0.00016366206002629938 0 0.024985373215205671 0.00028072550065032638 0 0.024975086431329223 0.00018559408335680285 0 0.024934398349927243 0.00026436545135528233 0 0.025047729269141908 0.00023655727874272183 0 0.024985373215205671 0.00028072550065032638 0 0.024975086431329223 0.00018559408335680285 0 0.025047729269141908 0.00023655727874272183 0 0.024975086431329223 0.00018559408335680285 0 0.025001816848418457 0.00011378159639692216 0 0.024975086431329223 0.00018559408335680285 0 0.025001816848418457 0.00011378159639692216 0 0.024960576196870164 8.3876633371678748e-05 0 0.024975086431329223 0.00018559408335680285 0 0.024960576196870164 8.3876633371678748e-05 0 0.024923194183457273 0.00016366206002629938 0 0.024960576196870164 8.3876633371678748e-05 0 0.024907490168491725 5.860934893410935e-05 0 0.024956135586298108 1.434354108441223e-05 0 0.025001816848418457 0.00011378159639692216 0 0.024960576196870164 8.3876633371678748e-05 0 0.024992384329673881 4.5366996542935871e-05 0 0.024785189464095685 5.9322073129475104e-05 0 0.024783431750348379 0.00024952380217463908 0 0.024864306923785252 0.00015666197200814124 0 0.024864306923785252 0.00015666197200814124 0 0.024907490168491725 5.860934893410935e-05 0 0.024854217448595083 6.4233569500000401e-05 0 0.024785189464095685 5.9322073129475104e-05 0 0.024864306923785252 0.00015666197200814124 0 0.024854217448595083 6.4233569500000401e-05 0 0.024960576196870164 8.3876633371678748e-05 0 0.024923194183457273 0.00016366206002629938 0 0.024907490168491725 5.860934893410935e-05 0 0.024864306923785252 0.00015666197200814124 0 0.024923194183457273 0.00016366206002629938 0 0.024907490168491725 5.860934893410935e-05 0 0.024907490168491725 5.860934893410935e-05 0 0.024854217448595083 6.4233569500000401e-05 0 0.024864443852590901 1.6307897244261911e-06 0 0.024907490168491725 5.860934893410935e-05 0 0.024864443852590901 1.6307897244261911e-06 0 0.024917674296278225 1.1973481404435638e-05 0 0.024907490168491725 5.860934893410935e-05 0 0.024917674296278225 1.1973481404435638e-05 0 0.024956135586298108 1.434354108441223e-05 0 0.024956135586298108 1.434354108441223e-05 0 0.024975581535273191 -1.5676825848084148e-06 0 0.024941045075110711 -1.5245655769480134e-05 0 0.024917674296278225 1.1973481404435638e-05 0 0.024956135586298108 1.434354108441223e-05 0 0.024941045075110711 -1.5245655769480134e-05 0 0.024864443852590901 1.6307897244261911e-06 0 0.024941045075110711 -1.5245655769480134e-05 0 0.024881119754034942 -2.5506710462882104e-05 0 0.024864443852590901 1.6307897244261911e-06 0 0.024917674296278225 1.1973481404435638e-05 0 0.024941045075110711 -1.5245655769480134e-05 0 0.024992384329673881 4.5366996542935871e-05 0 0.024956135586298108 1.434354108441223e-05 0 0.024984121093059034 1.0160911813947355e-05 0 0.024960576196870164 8.3876633371678748e-05 0 0.024992384329673881 4.5366996542935871e-05 0 0.024956135586298108 1.434354108441223e-05 0 0.024956135586298108 1.434354108441223e-05 0 0.024984121093059034 1.0160911813947355e-05 0 0.024975581535273191 -1.5676825848084148e-06 0 0.024999977829702272 9.5287745020089137e-09 0 0.024984121093059034 1.0160911813947355e-05 0 0.024975581535273191 -1.5676825848084148e-06 0 0.024999977829702272 9.5287745020089137e-09 0 0.024975581535273191 -1.5676825848084148e-06 0 0.02499996920316688 -9.7897586920052658e-09 0 0.024941045075110711 -1.5245655769480134e-05 0 0.024999922054736258 -1.8293325952101543e-08 0 0.024944042367742739 -1.7171644881795143e-05 0 0.024975581535273191 -1.5676825848084148e-06 0 0.02499996920316688 -9.7897586920052658e-09 0 0.024941045075110711 -1.5245655769480134e-05 0 0.02499996920316688 -9.7897586920052658e-09 0 0.024941045075110711 -1.5245655769480134e-05 0 0.024999922054736258 -1.8293325952101543e-08 0 0.024999922054736258 -1.8293325952101543e-08 0 0.024999889769032935 -2.3788095632347323e-08 0 0.024944042367742739 -1.7171644881795143e-05 0 0.02499995396898964 -1.8562961977870543e-08 0 0.024892786007040743 -3.8924081120020005e-05 0 0.024999889769032935 -2.3788095632347323e-08 0 0.024913409192639464 -2.4298672700955368e-05 0 0.024944042367742739 -1.7171644881795143e-05 0 0.024913409192639464 -2.4298672700955368e-05 0 0.024944042367742739 -1.7171644881795143e-05 0 0.024881119754034942 -2.5506710462882104e-05 0 0.024941045075110711 -1.5245655769480134e-05 0 0.024944042367742739 -1.7171644881795143e-05 0 0.024881119754034942 -2.5506710462882104e-05 0 0.024892786007040743 -3.8924081120020005e-05 0 0.024783206991033126 -7.3613129895646053e-05 0 0.024913409192639464 -2.4298672700955368e-05 0 0.024881119754034942 -2.5506710462882104e-05 0 0.024812809285286119 -3.6775863713895997e-05 0 0.024660321576357606 -7.0036818588091102e-05 0 0.024790794731046489 -2.8887451504363969e-05 0 0.024812809285286119 -3.6775863713895997e-05 0 0.024881119754034942 -2.5506710462882104e-05 0 0.024790794731046489 -2.8887451504363969e-05 0 0.024812809285286119 -3.6775863713895997e-05 0 0.024864443852590901 1.6307897244261911e-06 0 0.024881119754034942 -2.5506710462882104e-05 0 0.024790794731046489 -2.8887451504363969e-05 0 0.024541451416943246 -0.0001145674408972154 0 0.024682308800294237 -0.00015744122604072496 0 0.024553064567769851 -0.00015895119465195973 0 0.024660321576357606 -7.0036818588091102e-05 0 0.024682308800294237 -0.00015744122604072496 0 0.024763338784268916 -0.00011647169317522411 0 0.024687290276095578 -6.4497860393815075e-05 0 0.024783206991033126 -7.3613129895646053e-05 0 0.024869555426528609 -4.7479865291306127e-05 0 0.024763338784268916 -0.00011647169317522411 0 0.024833292964746359 -7.4297461130390312e-05 0 0.024763338784268916 -0.00011647169317522411 0 0.024833292964746359 -7.4297461130390312e-05 0 0.024782730959081182 -0.00010197372568632811 0 0.024682308800294237 -0.00015744122604072496 0 0.024763338784268916 -0.00011647169317522411 0 0.024782730959081182 -0.00010197372568632811 0 0.024833292964746359 -7.4297461130390312e-05 0 0.024782730959081182 -0.00010197372568632811 0 0.024875301125602441 -5.2093346110998562e-05 0 0.024682308800294237 -0.00015744122604072496 0 0.024782730959081182 -0.00010197372568632811 0 0.024837621277749848 -9.1646123169257491e-05 0 0.024782730959081182 -0.00010197372568632811 0 0.024875301125602441 -5.2093346110998562e-05 0 0.024837621277749848 -9.1646123169257491e-05 0 0.024875301125602441 -5.2093346110998562e-05 0 0.024920942617018705 -2.659887971903855e-05 0 0.024939659691056215 -2.0522179456376277e-05 0 0.024875301125602441 -5.2093346110998562e-05 0 0.024939659691056215 -2.0522179456376277e-05 0 0.024928704759684159 -3.0520542586823371e-05 0 0.024833292964746359 -7.4297461130390312e-05 0 0.024875301125602441 -5.2093346110998562e-05 0 0.024920942617018705 -2.659887971903855e-05 0 0.024869555426528609 -4.7479865291306127e-05 0 0.024833292964746359 -7.4297461130390312e-05 0 0.024920942617018705 -2.659887971903855e-05 0 0.024999845671461726 -1.6132933835778591e-08 0 0.024869555426528609 -4.7479865291306127e-05 0 0.024920942617018705 -2.659887971903855e-05 0 0.024999845671461726 -1.6132933835778591e-08 0 0.024920942617018705 -2.659887971903855e-05 0 0.024999884546350028 -1.3706790339758779e-08 0 0.024939659691056215 -2.0522179456376277e-05 0 0.024999884546350028 -1.3706790339758779e-08 0 0.024962728464368786 -1.1774254965811909e-05 0 0.024920942617018705 -2.659887971903855e-05 0 0.024939659691056215 -2.0522179456376277e-05 0 0.024999884546350028 -1.3706790339758779e-08 0 0.024999884546350028 -1.3706790339758779e-08 0 0.024999937949424157 -5.0807468205940738e-09 0 0.024962728464368786 -1.1774254965811909e-05 0 0.024999937949424157 -5.0807468205940738e-09 0 0.024962728464368786 -1.1774254965811909e-05 0 0.024967682240857474 -1.70763773745744e-05 0 0.024998008559398197 -5.8115001141556667e-08 0 0.024999996240295457 -2.3105215514025848e-10 0 0.024997312098430962 1.9795227340089999e-07 0 0.024999997518201894 8.6587205454730862e-11 0 0.024998008559398197 -5.8115001141556667e-08 0 0.024999996240295457 -2.3105215514025848e-10 0 0.02499999090416602 -1.1208730245129243e-08 0 0.024973570988675326 9.6425148241022843e-06 0 0.024967682240857474 -1.70763773745744e-05 0 0.024949272875783978 -3.1884419928238119e-05 0 0.024965516858333679 -5.4959963050616935e-05 0 0.024973570988675326 9.6425148241022843e-06 0 0.024716133668032759 -0.00022596674662487222 0 0.024998008559398197 -5.8115001141556667e-08 0 0.024997312098430962 1.9795227340089999e-07 0 0.024995704461206969 -8.5500220374630624e-07 0 0.024949272875783978 -3.1884419928238119e-05 0 0.024949649019882569 -5.5221105509301422e-05 0 0.024965516858333679 -5.4959963050616935e-05 0 0.024907259247872515 -5.3818892190449828e-05 0 0.024949272875783978 -3.1884419928238119e-05 0 0.024949649019882569 -5.5221105509301422e-05 0 0.024907259247872515 -5.3818892190449828e-05 0 0.024928704759684159 -3.0520542586823371e-05 0 0.024949272875783978 -3.1884419928238119e-05 0 0.024875301125602441 -5.2093346110998562e-05 0 0.024907259247872515 -5.3818892190449828e-05 0 0.024928704759684159 -3.0520542586823371e-05 0 0.024962728464368786 -1.1774254965811909e-05 0 0.024928704759684159 -3.0520542586823371e-05 0 0.024949272875783978 -3.1884419928238119e-05 0 0.024939659691056215 -2.0522179456376277e-05 0 0.024962728464368786 -1.1774254965811909e-05 0 0.024928704759684159 -3.0520542586823371e-05 0 0.024962728464368786 -1.1774254965811909e-05 0 0.024967682240857474 -1.70763773745744e-05 0 0.024949272875783978 -3.1884419928238119e-05 0 0.02499798029485318 1.4986813939599504e-06 0 0.024999996240295457 -2.3105215514025848e-10 0 0.024999996171698669 4.4027952594841211e-09 0 0.02499798029485318 1.4986813939599504e-06 0 0.024999996240295457 -2.3105215514025848e-10 0 0.024997079175514404 7.8033494564761978e-07 0 0.024999996240295457 -2.3105215514025848e-10 0 0.024997312098430962 1.9795227340089999e-07 0 0.024997079175514404 7.8033494564761978e-07 0 0.024997312098430962 1.9795227340089999e-07 0 0.024996045677610039 2.3995120761144012e-07 0 0.024995704461206969 -8.5500220374630624e-07 0 0.024996045677610039 2.3995120761144012e-07 0 0.024994594469920469 4.355919005142578e-07 0 0.024995704461206969 -8.5500220374630624e-07 0 0.024997312098430962 1.9795227340089999e-07 0 0.024996045677610039 2.3995120761144012e-07 0 0.024997079175514404 7.8033494564761978e-07 0 0.024996045677610039 2.3995120761144012e-07 0 0.024994594469920469 4.355919005142578e-07 0 0.024995905430219584 7.426302010223106e-07 0 0.024995905430219584 7.426302010223106e-07 0 0.024997079175514404 7.8033494564761978e-07 0 0.024996068849676301 1.3443202859170432e-06 0 0.024996045677610039 2.3995120761144012e-07 0 0.024995905430219584 7.426302010223106e-07 0 0.024997079175514404 7.8033494564761978e-07 0 0.02499798029485318 1.4986813939599504e-06 0 0.024997079175514404 7.8033494564761978e-07 0 0.024996068849676301 1.3443202859170432e-06 0 0.024996068849676301 1.3443202859170432e-06 0 0.024996023282925495 2.602401959799975e-06 0 0.02499444096985504 6.1262168928452713e-07 0 0.024994594469920469 4.355919005142578e-07 0 0.024995905430219584 7.426302010223106e-07 0 0.024996068849676301 1.3443202859170432e-06 0 0.024994594469920469 4.355919005142578e-07 0 0.024996068849676301 1.3443202859170432e-06 0 0.02499444096985504 6.1262168928452713e-07 0 0.024996023282925495 2.602401959799975e-06 0 0.02499444096985504 6.1262168928452713e-07 0 0.024994514001478195 3.1096836900972571e-06 0 0.02499798029485318 1.4986813939599504e-06 0 0.024996068849676301 1.3443202859170432e-06 0 0.024996023282925495 2.602401959799975e-06 0 0.02499798029485318 1.4986813939599504e-06 0 0.024996023282925495 2.602401959799975e-06 0 0.024997454236931702 3.3187453964465833e-06 0 0.024247678414582096 -0.00023792924265466067 0 0.024233521427786515 -0.00022507112767975335 0 0.024265673411327817 -0.00022418576921022238 0 0.024495246659669321 -0.00028133741229171986 0 0.024509219615067423 -6.051836176996064e-05 0 0.023741164411632616 -0.00048412266344185215 0 0.024509219615067423 -6.051836176996064e-05 0 0.023741164411632616 -0.00048412266344185215 0 0.024495246659669321 -0.00028133741229171986 0 0.024551220421908194 -0.00028318946122683595 0 0.024495246659669321 -0.00028133741229171986 0 0.024495246659669321 -0.00028133741229171986 0 0.024716133668032759 -0.00022596674662487222 0 0.023741164411632616 -0.00048412266344185215 0 0.023418103990701718 -0.0011730206899293765 0 0.024120901359323037 -0.00058820740780043599 0 0.024123647439778743 -0.00058915912322853275 0 0.024124900315057339 -0.00058867070399029131 0 0.024123647439778743 -0.00058915912322853275 0 0.024124900315057339 -0.00058867070399029131 0 0.0241307395304214 -0.00058802431456105269 0 0.024120901359323037 -0.00058820740780043599 0 0.024124900315057339 -0.00058867070399029131 0 0.024123136251381697 -0.00058936123144577959 0 0.024994594469920469 4.355919005142578e-07 0 0.024994150058794014 3.9465150875240525e-07 0 0.024995704461206969 -8.5500220374630624e-07 0 0.023418103990701718 -0.0011730206899293765 0 0.022055433953165837 -0.001902714184103456 0 0.022714588903471361 -0.002609404761477961 0 0.021579609596519403 -0.0026090713932266645 0 0.022318899390621018 -0.0018472340003208515 0 0.024124900315057339 -0.00058867070399029131 0 0.024123136251381697 -0.00058936123144577959 0 0.02412405289353892 -0.00058907942836201204 0 0.023418103990701718 -0.0011730206899293765 0 0.023619820644003212 -0.0011740732977958777 0 0.022714588903471361 -0.002609404761477961 0 0.022929881072332091 -0.0024521055850782471 0 0.022318899390621018 -0.0018472340003208515 0 0.022777860846666213 -0.0015153747711815282 0 0.023304696967262124 -0.0011356590316987669 0 0.022819546843877117 -0.0011312707837771686 0 0.022777860846666213 -0.0015153747711815282 0 0.022819546843877117 -0.0011312707837771686 0 0.022330956963669109 -0.0011295354716905021 0 0.02491354455966294 -9.6249386333103481e-05 0 0.02495753900045861 -0.00012161107676428456 0 0.024906606039006168 -0.00018861665493012853 0 0.02491354455966294 -9.6249386333103481e-05 0 0.024837621277749848 -9.1646123169257491e-05 0 0.024906606039006168 -0.00018861665493012853 0 0.024875301125602441 -5.2093346110998562e-05 0 0.024907259247872515 -5.3818892190449828e-05 0 0.024837621277749848 -9.1646123169257491e-05 0 0.024907259247872515 -5.3818892190449828e-05 0 0.02491354455966294 -9.6249386333103481e-05 0 0.024837621277749848 -9.1646123169257491e-05 0 0.024907259247872515 -5.3818892190449828e-05 0 0.02491354455966294 -9.6249386333103481e-05 0 0.024949649019882569 -5.5221105509301422e-05 0 0.02491354455966294 -9.6249386333103481e-05 0 0.024949649019882569 -5.5221105509301422e-05 0 0.02495753900045861 -0.00012161107676428456 0 0.024716133668032759 -0.00022596674662487222 0 0.02408114325749568 -0.00071671047100483763 0 0.024124900315057339 -0.00058867070399029131 0 0.0241307395304214 -0.00058802431456105269 0 0.02412405289353892 -0.00058907942836201204 0 0.024979123003059465 -5.612310693634104e-05 0 0.02495753900045861 -0.00012161107676428456 0 0.025010700159257701 -0.00018494286542676506 0 0.024949649019882569 -5.5221105509301422e-05 0 0.024979123003059465 -5.612310693634104e-05 0 0.02495753900045861 -0.00012161107676428456 0 0.024891952235138771 -0.00017937272222164047 0 0.024716133668032759 -0.00022596674662487222 0 0.024493070926994424 -0.00016200576794318062 0 0.024553064567769851 -0.00015895119465195973 0 0.024554768454013453 -0.00012497416503521089 0 0.024495293462167573 -0.00017011833446908467 0 0.024493070926994424 -0.00016200576794318062 0 0.024553064567769851 -0.00015895119465195973 0 0.02408114325749568 -0.00071671047100483763 0 0.024851582279741831 -0.0001632277765510394 0 0.02495753900045861 -0.00012161107676428456 0 0.025010700159257701 -0.00018494286542676506 0 0.024906606039006168 -0.00018861665493012853 0 0.023418103990701718 -0.0011730206899293765 0 0.02408114325749568 -0.00071671047100483763 0 0.023626911663945257 -0.00092094627346319248 0 0.023850488737543557 -0.00092270159714586048 0 0.023811956852266714 -0.00078735003901534524 0 0.02408114325749568 -0.00071671047100483763 0 0.023619820644003212 -0.0011740732977958777 0 0.024682308800294237 -0.00015744122604072496 0 0.024837621277749848 -9.1646123169257491e-05 0 0.024906606039006168 -0.00018861665493012853 0 0.024647092535040764 -0.00016246345435936524 0 0.024851582279741831 -0.0001632277765510394 0 0.024541451416943246 -0.0001145674408972154 0 0.024553064567769851 -0.00015895119465195973 0 0.024554768454013453 -0.00012497416503521089 0 0.02436109336601909 -0.00021690783807880819 0 0.024119820030838242 -0.00045270365831730274 0 0.02439329181930058 -0.00015304733813258206 0 0.023625545133366777 -0.00091570474140541887 0 0.023389451821124636 -0.00039919560699109121 0 0.02439329181930058 -0.00015304733813258206 0 0.023389451821124636 -0.00039919560699109121 0 0.02366844504505896 5.8571523305634888e-05 0 0.023389451821124636 -0.00039919560699109121 0 0.022598300091003068 -0.00050452046828626486 0 0.023068017740329908 0.0001361948108273073 0 0.023389451821124636 -0.00039919560699109121 0 0.02366844504505896 5.8571523305634888e-05 0 0.023068017740329908 0.0001361948108273073 0 0.023389451821124636 -0.00039919560699109121 0 0.023092361841381286 -0.00084829487569313918 0 0.022598300091003068 -0.00050452046828626486 0 0.022899045996447754 -0.0014454130879582834 0 0.023092361841381286 -0.00084829487569313918 0 0.022598300091003068 -0.00050452046828626486 0 0.023619820644003212 -0.0011740732977958777 0 0.024119820030838242 -0.00045270365831730274 0 0.022899045996447754 -0.0014454130879582834 0 0.023625545133366777 -0.00091570474140541887 0 0.023092361841381286 -0.00084829487569313918 0 0.023625545133366777 -0.00091570474140541887 0 0.023389451821124636 -0.00039919560699109121 0 0.023092361841381286 -0.00084829487569313918 0 0.023619820644003212 -0.0011740732977958777 0 0.022476773016068315 -0.00089082078045925426 0 0.022318899390621018 -0.0018472340003208515 0 0.022519211203723754 -0.0010086390825792741 0 0.021005306172373641 -0.0011622102943445135 0 0.022929881072332091 -0.0024521055850782471 0 0.022318899390621018 -0.0018472340003208515 0 0.022519211203723754 -0.0010086390825792741 0 0.021579609596519403 -0.0026090713932266645 0 0.022318899390621018 -0.0018472340003208515 0 0.021005306172373641 -0.0011622102943445135 0 0.021697148946899211 -0.00046056712306640055 0 0.022519211203723754 -0.0010086390825792741 0 0.021005306172373641 -0.0011622102943445135 0 0.021697148946899211 -0.00046056712306640055 0 0.022519211203723754 -0.0010086390825792741 0 0.022118757176571704 0.00043539016718669116 0 0.022476773016068315 -0.00089082078045925426 0 0.02216320514522245 0.00044186006594130767 0 0.022118757176571704 0.00043539016718669116 0 0.022926475430548227 0.00081288313181158566 0 0.023068017740329908 0.0001361948108273073 0 0.022598300091003068 -0.00050452046828626486 0 0.022118757176571704 0.00043539016718669116 0 0.023068017740329908 0.0001361948108273073 0 0.021697148946899211 -0.00046056712306640055 0 0.022118757176571704 0.00043539016718669116 0 0.021475657684749776 0.00052178937216307752 0 0.011691208863106047 -0.0013435181746993422 0 0.011687017630477286 -0.00057267748570136005 0 0.011011027646242165 -0.00066576920661703671 0 0.011691208863106047 -0.0013435181746993422 0 0.012460143444346131 -0.00052421705336069097 0 0.011687017630477286 -0.00057267748570136005 0 0.016543552581611096 -0.00042437148328409297 0 0.017957907932174638 -0.00015457627482878057 0 0.022118757176571704 0.00043539016718669116 0 0.021475657684749776 0.00052178937216307752 0 0.022926475430548227 0.00081288313181158566 0 0.011691208863106047 -0.0013435181746993422 0 0.012972961142952278 -0.0011087668908671367 0 0.012460143444346131 -0.00052421705336069097 0 0.012972961142952278 -0.0011087668908671367 0 0.013235566733822065 -0.00035568551683722304 0 0.012460143444346131 -0.00052421705336069097 0 0.012972961142952278 -0.0011087668908671367 0 0.014810601543593932 -0.00070070185616984734 0 0.013235566733822065 -0.00035568551683722304 0 0.022926475430548227 0.00081288313181158566 0 0.023933946763649839 0.00076885421350976631 0 0.023547386942277447 0.00043057430127615265 0 0.023933946763649839 0.00076885421350976631 0 0.023547386942277447 0.00043057430127615265 0 0.024002803807476627 0.00030791218597832874 0 0.017957907932174638 -0.00015457627482878057 0 0.019358925790242197 4.0367762731641011e-05 0 0.023547386942277447 0.00043057430127615265 0 0.024002803807476627 0.00030791218597832874 0 0.02366844504505896 5.8571523305634888e-05 0 0.02439329181930058 -0.00015304733813258206 0 0.024002803807476627 0.00030791218597832874 0 0.02366844504505896 5.8571523305634888e-05 0 0.023547386942277447 0.00043057430127615265 0 0.02366844504505896 5.8571523305634888e-05 0 0.023068017740329908 0.0001361948108273073 0 0.022926475430548227 0.00081288313181158566 0 0.023547386942277447 0.00043057430127615265 0 0.023068017740329908 0.0001361948108273073 0 0.010565246563276044 -0.0014752555121820719 0 0.009912424529678875 -0.0014854045597679705 0 0.010023064900855871 -0.00073466050382025997 0 0.009620533590891673 -0.0009581734502139798 0 0.009912424529678875 -0.0014854045597679705 0 0.010023064900855871 -0.00073466050382025997 0 0.009620533590891673 -0.0009581734502139798 0 0.009912424529678875 -0.0014854045597679705 0 0.0094819385667838513 -0.0016109375885605772 0 0.015428203377183779 -0.00065407715328109927 0 0.013284349557522888 -0.0011805710796881912 0 0.010565246563276044 -0.0014752555121820719 0 0.011011027646242165 -0.00066576920661703671 0 0.010023064900855871 -0.00073466050382025997 0 0.011691208863106047 -0.0013435181746993422 0 0.010565246563276044 -0.0014752555121820719 0 0.011011027646242165 -0.00066576920661703671 0 0.021697148946899211 -0.00046056712306640055 0 0.021475657684749776 0.00052178937216307752 0 0.019871279856577259 4.8959070482642749e-05 0 0.016543552581611096 -0.00042437148328409297 0 0.015428203377183779 -0.00065407715328109927 0 0.019871279856577259 4.8959070482642749e-05 0 0.019593531818466795 -0.00085876314994656462 0 0.01836135780047219 -0.00040539942560213158 0 0.019593531818466795 -0.00085876314994656462 0 0.019539898950615791 -0.0018130724899250948 0 0.018672297828540567 -0.0010208739432829175 0 0.021697148946899211 -0.00046056712306640055 0 0.019871279856577259 4.8959070482642749e-05 0 0.021005306172373641 -0.0011622102943445135 0 0.019871279856577259 4.8959070482642749e-05 0 0.019593531818466795 -0.00085876314994656462 0 0.021005306172373641 -0.0011622102943445135 0 0.021579609596519403 -0.0026090713932266645 0 0.021005306172373641 -0.0011622102943445135 0 0.020433893489052921 -0.0018110590991289078 0 0.019593531818466795 -0.00085876314994656462 0 0.021005306172373641 -0.0011622102943445135 0 0.020433893489052921 -0.0018110590991289078 0 0.020433893489052921 -0.0018110590991289078 0 0.019539898950615791 -0.0018130724899250948 0 0.020439119239270425 -0.0026051217169741885 0 0.019593531818466795 -0.00085876314994656462 0 0.020433893489052921 -0.0018110590991289078 0 0.019539898950615791 -0.0018130724899250948 0 0.019698617309884009 -0.0018411931807541606 0 0.018861378008924515 -0.0018327111092717651 0 0.019137377919864317 -0.0027005482820989329 0 0.018861378008924515 -0.0018327111092717651 0 0.01795854865012473 -0.0017787868614025247 0 0.019137377919864317 -0.0027005482820989329 0 0.018861378008924515 -0.0018327111092717651 0 0.018672297828540567 -0.0010208739432829175 0 0.01795854865012473 -0.0017787868614025247 0 0.019698617309884009 -0.0018411931807541606 0 0.018861378008924515 -0.0018327111092717651 0 0.018672297828540567 -0.0010208739432829175 0 0.019513066870983076 -0.0018410199700386242 0 0.018784409515958882 -0.0010985609458654974 0 0.019593531818466795 -0.00085876314994656462 0 0.01836135780047219 -0.00040539942560213158 0 0.018672297828540567 -0.0010208739432829175 0 0.01836135780047219 -0.00040539942560213158 0 0.017711803566876506 -0.00094249570093849324 0 0.016855394306753788 -0.00091224837970521177 0 0.013284349557522888 -0.0011805710796881912 0 0.017181130148871741 -0.00044551652477620434 0 0.01836135780047219 -0.00040539942560213158 0 0.018672297828540567 -0.0010208739432829175 0 0.017711803566876506 -0.00094249570093849324 0 0.017711803566876506 -0.00094249570093849324 0 0.01795854865012473 -0.0017787868614025247 0 0.016855394306753788 -0.00091224837970521177 0 0.018672297828540567 -0.0010208739432829175 0 0.017711803566876506 -0.00094249570093849324 0 0.01795854865012473 -0.0017787868614025247 0 0.024111769242667086 0.00029212162685560123 0 0.02397838276518071 9.9903835684735451e-05 0 0.023429411755371814 0.00072346318594792083 0 0.021390460065778608 -0.00092023782653282847 0 0.017181130148871741 -0.00044551652477620434 0 0.024111769242667086 0.00029212162685560123 0 0.02397838276518071 9.9903835684735451e-05 0 0.024167093999402787 0.00011150606608217628 0 0.025237692783944429 -0.00016921715909893885 0 0.024092922442397254 0.00014874846116345818 0 0.02397838276518071 9.9903835684735451e-05 0 0.024167093999402787 0.00011150606608217628 0 0.024373680297993226 -1.464671778335651e-05 0 0.024681612344824272 -0.00012602067199505562 0 0.024615316418569514 -6.7239355131413464e-05 0 0.024373680297993226 -1.464671778335651e-05 0 0.024681612344824272 -0.00012602067199505562 0 0.024615316418569514 -6.7239355131413464e-05 0 0.024677375054670988 -9.5018981779416178e-05 0 0.021390460065778608 -0.00092023782653282847 0 0.022622572000349485 -0.00053615981345396752 0 0.024167093999402787 0.00011150606608217628 0 0.024383112440580317 1.7919374517267377e-05 0 0.024284266204035895 3.333745840182731e-05 0 0.024167093999402787 0.00011150606608217628 0 0.024284266204035895 3.333745840182731e-05 0 0.024373680297993226 -1.464671778335651e-05 0 0.024111769242667086 0.00029212162685560123 0 0.024167093999402787 0.00011150606608217628 0 0.024383112440580317 1.7919374517267377e-05 0 0.024277658496335269 -7.8646386405133007e-06 0 0.024257436875235586 -1.8577611924222243e-07 0 0.024292294330597708 2.801286537300692e-06 0 0.024277658496335269 -7.8646386405133007e-06 0 0.024284266204035895 3.333745840182731e-05 0 0.024292294330597708 2.801286537300692e-06 0 0.022622572000349485 -0.00053615981345396752 0 0.024009178432862186 -0.00034438035624541769 0 0.024284266204035895 3.333745840182731e-05 0 0.024315974040756486 4.2374482086439473e-06 0 0.024292294330597708 2.801286537300692e-06 0 0.024672136355118557 5.1047833416422904e-05 0 0.02455983662739817 6.0958427055936785e-05 0 0.024373680297993226 -1.464671778335651e-05 0 0.024315974040756486 4.2374482086439473e-06 0 0.024293736089117141 2.9309270701587611e-05 0 0.024973927179550527 4.3228459050071237e-05 0 0.024995788900212319 1.2975106286674351e-05 0 0.024987892858874174 1.5634494316589455e-05 0 0.024293736089117141 2.9309270701587611e-05 0 0.024358792505700218 6.9105277301611181e-05 0 0.024164999804507141 9.3742268170228101e-05 0 0.024284266204035895 3.333745840182731e-05 0 0.024373680297993226 -1.464671778335651e-05 0 0.024315974040756486 4.2374482086439473e-06 0 0.024257436875235586 -1.8577611924222243e-07 0 0.024292294330597708 2.801286537300692e-06 0 0.02424828005196691 2.0814688681470054e-05 0 0.024315974040756486 4.2374482086439473e-06 0 0.024292294330597708 2.801286537300692e-06 0 0.024293736089117141 2.9309270701587611e-05 0 0.024292294330597708 2.801286537300692e-06 0 0.024293736089117141 2.9309270701587611e-05 0 0.02424828005196691 2.0814688681470054e-05 0 0.024373680297993226 -1.464671778335651e-05 0 0.024293736089117141 2.9309270701587611e-05 0 0.024358792505700218 6.9105277301611181e-05 0 0.024615316418569514 -6.7239355131413464e-05 0 0.024373680297993226 -1.464671778335651e-05 0 0.024795308894929844 2.3984654435963398e-05 0 0.024672136355118557 5.1047833416422904e-05 0 0.024783944058908176 3.1459331252763255e-05 0 0.024373680297993226 -1.464671778335651e-05 0 0.024358792505700218 6.9105277301611181e-05 0 0.024795308894929844 2.3984654435963398e-05 0 0.024973927179550527 4.3228459050071237e-05 0 0.024926989192028799 7.6811307186426954e-06 0 0.024795308894929844 2.3984654435963398e-05 0 0.022055433953165837 -0.001902714184103456 0 0.021763775098503597 -0.0017243503148752877 0 0.021579609596519403 -0.0026090713932266645 0 0.020433893489052921 -0.0018110590991289078 0 0.020439119239270425 -0.0026051217169741885 0 0.023967703730638987 -0.00012176632198193132 0 0.024043989660760372 -5.3582431026289526e-05 0 0.023969215244560686 -2.4689148628993231e-05 0 0.022622572000349485 -0.00053615981345396752 0 0.021763775098503597 -0.0017243503148752877 0 0.024098878854077077 -0.00011016760006545603 0 0.023967703730638987 -0.00012176632198193132 0 0.024043989660760372 -5.3582431026289526e-05 0 0.019698617309884009 -0.0018411931807541606 0 0.019137377919864317 -0.0027005482820989329 0 0.020708189474322593 -0.0027125772665252041 0 0.019513066870983076 -0.0018410199700386242 0 0.021763775098503597 -0.0017243503148752877 0 0.022622572000349485 -0.00053615981345396752 0 0.024181088868357441 -0.00015183977490981266 0 0.024277658496335269 -7.8646386405133007e-06 0 0.024257436875235586 -1.8577611924222243e-07 0 0.02417099409885037 -1.7198745941681173e-05 0 0.02424828005196691 2.0814688681470054e-05 0 0.024164999804507141 9.3742268170228101e-05 0 0.02417099409885037 -1.7198745941681173e-05 0 0.024257436875235586 -1.8577611924222243e-07 0 0.02424828005196691 2.0814688681470054e-05 0 0.02417099409885037 -1.7198745941681173e-05 0 0.024293736089117141 2.9309270701587611e-05 0 0.02424828005196691 2.0814688681470054e-05 0 0.024164999804507141 9.3742268170228101e-05 0 0.024164999804507141 9.3742268170228101e-05 0 0.02417099409885037 -1.7198745941681173e-05 0 0.023992413852629641 5.4374009026420112e-05 0 0.024181088868357441 -0.00015183977490981266 0 0.023966589817739688 6.972089981439513e-05 0 0.023741164411632616 -0.00048412266344185215 0 0.021763775098503597 -0.0017243503148752877 0 0.02455983662739817 6.0958427055936785e-05 0 0.024509219615067423 -6.051836176996064e-05 0 0.023793412621618073 1.6354104767387816e-05 0 0.023969215244560686 -2.4689148628993231e-05 0 0.02386822967753064 7.9119410701481422e-05 0 0.024995788900212319 1.2975106286674351e-05 0 0.02499397053350725 2.7278758452740741e-06 0 0.024995026768178198 4.4050760449923867e-06 0 0.023793412621618073 1.6354104767387816e-05 0 0.023967703730638987 -0.00012176632198193132 0 0.023969215244560686 -2.4689148628993231e-05 0 0.024164999804507141 9.3742268170228101e-05 0 0.023992413852629641 5.4374009026420112e-05 0 0.02386822967753064 7.9119410701481422e-05 0 0.024043989660760372 -5.3582431026289526e-05 0 0.023969215244560686 -2.4689148628993231e-05 0 0.023992413852629641 5.4374009026420112e-05 0 0.023969215244560686 -2.4689148628993231e-05 0 0.023992413852629641 5.4374009026420112e-05 0 0.02386822967753064 7.9119410701481422e-05 0 0.024509219615067423 -6.051836176996064e-05 0 0.024743148326882774 4.9143415773204657e-05 0 0.024995788900212319 1.2975106286674351e-05 0 0.024995026768178198 4.4050760449923867e-06 0 0.024996614256998853 6.7341990273025549e-06 0 0.024996023282925495 2.602401959799975e-06 0 0.024997454236931702 3.3187453964465833e-06 0 0.024995026768178198 4.4050760449923867e-06 0 0.024996023282925495 2.602401959799975e-06 0 0.024994514001478195 3.1096836900972571e-06 0 0.024995026768178198 4.4050760449923867e-06 0 0.024997454236931702 3.3187453964465833e-06 0 0.024995026768178198 4.4050760449923867e-06 0 0.024996614256998853 6.7341990273025549e-06 0 0.024997454236931702 3.3187453964465833e-06 0 0.024996614256998853 6.7341990273025549e-06 0 0.024997330322046391 3.0854300788828779e-06 0 0.024996614256998853 6.7341990273025549e-06 0 0.024994441032162921 9.0987184433081666e-06 0 0.024997330322046391 3.0854300788828779e-06 0 0.024995788900212319 1.2975106286674351e-05 0 0.024996614256998853 6.7341990273025549e-06 0 0.024994441032162921 9.0987184433081666e-06 0 0.024995788900212319 1.2975106286674351e-05 0 0.024994441032162921 9.0987184433081666e-06 0 0.024987892858874174 1.5634494316589455e-05 0 0.024994441032162921 9.0987184433081666e-06 0 0.024987892858874174 1.5634494316589455e-05 0 0.024988796759451544 4.7615125300234649e-06 0 0.024994441032162921 9.0987184433081666e-06 0 0.024997330322046391 3.0854300788828779e-06 0 0.024988796759451544 4.7615125300234649e-06 0 0.024997330322046391 3.0854300788828779e-06 0 0.024999996171698669 4.4027952594841211e-09 0 0.024999997480855893 -5.7923071280732569e-09 0 0.024997330322046391 3.0854300788828779e-06 0 0.024988796759451544 4.7615125300234649e-06 0 0.024999997480855893 -5.7923071280732569e-09 0 0.024997454236931702 3.3187453964465833e-06 0 0.024997330322046391 3.0854300788828779e-06 0 0.024999996171698669 4.4027952594841211e-09 0 0.02499798029485318 1.4986813939599504e-06 0 0.024997454236931702 3.3187453964465833e-06 0 0.024999996171698669 4.4027952594841211e-09 0 0.024957537084423605 -6.5092187973406747e-06 0 0.024897912811501801 -1.9156952056792971e-07 0 0.024912485449428305 -8.7406026823828216e-06 0 0.024957537084423605 -6.5092187973406747e-06 0 0.024926989192028799 7.6811307186426954e-06 0 0.024973031512805725 9.8764424990341118e-06 0 0.024957537084423605 -6.5092187973406747e-06 0 0.024897912811501801 -1.9156952056792971e-07 0 0.024926989192028799 7.6811307186426954e-06 0 0.024897912811501801 -1.9156952056792971e-07 0 0.024926989192028799 7.6811307186426954e-06 0 0.024795308894929844 2.3984654435963398e-05 0 0.024973927179550527 4.3228459050071237e-05 0 0.024926989192028799 7.6811307186426954e-06 0 0.024973031512805725 9.8764424990341118e-06 0 0.024973927179550527 4.3228459050071237e-05 0 0.024973031512805725 9.8764424990341118e-06 0 0.024987892858874174 1.5634494316589455e-05 0 0.024957537084423605 -6.5092187973406747e-06 0 0.024973031512805725 9.8764424990341118e-06 0 0.024988796759451544 4.7615125300234649e-06 0 0.024973031512805725 9.8764424990341118e-06 0 0.024987892858874174 1.5634494316589455e-05 0 0.024988796759451544 4.7615125300234649e-06 0 0.024957537084423605 -6.5092187973406747e-06 0 0.024988796759451544 4.7615125300234649e-06 0 0.024999997480855893 -5.7923071280732569e-09 0 0.024957537084423605 -6.5092187973406747e-06 0 0.024999997480855893 -5.7923071280732569e-09 0 0.024999894880778487 -2.6341439930019195e-08 0 0.024957537084423605 -6.5092187973406747e-06 0 0.024999894880778487 -2.6341439930019195e-08 0 0.024912485449428305 -8.7406026823828216e-06 0 0.024999894880778487 -2.6341439930019195e-08 0 0.024912485449428305 -8.7406026823828216e-06 0 0.024999847209816132 7.8337565127879618e-09 0 0.024897912811501801 -1.9156952056792971e-07 0 0.024912485449428305 -8.7406026823828216e-06 0 0.024795308894929844 2.3984654435963398e-05 0 0.024912485449428305 -8.7406026823828216e-06 0 0.024857169446165232 -1.238636286147833e-05 0 0.024795308894929844 2.3984654435963398e-05 0 0.024876406569836949 -2.8731657811452736e-05 0 0.024857169446165232 -1.238636286147833e-05 0 0.024780764918310726 -5.9377472987625734e-05 0 0.024912485449428305 -8.7406026823828216e-06 0 0.024857169446165232 -1.238636286147833e-05 0 0.024925000346265123 -4.1110518091995511e-06 0 0.024876406569836949 -2.8731657811452736e-05 0 0.024857169446165232 -1.238636286147833e-05 0 0.024922092533574344 -4.916746445810218e-06 0 0.024857169446165232 -1.238636286147833e-05 0 0.024922092533574344 -4.916746445810218e-06 0 0.024925000346265123 -4.1110518091995511e-06 0 0.024922092533574344 -4.916746445810218e-06 0 0.024925000346265123 -4.1110518091995511e-06 0 0.024969518351401758 1.6408836474705441e-06 0 0.024912485449428305 -8.7406026823828216e-06 0 0.024925000346265123 -4.1110518091995511e-06 0 0.024999847209816132 7.8337565127879618e-09 0 0.024925000346265123 -4.1110518091995511e-06 0 0.024999847209816132 7.8337565127879618e-09 0 0.024969518351401758 1.6408836474705441e-06 0 0.024999847209816132 7.8337565127879618e-09 0 0.024969518351401758 1.6408836474705441e-06 0 0.024999991566672718 9.7562630087359067e-09 0 0.024961067517715527 -7.5503921282875516e-07 0 0.024969518351401758 1.6408836474705441e-06 0 0.024999991566672718 9.7562630087359067e-09 0 0.024973892390584087 -6.5125529613648248e-06 0 0.024961067517715527 -7.5503921282875516e-07 0 0.024999991566672718 9.7562630087359067e-09 0 0.024697607302019645 4.4644704217507308e-05 0 0.024911514443427173 -3.6112096353113157e-06 0 0.024951126684488151 5.2967213225448333e-07 0 0.024961067517715527 -7.5503921282875516e-07 0 0.024944794935046512 -6.724443565249028e-07 0 0.024922092533574344 -4.916746445810218e-06 0 0.024961067517715527 -7.5503921282875516e-07 0 0.024969518351401758 1.6408836474705441e-06 0 0.025000387602855716 4.1870528248516011e-06 0 0.025001979340321553 5.6616999199344694e-06 0 0.025004306580534322 1.2523810892622054e-05 0 0.025000387602855716 4.1870528248516011e-06 0 0.025000015761685802 1.2699826197060624e-08 0 0.025001979340321553 5.6616999199344694e-06 0 0.025000015761685802 1.2699826197060624e-08 0 0.025001979340321553 5.6616999199344694e-06 0 0.024999991763017607 1.8683987494870371e-09 0 0.024697607302019645 4.4644704217507308e-05 0 0.024999981464212166 5.6491599807798436e-08 0 0.024697607302019645 4.4644704217507308e-05 0 0.024732372960857431 0.0001195634316583401 0 0.024349429393229833 0.00023051013253341335 0 0.024340339709815282 0.00020731915542100522 0 0.024460179079070485 0.0001671616538366255 0 0.024349429393229833 0.00023051013253341335 0 0.024474329655444393 0.00020264910695019678 0 0.024460179079070485 0.0001671616538366255 0 0.023274645158892642 0.00049762905815892047 0 0.023426510533728614 0.0003178635297700303 0 0.023669132401617228 0.00038011909685413772 0 0.024252282988546092 0.0001100142903323958 0 0.023965044056892561 0.00032133128479921818 0 0.024876406569836949 -2.8731657811452736e-05 0 0.024944794935046512 -6.724443565249028e-07 0 0.024965566104935475 -3.0011044367806657e-06 0 0.024922092533574344 -4.916746445810218e-06 0 0.024961067517715527 -7.5503921282875516e-07 0 0.024944794935046512 -6.724443565249028e-07 0 0.024876406569836949 -2.8731657811452736e-05 0 0.024922092533574344 -4.916746445810218e-06 0 0.024944794935046512 -6.724443565249028e-07 0 0.024683918584042737 -9.0133846094911736e-06 0 0.024252282988546092 0.0001100142903323958 0 0.024951126684488151 5.2967213225448333e-07 0 0.024944794935046512 -6.724443565249028e-07 0 0.024948165161420632 -2.5859995029869577e-06 0 0.024697607302019645 4.4644704217507308e-05 0 0.024252282988546092 0.0001100142903323958 0 0.023274645158892642 0.00049762905815892047 0 0.023189755651474322 0.00027635036845170249 0 0.023426510533728614 0.0003178635297700303 0 0.024252282988546092 0.0001100142903323958 0 0.024347552959141334 8.9865246490068273e-05 0 0.024876406569836949 -2.8731657811452736e-05 0 0.024965566104935475 -3.0011044367806657e-06 0 0.024918422630483234 -7.6512271976663008e-05 0 0.024815225002933195 -0.00014782987938877516 0 0.024347552959141334 8.9865246490068273e-05 0 0.024347552959141334 8.9865246490068273e-05 0 0.024691405848517721 -0.00016949542655655261 0 0.024585686230123999 -0.00037746998077942129 0 0.02434680032555751 -0.00015996218102956863 0 0.024683151108126231 -0.0001127825214387296 0 0.024347552959141334 8.9865246490068273e-05 0 0.024270210268848763 -0.00030527850786120733 0 0.023189755651474322 0.00027635036845170249 0 0.023426510533728614 0.0003178635297700303 0 0.02341385329003362 1.5457783074781663e-06 0 0.023426510533728614 0.0003178635297700303 0 0.023581566286891779 0.0001643398923340163 0 0.02341385329003362 1.5457783074781663e-06 0 0.023583463770378666 0.00027889480969930003 0 0.023426510533728614 0.0003178635297700303 0 0.023669132401617228 0.00038011909685413772 0 0.023583463770378666 0.00027889480969930003 0 0.023426510533728614 0.0003178635297700303 0 0.023581566286891779 0.0001643398923340163 0 0.024270210268848763 -0.00030527850786120733 0 0.020767029990208623 0.00019916285538103883 0 0.02434680032555751 -0.00015996218102956863 0 0.024683151108126231 -0.0001127825214387296 0 0.024526907308758592 -1.191970069343956e-05 0 0.024683151108126231 -0.0001127825214387296 0 0.024596423113949713 -5.7343538631108738e-06 0 0.024526907308758592 -1.191970069343956e-05 0 0.024683151108126231 -0.0001127825214387296 0 0.024692212045665095 -8.0637904618004129e-05 0 0.024596423113949713 -5.7343538631108738e-06 0 0.024692212045665095 -8.0637904618004129e-05 0 0.024730634417576895 -6.7217987638321905e-05 0 0.024780764918310726 -5.9377472987625734e-05 0 0.024683151108126231 -0.0001127825214387296 0 0.024692212045665095 -8.0637904618004129e-05 0 0.024780764918310726 -5.9377472987625734e-05 0 0.024692212045665095 -8.0637904618004129e-05 0 0.02468850863748772 -9.2972139396208691e-05 0 0.024730634417576895 -6.7217987638321905e-05 0 0.024692212045665095 -8.0637904618004129e-05 0 0.02468850863748772 -9.2972139396208691e-05 0 0.024660509039343248 -5.449885831680586e-05 0 0.024681612344824272 -0.00012602067199505562 0 0.02468850863748772 -9.2972139396208691e-05 0 0.024677375054670988 -9.5018981779416178e-05 0 0.02468850863748772 -9.2972139396208691e-05 0 0.024677375054670988 -9.5018981779416178e-05 0 0.024730634417576895 -6.7217987638321905e-05 0 0.024615316418569514 -6.7239355131413464e-05 0 0.024677375054670988 -9.5018981779416178e-05 0 0.024730634417576895 -6.7217987638321905e-05 0 0.024730634417576895 -6.7217987638321905e-05 0 0.024795308894929844 2.3984654435963398e-05 0 0.024780764918310726 -5.9377472987625734e-05 0 0.024615316418569514 -6.7239355131413464e-05 0 0.024730634417576895 -6.7217987638321905e-05 0 0.024795308894929844 2.3984654435963398e-05 0 0.024857169446165232 -1.238636286147833e-05 0 0.024795308894929844 2.3984654435963398e-05 0 0.024780764918310726 -5.9377472987625734e-05 0 0.024839687424338321 -4.7149301336511853e-05 0 0.024683151108126231 -0.0001127825214387296 0 0.024780764918310726 -5.9377472987625734e-05 0 0.024876406569836949 -2.8731657811452736e-05 0 0.024839687424338321 -4.7149301336511853e-05 0 0.024780764918310726 -5.9377472987625734e-05 0 0.02489878746946798 6.305269892744365e-05 0 0.024953147032565667 2.1824633899012274e-05 0 0.02486696290540226 5.967448940994238e-05 0 0.02489878746946798 6.305269892744365e-05 0 0.025004123777527146 5.9102202824296703e-05 0 0.024812629235524387 0.00011852870328935925 0 0.02489878746946798 6.305269892744365e-05 0 0.024812629235524387 0.00011852870328935925 0 0.02486696290540226 5.967448940994238e-05 0 0.02489878746946798 6.305269892744365e-05 0 0.024953147032565667 2.1824633899012274e-05 0 0.024955492899247832 3.9266303816443195e-05 0 0.024953147032565667 2.1824633899012274e-05 0 0.02500005718946622 4.0117656585581847e-08 0 0.024999585810701878 -1.2767309194743477e-07 0 0.024953147032565667 2.1824633899012274e-05 0 0.024999585810701878 -1.2767309194743477e-07 0 0.02486696290540226 5.967448940994238e-05 0 0.02500005718946622 4.0117656585581847e-08 0 0.024981933971931113 2.2676201194870478e-05 0 0.024999902725739861 1.3656011514982587e-05 0 0.024953147032565667 2.1824633899012274e-05 0 0.02500005718946622 4.0117656585581847e-08 0 0.024981933971931113 2.2676201194870478e-05 0 0.02489878746946798 6.305269892744365e-05 0 0.024955492899247832 3.9266303816443195e-05 0 0.025004123777527146 5.9102202824296703e-05 0 0.024981933971931113 2.2676201194870478e-05 0 0.024955492899247832 3.9266303816443195e-05 0 0.025004123777527146 5.9102202824296703e-05 0 0.024981933971931113 2.2676201194870478e-05 0 0.025004123777527146 5.9102202824296703e-05 0 0.024999902725739861 1.3656011514982587e-05 0 0.024953147032565667 2.1824633899012274e-05 0 0.024981933971931113 2.2676201194870478e-05 0 0.024955492899247832 3.9266303816443195e-05 0 0.025004123777527146 5.9102202824296703e-05 0 0.025003962406893062 1.4757231090843804e-05 0 0.025004306580534322 1.2523810892622054e-05 0 0.025004123777527146 5.9102202824296703e-05 0 0.024999902725739861 1.3656011514982587e-05 0 0.025003962406893062 1.4757231090843804e-05 0 0.024619089851407497 0.00016962906472058956 0 0.024474329655444393 0.00020264910695019678 0 0.0246047438851664 0.00011665816913223532 0 0.024809731037191224 0.00011179872264826282 0 0.024732372960857431 0.0001195634316583401 0 0.02500005718946622 4.0117656585581847e-08 0 0.024999902725739861 1.3656011514982587e-05 0 0.024999991763017607 1.8683987494870371e-09 0 0.024999902725739861 1.3656011514982587e-05 0 0.025003962406893062 1.4757231090843804e-05 0 0.024999991763017607 1.8683987494870371e-09 0 0.025003962406893062 1.4757231090843804e-05 0 0.025002562385151323 8.1274779899450239e-06 0 0.024999991763017607 1.8683987494870371e-09 0 0.025001979340321553 5.6616999199344694e-06 0 0.025002562385151323 8.1274779899450239e-06 0 0.024999991763017607 1.8683987494870371e-09 0 0.025001979340321553 5.6616999199344694e-06 0 0.025002562385151323 8.1274779899450239e-06 0 0.025004306580534322 1.2523810892622054e-05 0 0.024474329655444393 0.00020264910695019678 0 0.024460179079070485 0.0001671616538366255 0 0.0246047438851664 0.00011665816913223532 0 0.025003962406893062 1.4757231090843804e-05 0 0.025002562385151323 8.1274779899450239e-06 0 0.025004306580534322 1.2523810892622054e-05 0 0.023583463770378666 0.00027889480969930003 0 0.023669132401617228 0.00038011909685413772 0 0.023705659451012127 0.00021390565476132379 0 0.023583463770378666 0.00027889480969930003 0 0.023581566286891779 0.0001643398923340163 0 0.023705659451012127 0.00021390565476132379 0 0.023669132401617228 0.00038011909685413772 0 0.023705659451012127 0.00021390565476132379 0 0.023881353431194522 0.00018730897296649799 0 0.023705659451012127 0.00021390565476132379 0 0.023784372466840991 1.7643375310086171e-05 0 0.023881353431194522 0.00018730897296649799 0 0.023581566286891779 0.0001643398923340163 0 0.023705659451012127 0.00021390565476132379 0 0.023784372466840991 1.7643375310086171e-05 0 0.023581566286891779 0.0001643398923340163 0 0.02341385329003362 1.5457783074781663e-06 0 0.023784372466840991 1.7643375310086171e-05 0 0.02341385329003362 1.5457783074781663e-06 0 0.023784372466840991 1.7643375310086171e-05 0 0.023654401293855949 -0.00030772886500525905 0 0.023784372466840991 1.7643375310086171e-05 0 0.02412074637002375 -0.00020741110145134495 0 0.024049708086407655 6.0161771727712857e-05 0 0.023784372466840991 1.7643375310086171e-05 0 0.02412074637002375 -0.00020741110145134495 0 0.023654401293855949 -0.00030772886500525905 0 0.023669132401617228 0.00038011909685413772 0 0.023881353431194522 0.00018730897296649799 0 0.024160980596196729 0.00027303907109743375 0 0.023965044056892561 0.00032133128479921818 0 0.024413223464410043 0.00017957090853480294 0 0.024049708086407655 6.0161771727712857e-05 0 0.023881353431194522 0.00018730897296649799 0 0.024160980596196729 0.00027303907109743375 0 0.023784372466840991 1.7643375310086171e-05 0 0.024049708086407655 6.0161771727712857e-05 0 0.023881353431194522 0.00018730897296649799 0 0.024160980596196729 0.00027303907109743375 0 0.024485648201785611 8.0642812275666316e-05 0 0.024740584355905787 6.7918974201644955e-05 0 0.0246047438851664 0.00011665816913223532 0 0.024692532284044319 0.00011477504630860125 0 0.024740584355905787 6.7918974201644955e-05 0 0.024619089851407497 0.00016962906472058956 0 0.024692532284044319 0.00011477504630860125 0 0.024812629235524387 0.00011852870328935925 0 0.024413223464410043 0.00017957090853480294 0 0.024709784002874168 8.0231225270371948e-05 0 0.024619089851407497 0.00016962906472058956 0 0.0246047438851664 0.00011665816913223532 0 0.024692532284044319 0.00011477504630860125 0 0.024049708086407655 6.0161771727712857e-05 0 0.024160980596196729 0.00027303907109743375 0 0.02433819511236586 2.6683696134280098e-05 0 0.024160980596196729 0.00027303907109743375 0 0.024485648201785611 8.0642812275666316e-05 0 0.02433819511236586 2.6683696134280098e-05 0 0.02412074637002375 -0.00020741110145134495 0 0.024049708086407655 6.0161771727712857e-05 0 0.02433819511236586 2.6683696134280098e-05 0 0.021316553603944747 0.00044293331062807346 0 0.020713334412313905 0.00031849920524483954 0 0.02412074637002375 -0.00020741110145134495 0 0.02433819511236586 2.6683696134280098e-05 0 0.02469967947717161 -2.4077438502869391e-05 0 0.018157808760887736 0.00096693033426373655 0 0.016891878754494116 0.00066610605530135342 0 0.017873075452348522 0.001387804159778747 0 0.024485648201785611 8.0642812275666316e-05 0 0.02433819511236586 2.6683696134280098e-05 0 0.02469967947717161 -2.4077438502869391e-05 0 0.016891878754494116 0.00066610605530135342 0 0.016840733010662717 0.00096305925024953143 0 0.015874699001573442 0.00068244092300353957 0 0.016891878754494116 0.00066610605530135342 0 0.016840733010662717 0.00096305925024953143 0 0.017873075452348522 0.001387804159778747 0 0.024485648201785611 8.0642812275666316e-05 0 0.02469967947717161 -2.4077438502869391e-05 0 0.024740584355905787 6.7918974201644955e-05 0 0.01527443192461439 0.00049371366399177368 0 0.015657851036101792 0.0005032345606855327 0 0.015472826979267398 0.00039246215372794091 0 0.024809731037191224 0.00011179872264826282 0 0.024812558184224964 0.0001185470745228734 0 0.024692532284044319 0.00011477504630860125 0 0.024740584355905787 6.7918974201644955e-05 0 0.024812629235524387 0.00011852870328935925 0 0.015099176828834214 4.8101308626299598e-06 0 0.015296123767224654 0.00014582852425151376 0 0.015357062298020099 -0.00010646381217510972 0 0.015099176828834214 4.8101308626299598e-06 0 0.015128966235310402 0.00010682058617807771 0 0.015296123767224654 0.00014582852425151376 0 0.015296123767224654 0.00014582852425151376 0 0.015314235144786411 0.00031430666611958374 0 0.015452028220588889 0.00027805381795917858 0 0.015314235144786411 0.00031430666611958374 0 0.015472826979267398 0.00039246215372794091 0 0.015452028220588889 0.00027805381795917858 0 0.01527443192461439 0.00049371366399177368 0 0.015314235144786411 0.00031430666611958374 0 0.015472826979267398 0.00039246215372794091 0 0.01527443192461439 0.00049371366399177368 0 0.015314235144786411 0.00031430666611958374 0 0.01516925674570023 0.00024412898836071188 0 0.015296123767224654 0.00014582852425151376 0 0.015314235144786411 0.00031430666611958374 0 0.01516925674570023 0.00024412898836071188 0 0.015128966235310402 0.00010682058617807771 0 0.015296123767224654 0.00014582852425151376 0 0.01516925674570023 0.00024412898836071188 0 0.01527443192461439 0.00049371366399177368 0 0.01516925674570023 0.00024412898836071188 0 0.014999323342391761 0.00021687736617163113 0 0.015128966235310402 0.00010682058617807771 0 0.01516925674570023 0.00024412898836071188 0 0.015056758295563187 0.00013084253282459179 0 0.01516925674570023 0.00024412898836071188 0 0.015056758295563187 0.00013084253282459179 0 0.014999323342391761 0.00021687736617163113 0 0.016026739737461437 0.00070475611696576256 0 0.016594214484305161 0.00090597078724639674 0 0.015056758295563187 0.00013084253282459179 0 0.014999323342391761 0.00021687736617163113 0 0.014991019055824137 5.6221576877604052e-05 0 0.015056758295563187 0.00013084253282459179 0 0.015025350356646049 4.3431344528631615e-05 0 0.014991019055824137 5.6221576877604052e-05 0 0.015025350356646049 4.3431344528631615e-05 0 0.014970335677824976 -4.6555712046250367e-06 0 0.014991019055824137 5.6221576877604052e-05 0 0.015099176828834214 4.8101308626299598e-06 0 0.015128966235310402 0.00010682058617807771 0 0.015025350356646049 4.3431344528631615e-05 0 0.015128966235310402 0.00010682058617807771 0 0.015056758295563187 0.00013084253282459179 0 0.015025350356646049 4.3431344528631615e-05 0 0.015099176828834214 4.8101308626299598e-06 0 0.015025350356646049 4.3431344528631615e-05 0 0.014961264003038386 -1.6152497537551403e-07 0 0.015025350356646049 4.3431344528631615e-05 0 0.014970335677824976 -4.6555712046250367e-06 0 0.014961264003038386 -1.6152497537551403e-07 0 0.014970335677824976 -4.6555712046250367e-06 0 0.014955116794478423 1.1601773317601872e-05 0 0.014961264003038386 -1.6152497537551403e-07 0 0.014989099384757329 -4.9641494881153968e-05 0 0.014991019055824137 5.6221576877604052e-05 0 0.014904901557533923 4.0443628747215031e-05 0 0.014970335677824976 -4.6555712046250367e-06 0 0.015065805335017751 2.194306850638197e-05 0 0.014955116794478423 1.1601773317601872e-05 0 0.014970335677824976 -4.6555712046250367e-06 0 0.015065805335017751 2.194306850638197e-05 0 0.014989099384757329 -4.9641494881153968e-05 0 0.015065805335017751 2.194306850638197e-05 0 0.015158760112626129 -8.6402339133927149e-05 0 0.014989099384757329 -4.9641494881153968e-05 0 0.015234149154946719 0.00022378420575084603 0 0.016241051616111227 0.00026525905152230633 0 0.015158760112626129 -8.6402339133927149e-05 0 0.014989099384757329 -4.9641494881153968e-05 0 0.015192885614159655 -0.00037679767572209943 0 0.014970335677824976 -4.6555712046250367e-06 0 0.014989099384757329 -4.9641494881153968e-05 0 0.014991019055824137 5.6221576877604052e-05 0 0.014999323342391761 0.00021687736617163113 0 0.014991019055824137 5.6221576877604052e-05 0 0.014904901557533923 4.0443628747215031e-05 0 0.018157808760887736 0.00096693033426373655 0 0.017873075452348522 0.001387804159778747 0 0.018866743382933735 0.0018253952029023816 0 0.016594214484305161 0.00090597078724639674 0 0.016241051616111227 0.00026525905152230633 0 0.021316553603944747 0.00044293331062807346 0 0.020767029990208623 0.00019916285538103883 0 0.018157808760887736 0.00096693033426373655 0 0.018866743382933735 0.0018253952029023816 0 0.019365907229412085 0.0013003677284932308 0 0.016241051616111227 0.00026525905152230633 0 0.020767029990208623 0.00019916285538103883 0 0.015347200703825326 -0.00041920149318856829 0 0.015616481087807792 -0.00071289688738042096 0 0.015685603783326979 -0.00041479735747533444 0 0.015616481087807792 -0.00071289688738042096 0 0.015685603783326979 -0.00041479735747533444 0 0.015928359717934399 -0.00041042023002871482 0 0.015347200703825326 -0.00041920149318856829 0 0.015685603783326979 -0.00041479735747533444 0 0.015861769843964171 -0.00010718382890504193 0 0.015192885614159655 -0.00037679767572209943 0 0.015383872805707566 -2.4508414752093912e-05 0 0.015861769843964171 -0.00010718382890504193 0 0.016241051616111227 0.00026525905152230633 0 0.015426301100344788 -0.00034570946098645109 0 0.015158760112626129 -8.6402339133927149e-05 0 0.015192885614159655 -0.00037679767572209943 0 0.015383872805707566 -2.4508414752093912e-05 0 0.015065805335017751 2.194306850638197e-05 0 0.015158760112626129 -8.6402339133927149e-05 0 0.015383872805707566 -2.4508414752093912e-05 0 0.015025001509467074 4.7695543416599476e-05 0 0.014503393261337656 5.9636219514002281e-05 0 0.0145696695782183 2.8439951761294224e-05 0 0.014555990195307128 -7.2409685855755982e-05 0 0.014560935247534169 -1.6964859552449839e-05 0 0.014560080280436982 -3.4885478725588145e-06 0 0.0145696695782183 2.8439951761294224e-05 0 0.014560935247534169 -1.6964859552449839e-05 0 0.015383872805707566 -2.4508414752093912e-05 0 0.015106863947190347 0.00019317273542425857 0 0.015941898705393837 4.0790717683588571e-05 0 0.015065805335017751 2.194306850638197e-05 0 0.015383872805707566 -2.4508414752093912e-05 0 0.015106863947190347 0.00019317273542425857 0 0.014560080280436982 -3.4885478725588145e-06 0 0.014568279121833188 -1.0401602022649918e-05 0 0.014555033352856104 -2.4346136672077688e-05 0 0.014560080280436982 -3.4885478725588145e-06 0 0.01460391010690114 -1.4772892584411277e-05 0 0.014555033352856104 -2.4346136672077688e-05 0 0.014560080280436982 -3.4885478725588145e-06 0 0.01460391010690114 -1.4772892584411277e-05 0 0.0145696695782183 2.8439951761294224e-05 0 0.015025001509467074 4.7695543416599476e-05 0 0.014720734713422222 6.6034251406181855e-05 0 0.01460391010690114 -1.4772892584411277e-05 0 0.0145696695782183 2.8439951761294224e-05 0 0.014765597673187645 3.1371513642901149e-05 0 0.015106863947190347 0.00019317273542425857 0 0.014955116794478423 1.1601773317601872e-05 0 0.014840350397658094 -1.2425931642816045e-05 0 0.015065805335017751 2.194306850638197e-05 0 0.015106863947190347 0.00019317273542425857 0 0.014955116794478423 1.1601773317601872e-05 0 0.015106863947190347 0.00019317273542425857 0 0.014840350397658094 -1.2425931642816045e-05 0 0.014765597673187645 3.1371513642901149e-05 0 0.014955116794478423 1.1601773317601872e-05 0 0.014961264003038386 -1.6152497537551403e-07 0 0.014840350397658094 -1.2425931642816045e-05 0 0.015099176828834214 4.8101308626299598e-06 0 0.014961264003038386 -1.6152497537551403e-07 0 0.014840350397658094 -1.2425931642816045e-05 0 0.01460391010690114 -1.4772892584411277e-05 0 0.014765597673187645 3.1371513642901149e-05 0 0.014669914059339798 -3.1207598354011373e-05 0 0.014765597673187645 3.1371513642901149e-05 0 0.014713638856573725 -2.3702045271612584e-05 0 0.014669914059339798 -3.1207598354011373e-05 0 0.014840350397658094 -1.2425931642816045e-05 0 0.014765597673187645 3.1371513642901149e-05 0 0.014733735947804893 1.0286742031391482e-05 0 0.014765597673187645 3.1371513642901149e-05 0 0.014733735947804893 1.0286742031391482e-05 0 0.014713638856573725 -2.3702045271612584e-05 0 0.015099176828834214 4.8101308626299598e-06 0 0.014840350397658094 -1.2425931642816045e-05 0 0.015357062298020099 -0.00010646381217510972 0 0.014840350397658094 -1.2425931642816045e-05 0 0.014733735947804893 1.0286742031391482e-05 0 0.014725586533972553 0.00010099924538428543 0 0.014887705722085887 -1.1848750759089751e-05 0 0.015048931325793114 1.9939819507936026e-05 0 0.024554181747723638 3.9458473376297539e-05 0 0.024638084387696761 2.0869035998059798e-05 0 0.024580908156360919 2.509008509710662e-05 0 0.014723897748377388 -0.00013055963947940501 0 0.014982690137787875 -0.00018465007646119918 0 0.014676936781820056 -4.3097353787064637e-05 0 0.024638084387696761 2.0869035998059798e-05 0 0.024625081147205075 5.7382628000339729e-07 0 0.024580908156360919 2.509008509710662e-05 0 0.019636295986063583 0.00015611070253224494 0 0.017181130148871741 -0.00044551652477620434 0 0.017181130148871741 -0.00044551652477620434 0 0.013848399741700721 0.00024735212726349792 0 0.014724225224200794 -0.00023115072994953043 0 0.014723897748377388 -0.00013055963947940501 0 0.014982690137787875 -0.00018465007646119918 0 0.024638084387696761 2.0869035998059798e-05 0 0.024660509039343248 -5.449885831680586e-05 0 0.024625081147205075 5.7382628000339729e-07 0 0.024681612344824272 -0.00012602067199505562 0 0.024638084387696761 2.0869035998059798e-05 0 0.024660509039343248 -5.449885831680586e-05 0 0.025237692783944429 -0.00016921715909893885 0 0.017181130148871741 -0.00044551652477620434 0 0.024681612344824272 -0.00012602067199505562 0 0.02468850863748772 -9.2972139396208691e-05 0 0.024660509039343248 -5.449885831680586e-05 0 0.024692212045665095 -8.0637904618004129e-05 0 0.024636910982371939 -2.7617185013839085e-05 0 0.024596423113949713 -5.7343538631108738e-06 0 0.024692212045665095 -8.0637904618004129e-05 0 0.024660509039343248 -5.449885831680586e-05 0 0.024636910982371939 -2.7617185013839085e-05 0 0.024660509039343248 -5.449885831680586e-05 0 0.024636910982371939 -2.7617185013839085e-05 0 0.024625081147205075 5.7382628000339729e-07 0 0.024609942775444919 -1.8291387707093378e-06 0 0.024625081147205075 5.7382628000339729e-07 0 0.024580908156360919 2.509008509710662e-05 0 0.024636910982371939 -2.7617185013839085e-05 0 0.024609942775444919 -1.8291387707093378e-06 0 0.024625081147205075 5.7382628000339729e-07 0 0.024560084456451099 6.2967753754627191e-05 0 0.024580908156360919 2.509008509710662e-05 0 0.024596423113949713 -5.7343538631108738e-06 0 0.019636295986063583 0.00015611070253224494 0 0.02215882261567315 -0.00066307467114387706 0 0.024609942775444919 -1.8291387707093378e-06 0 0.024580908156360919 2.509008509710662e-05 0 0.024596423113949713 -5.7343538631108738e-06 0 0.024636910982371939 -2.7617185013839085e-05 0 0.024609942775444919 -1.8291387707093378e-06 0 0.024596423113949713 -5.7343538631108738e-06 0 0.024560084456451099 6.2967753754627191e-05 0 0.024526907308758592 -1.191970069343956e-05 0 0.024373547804198772 8.8804890222629918e-05 0 0.019636295986063583 0.00015611070253224494 0 0.020282821458991636 -0.00028706011670833354 0 0.024560084456451099 6.2967753754627191e-05 0 0.024596423113949713 -5.7343538631108738e-06 0 0.024526907308758592 -1.191970069343956e-05 0 0.02434680032555751 -0.00015996218102956863 0 0.024526907308758592 -1.191970069343956e-05 0 0.024373547804198772 8.8804890222629918e-05 0 0.020767029990208623 0.00019916285538103883 0 0.020282821458991636 -0.00028706011670833354 0 0.015616481087807792 -0.00071289688738042096 0 0.016193881275896421 -0.00059660486029154648 0 0.015928359717934399 -0.00041042023002871482 0 0.02434680032555751 -0.00015996218102956863 0 0.024105041458363983 3.4397643835583923e-05 0 0.024373547804198772 8.8804890222629918e-05 0 0.016193881275896421 -0.00059660486029154648 0 0.015928359717934399 -0.00041042023002871482 0 0.015941898705393837 4.0790717683588571e-05 0 0.015383872805707566 -2.4508414752093912e-05 0 0.015941898705393837 4.0790717683588571e-05 0 0.015861769843964171 -0.00010718382890504193 0 0.015685603783326979 -0.00041479735747533444 0 0.015928359717934399 -0.00041042023002871482 0 0.015861769843964171 -0.00010718382890504193 0 0.015928359717934399 -0.00041042023002871482 0 0.015941898705393837 4.0790717683588571e-05 0 0.015861769843964171 -0.00010718382890504193 0 0.019636295986063583 0.00015611070253224494 0 0.014503393261337656 5.9636219514002281e-05 0 0.014724225224200794 -0.00023115072994953043 0 0.014555990195307128 -7.2409685855755982e-05 0 0.014653030217900535 -9.8057939682835748e-05 0 0.016919215829526432 -0.00039115797904726361 0 0.016193881275896421 -0.00059660486029154648 0 0.015941898705393837 4.0790717683588571e-05 0 0.014724225224200794 -0.00023115072994953043 0 0.014723897748377388 -0.00013055963947940501 0 0.014653030217900535 -9.8057939682835748e-05 0 0.014723897748377388 -0.00013055963947940501 0 0.014653030217900535 -9.8057939682835748e-05 0 0.014676936781820056 -4.3097353787064637e-05 0 0.014555990195307128 -7.2409685855755982e-05 0 0.014653030217900535 -9.8057939682835748e-05 0 0.014599896885714442 -3.9290322016882565e-05 0 0.014653030217900535 -9.8057939682835748e-05 0 0.014599896885714442 -3.9290322016882565e-05 0 0.014676936781820056 -4.3097353787064637e-05 0 0.014599896885714442 -3.9290322016882565e-05 0 0.014610755280791152 -1.3744791138468167e-05 0 0.014676936781820056 -4.3097353787064637e-05 0 0.014555990195307128 -7.2409685855755982e-05 0 0.014571341372904459 -3.2637059860197778e-05 0 0.014560935247534169 -1.6964859552449839e-05 0 0.014555990195307128 -7.2409685855755982e-05 0 0.014599896885714442 -3.9290322016882565e-05 0 0.014571341372904459 -3.2637059860197778e-05 0 0.014599896885714442 -3.9290322016882565e-05 0 0.014571341372904459 -3.2637059860197778e-05 0 0.014568279121833188 -1.0401602022649918e-05 0 0.014571341372904459 -3.2637059860197778e-05 0 0.014560935247534169 -1.6964859552449839e-05 0 0.014568279121833188 -1.0401602022649918e-05 0 0.014560080280436982 -3.4885478725588145e-06 0 0.014560935247534169 -1.6964859552449839e-05 0 0.014568279121833188 -1.0401602022649918e-05 0 0.014568279121833188 -1.0401602022649918e-05 0 0.014610755280791152 -1.3744791138468167e-05 0 0.014540287867173984 -1.1206829765268374e-05 0 0.011052107302482496 -0.00045674814238113286 0 0.011859249529182344 -0.00038572875154453928 0 0.014610755280791152 -1.3744791138468167e-05 0 0.014670518716319119 -9.5543255264395938e-06 0 0.014540287867173984 -1.1206829765268374e-05 0 0.014599896885714442 -3.9290322016882565e-05 0 0.014568279121833188 -1.0401602022649918e-05 0 0.014610755280791152 -1.3744791138468167e-05 0 0.009620533590891673 -0.0009581734502139798 0 0.0094819385667838513 -0.0016109375885605772 0 0.0091536179721863429 -0.0010914437526420415 0 0.014610755280791152 -1.3744791138468167e-05 0 0.014670518716319119 -9.5543255264395938e-06 0 0.014676936781820056 -4.3097353787064637e-05 0 0.017181130148871741 -0.00044551652477620434 0 0.011052107302482496 -0.00045674814238113286 0 0.014796598929414916 -0.00012181968405512973 0 0.014670518716319119 -9.5543255264395938e-06 0 0.014676936781820056 -4.3097353787064637e-05 0 0.009620533590891673 -0.0009581734502139798 0 0.0091536179721863429 -0.0010914437526420415 0 0.0093536097984137142 -0.00053890012144953015 0 0.0093536097984137142 -0.00053890012144953015 0 0.0095065908958309464 -5.3818269374948751e-05 0 0.0090301358778041522 -0.00012914374405855562 0 0.0093536097984137142 -0.00053890012144953015 0 0.0095065908958309464 -5.3818269374948751e-05 0 0.0097958144904196874 -0.00044126638306486227 0 0.0093536097984137142 -0.00053890012144953015 0 0.008854506309409994 -0.00061707942047951273 0 0.0090301358778041522 -0.00012914374405855562 0 0.0091536179721863429 -0.0010914437526420415 0 0.0093536097984137142 -0.00053890012144953015 0 0.008854506309409994 -0.00061707942047951273 0 0.014568279121833188 -1.0401602022649918e-05 0 0.01454122949034395 -3.2099459251593892e-05 0 0.014555033352856104 -2.4346136672077688e-05 0 0.014568279121833188 -1.0401602022649918e-05 0 0.014540287867173984 -1.1206829765268374e-05 0 0.01454122949034395 -3.2099459251593892e-05 0 0.014540287867173984 -1.1206829765268374e-05 0 0.01454122949034395 -3.2099459251593892e-05 0 0.014517188432123991 -8.6738085643688751e-05 0 0.01454122949034395 -3.2099459251593892e-05 0 0.014517188432123991 -8.6738085643688751e-05 0 0.014529343900502555 -6.0283414936751644e-05 0 0.011859249529182344 -0.00038572875154453928 0 0.011422527031841007 -1.0563146106747493e-05 0 0.008854506309409994 -0.00061707942047951273 0 0.0085207339929614639 -0.00010763340704129556 0 0.0090301358778041522 -0.00012914374405855562 0 0.0085207339929614639 -0.00010763340704129556 0 0.0086562378755856671 0.00037509231707296998 0 0.0090301358778041522 -0.00012914374405855562 0 0.0085207339929614639 -0.00010763340704129556 0 0.0086562378755856671 0.00037509231707296998 0 0.0081563102089673521 0.00045819127238184613 0 0.011422527031841007 -1.0563146106747493e-05 0 0.01172913742997566 5.8380594629195059e-05 0 0.0086562378755856671 0.00037509231707296998 0 0.009178172032634508 0.00037059895613043034 0 0.0090301358778041522 -0.00012914374405855562 0 0.008049349930852677 0.0012241739314021926 0 0.0087194788999561939 0.00047446139202584237 0 0.0071464302771636961 0.001902187321169573 0 0.0080060596562247874 0.0018877450957888097 0 0.0078841351126908519 0.0010325962963630259 0 0.009178172032634508 0.00037059895613043034 0 0.0095065908958309464 -5.3818269374948751e-05 0 0.0090301358778041522 -0.00012914374405855562 0 0.014667839111324832 -7.8598213427810414e-05 0 0.014720044852522172 -8.1508783696307278e-05 0 0.014685668488097717 -9.0163657519103032e-05 0 0.014667839111324832 -7.8598213427810414e-05 0 0.014720044852522172 -8.1508783696307278e-05 0 0.014657792567670129 -5.9245799474907296e-05 0 0.014667839111324832 -7.8598213427810414e-05 0 0.014621858337830557 -9.6369264484030175e-05 0 0.014685668488097717 -9.0163657519103032e-05 0 0.014667839111324832 -7.8598213427810414e-05 0 0.014622394118430956 -8.0220838219321943e-05 0 0.014621858337830557 -9.6369264484030175e-05 0 0.014667839111324832 -7.8598213427810414e-05 0 0.014657792567670129 -5.9245799474907296e-05 0 0.014622394118430956 -8.0220838219321943e-05 0 0.014733735947804893 1.0286742031391482e-05 0 0.014720044852522172 -8.1508783696307278e-05 0 0.014713638856573725 -2.3702045271612584e-05 0 0.014720044852522172 -8.1508783696307278e-05 0 0.014713638856573725 -2.3702045271612584e-05 0 0.014657792567670129 -5.9245799474907296e-05 0 0.014669914059339798 -3.1207598354011373e-05 0 0.014657792567670129 -5.9245799474907296e-05 0 0.014582484746312619 -5.3977565822829496e-05 0 0.014713638856573725 -2.3702045271612584e-05 0 0.014669914059339798 -3.1207598354011373e-05 0 0.014657792567670129 -5.9245799474907296e-05 0 0.014657792567670129 -5.9245799474907296e-05 0 0.014579683611746221 -7.6434345765106603e-05 0 0.014582484746312619 -5.3977565822829496e-05 0 0.014657792567670129 -5.9245799474907296e-05 0 0.014622394118430956 -8.0220838219321943e-05 0 0.014579683611746221 -7.6434345765106603e-05 0 0.014579683611746221 -7.6434345765106603e-05 0 0.014582484746312619 -5.3977565822829496e-05 0 0.014516735832408093 -7.4857861305060969e-05 0 0.014582484746312619 -5.3977565822829496e-05 0 0.014529343900502555 -6.0283414936751644e-05 0 0.014516735832408093 -7.4857861305060969e-05 0 0.01460391010690114 -1.4772892584411277e-05 0 0.014582484746312619 -5.3977565822829496e-05 0 0.014555033352856104 -2.4346136672077688e-05 0 0.01460391010690114 -1.4772892584411277e-05 0 0.014669914059339798 -3.1207598354011373e-05 0 0.014582484746312619 -5.3977565822829496e-05 0 0.01454122949034395 -3.2099459251593892e-05 0 0.014555033352856104 -2.4346136672077688e-05 0 0.014529343900502555 -6.0283414936751644e-05 0 0.014582484746312619 -5.3977565822829496e-05 0 0.014555033352856104 -2.4346136672077688e-05 0 0.014529343900502555 -6.0283414936751644e-05 0 0.014529343900502555 -6.0283414936751644e-05 0 0.014466241888343731 -8.2966367970347963e-05 0 0.014516735832408093 -7.4857861305060969e-05 0 0.014517188432123991 -8.6738085643688751e-05 0 0.014466241888343731 -8.2966367970347963e-05 0 0.014518317188201553 0.00010967548096936359 0 0.014517188432123991 -8.6738085643688751e-05 0 0.014529343900502555 -6.0283414936751644e-05 0 0.014466241888343731 -8.2966367970347963e-05 0 0.014466241888343731 -8.2966367970347963e-05 0 0.014518317188201553 0.00010967548096936359 0 0.014376466099012459 -6.961257538651015e-05 0 0.014518317188201553 0.00010967548096936359 0 0.014376466099012459 -6.961257538651015e-05 0 0.014024170331682706 0.00029749070445455781 0 0.014466241888343731 -8.2966367970347963e-05 0 0.014376466099012459 -6.961257538651015e-05 0 0.014462375898941955 -8.115559595231948e-05 0 0.015027561805750534 -0.00032846608158884632 0 0.011868027156122006 0.0002445395011569194 0 0.014462160931321858 -0.00012269495843436777 0 0.014519123648672862 -9.3572714672826592e-05 0 0.014502067308278046 -0.00019238701668459606 0 0.014376466099012459 -6.961257538651015e-05 0 0.013388642390262705 0.00035731234825028872 0 0.014024170331682706 0.00029749070445455781 0 0.014376466099012459 -6.961257538651015e-05 0 0.014462160931321858 -0.00012269495843436777 0 0.014502067308278046 -0.00019238701668459606 0 0.014376466099012459 -6.961257538651015e-05 0 0.014462375898941955 -8.115559595231948e-05 0 0.014462160931321858 -0.00012269495843436777 0 0.014462375898941955 -8.115559595231948e-05 0 0.014462160931321858 -0.00012269495843436777 0 0.014519123648672862 -9.3572714672826592e-05 0 0.014579683611746221 -7.6434345765106603e-05 0 0.014516735832408093 -7.4857861305060969e-05 0 0.014519123648672862 -9.3572714672826592e-05 0 0.014462375898941955 -8.115559595231948e-05 0 0.014516735832408093 -7.4857861305060969e-05 0 0.014519123648672862 -9.3572714672826592e-05 0 0.014466241888343731 -8.2966367970347963e-05 0 0.014462375898941955 -8.115559595231948e-05 0 0.014516735832408093 -7.4857861305060969e-05 0 0.014579683611746221 -7.6434345765106603e-05 0 0.014586867451795606 -9.0058221141757478e-05 0 0.014519123648672862 -9.3572714672826592e-05 0 0.014622394118430956 -8.0220838219321943e-05 0 0.014579683611746221 -7.6434345765106603e-05 0 0.014586867451795606 -9.0058221141757478e-05 0 0.014586867451795606 -9.0058221141757478e-05 0 0.01458919897636359 -0.0001073625516488387 0 0.014621858337830557 -9.6369264484030175e-05 0 0.014622394118430956 -8.0220838219321943e-05 0 0.014586867451795606 -9.0058221141757478e-05 0 0.014621858337830557 -9.6369264484030175e-05 0 0.014586867451795606 -9.0058221141757478e-05 0 0.01458919897636359 -0.0001073625516488387 0 0.014519123648672862 -9.3572714672826592e-05 0 0.014519123648672862 -9.3572714672826592e-05 0 0.014577198239109553 -0.0001506050704421851 0 0.014486603910196743 -0.00022973512198712589 0 0.014794478728601982 -0.00029511973712877815 0 0.011868027156122006 0.0002445395011569194 0 0.010174280157803554 -0.00033341058764892699 0 0.0098859584250971851 6.8552341519560113e-05 0 0.010760021130501909 0.00025978797523509433 0 0.012380291745160492 -0.00022203106614279814 0 0.011868027156122006 0.0002445395011569194 0 0.01458919897636359 -0.0001073625516488387 0 0.014519123648672862 -9.3572714672826592e-05 0 0.014577198239109553 -0.0001506050704421851 0 0.01458919897636359 -0.0001073625516488387 0 0.014577198239109553 -0.0001506050704421851 0 0.01461854583050008 -0.0001061644608795481 0 0.012380291745160492 -0.00022203106614279814 0 0.012430081886312696 -0.00035838497877586732 0 0.010174280157803554 -0.00033341058764892699 0 0.0096765012268808948 -0.00029508782877123114 0 0.00969600349193157 -0.00082777941791345032 0 0.0096765012268808948 -0.00029508782877123114 0 0.00969600349193157 -0.00082777941791345032 0 0.0089797205027614731 1.2606969242146711e-05 0 0.0096765012268808948 -0.00029508782877123114 0 0.0098859584250971851 6.8552341519560113e-05 0 0.0089797205027614731 1.2606969242146711e-05 0 0.010174280157803554 -0.00033341058764892699 0 0.0096765012268808948 -0.00029508782877123114 0 0.0098859584250971851 6.8552341519560113e-05 0 0.014637928732063861 -0.00012754061278636534 0 0.014621858337830557 -9.6369264484030175e-05 0 0.014685668488097717 -9.0163657519103032e-05 0 0.01458919897636359 -0.0001073625516488387 0 0.01461854583050008 -0.0001061644608795481 0 0.014621858337830557 -9.6369264484030175e-05 0 0.012430081886312696 -0.00035838497877586732 0 0.014052053465032438 -0.00067950627120148344 0 0.012430081886312696 -0.00035838497877586732 0 0.013318347068647516 -0.00031019958760068083 0 0.0051307271767007511 0.0015295573609829349 0 0.0053462080075643709 0.0017234617049881231 0 0.0050388376025111226 0.0020803363099068995 0 0.0096541972343526343 0.001125513939111405 0 0.009225022666109077 0.00056279069647578392 0 0.0086838217948872615 0.0011063179200957605 0 0.0051307271767007511 0.0015295573609829349 0 0.0055044561852429039 0.0014612652141299345 0 0.0053462080075643709 0.0017234617049881231 0 0.009225022666109077 0.00056279069647578392 0 0.0098859584250971851 6.8552341519560113e-05 0 0.0086237292622993386 5.6487469817205827e-06 0 0.0096541972343526343 0.001125513939111405 0 0.009225022666109077 0.00056279069647578392 0 0.0098859584250971851 6.8552341519560113e-05 0 0.0095619880636553401 9.619203774848777e-05 0 0.0094375658324055076 -0.00025344705455715823 0 0.0096541972343526343 0.001125513939111405 0 0.0098859584250971851 6.8552341519560113e-05 0 0.010760021130501909 0.00025978797523509433 0 0.013248804059391725 0.00032833616653987329 0 0.013233530444718471 0.0011433911837518927 0 0.013483004757322104 0.00074534419863039273 0 0.0051307271767007511 0.0015295573609829349 0 0.0058452282510896682 0.00096323612451361471 0 0.0055044561852429039 0.0014612652141299345 0 0.0067767199037623736 0.0015314870596492274 0 0.011868027156122006 0.0002445395011569194 0 0.011868027156122006 0.0002445395011569194 0 0.0069662885875323086 0.0021930053255180813 0 0.0058452282510896682 0.00096323612451361471 0 0.0058253353982967594 0.0015666540816338405 0 0.0055044561852429039 0.0014612652141299345 0 0.0069662885875323086 0.0021930053255180813 0 0.0055218756248636962 0.0015911869712091308 0 0.0056979982071550138 0.0015529156155829195 0 0.0053462080075643709 0.0017234617049881231 0 0.0053683077394300772 0.0019604489906491778 0 0.0056979982071550138 0.0015529156155829195 0 0.0055044561852429039 0.0014612652141299345 0 0.0053462080075643709 0.0017234617049881231 0 0.00437664696370653 0.0024004922969702641 0 0.0048460868954391069 0.0025465419251509275 0 0.0042986125315794431 0.0033039135759000116 0 0.013901938751946558 0.001336002173918765 0 0.013744370503809134 0.00081388966998498322 0 0.013483004757322104 0.00074534419863039273 0 0.0069662885875323086 0.0021930053255180813 0 0.0086408013627641521 0.0019685023158363818 0 0.013233530444718471 0.0011433911837518927 0 0.013771357738951957 0.0013193619423237117 0 0.013483004757322104 0.00074534419863039273 0 0.0086408013627641521 0.0019685023158363818 0 0.013479230420618913 0.0016272021316596798 0 0.014518317188201553 0.00010967548096936359 0 0.013901938751946558 0.001336002173918765 0 0.013744370503809134 0.00081388966998498322 0 0.014518317188201553 0.00010967548096936359 0 0.013744370503809134 0.00081388966998498322 0 0.014024170331682706 0.00029749070445455781 0 0.011868027156122006 0.0002445395011569194 0 0.013698520574524939 0.001051108383548371 0 0.013248804059391725 0.00032833616653987329 0 0.013744370503809134 0.00081388966998498322 0 0.013483004757322104 0.00074534419863039273 0 0.013388642390262705 0.00035731234825028872 0 0.013744370503809134 0.00081388966998498322 0 0.014024170331682706 0.00029749070445455781 0 0.0081563102089673521 0.00045819127238184613 0 0.0078010525320514456 0.0010713570121142837 0 0.008197912579717366 0.00089368125237512623 0 0.01172913742997566 5.8380594629195059e-05 0 0.0086408013627641521 0.0019685023158363818 0 0.0086408013627641521 0.0019685023158363818 0 0.0036207343828683763 0.0029640704510520794 0 0.0078010525320514456 0.0010713570121142837 0 0.008197912579717366 0.00089368125237512623 0 0.0083924912605906916 0.0012762695150613107 0 0.0086408013627641521 0.0019685023158363818 0 0.00065196156609895466 0.0039408387815338787 0 0.0056317433047392718 0.0038348059110087573 0 0.0043687278102265631 0.0019553294517308047 0 0.003335604674196416 0.0031048710032651273 0 0.00065196156609895466 0.0039408387815338787 0 0.00095372609201160689 0.004085153019021911 0 -0.0027049193972075109 0.0046225092811284308 0 -0.0029280645457096929 0.0043235734362969637 0 -0.0024468572264390539 0.0043306346437184283 0 0.00065196156609895466 0.0039408387815338787 0 -0.0031073708497565463 0.0041455874968787734 0 0.0047996919431722998 0.003354907413868563 0 0.0045369126303334813 0.0034049673193437126 0 0.0045102980007219236 0.0036911910733813751 0 0.0045369126303334813 0.0034049673193437126 0 0.0042590699742157193 0.0034342100601569199 0 0.0045102980007219236 0.0036911910733813751 0 0.0045369126303334813 0.0034049673193437126 0 0.0044086967916165676 0.0033047730807591398 0 0.0042590699742157193 0.0034342100601569199 0 0.0044086967916165676 0.0033047730807591398 0 0.0044683290088758099 0.0031431455862466016 0 0.0042986125315794431 0.0033039135759000116 0 0.0086408013627641521 0.0019685023158363818 0 0.0032319101095283501 0.0039084272883192737 0 0.0045583755094828395 0.0029245340320245604 0 0.0044683290088758099 0.0031431455862466016 0 0.0042986125315794431 0.0033039135759000116 0 0.0045583755094828395 0.0029245340320245604 0 0.0047996919431722998 0.003354907413868563 0 0.0044683290088758099 0.0031431455862466016 0 0.0045369126303334813 0.0034049673193437126 0 0.0044086967916165676 0.0033047730807591398 0 0.0044683290088758099 0.0031431455862466016 0 0.0047996919431722998 0.003354907413868563 0 0.0045369126303334813 0.0034049673193437126 0 0.0044683290088758099 0.0031431455862466016 0 0.0069662885875323086 0.0021930053255180813 0 0.0050586177903357643 0.0027600002603025467 0 0.0056979982071550138 0.0015529156155829195 0 0.0053683077394300772 0.0019604489906491778 0 0.0055710617435283261 0.0022907367731799266 0 0.00437664696370653 0.0024004922969702641 0 0.0042986125315794431 0.0033039135759000116 0 0.0042590699742157193 0.0034342100601569199 0 0.0053683077394300772 0.0019604489906491778 0 0.0055710617435283261 0.0022907367731799266 0 0.0052887473757784933 0.0022351011280647491 0 0.0055710617435283261 0.0022907367731799266 0 0.0053028526534686753 0.0024592836594929386 0 0.0054204969728174129 0.0027103393131830671 0 0.0044086967916165676 0.0033047730807591398 0 0.0042986125315794431 0.0033039135759000116 0 0.0042590699742157193 0.0034342100601569199 0 0.0055710617435283261 0.0022907367731799266 0 0.0053028526534686753 0.0024592836594929386 0 0.0052887473757784933 0.0022351011280647491 0 0.0051136169926979383 0.0024127005174150147 0 0.0050388376025111226 0.0020803363099068995 0 0.004852940579140241 0.0025147525766644782 0 0.0052887473757784933 0.0022351011280647491 0 0.0051136169926979383 0.0024127005174150147 0 0.0050388376025111226 0.0020803363099068995 0 0.0053028526534686753 0.0024592836594929386 0 0.0052887473757784933 0.0022351011280647491 0 0.0051136169926979383 0.0024127005174150147 0 0.0053028526534686753 0.0024592836594929386 0 0.0051136169926979383 0.0024127005174150147 0 0.0051145322849729556 0.0026479560054992858 0 0.0051136169926979383 0.0024127005174150147 0 0.004852940579140241 0.0025147525766644782 0 0.0051145322849729556 0.0026479560054992858 0 0.0051307271767007511 0.0015295573609829349 0 0.0050388376025111226 0.0020803363099068995 0 0.0046368765445767325 0.0019407761747413524 0 0.0053683077394300772 0.0019604489906491778 0 0.0052887473757784933 0.0022351011280647491 0 0.0050388376025111226 0.0020803363099068995 0 0.0053462080075643709 0.0017234617049881231 0 0.0053683077394300772 0.0019604489906491778 0 0.0050388376025111226 0.0020803363099068995 0 0.0076584426889993338 0.0029472209664015473 0 0.0072381173068508395 0.0025959661344725281 0 0.0070280244893079326 0.0032560718783955309 0 0.0072381173068508395 0.0025959661344725281 0 0.0066864834854861574 0.0025694997250932912 0 0.0070280244893079326 0.0032560718783955309 0 0.0076584426889993338 0.0029472209664015473 0 0.0072381173068508395 0.0025959661344725281 0 0.0080640861946717091 0.0024223377299164889 0 0.0071464302771636961 0.001902187321169573 0 0.0080060596562247874 0.0018877450957888097 0 0.0072381173068508395 0.0025959661344725281 0 0.0080060596562247874 0.0018877450957888097 0 0.0072381173068508395 0.0025959661344725281 0 0.0080640861946717091 0.0024223377299164889 0 0.008049349930852677 0.0012241739314021926 0 0.0083772239502940792 0.0013539935881216479 0 0.0071464302771636961 0.001902187321169573 0 0.0072381173068508395 0.0025959661344725281 0 0.0066864834854861574 0.0025694997250932912 0 0.0086562378755856671 0.00037509231707296998 0 0.009178172032634508 0.00037059895613043034 0 0.00880717463408906 0.00081933137710499899 0 0.0086562378755856671 0.00037509231707296998 0 0.008197912579717366 0.00089368125237512623 0 0.00880717463408906 0.00081933137710499899 0 0.0086562378755856671 0.00037509231707296998 0 0.0081563102089673521 0.00045819127238184613 0 0.008197912579717366 0.00089368125237512623 0 0.008197912579717366 0.00089368125237512623 0 0.00880717463408906 0.00081933137710499899 0 0.0083924912605906916 0.0012762695150613107 0 0.0083772239502940792 0.0013539935881216479 0 0.0036207343828683763 0.0029640704510520794 0 0.0066864834854861574 0.0025694997250932912 0 0.0062146183803731972 0.0030483560541904168 0 0.0070280244893079326 0.0032560718783955309 0 0.0036207343828683763 0.0029640704510520794 0 0.0015188985824032295 0.0040446181954739554 0 -0.0028183247170408066 0.0048096682663091748 0 -0.0029814642389439277 0.0045056190483200092 0 -0.0033779551697381018 0.0046278741677791098 0 -0.0026008669434306637 0.0045545651314202844 0 -0.0028183247170408066 0.0048096682663091748 0 -0.0029814642389439277 0.0045056190483200092 0 0.00065196156609895466 0.0039408387815338787 0 0.0036207343828683763 0.0029640704510520794 0 -0.0029814642389439277 0.0045056190483200092 0 -0.0032323576845989686 0.0042654178339148648 0 -0.002853046371821516 0.0042661698197615193 0 -0.0026008669434306637 0.0045545651314202844 0 -0.0029814642389439277 0.0045056190483200092 0 -0.002853046371821516 0.0042661698197615193 0 -0.0029814642389439277 0.0045056190483200092 0 -0.0033779551697381018 0.0046278741677791098 0 -0.0032323576845989686 0.0042654178339148648 0 -0.0033779551697381018 0.0046278741677791098 0 -0.0035840009226678223 0.0041752368311527384 0 -0.0032323576845989686 0.0042654178339148648 0 0.0070280244893079326 0.0032560718783955309 0 0.0074330497928951928 0.0030773079363228253 0 0.0073823869168442849 0.0030076132258364096 0 0.0076584426889993338 0.0029472209664015473 0 0.0070280244893079326 0.0032560718783955309 0 0.0074330497928951928 0.0030773079363228253 0 0.0015188985824032295 0.0040446181954739554 0 0.0013357317851388367 0.0036932540035315496 0 -0.0033779551697381018 0.0046278741677791098 0 -0.0038434344564363125 0.0044659719373155108 0 -0.0035840009226678223 0.0041752368311527384 0 -0.0038434344564363125 0.0044659719373155108 0 -0.0043560280870280858 0.0043077777042524659 0 -0.0041303685813986885 0.004174022581230204 0 0.0073823869168442849 0.0030076132258364096 0 0.0064908167822576206 0.0026096880375685882 0 0.0071435939209683278 0.003166019515368101 0 0.0013357317851388367 0.0036932540035315496 0 0.0032821029091052202 0.0033625346161073322 0 0.0032821029091052202 0.0033625346161073322 0 0.0084456388295261198 0.0035403237114829179 0 0.0083577431812497938 0.003380741138020088 0 0.0085161254464182108 0.0036843399628656145 0 0.0083163081575037927 0.0035263166913113665 0 0.008404039620947934 0.003643496295461195 0 0.0085555361992702989 0.0035047616521369216 0 0.0085161254464182108 0.0036843399628656145 0 0.008404039620947934 0.003643496295461195 0 0.0085161254464182108 0.0036843399628656145 0 0.0083163081575037927 0.0035263166913113665 0 0.0088382928674223624 0.0036909317435573634 0 0.008576131536568379 0.0035487823247373576 0 0.0093012746370809713 0.0037645940759442184 0 0.0090415235269430821 0.003320083691205713 0 0.0094627476832429801 0.0032431662605891245 0 0.0093012746370809713 0.0037645940759442184 0 0.0085555361992702989 0.0035047616521369216 0 0.0090415235269430821 0.003320083691205713 0 0.0076584426889993338 0.0029472209664015473 0 0.0074330497928951928 0.0030773079363228253 0 0.0071435939209683278 0.003166019515368101 0 0.0076584426889993338 0.0029472209664015473 0 0.0085555361992702989 0.0035047616521369216 0 0.0085161254464182108 0.0036843399628656145 0 0.0074210388806036495 0.0028514354079419769 0 0.0084456388295261198 0.0035403237114829179 0 0.0074330497928951928 0.0030773079363228253 0 0.0073823869168442849 0.0030076132258364096 0 0.0071435939209683278 0.003166019515368101 0 0.0076584426889993338 0.0029472209664015473 0 0.0085555361992702989 0.0035047616521369216 0 0.0083986916566672377 0.0028764122547556637 0 0.0076584426889993338 0.0029472209664015473 0 0.0083986916566672377 0.0028764122547556637 0 0.0080640861946717091 0.0024223377299164889 0 0.0085555361992702989 0.0035047616521369216 0 0.0083986916566672377 0.0028764122547556637 0 0.0087932545781552688 0.0030873000818695678 0 0.0085555361992702989 0.0035047616521369216 0 0.0087932545781552688 0.0030873000818695678 0 0.0090415235269430821 0.003320083691205713 0 0.0090415235269430821 0.003320083691205713 0 0.0091671145043855928 0.0029843815353424929 0 0.0094627476832429801 0.0032431662605891245 0 0.0087932545781552688 0.0030873000818695678 0 0.0090415235269430821 0.003320083691205713 0 0.0091671145043855928 0.0029843815353424929 0 0.0091671145043855928 0.0029843815353424929 0 0.0089684367660427481 0.0026836960523915305 0 0.0094534063099643625 0.002624104715179603 0 0.0091671145043855928 0.0029843815353424929 0 0.0094534063099643625 0.002624104715179603 0 0.0094627476832429801 0.0032431662605891245 0 0.0083986916566672377 0.0028764122547556637 0 0.0087932545781552688 0.0030873000818695678 0 0.0089684367660427481 0.0026836960523915305 0 0.0087932545781552688 0.0030873000818695678 0 0.0091671145043855928 0.0029843815353424929 0 0.0089684367660427481 0.0026836960523915305 0 0.0083986916566672377 0.0028764122547556637 0 0.0089684367660427481 0.0026836960523915305 0 0.008800930254450362 0.002280073947937878 0 0.0089684367660427481 0.0026836960523915305 0 0.0092650792566544606 0.0022309542205762229 0 0.008800930254450362 0.002280073947937878 0 0.0089684367660427481 0.0026836960523915305 0 0.0092650792566544606 0.0022309542205762229 0 0.0094534063099643625 0.002624104715179603 0 0.0092650792566544606 0.0022309542205762229 0 0.008800930254450362 0.002280073947937878 0 0.0091777246896318984 0.0018031344693342406 0 0.008800930254450362 0.002280073947937878 0 0.0080640861946717091 0.0024223377299164889 0 0.0085942533416752918 0.0019578789888987829 0 0.0080060596562247874 0.0018877450957888097 0 0.0080640861946717091 0.0024223377299164889 0 0.0085942533416752918 0.0019578789888987829 0 0.0083986916566672377 0.0028764122547556637 0 0.008800930254450362 0.002280073947937878 0 0.0080640861946717091 0.0024223377299164889 0 0.01065260491763465 0.0025530255449586173 0 0.011115801500587044 0.0027734100434350251 0 0.01097002448184296 0.0024420153168357482 0 0.011115801500587044 0.0027734100434350251 0 0.011231143043842684 0.002431403670227348 0 0.011443437348510884 0.0026752776747451441 0 0.011115801500587044 0.0027734100434350251 0 0.011231143043842684 0.002431403670227348 0 0.01097002448184296 0.0024420153168357482 0 0.011231143043842684 0.002431403670227348 0 0.011077065072476184 0.0021694299954723101 0 0.01097002448184296 0.0024420153168357482 0 0.011231143043842684 0.002431403670227348 0 0.011077065072476184 0.0021694299954723101 0 0.011386596070838249 0.0020976933048989688 0 0.01065260491763465 0.0025530255449586173 0 0.010851939658452847 0.0022185310172724761 0 0.010665120766943316 0.0020245702491262819 0 0.011077065072476184 0.0021694299954723101 0 0.010851939658452847 0.0022185310172724761 0 0.01097002448184296 0.0024420153168357482 0 0.01065260491763465 0.0025530255449586173 0 0.010851939658452847 0.0022185310172724761 0 0.01097002448184296 0.0024420153168357482 0 0.0096000262808544224 0.0022270966748936683 0 0.0098442937252121391 0.0027723163608289734 0 0.0098329730589668957 0.001667215940496523 0 0.010466801291826297 0.0024520731216275652 0 0.010264133713859324 0.00275604731092223 0 0.010232798144068392 0.0017514356584245187 0 0.0102037758935144 0.002760492516191892 0 0.010020152939358758 0.0016804390800820332 0 0.0092650792566544606 0.0022309542205762229 0 0.0096000262808544224 0.0022270966748936683 0 0.0094944396115779883 0.0018962610532161734 0 0.0092650792566544606 0.0022309542205762229 0 0.0096000262808544224 0.0022270966748936683 0 0.0094534063099643625 0.002624104715179603 0 0.0096000262808544224 0.0022270966748936683 0 0.0094534063099643625 0.002624104715179603 0 0.0098442937252121391 0.0027723163608289734 0 0.0098442937252121391 0.0027723163608289734 0 0.0094627476832429801 0.0032431662605891245 0 0.0099642836841272401 0.0039840086758476407 0 0.0094534063099643625 0.002624104715179603 0 0.0098442937252121391 0.0027723163608289734 0 0.0094627476832429801 0.0032431662605891245 0 0.010466801291826297 0.0024520731216275652 0 0.010264133713859324 0.00275604731092223 0 0.010662504639722018 0.0031604889177478052 0 0.010264133713859324 0.00275604731092223 0 0.010662504639722018 0.0031604889177478052 0 0.010334146552777444 0.003625122398890309 0 0.010529549006453783 0.0024509027276866315 0 0.011011793163773497 0.0033944301975153608 0 0.01065260491763465 0.0025530255449586173 0 0.011115801500587044 0.0027734100434350251 0 0.01099858889095307 0.0034130232284223395 0 0.011115801500587044 0.0027734100434350251 0 0.01099858889095307 0.0034130232284223395 0 0.011458131030627891 0.0030776313095757513 0 0.01099858889095307 0.0034130232284223395 0 0.011461665618328088 0.0036044776858842665 0 0.011458131030627891 0.0030776313095757513 0 0.011011793163773497 0.0033944301975153608 0 0.0090798735195213604 0.003872391203231451 0 0.01099858889095307 0.0034130232284223395 0 0.011291840417421423 0.0041950050531350102 0 0.011461665618328088 0.0036044776858842665 0 0.010662504639722018 0.0031604889177478052 0 0.010334146552777444 0.003625122398890309 0 0.010872383653251367 0.0038103217609840711 0 0.0102037758935144 0.002760492516191892 0 0.0089847727147864594 0.0038985968862900568 0 0.0093012746370809713 0.0037645940759442184 0 0.0094627476832429801 0.0032431662605891245 0 0.0099642836841272401 0.0039840086758476407 0 0.008404039620947934 0.003643496295461195 0 0.0081721763319444959 0.0036135540998653436 0 0.0083163081575037927 0.0035263166913113665 0 0.0088382928674223624 0.0036909317435573634 0 0.0089847727147864594 0.0038985968862900568 0 0.0081721763319444959 0.0036135540998653436 0 0.0083163081575037927 0.0035263166913113665 0 0.0080921098453009613 0.0032790517982184161 0 0.0089847727147864594 0.0038985968862900568 0 0.0047602459954969685 0.0026419483146858441 0 0.0083577431812497938 0.003380741138020088 0 0.0083163081575037927 0.0035263166913113665 0 0.0080921098453009613 0.0032790517982184161 0 0.0075665837848258848 0.0043275430150647764 0 0.0060250238219808627 0.0038004218173564408 0 0.0073259351303679903 0.0022925005358569693 0 0.0089847727147864594 0.0038985968862900568 0 0.0090798735195213604 0.003872391203231451 0 0.0081171515494695388 0.004264192092836747 0 0.0068563680355064119 0.0038323611793668615 0 0.0069127435631657786 0.0012290919749851142 0 0.0090798735195213604 0.003872391203231451 0 0.009921151177008555 0.0037973493682178926 0 0.009921151177008555 0.0037973493682178926 0 0.0090594508567548391 0.0025431816705214516 0 0.008718541846032931 0.0031930076815015209 0 0.0078879541716196117 0.0029053535925721505 0 0.0083596941295290984 0.0021472925111996272 0 0.009921151177008555 0.0037973493682178926 0 0.006358250169720703 0.0018331142324559838 0 0.011730184319807848 0.0044201937233161754 0 0.012174751651490956 0.0045712905559474578 0 0.012026054607041812 0.0039046686679977309 0 0.0090594508567548391 0.0025431816705214516 0 0.011430627532663109 0.0028774764905657112 0 0.012026054607041812 0.0039046686679977309 0 0.01273506377583691 0.0037535130109633778 0 0.011972043017536382 0.0032406899360259665 0 0.012174751651490956 0.0045712905559474578 0 0.012026054607041812 0.0039046686679977309 0 0.01273506377583691 0.0037535130109633778 0 0.011730184319807848 0.0044201937233161754 0 0.012026054607041812 0.0039046686679977309 0 0.011461665618328088 0.0036044776858842665 0 0.011291840417421423 0.0041950050531350102 0 0.011667995245133997 0.0043236618039589388 0 0.011461665618328088 0.0036044776858842665 0 0.012026054607041812 0.0039046686679977309 0 0.011461665618328088 0.0036044776858842665 0 0.011972043017536382 0.0032406899360259665 0 0.009921151177008555 0.0037973493682178926 0 0.011754895505713719 0.0040133932803912359 0 0.0071553727752248454 0.00067196203158071852 0 0.0068712832849741681 0.00089453571001005901 0 0.0069969696724208824 0.00093694694845043226 0 0.0085760834554344748 0.0014436995681077472 0 0.007392419032113285 0.0010300290676983309 0 0.0072991478052034731 0.00081663842407235239 0 0.0071553727752248454 0.00067196203158071852 0 0.0069969696724208824 0.00093694694845043226 0 0.010046245393630929 0.0020453297345786698 0 0.0097509451104932972 0.001938178803021654 0 0.0098237106634217093 0.0022172740548489045 0 0.0096028094899072314 0.002145114778783869 0 0.0097509451104932972 0.001938178803021654 0 0.0098237106634217093 0.0022172740548489045 0 0.0090594508567548391 0.0025431816705214516 0 0.007392419032113285 0.0010300290676983309 0 0.010046245393630929 0.0020453297345786698 0 0.0097509451104932972 0.001938178803021654 0 0.010022667667394253 0.0018588185794034763 0 0.010147492253631995 0.0017077450614838741 0 0.010022667667394253 0.0018588185794034763 0 0.0099014132180889267 0.0017350885382906272 0 0.01273506377583691 0.0037535130109633778 0 0.013307307490747751 0.002920757679518402 0 0.012574963912988842 0.0028638371188419681 0 0.0097509451104932972 0.001938178803021654 0 0.010022667667394253 0.0018588185794034763 0 0.0099014132180889267 0.0017350885382906272 0 0.011430627532663109 0.0028774764905657112 0 0.011539664497743442 0.002365800211154 0 0.013307307490747751 0.002920757679518402 0 0.012920355635074824 0.0025155098941120019 0 0.012574963912988842 0.0028638371188419681 0 0.013307307490747751 0.002920757679518402 0 0.012920355635074824 0.0025155098941120019 0 0.013279640860944797 0.0021776508291889408 0 0.012920355635074824 0.0025155098941120019 0 0.012744833731244368 0.0021265085502578905 0 0.013279640860944797 0.0021776508291889408 0 0.013307307490747751 0.002920757679518402 0 0.013279640860944797 0.0021776508291889408 0 0.01387173618756668 0.0020699838186688004 0 0.010147492253631995 0.0017077450614838741 0 0.0099014132180889267 0.0017350885382906272 0 0.010045386470486944 0.0015416272938163021 0 0.011539664497743442 0.002365800211154 0 0.012275942150382552 0.0016972877350299894 0 0.011458131030627891 0.0030776313095757513 0 0.011972043017536382 0.0032406899360259665 0 0.011907317223017655 0.0026864243490551899 0 0.011458131030627891 0.0030776313095757513 0 0.011907317223017655 0.0026864243490551899 0 0.011443437348510884 0.0026752776747451441 0 0.011115801500587044 0.0027734100434350251 0 0.011458131030627891 0.0030776313095757513 0 0.011443437348510884 0.0026752776747451441 0 0.011461665618328088 0.0036044776858842665 0 0.011458131030627891 0.0030776313095757513 0 0.011972043017536382 0.0032406899360259665 0 0.01273506377583691 0.0037535130109633778 0 0.011972043017536382 0.0032406899360259665 0 0.012574963912988842 0.0028638371188419681 0 0.011972043017536382 0.0032406899360259665 0 0.012574963912988842 0.0028638371188419681 0 0.011907317223017655 0.0026864243490551899 0 0.012574963912988842 0.0028638371188419681 0 0.01241973323685551 0.0023991905295889754 0 0.011907317223017655 0.0026864243490551899 0 0.012920355635074824 0.0025155098941120019 0 0.012574963912988842 0.0028638371188419681 0 0.01241973323685551 0.0023991905295889754 0 0.012920355635074824 0.0025155098941120019 0 0.012744833731244368 0.0021265085502578905 0 0.01241973323685551 0.0023991905295889754 0 0.012744833731244368 0.0021265085502578905 0 0.01241973323685551 0.0023991905295889754 0 0.012357517900036488 0.0020129567627047459 0 0.01241973323685551 0.0023991905295889754 0 0.011994733338476768 0.0022370980240438718 0 0.012357517900036488 0.0020129567627047459 0 0.01241973323685551 0.0023991905295889754 0 0.011994733338476768 0.0022370980240438718 0 0.011907317223017655 0.0026864243490551899 0 0.011994733338476768 0.0022370980240438718 0 0.011608552017262113 0.0023786770354969683 0 0.011699633615139321 0.0020819287348796253 0 0.011994733338476768 0.0022370980240438718 0 0.011907317223017655 0.0026864243490551899 0 0.011608552017262113 0.0023786770354969683 0 0.011231143043842684 0.002431403670227348 0 0.011443437348510884 0.0026752776747451441 0 0.011608552017262113 0.0023786770354969683 0 0.011907317223017655 0.0026864243490551899 0 0.011443437348510884 0.0026752776747451441 0 0.011608552017262113 0.0023786770354969683 0 0.011231143043842684 0.002431403670227348 0 0.011608552017262113 0.0023786770354969683 0 0.011386596070838249 0.0020976933048989688 0 0.011608552017262113 0.0023786770354969683 0 0.011386596070838249 0.0020976933048989688 0 0.011699633615139321 0.0020819287348796253 0 0.011386596070838249 0.0020976933048989688 0 0.011569098170478874 0.0017260396159998268 0 0.011699633615139321 0.0020819287348796253 0 0.011386596070838249 0.0020976933048989688 0 0.011569098170478874 0.0017260396159998268 0 0.011152018176319799 0.0018515852441303297 0 0.011569098170478874 0.0017260396159998268 0 0.011411084527049307 0.0013009861212959996 0 0.011259755294292521 0.00158116412088494 0 0.011569098170478874 0.0017260396159998268 0 0.011411084527049307 0.0013009861212959996 0 0.011704863854850202 0.0014284278083257188 0 0.011569098170478874 0.0017260396159998268 0 0.011986862586652814 0.0015482969418601602 0 0.011704863854850202 0.0014284278083257188 0 0.011569098170478874 0.0017260396159998268 0 0.011986862586652814 0.0015482969418601602 0 0.011991122993221418 0.0018873567765684877 0 0.011569098170478874 0.0017260396159998268 0 0.011991122993221418 0.0018873567765684877 0 0.011699633615139321 0.0020819287348796253 0 0.011994733338476768 0.0022370980240438718 0 0.011991122993221418 0.0018873567765684877 0 0.011699633615139321 0.0020819287348796253 0 0.011991122993221418 0.0018873567765684877 0 0.012357517900036488 0.0020129567627047459 0 0.012326042707016453 0.0016622228292687852 0 0.011994733338476768 0.0022370980240438718 0 0.011991122993221418 0.0018873567765684877 0 0.012357517900036488 0.0020129567627047459 0 0.012357517900036488 0.0020129567627047459 0 0.012669102007918341 0.0017887646756027885 0 0.012326042707016453 0.0016622228292687852 0 0.012744833731244368 0.0021265085502578905 0 0.012357517900036488 0.0020129567627047459 0 0.012669102007918341 0.0017887646756027885 0 0.012717156868702572 0.0014609956447067445 0 0.012326042707016453 0.0016622228292687852 0 0.012274323663973402 0.0012987586450128655 0 0.012669102007918341 0.0017887646756027885 0 0.012717156868702572 0.0014609956447067445 0 0.012326042707016453 0.0016622228292687852 0 0.011986862586652814 0.0015482969418601602 0 0.012326042707016453 0.0016622228292687852 0 0.012274323663973402 0.0012987586450128655 0 0.011986862586652814 0.0015482969418601602 0 0.011991122993221418 0.0018873567765684877 0 0.012326042707016453 0.0016622228292687852 0 0.012274323663973402 0.0012987586450128655 0 0.012258714830289839 0.00094024572277904303 0 0.011850468466598495 0.0011378234547240462 0 0.012274323663973402 0.0012987586450128655 0 0.012650135191445656 0.0010513569869068896 0 0.012258714830289839 0.00094024572277904303 0 0.012717156868702572 0.0014609956447067445 0 0.012274323663973402 0.0012987586450128655 0 0.012650135191445656 0.0010513569869068896 0 0.012650135191445656 0.0010513569869068896 0 0.012258714830289839 0.00094024572277904303 0 0.012519147479540178 0.00063811441881123478 0 0.012650135191445656 0.0010513569869068896 0 0.012948997970331527 0.00077874416473842131 0 0.012519147479540178 0.00063811441881123478 0 0.011424496519484004 0.00074489510542093682 0 0.011850468466598495 0.0011378234547240462 0 0.011969696957097419 0.00062150105319609596 0 0.012258714830289839 0.00094024572277904303 0 0.011850468466598495 0.0011378234547240462 0 0.011969696957097419 0.00062150105319609596 0 0.011424496519484004 0.00074489510542093682 0 0.011411084527049307 0.0013009861212959996 0 0.011850468466598495 0.0011378234547240462 0 0.011411084527049307 0.0013009861212959996 0 0.011850468466598495 0.0011378234547240462 0 0.011704863854850202 0.0014284278083257188 0 0.011986862586652814 0.0015482969418601602 0 0.011850468466598495 0.0011378234547240462 0 0.011704863854850202 0.0014284278083257188 0 0.011986862586652814 0.0015482969418601602 0 0.012274323663973402 0.0012987586450128655 0 0.011850468466598495 0.0011378234547240462 0 0.01433014636015102 0.0013547240590312795 0 0.013616851091339555 0.0016825637799724922 0 0.013744662031941418 0.0012840180736763867 0 0.01433014636015102 0.0013547240590312795 0 0.013875481157907937 0.0020614302599778469 0 0.013616851091339555 0.0016825637799724922 0 0.012275942150382552 0.0016972877350299894 0 0.013466602214336782 0.002127241788760531 0 0.013279640860944797 0.0021776508291889408 0 0.01387173618756668 0.0020699838186688004 0 0.013616851091339555 0.0016825637799724922 0 0.013616851091339555 0.0016825637799724922 0 0.013047158764615274 0.0017401567903888029 0 0.013239427652362589 0.0012098957424729799 0 0.013279640860944797 0.0021776508291889408 0 0.013616851091339555 0.0016825637799724922 0 0.013047158764615274 0.0017401567903888029 0 0.012744833731244368 0.0021265085502578905 0 0.013279640860944797 0.0021776508291889408 0 0.013047158764615274 0.0017401567903888029 0 0.012744833731244368 0.0021265085502578905 0 0.012669102007918341 0.0017887646756027885 0 0.013047158764615274 0.0017401567903888029 0 0.012717156868702572 0.0014609956447067445 0 0.013047158764615274 0.0017401567903888029 0 0.013239427652362589 0.0012098957424729799 0 0.012669102007918341 0.0017887646756027885 0 0.012717156868702572 0.0014609956447067445 0 0.013047158764615274 0.0017401567903888029 0 0.012717156868702572 0.0014609956447067445 0 0.012650135191445656 0.0010513569869068896 0 0.013239427652362589 0.0012098957424729799 0 0.012650135191445656 0.0010513569869068896 0 0.012948997970331527 0.00077874416473842131 0 0.013239427652362589 0.0012098957424729799 0 0.012948997970331527 0.00077874416473842131 0 0.013239427652362589 0.0012098957424729799 0 0.013361762539661259 0.00066194247031570608 0 0.013616851091339555 0.0016825637799724922 0 0.013239427652362589 0.0012098957424729799 0 0.013744662031941418 0.0012840180736763867 0 0.013239427652362589 0.0012098957424729799 0 0.013792891664825054 0.00088910946154344703 0 0.013744662031941418 0.0012840180736763867 0 0.013239427652362589 0.0012098957424729799 0 0.013792891664825054 0.00088910946154344703 0 0.013361762539661259 0.00066194247031570608 0 0.01433014636015102 0.0013547240590312795 0 0.013792891664825054 0.00088910946154344703 0 0.013744662031941418 0.0012840180736763867 0 0.014206169306330325 0.00076687104260790724 0 0.013792891664825054 0.00088910946154344703 0 0.013940976894413584 0.0001596019340469819 0 0.013792891664825054 0.00088910946154344703 0 0.013940976894413584 0.0001596019340469819 0 0.013361762539661259 0.00066194247031570608 0 0.013940976894413584 0.0001596019340469819 0 0.013372358451315458 0.0001993078445246391 0 0.013361762539661259 0.00066194247031570608 0 0.013372358451315458 0.0001993078445246391 0 0.013361762539661259 0.00066194247031570608 0 0.012927077285034052 0.00034432454008055983 0 0.012948997970331527 0.00077874416473842131 0 0.013361762539661259 0.00066194247031570608 0 0.012927077285034052 0.00034432454008055983 0 0.012948997970331527 0.00077874416473842131 0 0.012927077285034052 0.00034432454008055983 0 0.012519147479540178 0.00063811441881123478 0 0.013372358451315458 0.0001993078445246391 0 0.012927077285034052 0.00034432454008055983 0 0.013235566733822065 -0.00035568551683722304 0 0.012927077285034052 0.00034432454008055983 0 0.013235566733822065 -0.00035568551683722304 0 0.012348810828394879 7.6051621965772255e-05 0 0.014810601543593932 -0.00070070185616984734 0 0.014705805897742029 0.00052202074797910226 0 0.013235566733822065 -0.00035568551683722304 0 0.013940976894413584 0.0001596019340469819 0 0.013372358451315458 0.0001993078445246391 0 0.013235566733822065 -0.00035568551683722304 0 0.014502186849685973 0.00033905656723292476 0 0.013235199880283609 -0.00032792826994225551 0 0.011582003425981277 0.00014359751774322034 0 0.011969696957097419 0.00062150105319609596 0 0.012348810828394879 7.6051621965772255e-05 0 0.011424496519484004 0.00074489510542093682 0 0.011582003425981277 0.00014359751774322034 0 0.011969696957097419 0.00062150105319609596 0 0.011969696957097419 0.00062150105319609596 0 0.012519147479540178 0.00063811441881123478 0 0.012348810828394879 7.6051621965772255e-05 0 0.012258714830289839 0.00094024572277904303 0 0.011969696957097419 0.00062150105319609596 0 0.012519147479540178 0.00063811441881123478 0 0.012927077285034052 0.00034432454008055983 0 0.012519147479540178 0.00063811441881123478 0 0.012348810828394879 7.6051621965772255e-05 0 0.013235566733822065 -0.00035568551683722304 0 0.012348810828394879 7.6051621965772255e-05 0 0.012460143444346131 -0.00052421705336069097 0 0.012348810828394879 7.6051621965772255e-05 0 0.012460143444346131 -0.00052421705336069097 0 0.011687017630477286 -0.00057267748570136005 0 0.011582003425981277 0.00014359751774322034 0 0.012348810828394879 7.6051621965772255e-05 0 0.011687017630477286 -0.00057267748570136005 0 0.011582003425981277 0.00014359751774322034 0 0.011687017630477286 -0.00057267748570136005 0 0.011011027646242165 -0.00066576920661703671 0 0.011582003425981277 0.00014359751774322034 0 0.011011027646242165 -0.00066576920661703671 0 0.010820136073156518 0.0001372013701911935 0 0.011424496519484004 0.00074489510542093682 0 0.010820136073156518 0.0001372013701911935 0 0.010907505995417351 0.00094817087430872765 0 0.011424496519484004 0.00074489510542093682 0 0.011582003425981277 0.00014359751774322034 0 0.010820136073156518 0.0001372013701911935 0 0.010820136073156518 0.0001372013701911935 0 0.01005949389625534 0.00049844338043335908 0 0.010023064900855871 -0.00073466050382025997 0 0.010820136073156518 0.0001372013701911935 0 0.01005949389625534 0.00049844338043335908 0 0.010907505995417351 0.00094817087430872765 0 0.011011027646242165 -0.00066576920661703671 0 0.010820136073156518 0.0001372013701911935 0 0.010023064900855871 -0.00073466050382025997 0 0.0099574895030679917 -0.00070282250905770287 0 0.0093216687336462132 -0.00014011089867307257 0 0.009620533590891673 -0.0009581734502139798 0 0.010023064900855871 -0.00073466050382025997 0 0.0097958144904196874 -0.00044126638306486227 0 0.009620533590891673 -0.0009581734502139798 0 0.0093536097984137142 -0.00053890012144953015 0 0.0097958144904196874 -0.00044126638306486227 0 0.0078841351126908519 0.0010325962963630259 0 0.0088406173946626691 0.00013397165944876115 0 0.0092976532400027255 0.00077215608491603511 0 0.0087194788999561939 0.00047446139202584237 0 0.0093216687336462132 -0.00014011089867307257 0 0.01005949389625534 0.00049844338043335908 0 0.010023064900855871 -0.00073466050382025997 0 0.0088406173946626691 0.00013397165944876115 0 0.01005949389625534 0.00049844338043335908 0 0.0088406173946626691 0.00013397165944876115 0 0.0092976532400027255 0.00077215608491603511 0 0.01005949389625534 0.00049844338043335908 0 0.0092976532400027255 0.00077215608491603511 0 0.0094708483799597412 0.0013230159818001836 0 0.0092976532400027255 0.00077215608491603511 0 0.0094708483799597412 0.0013230159818001836 0 0.0088488305045070076 0.0014161554747101678 0 0.0078841351126908519 0.0010325962963630259 0 0.0092976532400027255 0.00077215608491603511 0 0.0088488305045070076 0.0014161554747101678 0 0.0080060596562247874 0.0018877450957888097 0 0.0085942533416752918 0.0019578789888987829 0 0.0088488305045070076 0.0014161554747101678 0 0.0080060596562247874 0.0018877450957888097 0 0.0078841351126908519 0.0010325962963630259 0 0.0088488305045070076 0.0014161554747101678 0 0.0094708483799597412 0.0013230159818001836 0 0.0094979884533565543 0.0016714603469646201 0 0.0091777246896318984 0.0018031344693342406 0 0.0094708483799597412 0.0013230159818001836 0 0.0088488305045070076 0.0014161554747101678 0 0.0091777246896318984 0.0018031344693342406 0 0.008800930254450362 0.002280073947937878 0 0.0085942533416752918 0.0019578789888987829 0 0.0091777246896318984 0.0018031344693342406 0 0.0085942533416752918 0.0019578789888987829 0 0.0088488305045070076 0.0014161554747101678 0 0.0091777246896318984 0.0018031344693342406 0 0.0092650792566544606 0.0022309542205762229 0 0.0091777246896318984 0.0018031344693342406 0 0.0094944396115779883 0.0018962610532161734 0 0.0094979884533565543 0.0016714603469646201 0 0.0091777246896318984 0.0018031344693342406 0 0.0094944396115779883 0.0018962610532161734 0 0.010529549006453783 0.0024509027276866315 0 0.010281962233274669 0.0017248888794460754 0 0.010466801291826297 0.0024520731216275652 0 0.010232798144068392 0.0017514356584245187 0 0.010255881493263752 0.0016520756960805758 0 0.01065260491763465 0.0025530255449586173 0 0.010255881493263752 0.0016520756960805758 0 0.010665120766943316 0.0020245702491262819 0 0.0094979884533565543 0.0016714603469646201 0 0.0094944396115779883 0.0018962610532161734 0 0.0098329730589668957 0.001667215940496523 0 0.0096000262808544224 0.0022270966748936683 0 0.0094944396115779883 0.0018962610532161734 0 0.0098329730589668957 0.001667215940496523 0 0.0094708483799597412 0.0013230159818001836 0 0.0094979884533565543 0.0016714603469646201 0 0.0098329730589668957 0.001667215940496523 0 0.010255881493263752 0.0016520756960805758 0 0.010567378576755168 0.0016389130732375006 0 0.01058609667148736 0.001283689428052385 0 0.010255881493263752 0.0016520756960805758 0 0.010567378576755168 0.0016389130732375006 0 0.010665120766943316 0.0020245702491262819 0 0.010567378576755168 0.0016389130732375006 0 0.010665120766943316 0.0020245702491262819 0 0.010762833970792286 0.0017657965166091975 0 0.010851939658452847 0.0022185310172724761 0 0.010665120766943316 0.0020245702491262819 0 0.010908856502525851 0.0019385545596810666 0 0.011077065072476184 0.0021694299954723101 0 0.010851939658452847 0.0022185310172724761 0 0.010908856502525851 0.0019385545596810666 0 0.010908856502525851 0.0019385545596810666 0 0.010762833970792286 0.0017657965166091975 0 0.010952242347755532 0.0016905334705001364 0 0.010665120766943316 0.0020245702491262819 0 0.010908856502525851 0.0019385545596810666 0 0.010762833970792286 0.0017657965166091975 0 0.011077065072476184 0.0021694299954723101 0 0.011386596070838249 0.0020976933048989688 0 0.011152018176319799 0.0018515852441303297 0 0.011077065072476184 0.0021694299954723101 0 0.010908856502525851 0.0019385545596810666 0 0.011152018176319799 0.0018515852441303297 0 0.010908856502525851 0.0019385545596810666 0 0.011152018176319799 0.0018515852441303297 0 0.010952242347755532 0.0016905334705001364 0 0.011569098170478874 0.0017260396159998268 0 0.011152018176319799 0.0018515852441303297 0 0.011259755294292521 0.00158116412088494 0 0.011152018176319799 0.0018515852441303297 0 0.011259755294292521 0.00158116412088494 0 0.010952242347755532 0.0016905334705001364 0 0.011259755294292521 0.00158116412088494 0 0.010952242347755532 0.0016905334705001364 0 0.010983169567210642 0.0014103999995614084 0 0.010567378576755168 0.0016389130732375006 0 0.010762833970792286 0.0017657965166091975 0 0.010759689485214158 0.0015520483489886783 0 0.010762833970792286 0.0017657965166091975 0 0.010952242347755532 0.0016905334705001364 0 0.010759689485214158 0.0015520483489886783 0 0.010952242347755532 0.0016905334705001364 0 0.010759689485214158 0.0015520483489886783 0 0.010983169567210642 0.0014103999995614084 0 0.010567378576755168 0.0016389130732375006 0 0.010759689485214158 0.0015520483489886783 0 0.01058609667148736 0.001283689428052385 0 0.010983169567210642 0.0014103999995614084 0 0.010907505995417351 0.00094817087430872765 0 0.01058609667148736 0.001283689428052385 0 0.010759689485214158 0.0015520483489886783 0 0.010983169567210642 0.0014103999995614084 0 0.01058609667148736 0.001283689428052385 0 0.011411084527049307 0.0013009861212959996 0 0.010983169567210642 0.0014103999995614084 0 0.010907505995417351 0.00094817087430872765 0 0.011411084527049307 0.0013009861212959996 0 0.011259755294292521 0.00158116412088494 0 0.010983169567210642 0.0014103999995614084 0 0.011424496519484004 0.00074489510542093682 0 0.011411084527049307 0.0013009861212959996 0 0.010907505995417351 0.00094817087430872765 0 0.01005949389625534 0.00049844338043335908 0 0.010232798144068392 0.0017514356584245187 0 0.010255881493263752 0.0016520756960805758 0 0.01005949389625534 0.00049844338043335908 0 0.010255881493263752 0.0016520756960805758 0 0.01058609667148736 0.001283689428052385 0 0.010040023544716652 0.0005470890975493132 0 0.010020152939358758 0.0016804390800820332 0 0.01005949389625534 0.00049844338043335908 0 0.0094708483799597412 0.0013230159818001836 0 0.0098329730589668957 0.001667215940496523 0 0.01005949389625534 0.00049844338043335908 0 0.010907505995417351 0.00094817087430872765 0 0.01058609667148736 0.001283689428052385 0 0.022140719270182581 0.0011939304456895809 0 0.022840710360500199 0.00080191016561168319 0 0.022300172683419196 0.0004334345963663155 0 0.022140719270182581 0.0011939304456895809 0 0.021752388897011667 0.00034421266608918391 0 0.022300172683419196 0.0004334345963663155 0 0.020186469490426903 -8.0687341574210655e-08 0 0.018981470378538576 -0.00027208254531912096 0 0.019137958435991722 -0.00011477086502433126 0 0.020189623179787598 -9.8458160245496197e-07 0 0.020290016114198818 1.0735146435933811e-06 0 0.020708837098130622 0.00056890957373045739 0 0.020292710677239256 1.5557489930098457e-07 0 0.022140719270182581 0.0011939304456895809 0 0.020296404875104375 2.5483277189335936e-06 0 0.021752388897011667 0.00034421266608918391 0 0.019137958435991722 -0.00011477086502433126 0 0.020189623179787598 -9.8458160245496197e-07 0 0.019401249751179309 -0.00053992121918168426 0 0.020185379278565355 8.3444055759764671e-07 0 0.018551675715687468 0.00012283982054880216 0 0.018700922528826588 -2.2184447354380043e-07 0 0.019401249751179309 -0.00053992121918168426 0 0.018786925751227583 -0.0006024880842207251 0 0.018658672375957749 -0.0010884805028766233 0 0.018981470378538576 -0.00027208254531912096 0 0.018216137432298472 -0.00058685366401227575 0 0.019137958435991722 -0.00011477086502433126 0 0.019401249751179309 -0.00053992121918168426 0 0.018786925751227583 -0.0006024880842207251 0 0.018786925751227583 -0.0006024880842207251 0 0.01850602300193235 -0.00080732676702567673 0 0.018658672375957749 -0.0010884805028766233 0 0.01826403687308328 -0.00088055393700054981 0 0.018169952257061958 -0.0010217259023586748 0 0.018314912078905558 -0.0010577882904534233 0 0.020463318960565611 -0.00010211742557941184 0 0.018207494068657241 -0.0011676132951190256 0 0.01850602300193235 -0.00080732676702567673 0 0.018258987370906494 -0.00045235489844150579 0 0.018314912078905558 -0.0010577882904534233 0 0.019137958435991722 -0.00011477086502433126 0 0.018786925751227583 -0.0006024880842207251 0 0.018258987370906494 -0.00045235489844150579 0 0.018786925751227583 -0.0006024880842207251 0 0.01850602300193235 -0.00080732676702567673 0 0.018258987370906494 -0.00045235489844150579 0 0.020463318960565611 -0.00010211742557941184 0 0.01911094316994108 -0.0010350534128192785 0 0.01826403687308328 -0.00088055393700054981 0 0.018169952257061958 -0.0010217259023586748 0 0.01807000361047912 -0.0010381460957912645 0 0.022011802725807758 -0.00048972636437809118 0 0.021167632242473516 0.0002719825983377739 0 0.020301874165867415 -0.00098713420794594602 0 0.022011802725807758 -0.00048972636437809118 0 0.021167632242473516 0.0002719825983377739 0 0.022207119220292455 0.0013619949300521187 0 0.023147351829214263 0.0014611506870979445 0 0.022840710360500199 0.00080191016561168319 0 0.023158413483237758 0.00029302638918626687 0 0.020463318960565611 -0.00010211742557941184 0 0.023110478075549327 0.0010188727412876722 0 0.022011802725807758 -0.00048972636437809118 0 0.022374571352467343 0.0014956569556230381 0 0.022207119220292455 0.0013619949300521187 0 0.020708837098130622 0.00056890957373045739 0 0.020463318960565611 -0.00010211742557941184 0 0.022140719270182581 0.0011939304456895809 0 0.023147351829214263 0.0014611506870979445 0 0.022840710360500199 0.00080191016561168319 0 0.022840710360500199 0.00080191016561168319 0 0.022682436050299449 0.00034636475364085653 0 0.022300172683419196 0.0004334345963663155 0 0.022840710360500199 0.00080191016561168319 0 0.022682436050299449 0.00034636475364085653 0 0.022919426307859952 0.00039253887179470343 0 0.022840710360500199 0.00080191016561168319 0 0.023158413483237758 0.00029302638918626687 0 0.022919426307859952 0.00039253887179470343 0 0.023158413483237758 0.00029302638918626687 0 0.022919426307859952 0.00039253887179470343 0 0.022988174202563657 0.00022914872058915086 0 0.022682436050299449 0.00034636475364085653 0 0.022919426307859952 0.00039253887179470343 0 0.022988174202563657 0.00022914872058915086 0 0.0207313396445407 0.0010294651890517571 0 0.022207119220292455 0.0013619949300521187 0 0.019631148318263809 0.0019476736293973173 0 0.022259798864334115 0.0013522052272802625 0 0.021853403526768896 0.0014787552753589828 0 0.021167632242473516 0.0002719825983377739 0 0.0207313396445407 0.0010294651890517571 0 0.022207119220292455 0.0013619949300521187 0 0.022374571352467343 0.0014956569556230381 0 0.022207119220292455 0.0013619949300521187 0 0.023394728629653184 0.00084475097649595041 0 0.022207119220292455 0.0013619949300521187 0 0.023394728629653184 0.00084475097649595041 0 0.024126065194538301 0.001082977623248924 0 0.022374571352467343 0.0014956569556230381 0 0.023394728629653184 0.00084475097649595041 0 0.023491383877858211 0.00012379065887323121 0 0.023110478075549327 0.0010188727412876722 0 0.023292684112253565 0.00014393820372685023 0 0.022988174202563657 0.00022914872058915086 0 0.023136463445029159 0.00011637132736681373 0 0.022277982325229779 3.2798722412373127e-05 0 0.023158413483237758 0.00029302638918626687 0 0.023136463445029159 0.00011637132736681373 0 0.023491383877858211 0.00012379065887323121 0 0.023158413483237758 0.00029302638918626687 0 0.022988174202563657 0.00022914872058915086 0 0.023136463445029159 0.00011637132736681373 0 0.023136463445029159 0.00011637132736681373 0 0.022277982325229779 3.2798722412373127e-05 0 0.023346913196812383 -4.8941662024806663e-06 0 0.020296404875104375 2.5483277189335936e-06 0 0.022277982325229779 3.2798722412373127e-05 0 0.0230386434555966 -1.0731592507618271e-06 0 0.022682436050299449 0.00034636475364085653 0 0.022277982325229779 3.2798722412373127e-05 0 0.022300172683419196 0.0004334345963663155 0 0.022682436050299449 0.00034636475364085653 0 0.022988174202563657 0.00022914872058915086 0 0.022277982325229779 3.2798722412373127e-05 0 0.022277982325229779 3.2798722412373127e-05 0 0.021752388897011667 0.00034421266608918391 0 0.022300172683419196 0.0004334345963663155 0 0.020296404875104375 2.5483277189335936e-06 0 0.022277982325229779 3.2798722412373127e-05 0 0.021752388897011667 0.00034421266608918391 0 0.022277982325229779 3.2798722412373127e-05 0 0.023346913196812383 -4.8941662024806663e-06 0 0.0230386434555966 -1.0731592507618271e-06 0 0.023346913196812383 -4.8941662024806663e-06 0 0.0230386434555966 -1.0731592507618271e-06 0 0.024139427625338775 -9.8854340781684514e-05 0 0.0230386434555966 -1.0731592507618271e-06 0 0.024998857958984211 1.4516609943399324e-07 0 0.024139427625338775 -9.8854340781684514e-05 0 0.024998857958984211 1.4516609943399324e-07 0 0.024139427625338775 -9.8854340781684514e-05 0 0.024998707941481551 -3.0655476271548234e-07 0 0.024998707941481551 -3.0655476271548234e-07 0 0.024160329022840838 -8.0310122688289278e-05 0 0.024667800781757853 -9.3592260698859616e-05 0 0.024139427625338775 -9.8854340781684514e-05 0 0.024998707941481551 -3.0655476271548234e-07 0 0.024160329022840838 -8.0310122688289278e-05 0 0.024160329022840838 -8.0310122688289278e-05 0 0.024336522314180882 -2.6644776027606129e-05 0 0.024667800781757853 -9.3592260698859616e-05 0 0.024160329022840838 -8.0310122688289278e-05 0 0.023491383877858211 0.00012379065887323121 0 0.024336522314180882 -2.6644776027606129e-05 0 0.023346913196812383 -4.8941662024806663e-06 0 0.024139427625338775 -9.8854340781684514e-05 0 0.024160329022840838 -8.0310122688289278e-05 0 0.023346913196812383 -4.8941662024806663e-06 0 0.024160329022840838 -8.0310122688289278e-05 0 0.023491383877858211 0.00012379065887323121 0 0.023136463445029159 0.00011637132736681373 0 0.023346913196812383 -4.8941662024806663e-06 0 0.023491383877858211 0.00012379065887323121 0 0.023394728629653184 0.00084475097649595041 0 0.023491383877858211 0.00012379065887323121 0 0.024318369207643156 0.00031922665160078725 0 0.023491383877858211 0.00012379065887323121 0 0.024318369207643156 0.00031922665160078725 0 0.024336522314180882 -2.6644776027606129e-05 0 0.024318369207643156 0.00031922665160078725 0 0.024665404571880423 0.00022834363211426126 0 0.024771811247283892 0.00058611041329372047 0 0.024318369207643156 0.00031922665160078725 0 0.024665404571880423 0.00022834363211426126 0 0.02462616455921093 1.5430293511543886e-05 0 0.02462616455921093 1.5430293511543886e-05 0 0.024336522314180882 -2.6644776027606129e-05 0 0.024637702709056429 -8.1685351134360386e-05 0 0.024665404571880423 0.00022834363211426126 0 0.02462616455921093 1.5430293511543886e-05 0 0.024780370409696745 5.9710672439495107e-05 0 0.024318369207643156 0.00031922665160078725 0 0.02462616455921093 1.5430293511543886e-05 0 0.024336522314180882 -2.6644776027606129e-05 0 0.024667800781757853 -9.3592260698859616e-05 0 0.024637702709056429 -8.1685351134360386e-05 0 0.024778048398610121 -8.6844049600315063e-05 0 0.024998707941481551 -3.0655476271548234e-07 0 0.024667800781757853 -9.3592260698859616e-05 0 0.024999290901452531 2.4434726902050985e-08 0 0.024336522314180882 -2.6644776027606129e-05 0 0.024667800781757853 -9.3592260698859616e-05 0 0.024637702709056429 -8.1685351134360386e-05 0 0.024722530037016653 -7.8119162367641876e-05 0 0.024623140243514995 0.00024869281915249275 0 0.02462616455921093 1.5430293511543886e-05 0 0.024753401659091394 -7.8711456451494182e-05 0 0.024722421333621583 -0.00010088692499416961 0 0.02462616455921093 1.5430293511543886e-05 0 0.024637702709056429 -8.1685351134360386e-05 0 0.024722421333621583 -0.00010088692499416961 0 0.024637702709056429 -8.1685351134360386e-05 0 0.024778048398610121 -8.6844049600315063e-05 0 0.024722421333621583 -0.00010088692499416961 0 0.025000000564881483 -3.1941508046739398e-10 0 0.024999690974256288 1.7825987516368777e-07 0 0.024999997055620657 1.1041925674098282e-09 0 0.024778048398610121 -8.6844049600315063e-05 0 0.024717792823164452 -2.2024177179918436e-05 0 0.024722421333621583 -0.00010088692499416961 0 0.024778048398610121 -8.6844049600315063e-05 0 0.024999290901452531 2.4434726902050985e-08 0 0.024717792823164452 -2.2024177179918436e-05 0 0.024999912689628052 -5.3232795787525174e-09 0 0.024889310989730767 1.0268273617202028e-05 0 0.024667800781757853 -9.3592260698859616e-05 0 0.024778048398610121 -8.6844049600315063e-05 0 0.024999290901452531 2.4434726902050985e-08 0 0.02393748568595664 0.0014637874357278271 0 0.023649060364641865 0.0009274215965970272 0 0.023112725059827283 0.0012272409505732138 0 0.024445365419653444 0.00050370017443886162 0 0.02357614383514707 0.00089858612528298737 0 0.024999997615963554 1.0586750725636292e-09 0 0.024998795146985702 1.0051500804686971e-06 0 0.024999997055620657 1.1041925674098282e-09 0 0.024617473283092883 0.00073097745072261456 0 0.024536673571889989 0.00082802480216909993 0 0.02390425377877526 0.00052449170279198409 0 0.024536673571889989 0.00082802480216909993 0 0.023813510895029789 0.00064896871526639839 0 0.02390425377877526 0.00052449170279198409 0 0.024999990732628111 3.5060334393633672e-09 0 0.024997414163252966 2.0112755853901501e-06 0 0.024997325888311873 1.4106978415804899e-06 0 0.024673099645236573 0.00026080720104776882 0 0.024457306517931692 0.00034077079244594101 0 0.024445365419653444 0.00050370017443886162 0 0.024673099645236573 0.00026080720104776882 0 0.024999957930405711 -4.8772009356272342e-08 0 0.024673099645236573 0.00026080720104776882 0 0.024639743415132882 -4.0676061882050944e-05 0 0.024717792823164452 -2.2024177179918436e-05 0 0.024722421333621583 -0.00010088692499416961 0 0.024998276056754608 1.3667246740763995e-06 0 0.024998795146985702 1.0051500804686971e-06 0 0.024999997055620657 1.1041925674098282e-09 0 0.024445365419653444 0.00050370017443886162 0 0.024889310989730767 1.0268273617202028e-05 0 0.024998276056754608 1.3667246740763995e-06 0 0.024999690974256288 1.7825987516368777e-07 0 0.024999997055620657 1.1041925674098282e-09 0 0.02393748568595664 0.0014637874357278271 0 0.02449169924857603 0.00081716855314323137 0 0.023649060364641865 0.0009274215965970272 0 0.024639743415132882 -4.0676061882050944e-05 0 0.024702572030518712 -0.00011349686879341877 0 0.024722421333621583 -0.00010088692499416961 0 0.024445365419653444 0.00050370017443886162 0 0.024623140243514995 0.00024869281915249275 0 0.024623140243514995 0.00024869281915249275 0 0.024608530788876086 0.00016276238188517073 0 0.02475740397606958 -0.00011305212832776359 0 0.024956318079357855 3.5444725489428476e-05 0 0.024780370409696745 5.9710672439495107e-05 0 0.024623140243514995 0.00024869281915249275 0 0.024579471566801028 0.00029253093025423046 0 0.02449169924857603 0.00081716855314323137 0 0.023649060364641865 0.0009274215965970272 0 0.023772770486299513 0.00033082111922575852 0 0.023649060364641865 0.0009274215965970272 0 0.023173504635979184 0.00066303144217504681 0 0.023112725059827283 0.0012272409505732138 0 0.023649060364641865 0.0009274215965970272 0 0.023772770486299513 0.00033082111922575852 0 0.023173504635979184 0.00066303144217504681 0 0.024579471566801028 0.00029253093025423046 0 0.022169173288205956 0.00052056713341589746 0 0.023772770486299513 0.00033082111922575852 0 0.023047733085190401 -0.00015651897737019109 0 0.023173504635979184 0.00066303144217504681 0 0.024956318079357855 3.5444725489428476e-05 0 0.025001167400378336 0.00020336511562918971 0 0.024858273940397673 0.00024952704080213336 0 0.024956318079357855 3.5444725489428476e-05 0 0.025001167400378336 0.00020336511562918971 0 0.025136687472277538 0.00019560192169691852 0 0.02462616455921093 1.5430293511543886e-05 0 0.02475740397606958 -0.00011305212832776359 0 0.024780370409696745 5.9710672439495107e-05 0 0.024956318079357855 3.5444725489428476e-05 0 0.024780370409696745 5.9710672439495107e-05 0 0.024858273940397673 0.00024952704080213336 0 0.024665404571880423 0.00022834363211426126 0 0.024780370409696745 5.9710672439495107e-05 0 0.024858273940397673 0.00024952704080213336 0 0.024858273940397673 0.00024952704080213336 0 0.025050702731082924 0.00034530356524687799 0 0.024771811247283892 0.00058611041329372047 0 0.024665404571880423 0.00022834363211426126 0 0.024858273940397673 0.00024952704080213336 0 0.024771811247283892 0.00058611041329372047 0 0.025001167400378336 0.00020336511562918971 0 0.024858273940397673 0.00024952704080213336 0 0.025050702731082924 0.00034530356524687799 0 0.020098386191964676 0.0011862861423889523 0 0.021717626589556626 0.0012815607711689082 0 0.025001167400378336 0.00020336511562918971 0 0.025050702731082924 0.00034530356524687799 0 0.025136687472277538 0.00019560192169691852 0 0.020098386191964676 0.0011862861423889523 0 0.017226860252348718 0.0024419620725586273 0 0.017269384017344146 0.002056526048329729 0 0.017558422025386947 0.0017356077389848684 0 0.017117626336686405 0.0015574052197927075 0 0.017558422025386947 0.0017356077389848684 0 0.017299299423960923 0.0009737131334155043 0 0.017117626336686405 0.0015574052197927075 0 0.017227747124851169 0.0022016054443415368 0 0.017558422025386947 0.0017356077389848684 0 0.018214728468417474 0.0019947121528856985 0 0.017558422025386947 0.0017356077389848684 0 0.017299299423960923 0.0009737131334155043 0 0.017874642825184969 0.0011521849146041046 0 0.017299299423960923 0.0009737131334155043 0 0.017874642825184969 0.0011521849146041046 0 0.017521408219859858 0.00051664968717269699 0 0.017874642825184969 0.0011521849146041046 0 0.018694824366565103 0.0011156930356255297 0 0.01808054646225922 0.00049424475669984256 0 0.017874642825184969 0.0011521849146041046 0 0.018214728468417474 0.0019947121528856985 0 0.018694824366565103 0.0011156930356255297 0 0.017874642825184969 0.0011521849146041046 0 0.017521408219859858 0.00051664968717269699 0 0.01808054646225922 0.00049424475669984256 0 0.017558422025386947 0.0017356077389848684 0 0.017874642825184969 0.0011521849146041046 0 0.018214728468417474 0.0019947121528856985 0 0.024318369207643156 0.00031922665160078725 0 0.024771811247283892 0.00058611041329372047 0 0.024126065194538301 0.001082977623248924 0 0.021717626589556626 0.0012815607711689082 0 0.021853403526768896 0.0014787552753589828 0 0.018214728468417474 0.0019947121528856985 0 0.019631148318263809 0.0019476736293973173 0 0.018694824366565103 0.0011156930356255297 0 0.023394728629653184 0.00084475097649595041 0 0.024318369207643156 0.00031922665160078725 0 0.024126065194538301 0.001082977623248924 0 0.019631148318263809 0.0019476736293973173 0 0.018694824366565103 0.0011156930356255297 0 0.019939149477200695 0.00057684737938407235 0 0.0207313396445407 0.0010294651890517571 0 0.019631148318263809 0.0019476736293973173 0 0.019939149477200695 0.00057684737938407235 0 0.018694824366565103 0.0011156930356255297 0 0.018779232112336418 -9.2678895449820951e-05 0 0.01808054646225922 0.00049424475669984256 0 0.018779232112336418 -9.2678895449820951e-05 0 0.018005254836266527 -0.00037032192765094831 0 0.01808054646225922 0.00049424475669984256 0 0.018694824366565103 0.0011156930356255297 0 0.018779232112336418 -9.2678895449820951e-05 0 0.019939149477200695 0.00057684737938407235 0 0.018779232112336418 -9.2678895449820951e-05 0 0.019939149477200695 0.00057684737938407235 0 0.020301874165867415 -0.00098713420794594602 0 0.021167632242473516 0.0002719825983377739 0 0.019939149477200695 0.00057684737938407235 0 0.020301874165867415 -0.00098713420794594602 0 0.021167632242473516 0.0002719825983377739 0 0.0207313396445407 0.0010294651890517571 0 0.019939149477200695 0.00057684737938407235 0 0.018779232112336418 -9.2678895449820951e-05 0 0.020301874165867415 -0.00098713420794594602 0 0.018332188982982698 -0.0010810358495010055 0 0.01911094316994108 -0.0010350534128192785 0 0.018507253189585536 -0.0010831996475738871 0 0.018779232112336418 -9.2678895449820951e-05 0 0.018005254836266527 -0.00037032192765094831 0 0.018332188982982698 -0.0010810358495010055 0 0.018005254836266527 -0.00037032192765094831 0 0.017644910506907953 -0.00084824594314498504 0 0.018332188982982698 -0.0010810358495010055 0 0.018005254836266527 -0.00037032192765094831 0 0.01746104490445902 -0.00017170535948426278 0 0.017644910506907953 -0.00084824594314498504 0 0.01746104490445902 -0.00017170535948426278 0 0.016957082770823795 0.00031868163677968933 0 0.016978186864860533 -0.00020445225444638702 0 0.01746104490445902 -0.00017170535948426278 0 0.017173919146556128 -0.00067139824370097436 0 0.017644910506907953 -0.00084824594314498504 0 0.01746104490445902 -0.00017170535948426278 0 0.016978186864860533 -0.00020445225444638702 0 0.017173919146556128 -0.00067139824370097436 0 0.017299299423960923 0.0009737131334155043 0 0.017521408219859858 0.00051664968717269699 0 0.016957082770823795 0.00031868163677968933 0 0.01746104490445902 -0.00017170535948426278 0 0.017521408219859858 0.00051664968717269699 0 0.016957082770823795 0.00031868163677968933 0 0.018005254836266527 -0.00037032192765094831 0 0.01746104490445902 -0.00017170535948426278 0 0.01808054646225922 0.00049424475669984256 0 0.01746104490445902 -0.00017170535948426278 0 0.017521408219859858 0.00051664968717269699 0 0.01808054646225922 0.00049424475669984256 0 0.016434630254636384 -6.3925195805148566e-05 0 0.015825150623938817 0.0002927403659081672 0 0.016450789774957078 0.00068117093031154008 0 0.016957082770823795 0.00031868163677968933 0 0.016434630254636384 -6.3925195805148566e-05 0 0.016450789774957078 0.00068117093031154008 0 0.016957082770823795 0.00031868163677968933 0 0.016450789774957078 0.00068117093031154008 0 0.016863353703639533 0.00078941172271148686 0 0.016978186864860533 -0.00020445225444638702 0 0.016748153253281883 -0.00046324131692954568 0 0.017173919146556128 -0.00067139824370097436 0 0.016957082770823795 0.00031868163677968933 0 0.016978186864860533 -0.00020445225444638702 0 0.016434630254636384 -6.3925195805148566e-05 0 0.016978186864860533 -0.00020445225444638702 0 0.016434630254636384 -6.3925195805148566e-05 0 0.016748153253281883 -0.00046324131692954568 0 0.016434630254636384 -6.3925195805148566e-05 0 0.015901706768925401 -0.00023929339583240831 0 0.016343865399533485 -0.00062480132530212727 0 0.016434630254636384 -6.3925195805148566e-05 0 0.015901706768925401 -0.00023929339583240831 0 0.015825150623938817 0.0002927403659081672 0 0.015901706768925401 -0.00023929339583240831 0 0.015573842221667352 2.1083282876014203e-05 0 0.015825150623938817 0.0002927403659081672 0 0.015901706768925401 -0.00023929339583240831 0 0.015573842221667352 2.1083282876014203e-05 0 0.015470438310750047 -0.0003066824998579723 0 0.015825150623938817 0.0002927403659081672 0 0.015776865840098572 0.00045143869801429027 0 0.015478236076303862 0.00027206399164858965 0 0.015573842221667352 2.1083282876014203e-05 0 0.015825150623938817 0.0002927403659081672 0 0.015478236076303862 0.00027206399164858965 0 0.015825150623938817 0.0002927403659081672 0 0.015947782782557672 0.0010624285000028514 0 0.016450789774957078 0.00068117093031154008 0 0.015825150623938817 0.0002927403659081672 0 0.015974288332774346 0.00054277419079587811 0 0.015776865840098572 0.00045143869801429027 0 0.015828680639860641 0.00033656479623563127 0 0.015956617307209504 0.00085002394187759858 0 0.015974288332774346 0.00054277419079587811 0 0.015776865840098572 0.00045143869801429027 0 0.015823165981541619 0.00061069083957360161 0 0.015776865840098572 0.00045143869801429027 0 0.015648758321186056 0.00060903132249451905 0 0.015478236076303862 0.00027206399164858965 0 0.015776865840098572 0.00045143869801429027 0 0.015648758321186056 0.00060903132249451905 0 0.015823165981541619 0.00061069083957360161 0 0.015648758321186056 0.00060903132249451905 0 0.015803297842006295 0.00074609636448673086 0 0.015823165981541619 0.00061069083957360161 0 0.015803297842006295 0.00074609636448673086 0 0.015689234320239654 0.00081343577249021811 0 0.015792819557639622 0.0009124441245045333 0 0.015648758321186056 0.00060903132249451905 0 0.015803297842006295 0.00074609636448673086 0 0.015689234320239654 0.00081343577249021811 0 0.015648758321186056 0.00060903132249451905 0 0.015689234320239654 0.00081343577249021811 0 0.015542026010661921 0.00079032374146462429 0 0.015974288332774346 0.00054277419079587811 0 0.016053148644185486 0.00080188387312852226 0 0.016138712049493426 0.00085416591138466234 0 0.015974288332774346 0.00054277419079587811 0 0.015911818335093694 0.00071172155424318879 0 0.016053148644185486 0.00080188387312852226 0 0.015956617307209504 0.00085002394187759858 0 0.016527944349558749 0.0009948986602541514 0 0.015803297842006295 0.00074609636448673086 0 0.015823165981541619 0.00061069083957360161 0 0.015911818335093694 0.00071172155424318879 0 0.015974288332774346 0.00054277419079587811 0 0.015823165981541619 0.00061069083957360161 0 0.015911818335093694 0.00071172155424318879 0 0.015803297842006295 0.00074609636448673086 0 0.015911818335093694 0.00071172155424318879 0 0.015923306020368035 0.00084815699891894537 0 0.015911818335093694 0.00071172155424318879 0 0.016053148644185486 0.00080188387312852226 0 0.015923306020368035 0.00084815699891894537 0 0.015947782782557672 0.0010624285000028514 0 0.016386353042567192 0.0013264948471322063 0 0.016184920453321198 0.0018262177381825168 0 0.016386353042567192 0.0013264948471322063 0 0.016701542632766998 0.0017293932793800264 0 0.016184920453321198 0.0018262177381825168 0 0.016386353042567192 0.0013264948471322063 0 0.016450789774957078 0.00068117093031154008 0 0.016763478192843493 0.0011886237662212 0 0.015947782782557672 0.0010624285000028514 0 0.016386353042567192 0.0013264948471322063 0 0.016450789774957078 0.00068117093031154008 0 0.017299299423960923 0.0009737131334155043 0 0.016863353703639533 0.00078941172271148686 0 0.016763478192843493 0.0011886237662212 0 0.017299299423960923 0.0009737131334155043 0 0.016957082770823795 0.00031868163677968933 0 0.016863353703639533 0.00078941172271148686 0 0.017299299423960923 0.0009737131334155043 0 0.016763478192843493 0.0011886237662212 0 0.017117626336686405 0.0015574052197927075 0 0.016450789774957078 0.00068117093031154008 0 0.016863353703639533 0.00078941172271148686 0 0.016763478192843493 0.0011886237662212 0 0.017269384017344146 0.002056526048329729 0 0.017117626336686405 0.0015574052197927075 0 0.016701542632766998 0.0017293932793800264 0 0.016763478192843493 0.0011886237662212 0 0.017117626336686405 0.0015574052197927075 0 0.016701542632766998 0.0017293932793800264 0 0.016386353042567192 0.0013264948471322063 0 0.016763478192843493 0.0011886237662212 0 0.016701542632766998 0.0017293932793800264 0 0.017269384017344146 0.002056526048329729 0 0.016701542632766998 0.0017293932793800264 0 0.016784029835672596 0.0022469921565441879 0 0.020098386191964676 0.0011862861423889523 0 0.022169173288205956 0.00052056713341589746 0 0.020098386191964676 0.0011862861423889523 0 0.018715454724177991 0.0010860568575551254 0 0.020424380993608649 0.00095804069159615573 0 0.020384436451899378 0.00096984602431478392 0 0.020407406365654728 0.00098227808284291314 0 0.016527944349558749 0.0009948986602541514 0 0.018624849658751205 0.0009822856161419407 0 0.018410393201091401 0.0012037997518582176 0 0.01746795726833357 0.00056254248442908557 0 0.017830497908485073 0.0014549402546444835 0 0.018715454724177991 0.0010860568575551254 0 0.016527944349558749 0.0009948986602541514 0 0.016701542632766998 0.0017293932793800264 0 0.016784029835672596 0.0022469921565441879 0 0.016184920453321198 0.0018262177381825168 0 0.016141760230089872 0.00085423227720535385 0 0.016263644166283446 0.001116847481966753 0 0.016045693917558789 0.00097701244564355112 0 0.016238868153102756 0.00083190254461702447 0 0.016527944349558749 0.0009948986602541514 0 0.020089622029775982 0.00058558048147621126 0 0.019908812411140425 0.00103591697750128 0 0.020356593893779387 0.0011751251868220936 0 0.016263644166283446 0.001116847481966753 0 0.015982092486181636 0.0012314387240902511 0 0.016045693917558789 0.00097701244564355112 0 0.020089622029775982 0.00058558048147621126 0 0.019908812411140425 0.00103591697750128 0 0.019474814274499926 0.00085021388387292998 0 0.018624849658751205 0.0009822856161419407 0 0.017424570182565061 0.0011607414927716118 0 0.018624849658751205 0.0009822856161419407 0 0.021026950127610831 0.0009943231468906061 0 0.018715454724177991 0.0010860568575551254 0 0.018624849658751205 0.0009822856161419407 0 0.01983492631021205 0.00071142041264121432 0 0.020396629220316809 0.00072099505179373173 0 0.02006455279071508 0.001222594057087262 0 0.023047733085190401 -0.00015651897737019109 0 0.023173504635979184 0.00066303144217504681 0 0.022555521017231454 0.00058122178865960934 0 0.022169173288205956 0.00052056713341589746 0 0.021026950127610831 0.0009943231468906061 0 0.020167858796592459 0.00056801033123660507 0 0.01983492631021205 0.00071142041264121432 0 0.020396629220316809 0.00072099505179373173 0 0.018715454724177991 0.0010860568575551254 0 0.022169173288205956 0.00052056713341589746 0 0.02221401364713374 0.00096800464830701588 0 0.02357614383514707 0.00089858612528298737 0 0.023173504635979184 0.00066303144217504681 0 0.022284859415674659 0.00098719440021207598 0 0.023112725059827283 0.0012272409505732138 0 0.023173504635979184 0.00066303144217504681 0 0.022555521017231454 0.00058122178865960934 0 0.022284859415674659 0.00098719440021207598 0 0.023064771516908701 0.00073228388505083917 0 0.022943773632319846 0.00091578718317526342 0 0.022198956527302482 0.00047439709094096281 0 0.019908812411140425 0.00103591697750128 0 0.020356593893779387 0.0011751251868220936 0 0.020149972146649674 0.0014944410650409269 0 0.021026950127610831 0.0009943231468906061 0 0.02221401364713374 0.00096800464830701588 0 0.019908812411140425 0.00103591697750128 0 0.020149972146649674 0.0014944410650409269 0 0.019502912405152655 0.0013066610427540466 0 0.02221401364713374 0.00096800464830701588 0 0.020956839237248455 0.00091679825194529397 0 0.02221401364713374 0.00096800464830701588 0 0.023856394595150654 0.00018909081275077512 0 0.023856394595150654 0.00018909081275077512 0 0.025000498086454236 -5.9720441403232405e-07 0 0.024994149747255265 2.1422913593452421e-06 0 0.024999994500576016 1.4303426417075243e-09 0 0.024999995036046052 1.199198837807847e-09 0 0.023177601310297821 0.00031026571142046832 0 0.023077030843343366 0.00046239931045535392 0 0.023813510895029789 0.00064896871526639839 0 0.024994149747255265 2.1422913593452421e-06 0 0.024999994500576016 1.4303426417075243e-09 0 0.024997325888311873 1.4106978415804899e-06 0 0.023177601310297821 0.00031026571142046832 0 0.023813510895029789 0.00064896871526639839 0 0.02390425377877526 0.00052449170279198409 0 0.024999990732628111 3.5060334393633672e-09 0 0.024999994500576016 1.4303426417075243e-09 0 0.024997325888311873 1.4106978415804899e-06 0 0.023856394595150654 0.00018909081275077512 0 0.024457306517931692 0.00034077079244594101 0 0.02497791989955124 6.9866902901448127e-06 0 0.024999952885731647 -3.894915896552818e-10 0 0.024985548550212719 4.6137538865382035e-06 0 0.024999987632334558 4.0896350788136472e-09 0 0.024999952885731647 -3.894915896552818e-10 0 0.024985548550212719 4.6137538865382035e-06 0 0.020956839237248455 0.00091679825194529397 0 0.018802565065694839 0.00090817817411123101 0 0.023856394595150654 0.00018909081275077512 0 0.023606729374557416 0.00037299945303827838 0 0.021933302121430246 0.00065450938328336864 0 0.022198956527302482 0.00047439709094096281 0 0.021337160365374509 0.00021465489097183859 0 0.019502912405152655 0.0013066610427540466 0 0.018856809986616464 0.0011136676675498221 0 0.019474814274499926 0.00085021388387292998 0 0.022943773632319846 0.00091578718317526342 0 0.021933302121430246 0.00065450938328336864 0 0.022198956527302482 0.00047439709094096281 0 0.021933302121430246 0.00065450938328336864 0 0.021337160365374509 0.00021465489097183859 0 0.02093039981330749 0.00038874402922571056 0 0.023606729374557416 0.00037299945303827838 0 0.022304996397253682 0.00017700228847273495 0 0.024999987632334558 4.0896350788136472e-09 0 0.024985548550212719 4.6137538865382035e-06 0 0.024978287387826693 3.5558935674401194e-06 0 0.018802565065694839 0.00090817817411123101 0 0.022304996397253682 0.00017700228847273495 0 0.015722315217426286 0.0013408523823029922 0 0.015782853773109829 0.0011042076871745504 0 0.015982092486181636 0.0012314387240902511 0 0.015722315217426286 0.0013408523823029922 0 0.015782853773109829 0.0011042076871745504 0 0.015587347232535813 0.0011180628743468551 0 0.018802565065694839 0.00090817817411123101 0 0.017424570182565061 0.0011607414927716118 0 0.019908812411140425 0.00103591697750128 0 0.019502912405152655 0.0013066610427540466 0 0.019474814274499926 0.00085021388387292998 0 0.015782853773109829 0.0011042076871745504 0 0.015982092486181636 0.0012314387240902511 0 0.015910901613581004 0.0010075662530535665 0 0.015982092486181636 0.0012314387240902511 0 0.016045693917558789 0.00097701244564355112 0 0.015910901613581004 0.0010075662530535665 0 0.015910901613581004 0.0010075662530535665 0 0.015923306020368035 0.00084815699891894537 0 0.015792819557639622 0.0009124441245045333 0 0.015803297842006295 0.00074609636448673086 0 0.015923306020368035 0.00084815699891894537 0 0.015792819557639622 0.0009124441245045333 0 0.016045693917558789 0.00097701244564355112 0 0.015910901613581004 0.0010075662530535665 0 0.015923306020368035 0.00084815699891894537 0 0.016053148644185486 0.00080188387312852226 0 0.016141760230089872 0.00085423227720535385 0 0.016045693917558789 0.00097701244564355112 0 0.016053148644185486 0.00080188387312852226 0 0.016045693917558789 0.00097701244564355112 0 0.015923306020368035 0.00084815699891894537 0 0.015782853773109829 0.0011042076871745504 0 0.015648905449910308 0.00095363942722343788 0 0.015587347232535813 0.0011180628743468551 0 0.015782853773109829 0.0011042076871745504 0 0.015910901613581004 0.0010075662530535665 0 0.015792819557639622 0.0009124441245045333 0 0.015782853773109829 0.0011042076871745504 0 0.015648905449910308 0.00095363942722343788 0 0.015792819557639622 0.0009124441245045333 0 0.015689234320239654 0.00081343577249021811 0 0.015648905449910308 0.00095363942722343788 0 0.015792819557639622 0.0009124441245045333 0 0.015689234320239654 0.00081343577249021811 0 0.015648905449910308 0.00095363942722343788 0 0.015542026010661921 0.00079032374146462429 0 0.01545574801701159 0.00094491631048761952 0 0.015542026010661921 0.00079032374146462429 0 0.015336788738329277 0.00075607223983376254 0 0.015648905449910308 0.00095363942722343788 0 0.01545574801701159 0.00094491631048761952 0 0.015542026010661921 0.00079032374146462429 0 0.01545574801701159 0.00094491631048761952 0 0.015228515888846939 0.00093482653884520168 0 0.015336788738329277 0.00075607223983376254 0 0.01545574801701159 0.00094491631048761952 0 0.015228515888846939 0.00093482653884520168 0 0.015396562016251997 0.0010995802991586147 0 0.01545574801701159 0.00094491631048761952 0 0.015587347232535813 0.0011180628743468551 0 0.015396562016251997 0.0010995802991586147 0 0.015648905449910308 0.00095363942722343788 0 0.01545574801701159 0.00094491631048761952 0 0.015587347232535813 0.0011180628743468551 0 0.01617668315381383 0.00051933062871389998 0 0.015916709361827409 0.00056689247243221048 0 0.016080696337978206 0.00039517450981449832 0 0.01617668315381383 0.00051933062871389998 0 0.016202811624554413 0.00081909145687838515 0 0.016009530087852934 0.00062589132909781644 0 0.01617668315381383 0.00051933062871389998 0 0.016009530087852934 0.00062589132909781644 0 0.015916709361827409 0.00056689247243221048 0 0.015750070729259113 0.00075341702182121501 0 0.019484939347611422 0.00081641285259133475 0 0.015228515888846939 0.00093482653884520168 0 0.015252003078693392 0.0011952431506784911 0 0.015396562016251997 0.0010995802991586147 0 0.015587347232535813 0.0011180628743468551 0 0.015396562016251997 0.0010995802991586147 0 0.015479969297951384 0.0012676507256126894 0 0.015252003078693392 0.0011952431506784911 0 0.015396562016251997 0.0010995802991586147 0 0.015479969297951384 0.0012676507256126894 0 0.019484939347611422 0.00081641285259133475 0 0.017692778283785172 0.00082314234649630725 0 0.015722315217426286 0.0013408523823029922 0 0.015587347232535813 0.0011180628743468551 0 0.015479969297951384 0.0012676507256126894 0 0.018802565065694839 0.00090817817411123101 0 0.017692778283785172 0.00082314234649630725 0 0.022304996397253682 0.00017700228847273495 0 0.024009265492546845 -0.00028853093442763553 0 0.020514372194542944 0.00061354774701885344 0 0.020075607512056039 8.1933745671795459e-05 0 0.021546204942674597 -0.00055248774402886537 0 0.019520399637977501 0.0003268143021292644 0 0.020514372194542944 0.00061354774701885344 0 0.020075607512056039 8.1933745671795459e-05 0 0.019484939347611422 0.00081641285259133475 0 0.024009265492546845 -0.00028853093442763553 0 0.024619708795556416 0.00014534863663404998 0 0.024642330435439067 1.7383894111076084e-05 0 0.024749102382300357 8.4546927096968761e-05 0 0.021502666940042853 0.00090550943871222451 0 0.020514372194542944 0.00061354774701885344 0 0.021546204942674597 -0.00055248774402886537 0 0.024009265492546845 -0.00028853093442763553 0 0.024999943653418174 2.1945271851190916e-07 0 0.02499411140559445 -1.4237704780335549e-06 0 0.024999989581669151 -3.6233292994569443e-09 0 0.024999116041141627 -4.4896396620999832e-07 0 0.024999987632334558 4.0896350788136472e-09 0 0.024978287387826693 3.5558935674401194e-06 0 0.02498823779792566 9.0795281399825127e-07 0 0.024999987632334558 4.0896350788136472e-09 0 0.02498823779792566 9.0795281399825127e-07 0 0.024999978073151286 -1.8966044566883153e-09 0 0.024999585810701878 -1.2767309194743477e-07 0 0.0247868560104418 -1.1629636501858192e-05 0 0.02486696290540226 5.967448940994238e-05 0 0.024999823789282723 4.2195548728167488e-08 0 0.025013320837693136 -1.6650831952227332e-05 0 0.024999999969669954 -9.5170512386550474e-11 0 0.024999999573772094 1.5258437969932256e-10 0 0.024999116041141627 -4.4896396620999832e-07 0 0.024009265492546845 -0.00028853093442763553 0 0.025013320837693136 -1.6650831952227332e-05 0 0.024999989581669151 -3.6233292994569443e-09 0 0.024999999573772094 1.5258437969932256e-10 0 0.024999116041141627 -4.4896396620999832e-07 0 0.0247868560104418 -1.1629636501858192e-05 0 0.024749102382300357 8.4546927096968761e-05 0 0.02486696290540226 5.967448940994238e-05 0 0.024642330435439067 1.7383894111076084e-05 0 0.0247868560104418 -1.1629636501858192e-05 0 0.024749102382300357 8.4546927096968761e-05 0 0.024749102382300357 8.4546927096968761e-05 0 0.02486696290540226 5.967448940994238e-05 0 0.024807804277355756 0.00010633388580896534 0 0.024812629235524387 0.00011852870328935925 0 0.02486696290540226 5.967448940994238e-05 0 0.024807804277355756 0.00010633388580896534 0 0.024812629235524387 0.00011852870328935925 0 0.024807804277355756 0.00010633388580896534 0 0.024789288988877695 0.0001387890318556779 0 0.024740584355905787 6.7918974201644955e-05 0 0.024812629235524387 0.00011852870328935925 0 0.024789288988877695 0.0001387890318556779 0 0.024619708795556416 0.00014534863663404998 0 0.024749102382300357 8.4546927096968761e-05 0 0.024789288988877695 0.0001387890318556779 0 0.024749102382300357 8.4546927096968761e-05 0 0.024807804277355756 0.00010633388580896534 0 0.024789288988877695 0.0001387890318556779 0 0.019484939347611422 0.00081641285259133475 0 0.020489927335680627 0.00034853507831101807 0 0.016202811624554413 0.00081909145687838515 0 0.015753496748333377 0.00058580045129756869 0 0.016009530087852934 0.00062589132909781644 0 0.015753496748333377 0.00058580045129756869 0 0.015916709361827409 0.00056689247243221048 0 0.015827569488984682 0.00059968269021146354 0 0.015753496748333377 0.00058580045129756869 0 0.016009530087852934 0.00062589132909781644 0 0.015916709361827409 0.00056689247243221048 0 0.015916709361827409 0.00056689247243221048 0 0.015827569488984682 0.00059968269021146354 0 0.015806345497538801 0.00049169870168973826 0 0.015916709361827409 0.00056689247243221048 0 0.015806345497538801 0.00049169870168973826 0 0.015931416657316337 0.00036139614622998336 0 0.015916709361827409 0.00056689247243221048 0 0.015931416657316337 0.00036139614622998336 0 0.016080696337978206 0.00039517450981449832 0 0.016891878754494116 0.00066610605530135342 0 0.015753496748333377 0.00058580045129756869 0 0.015874699001573442 0.00068244092300353957 0 0.01527443192461439 0.00049371366399177368 0 0.015874699001573442 0.00068244092300353957 0 0.015657851036101792 0.0005032345606855327 0 0.020713334412313905 0.00031849920524483954 0 0.020489927335680627 0.00034853507831101807 0 0.02469967947717161 -2.4077438502869391e-05 0 0.024740584355905787 6.7918974201644955e-05 0 0.024789288988877695 0.0001387890318556779 0 0.016026739737461437 0.00070475611696576256 0 0.015886102744525753 0.00067955642877369808 0 0.015874699001573442 0.00068244092300353957 0 0.015805514747867407 0.00057275054951896008 0 0.015657851036101792 0.0005032345606855327 0 0.015753496748333377 0.00058580045129756869 0 0.015827569488984682 0.00059968269021146354 0 0.015874699001573442 0.00068244092300353957 0 0.015827569488984682 0.00059968269021146354 0 0.015874699001573442 0.00068244092300353957 0 0.015805514747867407 0.00057275054951896008 0 0.015806345497538801 0.00049169870168973826 0 0.015657851036101792 0.0005032345606855327 0 0.015633348327679292 0.00037434071881555907 0 0.015805514747867407 0.00057275054951896008 0 0.015806345497538801 0.00049169870168973826 0 0.015657851036101792 0.0005032345606855327 0 0.015827569488984682 0.00059968269021146354 0 0.015805514747867407 0.00057275054951896008 0 0.015806345497538801 0.00049169870168973826 0 0.015657851036101792 0.0005032345606855327 0 0.015472826979267398 0.00039246215372794091 0 0.015633348327679292 0.00037434071881555907 0 0.015472826979267398 0.00039246215372794091 0 0.015633348327679292 0.00037434071881555907 0 0.015452028220588889 0.00027805381795917858 0 0.015806345497538801 0.00049169870168973826 0 0.015633348327679292 0.00037434071881555907 0 0.015755308660749538 0.00028911090430851292 0 0.015633348327679292 0.00037434071881555907 0 0.015755308660749538 0.00028911090430851292 0 0.015554268221387476 0.00017648401383370772 0 0.015755308660749538 0.00028911090430851292 0 0.015554268221387476 0.00017648401383370772 0 0.015832305536051836 6.2411766100448985e-05 0 0.015633348327679292 0.00037434071881555907 0 0.015554268221387476 0.00017648401383370772 0 0.015452028220588889 0.00027805381795917858 0 0.015296123767224654 0.00014582852425151376 0 0.015554268221387476 0.00017648401383370772 0 0.015452028220588889 0.00027805381795917858 0 0.015296123767224654 0.00014582852425151376 0 0.015357062298020099 -0.00010646381217510972 0 0.015554268221387476 0.00017648401383370772 0 0.015048931325793114 1.9939819507936026e-05 0 0.015391734642132063 0.00018958572241305704 0 0.015357062298020099 -0.00010646381217510972 0 0.015554268221387476 0.00017648401383370772 0 0.015832305536051836 6.2411766100448985e-05 0 0.015755308660749538 0.00028911090430851292 0 0.015832305536051836 6.2411766100448985e-05 0 0.015931416657316337 0.00036139614622998336 0 0.015832305536051836 6.2411766100448985e-05 0 0.015931416657316337 0.00036139614622998336 0 0.016180558239121467 0.00026508987887403261 0 0.015391734642132063 0.00018958572241305704 0 0.01540498275591581 0.00055976133904367495 0 0.015806345497538801 0.00049169870168973826 0 0.015755308660749538 0.00028911090430851292 0 0.015931416657316337 0.00036139614622998336 0 0.015750070729259113 0.00075341702182121501 0 0.01540498275591581 0.00055976133904367495 0 0.015931416657316337 0.00036139614622998336 0 0.016080696337978206 0.00039517450981449832 0 0.016180558239121467 0.00026508987887403261 0 0.01617668315381383 0.00051933062871389998 0 0.016080696337978206 0.00039517450981449832 0 0.016180558239121467 0.00026508987887403261 0 0.015228515888846939 0.00093482653884520168 0 0.015217312933942812 0.00069029493980839695 0 0.015336788738329277 0.00075607223983376254 0 0.01540498275591581 0.00055976133904367495 0 0.015318750767872877 0.00065528688713885396 0 0.015137137197199696 0.00067110229036291375 0 0.015336788738329277 0.00075607223983376254 0 0.015293614911340632 0.00058012874515120199 0 0.015542026010661921 0.00079032374146462429 0 0.015336788738329277 0.00075607223983376254 0 0.015451932615665699 0.0006557436599790126 0 0.015336788738329277 0.00075607223983376254 0 0.015293614911340632 0.00058012874515120199 0 0.015451932615665699 0.0006557436599790126 0 0.015293614911340632 0.00058012874515120199 0 0.015451932615665699 0.0006557436599790126 0 0.01538682346997396 0.00046209879629666113 0 0.015648758321186056 0.00060903132249451905 0 0.015451932615665699 0.0006557436599790126 0 0.01538682346997396 0.00046209879629666113 0 0.015648758321186056 0.00060903132249451905 0 0.015542026010661921 0.00079032374146462429 0 0.015451932615665699 0.0006557436599790126 0 0.015648758321186056 0.00060903132249451905 0 0.01538682346997396 0.00046209879629666113 0 0.015478236076303862 0.00027206399164858965 0 0.015293614911340632 0.00058012874515120199 0 0.01538682346997396 0.00046209879629666113 0 0.015128802678209466 0.00034267547822244788 0 0.01538682346997396 0.00046209879629666113 0 0.015226684658218491 0.00024724180449079574 0 0.015478236076303862 0.00027206399164858965 0 0.014870823772076288 0.00032651869871540799 0 0.015126665643095116 0.00051615996602043365 0 0.015128802678209466 0.00034267547822244788 0 0.014870823772076288 0.00032651869871540799 0 0.015128802678209466 0.00034267547822244788 0 0.015023109860970206 0.00016693276217331478 0 0.01540498275591581 0.00055976133904367495 0 0.015153022268421979 0.00038699915590476323 0 0.015137137197199696 0.00067110229036291375 0 0.015293614911340632 0.00058012874515120199 0 0.015128802678209466 0.00034267547822244788 0 0.01538682346997396 0.00046209879629666113 0 0.015128802678209466 0.00034267547822244788 0 0.015226684658218491 0.00024724180449079574 0 0.015023109860970206 0.00016693276217331478 0 0.015158449717883608 1.5004292929419969e-05 0 0.014832896432756692 4.4556591708947158e-05 0 0.015128802678209466 0.00034267547822244788 0 0.015023109860970206 0.00016693276217331478 0 0.015226684658218491 0.00024724180449079574 0 0.015023109860970206 0.00016693276217331478 0 0.015226684658218491 0.00024724180449079574 0 0.015158449717883608 1.5004292929419969e-05 0 0.015573842221667352 2.1083282876014203e-05 0 0.015478236076303862 0.00027206399164858965 0 0.015158449717883608 1.5004292929419969e-05 0 0.015226684658218491 0.00024724180449079574 0 0.015478236076303862 0.00027206399164858965 0 0.015158449717883608 1.5004292929419969e-05 0 0.015158449717883608 1.5004292929419969e-05 0 0.015162571224009876 -0.00027182461472057093 0 0.015470438310750047 -0.0003066824998579723 0 0.015573842221667352 2.1083282876014203e-05 0 0.015158449717883608 1.5004292929419969e-05 0 0.015470438310750047 -0.0003066824998579723 0 0.015158449717883608 1.5004292929419969e-05 0 0.014862473006022359 -0.00019780933435957653 0 0.015162571224009876 -0.00027182461472057093 0 0.015158449717883608 1.5004292929419969e-05 0 0.014832896432756692 4.4556591708947158e-05 0 0.014862473006022359 -0.00019780933435957653 0 0.014777886474554218 -8.3957772819920765e-05 0 0.014832896432756692 4.4556591708947158e-05 0 0.014862473006022359 -0.00019780933435957653 0 0.014733735947804893 1.0286742031391482e-05 0 0.014777886474554218 -8.3957772819920765e-05 0 0.014832896432756692 4.4556591708947158e-05 0 0.014733735947804893 1.0286742031391482e-05 0 0.014720044852522172 -8.1508783696307278e-05 0 0.014777886474554218 -8.3957772819920765e-05 0 0.014725586533972553 0.00010099924538428543 0 0.014870823772076288 0.00032651869871540799 0 0.014832896432756692 4.4556591708947158e-05 0 0.014733735947804893 1.0286742031391482e-05 0 0.014725586533972553 0.00010099924538428543 0 0.014832896432756692 4.4556591708947158e-05 0 0.014870823772076288 0.00032651869871540799 0 0.015023109860970206 0.00016693276217331478 0 0.014832896432756692 4.4556591708947158e-05 0 0.011876006035075043 -0.00065029502877039162 0 0.011783945803386382 -0.0005967523838286236 0 0.011857016031983495 -0.0005858013252998031 0 0.013802825314767116 -0.00040235733164615384 0 0.01314325880584017 -0.00073787353197596252 0 0.014406037680988755 -0.00066273050947080814 0 0.01488488140817785 -0.00074820090734882072 0 0.014838395575876387 -0.00096586195656791867 0 0.013318347068647516 -0.00031019958760068083 0 0.013802825314767116 -0.00040235733164615384 0 0.014720044852522172 -8.1508783696307278e-05 0 0.014685668488097717 -9.0163657519103032e-05 0 0.014696132264467057 -8.763070158456544e-05 0 0.011911576271941659 -0.00060006551100197641 0 0.011876006035075043 -0.00065029502877039162 0 0.011857016031983495 -0.0005858013252998031 0 0.014720044852522172 -8.1508783696307278e-05 0 0.014777886474554218 -8.3957772819920765e-05 0 0.014775635889003508 -0.0001616679708010367 0 0.01484547427774551 -0.00023280066503246925 0 0.013802825314767116 -0.00040235733164615384 0 0.013802825314767116 -0.00040235733164615384 0 0.015063130671861153 -0.00011781351395338529 0 0.014406037680988755 -0.00066273050947080814 0 0.014862473006022359 -0.00019780933435957653 0 0.01488488140817785 -0.00074820090734882072 0 0.014777886474554218 -8.3957772819920765e-05 0 0.014775635889003508 -0.0001616679708010367 0 0.014862473006022359 -0.00019780933435957653 0 0.014862473006022359 -0.00019780933435957653 0 0.015162571224009876 -0.00027182461472057093 0 0.015044087787939286 -0.00044549023169696011 0 0.014862473006022359 -0.00019780933435957653 0 0.015044087787939286 -0.00044549023169696011 0 0.01488488140817785 -0.00074820090734882072 0 0.015162571224009876 -0.00027182461472057093 0 0.015044087787939286 -0.00044549023169696011 0 0.015259093706626132 -0.0005839744275127302 0 0.015470438310750047 -0.0003066824998579723 0 0.015259093706626132 -0.0005839744275127302 0 0.015495255754036699 -0.00068414422566136788 0 0.015162571224009876 -0.00027182461472057093 0 0.015470438310750047 -0.0003066824998579723 0 0.015259093706626132 -0.0005839744275127302 0 0.015259093706626132 -0.0005839744275127302 0 0.01488488140817785 -0.00074820090734882072 0 0.015407843324149139 -0.0010106417944706187 0 0.015259093706626132 -0.0005839744275127302 0 0.015495255754036699 -0.00068414422566136788 0 0.015407843324149139 -0.0010106417944706187 0 0.014904805820050817 -0.00076980024885358678 0 0.015323156176007406 -0.00098428677748517066 0 0.01488488140817785 -0.00074820090734882072 0 0.015039172205820206 -0.0010197030468423755 0 0.015242192337993414 -0.00097099214081748208 0 0.015044087787939286 -0.00044549023169696011 0 0.015259093706626132 -0.0005839744275127302 0 0.01488488140817785 -0.00074820090734882072 0 0.01488488140817785 -0.00074820090734882072 0 0.014838395575876387 -0.00096586195656791867 0 0.015039172205820206 -0.0010197030468423755 0 0.011783945803386382 -0.0005967523838286236 0 0.011697850103197854 -0.00054125833971103922 0 0.011752962514204029 -0.00052411193114534633 0 0.014838395575876387 -0.00096586195656791867 0 0.015039172205820206 -0.0010197030468423755 0 0.015115710157359095 -0.0012475917964019487 0 0.01314325880584017 -0.00073787353197596252 0 0.013781877606579942 -0.0010739809384432946 0 0.015039172205820206 -0.0010197030468423755 0 0.015242192337993414 -0.00097099214081748208 0 0.015115710157359095 -0.0012475917964019487 0 0.015242192337993414 -0.00097099214081748208 0 0.015115710157359095 -0.0012475917964019487 0 0.015395862404876316 -0.0012478338092527688 0 0.011697850103197854 -0.00054125833971103922 0 0.011693519342602064 -0.00047946650494793774 0 0.011614273705212029 -0.00048242779561210951 0 0.0097006365721441969 -0.00018709699488537594 0 0.011610168990693209 -0.00060993586953919079 0 0.015115710157359095 -0.0012475917964019487 0 0.015478694115918224 -0.0016165057602105964 0 0.015395862404876316 -0.0012478338092527688 0 0.013781877606579942 -0.0010739809384432946 0 0.011610168990693209 -0.00060993586953919079 0 0.011693519342602064 -0.00047946650494793774 0 0.011752962514204029 -0.00052411193114534633 0 0.01177346525728514 -0.00047253785062491911 0 0.0097006365721441969 -0.00018709699488537594 0 0.0099848916626849912 -0.00029486737721707873 0 0.011697850103197854 -0.00054125833971103922 0 0.011693519342602064 -0.00047946650494793774 0 0.011752962514204029 -0.00052411193114534633 0 0.0099848916626849912 -0.00029486737721707873 0 0.0094375658324055076 -0.00025344705455715823 0 0.01177346525728514 -0.00047253785062491911 0 0.011817529720860443 -0.00053182853465580187 0 0.011857713792383002 -0.00046344161957785309 0 0.011752962514204029 -0.00052411193114534633 0 0.01177346525728514 -0.00047253785062491911 0 0.011817529720860443 -0.00053182853465580187 0 0.011783945803386382 -0.0005967523838286236 0 0.011817529720860443 -0.00053182853465580187 0 0.011857016031983495 -0.0005858013252998031 0 0.011783945803386382 -0.0005967523838286236 0 0.011752962514204029 -0.00052411193114534633 0 0.011817529720860443 -0.00053182853465580187 0 0.011951499072560995 -0.0005495833714333928 0 0.011911576271941659 -0.00060006551100197641 0 0.011878755205460171 -0.00054652308247142784 0 0.011911576271941659 -0.00060006551100197641 0 0.011857016031983495 -0.0005858013252998031 0 0.011878755205460171 -0.00054652308247142784 0 0.011817529720860443 -0.00053182853465580187 0 0.011857016031983495 -0.0005858013252998031 0 0.011878755205460171 -0.00054652308247142784 0 0.011951499072560995 -0.0005495833714333928 0 0.011878755205460171 -0.00054652308247142784 0 0.011857713792383002 -0.00046344161957785309 0 0.012430081886312696 -0.00035838497877586732 0 0.0094375658324055076 -0.00025344705455715823 0 0.011817529720860443 -0.00053182853465580187 0 0.011878755205460171 -0.00054652308247142784 0 0.011857713792383002 -0.00046344161957785309 0 0.009225022666109077 0.00056279069647578392 0 0.0086237292622993386 5.6487469817205827e-06 0 0.0086838217948872615 0.0011063179200957605 0 0.0086237292622993386 5.6487469817205827e-06 0 0.0080267831441269526 0.00070191701676366796 0 0.0086838217948872615 0.0011063179200957605 0 0.0094375658324055076 -0.00025344705455715823 0 0.007865815461118671 0.00045972964234181215 0 0.007890150818180116 -0.00032686185566428299 0 0.0078012173133553218 0.00036355741980371157 0 0.0078672644590403896 -0.0001487277023846013 0 0.0080175621405682695 -0.00016562895923104675 0 0.0079367205662565065 -9.0089393681813085e-05 0 0.0078766242053802497 -0.00015989409564099257 0 0.0079367205662565065 -9.0089393681813085e-05 0 0.0078640190903365558 -1.0253240911553655e-06 0 0.0078672644590403896 -0.0001487277023846013 0 0.0078766242053802497 -0.00015989409564099257 0 0.0079367205662565065 -9.0089393681813085e-05 0 0.0074356534529131232 0.0013912177846660727 0 0.0086838217948872615 0.0011063179200957605 0 0.0085048218754653227 0.0019582533646449883 0 0.0080267831441269526 0.00070191701676366796 0 0.0074356534529131232 0.0013912177846660727 0 0.0086838217948872615 0.0011063179200957605 0 0.007865815461118671 0.00045972964234181215 0 0.0078012173133553218 0.00036355741980371157 0 0.0067767199037623736 0.0015314870596492274 0 0.0064888516170378821 0.0020131577914392516 0 0.0096541972343526343 0.001125513939111405 0 0.0086838217948872615 0.0011063179200957605 0 0.0085048218754653227 0.0019582533646449883 0 0.0050388376025111226 0.0020803363099068995 0 0.0046368765445767325 0.0019407761747413524 0 0.0046374599976457351 0.0022880581039170381 0 0.0074356534529131232 0.0013912177846660727 0 0.0085048218754653227 0.0019582533646449883 0 0.0073873839951498427 0.0027724819526118521 0 0.0064888516170378821 0.0020131577914392516 0 0.006812065387692124 0.0020085411375206303 0 0.0046368765445767325 0.0019407761747413524 0 0.0046374599976457351 0.0022880581039170381 0 0.0041952057146100183 0.0023043318178807013 0 0.0078012173133553218 0.00036355741980371157 0 0.006812065387692124 0.0020085411375206303 0 0.0041952057146100183 0.0023043318178807013 0 0.0041851223887144438 0.0027067138506785392 0 0.0044960045598687916 0.0025883538665207955 0 0.0046374599976457351 0.0022880581039170381 0 0.0041952057146100183 0.0023043318178807013 0 0.0044960045598687916 0.0025883538665207955 0 0.0050388376025111226 0.0020803363099068995 0 0.0046374599976457351 0.0022880581039170381 0 0.004852940579140241 0.0025147525766644782 0 0.0046374599976457351 0.0022880581039170381 0 0.004852940579140241 0.0025147525766644782 0 0.0044960045598687916 0.0025883538665207955 0 0.0069284067136792865 0.00087457476544520649 0 0.0072471083115273147 0.0015053968229060488 0 0.0065204499624111805 0.0016955001162807502 0 0.0069284067136792865 0.00087457476544520649 0 0.0061637447480498856 0.00079494277067404322 0 0.0065204499624111805 0.0016955001162807502 0 0.0069284067136792865 0.00087457476544520649 0 0.0072471083115273147 0.0015053968229060488 0 0.0078969830441828828 0.0010365658691242664 0 0.0072471083115273147 0.0015053968229060488 0 0.0077667761959323367 0.0011267446274062787 0 0.0077534629436706096 0.0018551544895512536 0 0.006812065387692124 0.0020085411375206303 0 0.0059622531086817093 0.0023134545126910332 0 0.0076736481591487427 0.0011959843128761187 0 0.006812065387692124 0.0020085411375206303 0 0.0079388941928475905 -0.00013574617469278884 0 0.0078969830441828828 0.0010365658691242664 0 0.0074865285015958309 0.00039569187143793542 0 0.0069284067136792865 0.00087457476544520649 0 0.0078969830441828828 0.0010365658691242664 0 0.0074865285015958309 0.00039569187143793542 0 0.0069284067136792865 0.00087457476544520649 0 0.0065875994432001784 -9.9278550741234688e-05 0 0.0061637447480498856 0.00079494277067404322 0 0.0069284067136792865 0.00087457476544520649 0 0.0074865285015958309 0.00039569187143793542 0 0.0065875994432001784 -9.9278550741234688e-05 0 0.0075452040031919899 -0.00033812488565969763 0 0.0078383985583676038 -0.00030564403090680911 0 0.0085584852103648169 -0.00065022013384929327 0 0.0078454912823670373 -0.00026994125362956418 0 0.0083588008945094557 -0.00020897362034068542 0 0.0085584852103648169 -0.00065022013384929327 0 0.0083588008945094557 -0.00020897362034068542 0 0.0088131193381374446 -0.00024131555300209594 0 0.0074865285015958309 0.00039569187143793542 0 0.0065875994432001784 -9.9278550741234688e-05 0 0.0078454912823670373 -0.00026994125362956418 0 0.0078779781434144321 -0.00014150236702491323 0 0.0074865285015958309 0.00039569187143793542 0 0.0078454912823670373 -0.00026994125362956418 0 0.0078012173133553218 0.00036355741980371157 0 0.0076372598665673235 0.00023363629644131969 0 0.0078779781434144321 -0.00014150236702491323 0 0.0078454912823670373 -0.00026994125362956418 0 0.0078665796638820625 -0.00020439752219620413 0 0.0078454912823670373 -0.00026994125362956418 0 0.00798494467327821 -0.00012828241938589997 0 0.0083588008945094557 -0.00020897362034068542 0 0.0078766242053802497 -0.00015989409564099257 0 0.0078779781434144321 -0.00014150236702491323 0 0.0078665796638820625 -0.00020439752219620413 0 0.0082379390713083304 9.8039359796459974e-05 0 0.0078672644590403896 -0.0001487277023846013 0 0.00798494467327821 -0.00012828241938589997 0 0.0078454912823670373 -0.00026994125362956418 0 0.0078665796638820625 -0.00020439752219620413 0 0.00798494467327821 -0.00012828241938589997 0 0.0078672644590403896 -0.0001487277023846013 0 0.0078766242053802497 -0.00015989409564099257 0 0.00798494467327821 -0.00012828241938589997 0 0.0078766242053802497 -0.00015989409564099257 0 0.0078665796638820625 -0.00020439752219620413 0 0.00798494467327821 -0.00012828241938589997 0 0.0082379390713083304 9.8039359796459974e-05 0 0.0083588008945094557 -0.00020897362034068542 0 0.0088721490540348905 0.00018501863512592699 0 0.0082379390713083304 9.8039359796459974e-05 0 0.00798494467327821 -0.00012828241938589997 0 0.0083588008945094557 -0.00020897362034068542 0 0.0083588008945094557 -0.00020897362034068542 0 0.0088131193381374446 -0.00024131555300209594 0 0.0088721490540348905 0.00018501863512592699 0 0.0088131193381374446 -0.00024131555300209594 0 0.0091951033294846145 -1.8147444408663546e-05 0 0.0088721490540348905 0.00018501863512592699 0 0.0089025520218067294 0.00051420063612146098 0 0.011610168990693209 -0.00060993586953919079 0 0.0088131193381374446 -0.00024131555300209594 0 0.0091951033294846145 -1.8147444408663546e-05 0 0.00926040466570488 -0.00042838006502750098 0 0.0091951033294846145 -1.8147444408663546e-05 0 0.0094726228050817755 -0.00013254791867348288 0 0.009578099756289718 0.00021903909826435233 0 0.0094726228050817755 -0.00013254791867348288 0 0.009810774286707704 -7.4200985755973418e-05 0 0.009578099756289718 0.00021903909826435233 0 0.0091951033294846145 -1.8147444408663546e-05 0 0.0094726228050817755 -0.00013254791867348288 0 0.00926040466570488 -0.00042838006502750098 0 0.0094726228050817755 -0.00013254791867348288 0 0.00926040466570488 -0.00042838006502750098 0 0.0096583813286110435 -0.00034088534326677359 0 0.00926040466570488 -0.00042838006502750098 0 0.0096807370521284353 -0.00060812672089288365 0 0.0096583813286110435 -0.00034088534326677359 0 0.00926040466570488 -0.00042838006502750098 0 0.0094116362921177373 -0.00091030663282487794 0 0.0096807370521284353 -0.00060812672089288365 0 0.0085584852103648169 -0.00065022013384929327 0 0.0088131193381374446 -0.00024131555300209594 0 0.00926040466570488 -0.00042838006502750098 0 0.0085584852103648169 -0.00065022013384929327 0 0.00926040466570488 -0.00042838006502750098 0 0.0094116362921177373 -0.00091030663282487794 0 0.0075452040031919899 -0.00033812488565969763 0 0.0075137100935665363 -0.00044299409502563785 0 0.0065875994432001784 -9.9278550741234688e-05 0 0.0061637447480498856 0.00079494277067404322 0 0.005333385654872928 0.00025582953258717489 0 0.0061637447480498856 0.00079494277067404322 0 0.005333385654872928 0.00025582953258717489 0 0.005511628163974689 0.0012621615699367884 0 0.005511628163974689 0.0012621615699367884 0 0.0047859731096797165 0.0010866023259459491 0 0.004773732911285267 0.0017224381343259991 0 0.005333385654872928 0.00025582953258717489 0 0.005511628163974689 0.0012621615699367884 0 0.0047859731096797165 0.0010866023259459491 0 0.0061637447480498856 0.00079494277067404322 0 0.005511628163974689 0.0012621615699367884 0 0.0065204499624111805 0.0016955001162807502 0 0.0042969262905554811 0.0015954590992812063 0 0.0044322897537062145 0.0013928535038078549 0 0.0042253307793629156 0.0014573420620666102 0 0.0042969262905554811 0.0015954590992812063 0 0.0044322897537062145 0.0013928535038078549 0 0.0044382708817281066 0.0016204318441626505 0 0.0066557550040153967 0.00051479655359063816 0 0.0039924480258870824 0.0016888485147924586 0 0.0047859731096797165 0.0010866023259459491 0 0.0041989639837099477 0.00064277838105519954 0 0.0044382708817281066 0.0016204318441626505 0 0.0047859731096797165 0.0010866023259459491 0 0.004773732911285267 0.0017224381343259991 0 0.0044382708817281066 0.0016204318441626505 0 0.0075137100935665363 -0.00044299409502563785 0 0.0066557550040153967 0.00051479655359063816 0 0.0094116362921177373 -0.00091030663282487794 0 0.010210243182869019 -0.0011257482096345196 0 0.0099920530186916635 -0.00073917838537115746 0 0.005333385654872928 0.00025582953258717489 0 0.0047859731096797165 0.0010866023259459491 0 0.0041989639837099477 0.00064277838105519954 0 0.0066557550040153967 0.00051479655359063816 0 0.0081791668323266589 0.00099202692509011846 0 0.0066557550040153967 0.00051479655359063816 0 0.010452817043135543 -0.00055549885415726605 0 0.010452817043135543 -0.00055549885415726605 0 0.0081791668323266589 0.00099202692509011846 0 0.010210243182869019 -0.0011257482096345196 0 0.010313323353237102 -0.00066967687504712191 0 0.0099920530186916635 -0.00073917838537115746 0 0.0088954048517412721 0.00051806929056520895 0 0.0087817581835718216 -0.0001722654289801765 0 0.007992486077464115 0.00078710812203348739 0 0.01244379233082042 -2.5512612067903856e-05 0 0.012383938634645422 -0.00046138094026737688 0 0.012012325986534837 5.0570704814970776e-05 0 0.010452817043135543 -0.00055549885415726605 0 0.013850142854740208 -0.00040260629639353917 0 0.010313323353237102 -0.00066967687504712191 0 0.010200408787223772 -0.00051634116497855959 0 0.0099920530186916635 -0.00073917838537115746 0 0.010200408787223772 -0.00051634116497855959 0 0.0099615037927107217 -0.00039357776594275935 0 0.010248779770734543 -0.00030186585842719284 0 0.010339135962123993 -0.00068270749221899566 0 0.010200408787223772 -0.00051634116497855959 0 0.010248779770734543 -0.00030186585842719284 0 0.010452817043135543 -0.00055549885415726605 0 0.010341163964151027 -0.00051417723759574787 0 0.0094116362921177373 -0.00091030663282487794 0 0.0096807370521284353 -0.00060812672089288365 0 0.0099920530186916635 -0.00073917838537115746 0 0.0096807370521284353 -0.00060812672089288365 0 0.0099920530186916635 -0.00073917838537115746 0 0.0099615037927107217 -0.00039357776594275935 0 0.010200408787223772 -0.00051634116497855959 0 0.0099920530186916635 -0.00073917838537115746 0 0.0099615037927107217 -0.00039357776594275935 0 0.0096807370521284353 -0.00060812672089288365 0 0.0099615037927107217 -0.00039357776594275935 0 0.0096583813286110435 -0.00034088534326677359 0 0.0094726228050817755 -0.00013254791867348288 0 0.0096583813286110435 -0.00034088534326677359 0 0.009810774286707704 -7.4200985755973418e-05 0 0.0099615037927107217 -0.00039357776594275935 0 0.0096583813286110435 -0.00034088534326677359 0 0.009810774286707704 -7.4200985755973418e-05 0 0.0099615037927107217 -0.00039357776594275935 0 0.01011392268521628 -0.000108373430465917 0 0.009810774286707704 -7.4200985755973418e-05 0 0.0099615037927107217 -0.00039357776594275935 0 0.01011392268521628 -0.000108373430465917 0 0.010248779770734543 -0.00030186585842719284 0 0.01011392268521628 -0.000108373430465917 0 0.009810774286707704 -7.4200985755973418e-05 0 0.010276472456783869 0.00024483006894907103 0 0.010339135962123993 -0.00068270749221899566 0 0.010248779770734543 -0.00030186585842719284 0 0.010481275032524209 -5.2153208469839319e-05 0 0.01011392268521628 -0.000108373430465917 0 0.010248779770734543 -0.00030186585842719284 0 0.010481275032524209 -5.2153208469839319e-05 0 0.013850142854740208 -0.00040260629639353917 0 0.014306586030710484 -0.00076218280634542145 0 0.01011392268521628 -0.000108373430465917 0 0.010481275032524209 -5.2153208469839319e-05 0 0.010276472456783869 0.00024483006894907103 0 0.013850142854740208 -0.00040260629639353917 0 0.016406801122941194 -0.00076730576990379613 0 0.017507347679886848 -0.00058630683806226919 0 0.017476145957536077 -0.0007545090822128897 0 0.017337328929665764 -0.00064308065467343957 0 0.016406801122941194 -0.00076730576990379613 0 0.017106099917949223 -0.0011833079878910409 0 0.014738240465651954 -0.00069218706969179154 0 0.014718854516666021 -0.0008263755926999197 0 0.014831603331698603 -0.00082271362626386822 0 0.016864844082087993 -0.0017167675633960784 0 0.016703686493606269 -0.0014583231320801316 0 0.016960284478924871 -0.0013066234200858993 0 0.016406801122941194 -0.00076730576990379613 0 0.014306586030710484 -0.00076218280634542145 0 0.016864844082087993 -0.0017167675633960784 0 0.016657475739526629 -0.001731060737725474 0 0.016703686493606269 -0.0014583231320801316 0 0.016657475739526629 -0.001731060737725474 0 0.016703686493606269 -0.0014583231320801316 0 0.016397860316084797 -0.0013617075349076045 0 0.016703686493606269 -0.0014583231320801316 0 0.016960284478924871 -0.0013066234200858993 0 0.0166076592836613 -0.0012318835008436971 0 0.016960284478924871 -0.0013066234200858993 0 0.0166076592836613 -0.0012318835008436971 0 0.016677197032000126 -0.0010011057807649219 0 0.016397860316084797 -0.0013617075349076045 0 0.016438606289268545 -0.0014811472298770125 0 0.015951699855346196 -0.0012862457918409935 0 0.016397860316084797 -0.0013617075349076045 0 0.015951699855346196 -0.0012862457918409935 0 0.016299835674544603 -0.0010494272373633554 0 0.0166076592836613 -0.0012318835008436971 0 0.016397860316084797 -0.0013617075349076045 0 0.016299835674544603 -0.0010494272373633554 0 0.0166076592836613 -0.0012318835008436971 0 0.016677197032000126 -0.0010011057807649219 0 0.016299835674544603 -0.0010494272373633554 0 0.016703686493606269 -0.0014583231320801316 0 0.0166076592836613 -0.0012318835008436971 0 0.016397860316084797 -0.0013617075349076045 0 0.016584466882488168 -0.0016318445386388184 0 0.016438606289268545 -0.0014811472298770125 0 0.01604913530250433 -0.0016604175160932491 0 0.014306586030710484 -0.00076218280634542145 0 0.01276147212633017 -0.0007211369012805163 0 0.009810774286707704 -7.4200985755973418e-05 0 0.010276472456783869 0.00024483006894907103 0 0.009578099756289718 0.00021903909826435233 0 0.016584466882488168 -0.0016318445386388184 0 0.016397860316084797 -0.0013617075349076045 0 0.016438606289268545 -0.0014811472298770125 0 0.014306586030710484 -0.00076218280634542145 0 0.016838308888117319 -0.0019646785979993038 0 0.0091951033294846145 -1.8147444408663546e-05 0 0.009578099756289718 0.00021903909826435233 0 0.0089254001235889741 0.0001776686389448086 0 0.01604913530250433 -0.0016604175160932491 0 0.015478694115918224 -0.0016165057602105964 0 0.015773835313070032 -0.0011687238885826842 0 0.01276147212633017 -0.0007211369012805163 0 0.011610168990693209 -0.00060993586953919079 0 0.016438606289268545 -0.0014811472298770125 0 0.01604913530250433 -0.0016604175160932491 0 0.015773835313070032 -0.0011687238885826842 0 0.015478694115918224 -0.0016165057602105964 0 0.015395862404876316 -0.0012478338092527688 0 0.015773835313070032 -0.0011687238885826842 0 0.015323156176007406 -0.00098428677748517066 0 0.015872943819368546 -0.0012328985611123086 0 0.015242192337993414 -0.00097099214081748208 0 0.015395862404876316 -0.0012478338092527688 0 0.015773835313070032 -0.0011687238885826842 0 0.016402052717202461 -0.0014617808268890659 0 0.015872943819368546 -0.0012328985611123086 0 0.015826646745964512 -0.00075511722157933108 0 0.016343865399533485 -0.00062480132530212727 0 0.016299835674544603 -0.0010494272373633554 0 0.015951699855346196 -0.0012862457918409935 0 0.015826646745964512 -0.00075511722157933108 0 0.016299835674544603 -0.0010494272373633554 0 0.015495255754036699 -0.00068414422566136788 0 0.015407843324149139 -0.0010106417944706187 0 0.015826646745964512 -0.00075511722157933108 0 0.015407843324149139 -0.0010106417944706187 0 0.015951699855346196 -0.0012862457918409935 0 0.015826646745964512 -0.00075511722157933108 0 0.015470438310750047 -0.0003066824998579723 0 0.015495255754036699 -0.00068414422566136788 0 0.015826646745964512 -0.00075511722157933108 0 0.015901706768925401 -0.00023929339583240831 0 0.015470438310750047 -0.0003066824998579723 0 0.015826646745964512 -0.00075511722157933108 0 0.015901706768925401 -0.00023929339583240831 0 0.015826646745964512 -0.00075511722157933108 0 0.016343865399533485 -0.00062480132530212727 0 0.016434630254636384 -6.3925195805148566e-05 0 0.016343865399533485 -0.00062480132530212727 0 0.016748153253281883 -0.00046324131692954568 0 0.016748153253281883 -0.00046324131692954568 0 0.016813586619545882 -0.00074807351338926093 0 0.017173919146556128 -0.00067139824370097436 0 0.016343865399533485 -0.00062480132530212727 0 0.016748153253281883 -0.00046324131692954568 0 0.016813586619545882 -0.00074807351338926093 0 0.016813586619545882 -0.00074807351338926093 0 0.016677197032000126 -0.0010011057807649219 0 0.017120425101082883 -0.0009515707438161068 0 0.016960284478924871 -0.0013066234200858993 0 0.016677197032000126 -0.0010011057807649219 0 0.017120425101082883 -0.0009515707438161068 0 0.016343865399533485 -0.00062480132530212727 0 0.016677197032000126 -0.0010011057807649219 0 0.016299835674544603 -0.0010494272373633554 0 0.016343865399533485 -0.00062480132530212727 0 0.016813586619545882 -0.00074807351338926093 0 0.016677197032000126 -0.0010011057807649219 0 0.017447730632336365 -0.001159317234122822 0 0.017595982542157482 -0.00085989167684216239 0 0.017191567807467351 -0.0010128855682239358 0 0.017321681068608884 -0.00095127435584879683 0 0.01721642441103104 -0.00098299068657140194 0 0.017191567807467351 -0.0010128855682239358 0 0.017321681068608884 -0.00095127435584879683 0 0.017644910506907953 -0.00084824594314498504 0 0.017704145432143683 -0.0013616159506956763 0 0.017644910506907953 -0.00084824594314498504 0 0.017929411756863418 -0.0011858039481227928 0 0.017120425101082883 -0.0009515707438161068 0 0.017321681068608884 -0.00095127435584879683 0 0.017173919146556128 -0.00067139824370097436 0 0.017120425101082883 -0.0009515707438161068 0 0.017321681068608884 -0.00095127435584879683 0 0.01721642441103104 -0.00098299068657140194 0 0.016813586619545882 -0.00074807351338926093 0 0.017120425101082883 -0.0009515707438161068 0 0.017173919146556128 -0.00067139824370097436 0 0.017321681068608884 -0.00095127435584879683 0 0.017173919146556128 -0.00067139824370097436 0 0.017644910506907953 -0.00084824594314498504 0 0.018332188982982698 -0.0010810358495010055 0 0.018005699247858921 -0.0011001878710939358 0 0.017929411756863418 -0.0011858039481227928 0 0.017644910506907953 -0.00084824594314498504 0 0.018332188982982698 -0.0010810358495010055 0 0.017929411756863418 -0.0011858039481227928 0 0.01807000361047912 -0.0010381460957912645 0 0.018005699247858921 -0.0011001878710939358 0 0.018081485223143602 -0.0011031743400492452 0 0.01807000361047912 -0.0010381460957912645 0 0.018332188982982698 -0.0010810358495010055 0 0.018005699247858921 -0.0011001878710939358 0 0.018005699247858921 -0.0011001878710939358 0 0.01789579948262748 -0.0012383282704612713 0 0.018081485223143602 -0.0011031743400492452 0 0.018005699247858921 -0.0011001878710939358 0 0.017763759626540764 -0.0012379207670143747 0 0.017929411756863418 -0.0011858039481227928 0 0.018005699247858921 -0.0011001878710939358 0 0.017763759626540764 -0.0012379207670143747 0 0.01789579948262748 -0.0012383282704612713 0 0.017763759626540764 -0.0012379207670143747 0 0.01789579948262748 -0.0012383282704612713 0 0.017554583153904461 -0.0013351958151773633 0 0.017763759626540764 -0.0012379207670143747 0 0.017929411756863418 -0.0011858039481227928 0 0.017524776423736566 -0.0013272111444279876 0 0.017704145432143683 -0.0013616159506956763 0 0.017929411756863418 -0.0011858039481227928 0 0.017524776423736566 -0.0013272111444279876 0 0.017524776423736566 -0.0013272111444279876 0 0.017290654562709742 -0.0013000735873445761 0 0.01734377804506422 -0.0011040826802712893 0 0.017447730632336365 -0.001159317234122822 0 0.017068017527394029 -0.00094936491603178641 0 0.017704145432143683 -0.0013616159506956763 0 0.017524776423736566 -0.0013272111444279876 0 0.01734377804506422 -0.0011040826802712893 0 0.01789579948262748 -0.0012383282704612713 0 0.017554583153904461 -0.0013351958151773633 0 0.017813733047340134 -0.0014206003000678414 0 0.017763759626540764 -0.0012379207670143747 0 0.017524776423736566 -0.0013272111444279876 0 0.017554583153904461 -0.0013351958151773633 0 0.017524776423736566 -0.0013272111444279876 0 0.017554583153904461 -0.0013351958151773633 0 0.017290654562709742 -0.0013000735873445761 0 0.017290654562709742 -0.0013000735873445761 0 0.016955491035645608 -0.0011835753891101246 0 0.017556523087421658 -0.0013560181260895423 0 0.016882182288836395 -0.0013602758429362696 0 0.017179816716606618 -0.00095903781359726295 0 0.017554583153904461 -0.0013351958151773633 0 0.017290654562709742 -0.0013000735873445761 0 0.017556523087421658 -0.0013560181260895423 0 0.017581521283393867 -0.0011900223873884065 0 0.017179816716606618 -0.00095903781359726295 0 0.016955491035645608 -0.0011835753891101246 0 0.016393497486477025 -0.00064587384998425154 0 0.015867751243354419 -0.00093107828427199028 0 0.016955491035645608 -0.0011835753891101246 0 0.015867751243354419 -0.00093107828427199028 0 0.016203315837728528 -0.0017502645327707835 0 0.016955491035645608 -0.0011835753891101246 0 0.01734377804506422 -0.0011040826802712893 0 0.016393497486477025 -0.00064587384998425154 0 0.017290654562709742 -0.0013000735873445761 0 0.016955491035645608 -0.0011835753891101246 0 0.01734377804506422 -0.0011040826802712893 0 0.016827274713117308 -0.00080008168011176228 0 0.017112486837758858 -0.00091006061535150334 0 0.017164367984835491 -0.0007808990838051289 0 0.017191567807467351 -0.0010128855682239358 0 0.017112486837758858 -0.00091006061535150334 0 0.01721642441103104 -0.00098299068657140194 0 0.017191567807467351 -0.0010128855682239358 0 0.016827274713117308 -0.00080008168011176228 0 0.017112486837758858 -0.00091006061535150334 0 0.017245190205262918 -0.00094930776328507429 0 0.017120425101082883 -0.0009515707438161068 0 0.01721642441103104 -0.00098299068657140194 0 0.017112486837758858 -0.00091006061535150334 0 0.01721642441103104 -0.00098299068657140194 0 0.017227986089989 -0.00087499952401736325 0 0.017106099917949223 -0.0011833079878910409 0 0.017127766086438401 -0.00093136354361144725 0 0.017245190205262918 -0.00094930776328507429 0 0.01721642441103104 -0.00098299068657140194 0 0.017227986089989 -0.00087499952401736325 0 0.017112486837758858 -0.00091006061535150334 0 0.017164367984835491 -0.0007808990838051289 0 0.017227986089989 -0.00087499952401736325 0 0.017476145957536077 -0.0007545090822128897 0 0.017164367984835491 -0.0007808990838051289 0 0.017337328929665764 -0.00064308065467343957 0 0.017301757725793517 -0.00080960496807848208 0 0.017164367984835491 -0.0007808990838051289 0 0.017227986089989 -0.00087499952401736325 0 0.016406801122941194 -0.00076730576990379613 0 0.017526226363262287 -0.00077273896275954518 0 0.017301757725793517 -0.00080960496807848208 0 0.017245190205262918 -0.00094930776328507429 0 0.017227986089989 -0.00087499952401736325 0 0.017507347679886848 -0.00058630683806226919 0 0.017337328929665764 -0.00064308065467343957 0 0.017238387906408078 -0.00047676012069088064 0 0.017164367984835491 -0.0007808990838051289 0 0.017337328929665764 -0.00064308065467343957 0 0.017238387906408078 -0.00047676012069088064 0 0.017507347679886848 -0.00058630683806226919 0 0.017238387906408078 -0.00047676012069088064 0 0.017241590736481252 -0.00011586806627740515 0 0.017164367984835491 -0.0007808990838051289 0 0.017238387906408078 -0.00047676012069088064 0 0.01693119987471527 -0.00045367465861106688 0 0.016827274713117308 -0.00080008168011176228 0 0.017164367984835491 -0.0007808990838051289 0 0.01693119987471527 -0.00045367465861106688 0 0.017238387906408078 -0.00047676012069088064 0 0.01693119987471527 -0.00045367465861106688 0 0.017241590736481252 -0.00011586806627740515 0 0.01693119987471527 -0.00045367465861106688 0 0.017241590736481252 -0.00011586806627740515 0 0.016688489756265041 4.1053704171497833e-05 0 0.013850142854740208 -0.00040260629639353917 0 0.015025471915581415 -0.00014167600852378899 0 0.01244379233082042 -2.5512612067903856e-05 0 0.012012325986534837 5.0570704814970776e-05 0 0.012057999224459326 0.00044044066198477928 0 0.015025471915581415 -0.00014167600852378899 0 0.012879660816833052 0.00074863305049322588 0 0.017241590736481252 -0.00011586806627740515 0 0.016688489756265041 4.1053704171497833e-05 0 0.016731177948137485 0.00082763548374377536 0 0.012012325986534837 5.0570704814970776e-05 0 0.011671598477547916 0.00056235068536796202 0 0.012057999224459326 0.00044044066198477928 0 0.0089604393881039489 0.0012498650887648476 0 0.0089680807878553172 0.0012714889599913174 0 0.0089876400034837114 0.0012342546796455076 0 0.012879660816833052 0.00074863305049322588 0 0.0081791668323266589 0.00099202692509011846 0 0.0041007581879543079 0.0016168922912901279 0 0.0041970772582757719 0.0016213384593982293 0 0.0042253307793629156 0.0014573420620666102 0 0.0042969262905554811 0.0015954590992812063 0 0.0041970772582757719 0.0016213384593982293 0 0.0042253307793629156 0.0014573420620666102 0 0.0064794532589239505 0.0015114549948050361 0 0.0081791668323266589 0.00099202692509011846 0 0.015723321646635119 0.0003521702140118465 0 0.016270929233838018 0.00035723084643883725 0 0.015696059833070087 0.00072306581360013242 0 0.015736640879827221 0.0013208342656362434 0 0.015750367575006242 0.00067680269783345682 0 0.01473624680433514 0.0015491500650048947 0 0.015983915607834558 0.00054153239709324431 0 0.015413630738352915 0.0010626356193630942 0 0.016731177948137485 0.00082763548374377536 0 0.015736640879827221 0.0013208342656362434 0 0.015750367575006242 0.00067680269783345682 0 0.016688489756265041 4.1053704171497833e-05 0 0.016270929233838018 0.00035723084643883725 0 0.016323259135393151 4.8901601802917861e-06 0 0.016688489756265041 4.1053704171497833e-05 0 0.016731177948137485 0.00082763548374377536 0 0.015750367575006242 0.00067680269783345682 0 0.016625410253760384 5.8181525644549234e-05 0 0.015983915607834558 0.00054153239709324431 0 0.016270929233838018 0.00035723084643883725 0 0.016323259135393151 4.8901601802917861e-06 0 0.015817166348913864 4.7216537674435861e-05 0 0.015723321646635119 0.0003521702140118465 0 0.016270929233838018 0.00035723084643883725 0 0.015817166348913864 4.7216537674435861e-05 0 0.015908211846641672 -0.00027513304297735442 0 0.01652251510354014 -0.00029425929567247007 0 0.016393497486477025 -0.00064587384998425154 0 0.016323259135393151 4.8901601802917861e-06 0 0.015817166348913864 4.7216537674435861e-05 0 0.015908211846641672 -0.00027513304297735442 0 0.016323259135393151 4.8901601802917861e-06 0 0.015908211846641672 -0.00027513304297735442 0 0.01652251510354014 -0.00029425929567247007 0 0.01693119987471527 -0.00045367465861106688 0 0.016688489756265041 4.1053704171497833e-05 0 0.01652251510354014 -0.00029425929567247007 0 0.016688489756265041 4.1053704171497833e-05 0 0.016323259135393151 4.8901601802917861e-06 0 0.01652251510354014 -0.00029425929567247007 0 0.017068017527394029 -0.00094936491603178641 0 0.016606712746622374 -0.00034391514096873872 0 0.016827274713117308 -0.00080008168011176228 0 0.01693119987471527 -0.00045367465861106688 0 0.01652251510354014 -0.00029425929567247007 0 0.01734377804506422 -0.0011040826802712893 0 0.01652251510354014 -0.00029425929567247007 0 0.016393497486477025 -0.00064587384998425154 0 0.015908211846641672 -0.00027513304297735442 0 0.016393497486477025 -0.00064587384998425154 0 0.015521642562531973 -0.00048605961493969335 0 0.015521642562531973 -0.00048605961493969335 0 0.015209684234838393 -0.00065671656965731969 0 0.015867751243354419 -0.00093107828427199028 0 0.016393497486477025 -0.00064587384998425154 0 0.015521642562531973 -0.00048605961493969335 0 0.015867751243354419 -0.00093107828427199028 0 0.015521642562531973 -0.00048605961493969335 0 0.014927329610692984 -0.00037697465571852806 0 0.015209684234838393 -0.00065671656965731969 0 0.015521642562531973 -0.00048605961493969335 0 0.015072080689460702 -0.00017109624855393005 0 0.014927329610692984 -0.00037697465571852806 0 0.015817166348913864 4.7216537674435861e-05 0 0.015908211846641672 -0.00027513304297735442 0 0.015072080689460702 -0.00017109624855393005 0 0.015908211846641672 -0.00027513304297735442 0 0.015521642562531973 -0.00048605961493969335 0 0.015072080689460702 -0.00017109624855393005 0 0.015817166348913864 4.7216537674435861e-05 0 0.015072080689460702 -0.00017109624855393005 0 0.015197755248900895 0.00018202953098627183 0 0.015723321646635119 0.0003521702140118465 0 0.015817166348913864 4.7216537674435861e-05 0 0.015197755248900895 0.00018202953098627183 0 0.015072080689460702 -0.00017109624855393005 0 0.014759563160567658 5.5267993658929285e-05 0 0.014236429290754042 -9.7325398497706778e-05 0 0.015072080689460702 -0.00017109624855393005 0 0.014759563160567658 5.5267993658929285e-05 0 0.015197755248900895 0.00018202953098627183 0 0.014759563160567658 5.5267993658929285e-05 0 0.014551987202736887 0.00033725249054484527 0 0.015197755248900895 0.00018202953098627183 0 0.014551987202736887 0.00033725249054484527 0 0.015228625060353902 0.0005843182891432224 0 0.015197755248900895 0.00018202953098627183 0 0.014759563160567658 5.5267993658929285e-05 0 0.014551987202736887 0.00033725249054484527 0 0.014236429290754042 -9.7325398497706778e-05 0 0.015723321646635119 0.0003521702140118465 0 0.015228625060353902 0.0005843182891432224 0 0.015696059833070087 0.00072306581360013242 0 0.015723321646635119 0.0003521702140118465 0 0.015228625060353902 0.0005843182891432224 0 0.015197755248900895 0.00018202953098627183 0 0.013088017282528177 -6.4974734513661404e-07 0 0.013787147753371832 0.00023923324438070501 0 0.014236429290754042 -9.7325398497706778e-05 0 0.013088017282528177 -6.4974734513661404e-07 0 0.013787147753371832 0.00023923324438070501 0 0.013026109390522707 0.00022539278257456034 0 0.014551987202736887 0.00033725249054484527 0 0.013787147753371832 0.00023923324438070501 0 0.014236429290754042 -9.7325398497706778e-05 0 0.015072080689460702 -0.00017109624855393005 0 0.014236429290754042 -9.7325398497706778e-05 0 0.014588676432142749 -0.00018932441553785856 0 0.013088017282528177 -6.4974734513661404e-07 0 0.014236429290754042 -9.7325398497706778e-05 0 0.014408701182389742 -5.5410429419865086e-07 0 0.014236429290754042 -9.7325398497706778e-05 0 0.014408701182389742 -5.5410429419865086e-07 0 0.014588676432142749 -0.00018932441553785856 0 0.014408701182389742 -5.5410429419865086e-07 0 0.014588676432142749 -0.00018932441553785856 0 0.014863721545822783 -0.00028905285585376057 0 0.015072080689460702 -0.00017109624855393005 0 0.014588676432142749 -0.00018932441553785856 0 0.014927329610692984 -0.00037697465571852806 0 0.014927329610692984 -0.00037697465571852806 0 0.014864481308730379 -0.00044431120856227343 0 0.015209684234838393 -0.00065671656965731969 0 0.014927329610692984 -0.00037697465571852806 0 0.014863721545822783 -0.00028905285585376057 0 0.014864481308730379 -0.00044431120856227343 0 0.014588676432142749 -0.00018932441553785856 0 0.014927329610692984 -0.00037697465571852806 0 0.014863721545822783 -0.00028905285585376057 0 0.014408701182389742 -5.5410429419865086e-07 0 0.014863721545822783 -0.00028905285585376057 0 0.015726535971275383 -3.2593308882305941e-07 0 0.014863721545822783 -0.00028905285585376057 0 0.015726535971275383 -3.2593308882305941e-07 0 0.014864481308730379 -0.00044431120856227343 0 0.015731494399897485 1.3739062979108261e-06 0 0.017112584640422028 8.6062971906919477e-05 0 0.017214342776673341 -9.0016184628280012e-07 0 0.015729047672467206 -1.1361057878434015e-07 0 0.016064864797310417 -0.00022498977615240107 0 0.017112584640422028 8.6062971906919477e-05 0 0.017214342776673341 -9.0016184628280012e-07 0 0.017562311920482139 -0.00011466031512787692 0 0.017112584640422028 8.6062971906919477e-05 0 0.017579680628631793 -1.7751232498818933e-06 0 0.017562311920482139 -0.00011466031512787692 0 0.016064864797310417 -0.00022498977615240107 0 0.016405530075024908 -0.00056418928294483053 0 0.014864481308730379 -0.00044431120856227343 0 0.01527879490739004 -0.0011716672855270845 0 0.015209684234838393 -0.00065671656965731969 0 0.01527879490739004 -0.0011716672855270845 0 0.015209684234838393 -0.00065671656965731969 0 0.015867751243354419 -0.00093107828427199028 0 0.01527879490739004 -0.0011716672855270845 0 0.015867751243354419 -0.00093107828427199028 0 0.016203315837728528 -0.0017502645327707835 0 0.016405530075024908 -0.00056418928294483053 0 0.017179816716606618 -0.00095903781359726295 0 0.017579680628631793 -1.7751232498818933e-06 0 0.017672164894767337 -4.0653914666079305e-05 0 0.017624040914785033 -0.00010890229182036547 0 0.017179816716606618 -0.00095903781359726295 0 0.018013791095700615 -0.00060910517742805801 0 0.017579680628631793 -1.7751232498818933e-06 0 0.017624040914785033 -0.00010890229182036547 0 0.017562311920482139 -0.00011466031512787692 0 0.017624040914785033 -0.00010890229182036547 0 0.017762969996074025 -6.1596516977824561e-05 0 0.017562311920482139 -0.00011466031512787692 0 0.01789579948262748 -0.0012383282704612713 0 0.017813733047340134 -0.0014206003000678414 0 0.018189224699559092 -0.0012606127962204597 0 0.01789579948262748 -0.0012383282704612713 0 0.018189224699559092 -0.0012606127962204597 0 0.018081485223143602 -0.0011031743400492452 0 0.018169952257061958 -0.0010217259023586748 0 0.01807000361047912 -0.0010381460957912645 0 0.018081485223143602 -0.0011031743400492452 0 0.018189224699559092 -0.0012606127962204597 0 0.018081485223143602 -0.0011031743400492452 0 0.018314912078905558 -0.0010577882904534233 0 0.018169952257061958 -0.0010217259023586748 0 0.018081485223143602 -0.0011031743400492452 0 0.018314912078905558 -0.0010577882904534233 0 0.018189224699559092 -0.0012606127962204597 0 0.018314912078905558 -0.0010577882904534233 0 0.018658672375957749 -0.0010884805028766233 0 0.018013791095700615 -0.00060910517742805801 0 0.018216137432298472 -0.00058685366401227575 0 0.01850602300193235 -0.00080732676702567673 0 0.018314912078905558 -0.0010577882904534233 0 0.018658672375957749 -0.0010884805028766233 0 0.018551675715687468 0.00012283982054880216 0 0.017762969996074025 -6.1596516977824561e-05 0 0.017895755992593292 -0.0001304328870302494 0 0.017895755992593292 -0.0001304328870302494 0 0.018700922528826588 -2.2184447354380043e-07 0 0.017214342776673341 -9.0016184628280012e-07 0 0.018551675715687468 0.00012283982054880216 0 0.017895755992593292 -0.0001304328870302494 0 0.018700922528826588 -2.2184447354380043e-07 0 0.017895755992593292 -0.0001304328870302494 0 0.017214342776673341 -9.0016184628280012e-07 0 0.017562311920482139 -0.00011466031512787692 0 0.017762969996074025 -6.1596516977824561e-05 0 0.017895755992593292 -0.0001304328870302494 0 0.017562311920482139 -0.00011466031512787692 0 0.0066324324322189427 2.313349122223599e-05 0 0.0067986223565097304 -7.1764181614144919e-05 0 0.0073431001252332543 2.2478787756716148e-05 0 0.0066324324322189427 2.313349122223599e-05 0 0.0067986223565097304 -7.1764181614144919e-05 0 0.0063690321017131806 -6.0215757813118808e-05 0 0.0066324324322189427 2.313349122223599e-05 0 0.0063690321017131806 -6.0215757813118808e-05 0 0.0061500195130053835 -1.9664352451099556e-05 0 0.0066324324322189427 2.313349122223599e-05 0 0.0061500195130053835 -1.9664352451099556e-05 0 0.006186757951063283 0.0001105270997930944 0 0.007658166786255141 -7.050350592405646e-07 0 0.0067986223565097304 -7.1764181614144919e-05 0 0.0073431001252332543 2.2478787756716148e-05 0 0.007658166786255141 -7.050350592405646e-07 0 0.0067986223565097304 -7.1764181614144919e-05 0 0.0065355207552795606 -1.1972438670960243e-07 0 0.0065355207552795606 -1.1972438670960243e-07 0 0.0062424969878380841 -8.4683571448193726e-05 0 0.0058342488784397959 -0.00014247964035911745 0 0.0067986223565097304 -7.1764181614144919e-05 0 0.0065355207552795606 -1.1972438670960243e-07 0 0.0062424969878380841 -8.4683571448193726e-05 0 0.0067986223565097304 -7.1764181614144919e-05 0 0.0062424969878380841 -8.4683571448193726e-05 0 0.0063690321017131806 -6.0215757813118808e-05 0 0.0062424969878380841 -8.4683571448193726e-05 0 0.0063690321017131806 -6.0215757813118808e-05 0 0.006037408187247204 -7.7425159105364407e-05 0 0.0063690321017131806 -6.0215757813118808e-05 0 0.006037408187247204 -7.7425159105364407e-05 0 0.0061500195130053835 -1.9664352451099556e-05 0 0.0062424969878380841 -8.4683571448193726e-05 0 0.006037408187247204 -7.7425159105364407e-05 0 0.0058192004279424368 -0.00012883083497222794 0 0.0055880189739305856 -3.7550234758332245e-05 0 0.005856023829149383 -3.5022107818302508e-05 0 0.0056498242133068569 -9.1786526562330026e-05 0 0.006037408187247204 -7.7425159105364407e-05 0 0.005856023829149383 -3.5022107818302508e-05 0 0.0056498242133068569 -9.1786526562330026e-05 0 0.0055880189739305856 -3.7550234758332245e-05 0 0.0057049357201649472 -4.8262821086317855e-06 0 0.0052941517146182998 3.252698899747425e-06 0 0.0055880189739305856 -3.7550234758332245e-05 0 0.0057049357201649472 -4.8262821086317855e-06 0 0.005856023829149383 -3.5022107818302508e-05 0 0.0057049357201649472 -4.8262821086317855e-06 0 0.005856023829149383 -3.5022107818302508e-05 0 0.0059306814955568032 1.6540599697246313e-06 0 0.005856023829149383 -3.5022107818302508e-05 0 0.0061500195130053835 -1.9664352451099556e-05 0 0.0059306814955568032 1.6540599697246313e-06 0 0.006037408187247204 -7.7425159105364407e-05 0 0.005856023829149383 -3.5022107818302508e-05 0 0.0061500195130053835 -1.9664352451099556e-05 0 0.0057049357201649472 -4.8262821086317855e-06 0 0.0059190550763309618 1.7297907019250035e-05 0 0.0052941517146182998 3.252698899747425e-06 0 0.0055107069454958931 0.00044834455487685805 0 0.00532350143874156 -2.0230557811987127e-05 0 0.0047711652692690783 0.00070525758482941822 0 0.0047959091633419737 0.00093916399342299612 0 0.0049694265333734295 0.0010804856534480337 0 0.0051868683463158326 0.00013478350452918777 0 0.0051488293416914075 0.0009617953391394627 0 0.0052941517146182998 3.252698899747425e-06 0 0.0049527630286512296 0.00044979157497450096 0 0.0049913785047173663 0.0010605992573477607 0 0.0046654702184610701 0.00074986280621570337 0 0.0047711652692690783 0.00070525758482941822 0 0.0045735960171601978 0.0006858234545672106 0 0.0046654702184610701 0.00074986280621570337 0 0.0046975044173873312 0.00082364451536380209 0 0.0045929613326032839 0.00081413908249752787 0 0.0046654702184610701 0.00074986280621570337 0 0.0047711652692690783 0.00070525758482941822 0 0.0046975044173873312 0.00082364451536380209 0 0.0047711652692690783 0.00070525758482941822 0 0.0046975044173873312 0.00082364451536380209 0 0.0047959091633419737 0.00093916399342299612 0 0.0046975044173873312 0.00082364451536380209 0 0.0047959091633419737 0.00093916399342299612 0 0.0046337052744381798 0.00093834087182431258 0 0.0051868683463158326 0.00013478350452918777 0 0.0049694265333734295 0.0010804856534480337 0 0.0051488293416914075 0.0009617953391394627 0 0.0047959091633419737 0.00093916399342299612 0 0.0048089858575950471 0.0010707609131833471 0 0.0049694265333734295 0.0010804856534480337 0 0.0047229089453497903 0.0010217835653464828 0 0.0047178230361041608 0.0011473140166945871 0 0.0046230222826977203 0.0010744959101498149 0 0.0047229089453497903 0.0010217835653464828 0 0.0048089858575950471 0.0010707609131833471 0 0.0047178230361041608 0.0011473140166945871 0 0.0047229089453497903 0.0010217835653464828 0 0.0047959091633419737 0.00093916399342299612 0 0.0046337052744381798 0.00093834087182431258 0 0.0047229089453497903 0.0010217835653464828 0 0.0047959091633419737 0.00093916399342299612 0 0.0048089858575950471 0.0010707609131833471 0 0.0049694265333734295 0.0010804856534480337 0 0.0048206903162481942 0.0011994514272120501 0 0.0048617102769189626 0.0013883916495214745 0 0.0048089858575950471 0.0010707609131833471 0 0.0048206903162481942 0.0011994514272120501 0 0.0047178230361041608 0.0011473140166945871 0 0.0048089858575950471 0.0010707609131833471 0 0.0049694265333734295 0.0010804856534480337 0 0.0048206903162481942 0.0011994514272120501 0 0.0048206903162481942 0.0011994514272120501 0 0.0047178230361041608 0.0011473140166945871 0 0.0047200171511505339 0.0013050355535896769 0 0.0049694265333734295 0.0010804856534480337 0 0.0051488293416914075 0.0009617953391394627 0 0.0051436830603663816 0.0015762383321603253 0 0.0060353284675783228 2.7833810141087654e-05 0 0.0061500195130053835 -1.9664352451099556e-05 0 0.006186757951063283 0.0001105270997930944 0 0.0060353284675783228 2.7833810141087654e-05 0 0.0061500195130053835 -1.9664352451099556e-05 0 0.0059306814955568032 1.6540599697246313e-06 0 0.0057049357201649472 -4.8262821086317855e-06 0 0.0059306814955568032 1.6540599697246313e-06 0 0.0059190550763309618 1.7297907019250035e-05 0 0.0060353284675783228 2.7833810141087654e-05 0 0.0059306814955568032 1.6540599697246313e-06 0 0.0059190550763309618 1.7297907019250035e-05 0 0.0060353284675783228 2.7833810141087654e-05 0 0.0059190550763309618 1.7297907019250035e-05 0 0.006186757951063283 0.0001105270997930944 0 0.006186757951063283 0.0001105270997930944 0 0.0060862838557695278 0.00044004503227145717 0 0.0065188566488684711 0.0003030949845618819 0 0.0055107069454958931 0.00044834455487685805 0 0.0055790648626725323 0.0010513227487080538 0 0.0059190550763309618 1.7297907019250035e-05 0 0.006186757951063283 0.0001105270997930944 0 0.0060862838557695278 0.00044004503227145717 0 0.0060862838557695278 0.00044004503227145717 0 0.0066254692223970506 0.00064515831120843376 0 0.0065188566488684711 0.0003030949845618819 0 0.0049694265333734295 0.0010804856534480337 0 0.0051436830603663816 0.0015762383321603253 0 0.0048617102769189626 0.0013883916495214745 0 0.0051436830603663816 0.0015762383321603253 0 0.0048617102769189626 0.0013883916495214745 0 0.0048082323938077919 0.0016149982279752314 0 0.0048617102769189626 0.0013883916495214745 0 0.0047200171511505339 0.0013050355535896769 0 0.00463688072347734 0.0014904437581664714 0 0.0048206903162481942 0.0011994514272120501 0 0.0048617102769189626 0.0013883916495214745 0 0.0047200171511505339 0.0013050355535896769 0 0.0048617102769189626 0.0013883916495214745 0 0.0048082323938077919 0.0016149982279752314 0 0.00463688072347734 0.0014904437581664714 0 0.0051436830603663816 0.0015762383321603253 0 0.004896611789373337 0.0017950708915908473 0 0.0050309802150535331 0.0018954004781327684 0 0.0051436830603663816 0.0015762383321603253 0 0.0048082323938077919 0.0016149982279752314 0 0.004896611789373337 0.0017950708915908473 0 0.0048082323938077919 0.0016149982279752314 0 0.004896611789373337 0.0017950708915908473 0 0.0046956520232512089 0.0017748485265106034 0 0.004896611789373337 0.0017950708915908473 0 0.004776053673846193 0.0019347287931477499 0 0.0046956520232512089 0.0017748485265106034 0 0.0060862838557695278 0.00044004503227145717 0 0.0065102230562632014 0.0010758508275602928 0 0.006200198689033461 0.0015886041357292657 0 0.0051436830603663816 0.0015762383321603253 0 0.0052114105188132195 0.0020024859752803344 0 0.0050309802150535331 0.0018954004781327684 0 0.0055790648626725323 0.0010513227487080538 0 0.0060940563798421027 0.0016094533186935978 0 0.0060862838557695278 0.00044004503227145717 0 0.0065102230562632014 0.0010758508275602928 0 0.0066254692223970506 0.00064515831120843376 0 0.0065102230562632014 0.0010758508275602928 0 0.0069832887160538272 0.0011579674407292888 0 0.0066254692223970506 0.00064515831120843376 0 0.0069832887160538272 0.0011579674407292888 0 0.0071945625486031749 0.00034575289301519267 0 0.0079009790696758682 0.0013284569928675941 0 0.0069832887160538272 0.0011579674407292888 0 0.0071945625486031749 0.00034575289301519267 0 0.0066254692223970506 0.00064515831120843376 0 0.0071945625486031749 0.00034575289301519267 0 0.0066254692223970506 0.00064515831120843376 0 0.0065188566488684711 0.0003030949845618819 0 0.0066324324322189427 2.313349122223599e-05 0 0.0071945625486031749 0.00034575289301519267 0 0.0065188566488684711 0.0003030949845618819 0 0.0066324324322189427 2.313349122223599e-05 0 0.0071945625486031749 0.00034575289301519267 0 0.0073431001252332543 2.2478787756716148e-05 0 0.0066324324322189427 2.313349122223599e-05 0 0.006186757951063283 0.0001105270997930944 0 0.0065188566488684711 0.0003030949845618819 0 0.0071945625486031749 0.00034575289301519267 0 0.0073431001252332543 2.2478787756716148e-05 0 0.0087774627014410231 2.3503938663149412e-06 0 0.007658166786255141 -7.050350592405646e-07 0 0.0073431001252332543 2.2478787756716148e-05 0 0.0087774627014410231 2.3503938663149412e-06 0 0.0071945625486031749 0.00034575289301519267 0 0.0087774627014410231 2.3503938663149412e-06 0 0.0079009790696758682 0.0013284569928675941 0 0.0087811762107798223 -1.0295440713711471e-07 0 0.0092809828694335149 1.2255148161156265e-07 0 0.0093925042899747832 -4.9037617882806587e-06 0 0.0087799483107755521 7.0379728266476147e-08 0 0.0085614886231033735 0.00072717914485791841 0 0.0092835732829901312 3.6917749596519187e-07 0 0.010150263024943769 -2.0388083436723922e-05 0 0.010400021036477688 4.1439457506933178e-07 0 0.0092835096820389155 -9.2953012245276437e-07 0 0.0094220133583253832 0.00058786475995582679 0 0.0092809828694335149 1.2255148161156265e-07 0 0.0093925042899747832 -4.9037617882806587e-06 0 0.0095092609034864058 -9.7630298666570722e-05 0 0.0092835732829901312 3.6917749596519187e-07 0 0.010092130882336516 -3.704954187625936e-07 0 0.010150263024943769 -2.0388083436723922e-05 0 0.0085614886231033735 0.00072717914485791841 0 0.0094220133583253832 0.00058786475995582679 0 0.010381451516393829 3.5537201699756732e-05 0 0.0094220133583253832 0.00058786475995582679 0 0.0079009790696758682 0.0013284569928675941 0 0.0073162770298717981 0.0021237542103810379 0 0.0071702892810725678 0.0017298944990440169 0 0.0065102230562632014 0.0010758508275602928 0 0.0069832887160538272 0.0011579674407292888 0 0.006737032678201531 0.0015609403560762991 0 0.0069832887160538272 0.0011579674407292888 0 0.006737032678201531 0.0015609403560762991 0 0.0071702892810725678 0.0017298944990440169 0 0.0069832887160538272 0.0011579674407292888 0 0.0079009790696758682 0.0013284569928675941 0 0.0071702892810725678 0.0017298944990440169 0 0.0073162770298717981 0.0021237542103810379 0 0.0071702892810725678 0.0017298944990440169 0 0.0069463062936780326 0.0021160213312174324 0 0.0094220133583253832 0.00058786475995582679 0 0.0084754840583688238 0.0010003376200333361 0 0.006737032678201531 0.0015609403560762991 0 0.0071702892810725678 0.0017298944990440169 0 0.0069463062936780326 0.0021160213312174324 0 0.0084754840583688238 0.0010003376200333361 0 0.0060940563798421027 0.0016094533186935978 0 0.006737032678201531 0.0015609403560762991 0 0.0069463062936780326 0.0021160213312174324 0 0.006200198689033461 0.0015886041357292657 0 0.010533481155318589 0.0010823865445494937 0 0.010534712246613953 0.001093150647204494 0 0.010531082726625507 0.0010910213977247318 0 0.0099903020416601644 0.00068393124943240185 0 0.01210488177222176 0.00099999951157511268 0 0.008956325279950569 0.0011050977097050395 0 0.0086767709529249268 0.0015597057884781306 0 0.0085885928201156203 0.0011138613188883182 0 0.0084754840583688238 0.0010003376200333361 0 0.0073097151477498198 0.0016058855021590668 0 0.008956325279950569 0.0011050977097050395 0 0.009070515403000157 0.0011741385192854446 0 0.0086767709529249268 0.0015597057884781306 0 0.0096013424884425786 0.00075309732916187971 0 0.0091405397311839654 0.00076142605420694389 0 0.0094149522553541847 0.00093050462328350648 0 0.0084754840583688238 0.0010003376200333361 0 0.0099903020416601644 0.00068393124943240185 0 0.0094220133583253832 0.00058786475995582679 0 0.0099903020416601644 0.00068393124943240185 0 0.0099903020416601644 0.00068393124943240185 0 0.0095486714643355786 0.0015505310029447202 0 0.010092130882336516 -3.704954187625936e-07 0 0.010150263024943769 -2.0388083436723922e-05 0 0.010900105966563786 3.8748674101157176e-07 0 0.010150263024943769 -2.0388083436723922e-05 0 0.0099874072752145319 -1.2134086959589041e-05 0 0.0099602469080653077 1.4466087070089335e-05 0 0.0099903020416601644 0.00068393124943240185 0 0.010901948534687598 -1.7620182142796239e-08 0 0.010150263024943769 -2.0388083436723922e-05 0 0.0099602469080653077 1.4466087070089335e-05 0 0.010900105966563786 3.8748674101157176e-07 0 0.011360296890180806 0.0003207028904021052 0 0.010904092231893406 3.1279261983596296e-08 0 0.011297983551523838 -0.0001084147425420293 0 0.010904092231893406 3.1279261983596296e-08 0 0.011297983551523838 -0.0001084147425420293 0 0.011764876257826297 -7.7218159143542178e-09 0 0.012425530279792058 0.00055530978492348182 0 0.011767488070137853 2.6227429730477987e-07 0 0.012425530279792058 0.00055530978492348182 0 0.01210488177222176 0.00099999951157511268 0 0.011360296890180806 0.0003207028904021052 0 0.011297983551523838 -0.0001084147425420293 0 0.011564880842067908 7.0151447280326459e-06 0 0.01327458002567394 0.0012084832686238478 0 0.014230785836349054 0.0016159937382875303 0 0.014036690407363533 0.0011425598344734413 0 0.01327458002567394 0.0012084832686238478 0 0.014036690407363533 0.0011425598344734413 0 0.013863938253389508 0.00078944579188972345 0 0.01327458002567394 0.0012084832686238478 0 0.013863938253389508 0.00078944579188972345 0 0.013026109390522707 0.00022539278257456034 0 0.014248733341591093 0.00098325524430304453 0 0.013863938253389508 0.00078944579188972345 0 0.014353897824639682 0.00074595754434426031 0 0.014036690407363533 0.0011425598344734413 0 0.014248733341591093 0.00098325524430304453 0 0.013863938253389508 0.00078944579188972345 0 0.014551987202736887 0.00033725249054484527 0 0.013787147753371832 0.00023923324438070501 0 0.014353897824639682 0.00074595754434426031 0 0.013787147753371832 0.00023923324438070501 0 0.013863938253389508 0.00078944579188972345 0 0.014353897824639682 0.00074595754434426031 0 0.013787147753371832 0.00023923324438070501 0 0.013863938253389508 0.00078944579188972345 0 0.013026109390522707 0.00022539278257456034 0 0.013088017282528177 -6.4974734513661404e-07 0 0.013026109390522707 0.00022539278257456034 0 0.011769681179125403 2.7347085871049997e-06 0 0.01327458002567394 0.0012084832686238478 0 0.013026109390522707 0.00022539278257456034 0 0.011769681179125403 2.7347085871049997e-06 0 0.015228625060353902 0.0005843182891432224 0 0.015056686466883552 0.0012164650407778697 0 0.015696059833070087 0.00072306581360013242 0 0.015228625060353902 0.0005843182891432224 0 0.014859880913928595 0.0007909402740056455 0 0.015056686466883552 0.0012164650407778697 0 0.01373943910858409 0.0024804577918004942 0 0.01473624680433514 0.0015491500650048947 0 0.0147330990522493 0.0023677508826303113 0 0.012915249028563679 0.0016801817855547638 0 0.015413630738352915 0.0010626356193630942 0 0.014551987202736887 0.00033725249054484527 0 0.015228625060353902 0.0005843182891432224 0 0.014859880913928595 0.0007909402740056455 0 0.014551987202736887 0.00033725249054484527 0 0.014859880913928595 0.0007909402740056455 0 0.014353897824639682 0.00074595754434426031 0 0.014248733341591093 0.00098325524430304453 0 0.014353897824639682 0.00074595754434426031 0 0.014490769180914805 0.0011560064195910334 0 0.014859880913928595 0.0007909402740056455 0 0.014353897824639682 0.00074595754434426031 0 0.014490769180914805 0.0011560064195910334 0 0.014778931415256703 0.00066882510701339875 0 0.013629117478394466 0.0012778548863001326 0 0.014859880913928595 0.0007909402740056455 0 0.014528274822576034 0.0012839182870481335 0 0.015056686466883552 0.0012164650407778697 0 0.01042827305913414 0.0014215228315847205 0 0.012915249028563679 0.0016801817855547638 0 0.013629117478394466 0.0012778548863001326 0 0.012915249028563679 0.0016801817855547638 0 0.012113183558241083 0.0012043008064047973 0 0.012118452976002147 0.0016018910802285027 0 0.012591214992109395 0.0011483835716389428 0 0.014036690407363533 0.0011425598344734413 0 0.014248733341591093 0.00098325524430304453 0 0.014490769180914805 0.0011560064195910334 0 0.014230785836349054 0.0016159937382875303 0 0.014036690407363533 0.0011425598344734413 0 0.014490769180914805 0.0011560064195910334 0 0.01210488177222176 0.00099999951157511268 0 0.013629117478394466 0.0012778548863001326 0 0.011907123997111257 0.0015173057129860817 0 0.012113183558241083 0.0012043008064047973 0 0.012118452976002147 0.0016018910802285027 0 0.01210488177222176 0.00099999951157511268 0 0.01042827305913414 0.0014215228315847205 0 0.010534712246613953 0.001093150647204494 0 0.01052985226143109 0.0010921338823310987 0 0.010532143620877191 0.0010923311243903036 0 0.010534712246613953 0.001093150647204494 0 0.010532143620877191 0.0010923311243903036 0 0.010531082726625507 0.0010910213977247318 0 0.01052985226143109 0.0010921338823310987 0 0.010532143620877191 0.0010923311243903036 0 0.010530194515514377 0.0010914455337543765 0 0.01042827305913414 0.0014215228315847205 0 0.0095486714643355786 0.0015505310029447202 0 0.0096144045699524915 0.0014648088747491658 0 0.0095486714643355786 0.0015505310029447202 0 0.01063291751209699 0.0015691846730585088 0 0.010023164166123684 0.0016821306149020744 0 0.0098461779356181361 0.0012699234285004125 0 0.01063291751209699 0.0015691846730585088 0 0.010271017355694318 0.001928162006626295 0 0.010023164166123684 0.0016821306149020744 0 0.010271017355694318 0.001928162006626295 0 0.010023164166123684 0.0016821306149020744 0 0.0097904427281651288 0.0019832271930262527 0 0.012915249028563679 0.0016801817855547638 0 0.012494210942932696 0.002110790081847102 0 0.0084600482848802994 0.0021669309506343916 0 0.0069718317052338066 0.0015873124881896586 0 0.0080344848118779361 0.0016320194623437286 0 0.01042827305913414 0.0014215228315847205 0 0.0070420328208844274 0.0014695308561914148 0 0.0069718317052338066 0.0015873124881896586 0 0.0072722481233974739 0.0011666364831494295 0 0.0080344848118779361 0.0016320194623437286 0 0.0070420328208844274 0.0014695308561914148 0 0.0059475856199772918 0.0017936555861314367 0 0.0072722481233974739 0.0011666364831494295 0 0.0080344848118779361 0.0016320194623437286 0 0.0084589648528092375 0.0011431468568110445 0 0.0059475856199772918 0.0017936555861314367 0 0.0073097151477498198 0.0016058855021590668 0 0.0084600482848802994 0.0021669309506343916 0 0.0086267875764879862 0.0020033700547713463 0 0.0080344848118779361 0.0016320194623437286 0 0.0086267875764879862 0.0020033700547713463 0 0.0080344848118779361 0.0016320194623437286 0 0.0084589648528092375 0.0011431468568110445 0 0.0095486714643355786 0.0015505310029447202 0 0.0073097151477498198 0.0016058855021590668 0 0.0052903281208724375 0.002196024591787092 0 0.0050809595603358371 0.0020454359466734089 0 0.0048984620824724908 0.0021310652406878665 0 0.0073097151477498198 0.0016058855021590668 0 0.0060940563798421027 0.0016094533186935978 0 0.0079105700057057957 0.0016191475642818802 0 0.0070586269093052293 0.0016386447746841266 0 0.0069440470672975331 0.0010294994675944943 0 0.0052903281208724375 0.002196024591787092 0 0.0050809595603358371 0.0020454359466734089 0 0.0052508299587204852 0.0020103258777940721 0 0.0060940563798421027 0.0016094533186935978 0 0.005126549242514951 0.0016715660629411336 0 0.0050809595603358371 0.0020454359466734089 0 0.0052508299587204852 0.0020103258777940721 0 0.0050309802150535331 0.0018954004781327684 0 0.0065102230562632014 0.0010758508275602928 0 0.006737032678201531 0.0015609403560762991 0 0.006200198689033461 0.0015886041357292657 0 0.0048501056523964619 0.0021999169698513018 0 0.0052903281208724375 0.002196024591787092 0 0.0048984620824724908 0.0021310652406878665 0 0.00484723280209951 0.0021942696325385424 0 0.0048315316726187888 0.0020538594516195589 0 0.0047136515209011999 0.002033279739725002 0 0.0048315316726187888 0.0020538594516195589 0 0.0048984620824724908 0.0021310652406878665 0 0.0049241983347375323 0.0019798271914465903 0 0.00484723280209951 0.0021942696325385424 0 0.0048315316726187888 0.0020538594516195589 0 0.0048984620824724908 0.0021310652406878665 0 0.0059475856199772918 0.0017936555861314367 0 0.005630722935369291 0.0020718147262480113 0 0.0050809595603358371 0.0020454359466734089 0 0.0048984620824724908 0.0021310652406878665 0 0.0049241983347375323 0.0019798271914465903 0 0.004896611789373337 0.0017950708915908473 0 0.0049241983347375323 0.0019798271914465903 0 0.0050309802150535331 0.0018954004781327684 0 0.0050809595603358371 0.0020454359466734089 0 0.0049241983347375323 0.0019798271914465903 0 0.0050309802150535331 0.0018954004781327684 0 0.004896611789373337 0.0017950708915908473 0 0.0049241983347375323 0.0019798271914465903 0 0.004776053673846193 0.0019347287931477499 0 0.0048315316726187888 0.0020538594516195589 0 0.0049241983347375323 0.0019798271914465903 0 0.004776053673846193 0.0019347287931477499 0 0.0048315316726187888 0.0020538594516195589 0 0.004776053673846193 0.0019347287931477499 0 0.0047136515209011999 0.002033279739725002 0 0.004776053673846193 0.0019347287931477499 0 0.0045918188113198543 0.0019106615021851443 0 0.0047136515209011999 0.002033279739725002 0 0.004776053673846193 0.0019347287931477499 0 0.0045918188113198543 0.0019106615021851443 0 0.0046956520232512089 0.0017748485265106034 0 0.0045918188113198543 0.0019106615021851443 0 0.0045733145772184234 0.0020654170233726787 0 0.0047136515209011999 0.002033279739725002 0 0.00484723280209951 0.0021942696325385424 0 0.0045733145772184234 0.0020654170233726787 0 0.0043955010134810527 0.0021704594478074977 0 0.0045918188113198543 0.0019106615021851443 0 0.004420444557934688 0.001970591512462453 0 0.0044660670007400606 0.0018592934657204582 0 0.004420444557934688 0.001970591512462453 0 0.004340398874343762 0.0018025923566661682 0 0.0044660670007400606 0.0018592934657204582 0 0.0045918188113198543 0.0019106615021851443 0 0.004420444557934688 0.001970591512462453 0 0.0045733145772184234 0.0020654170233726787 0 0.004420444557934688 0.001970591512462453 0 0.0045733145772184234 0.0020654170233726787 0 0.0043955010134810527 0.0021704594478074977 0 0.00484723280209951 0.0021942696325385424 0 0.0045733145772184234 0.0020654170233726787 0 0.0047136515209011999 0.002033279739725002 0 0.0042499035403403594 0.0019279760718020165 0 0.0041380208630720167 0.0020235364069142781 0 0.0040792731479053395 0.0018670362903837872 0 0.004420444557934688 0.001970591512462453 0 0.0042499035403403594 0.0019279760718020165 0 0.004340398874343762 0.0018025923566661682 0 0.0040915648541292324 0.0018710984909307616 0 0.0041285337684470059 0.0018559418260436554 0 0.0041373487283331845 0.001850329922412453 0 0.004420444557934688 0.001970591512462453 0 0.0042499035403403594 0.0019279760718020165 0 0.0043955010134810527 0.0021704594478074977 0 0.0041432071050872803 0.0019525152225844666 0 0.0042221422436154428 0.0017732011609806178 0 0.0042499035403403594 0.0019279760718020165 0 0.0041380208630720167 0.0020235364069142781 0 0.0043955010134810527 0.0021704594478074977 0 0.0040915648541292324 0.0018710984909307616 0 0.0041019564138012402 0.0018776500466163263 0 0.0041285337684470059 0.0018559418260436554 0 0.0041253934614054119 0.0018689994146028521 0 0.0041402682917961401 0.0018492932121793166 0 0.0041550910703714895 0.0018668042843661603 0 0.0041019564138012402 0.0018776500466163263 0 0.0041253934614054119 0.0018689994146028521 0 0.0041285337684470059 0.0018559418260436554 0 0.0041253934614054119 0.0018689994146028521 0 0.0041285337684470059 0.0018559418260436554 0 0.0041402682917961401 0.0018492932121793166 0 0.0041954992557513594 0.001780507091842156 0 0.0042221422436154428 0.0017732011609806178 0 0.0041253934614054119 0.0018689994146028521 0 0.0041550910703714895 0.0018668042843661603 0 0.004132605250844427 0.0018749132373540053 0 0.0041253934614054119 0.0018689994146028521 0 0.0040969752317716861 0.0018843902419335417 0 0.004132605250844427 0.0018749132373540053 0 0.0041019564138012402 0.0018776500466163263 0 0.0041253934614054119 0.0018689994146028521 0 0.0040969752317716861 0.0018843902419335417 0 0.0070420328208844274 0.0014695308561914148 0 0.0042221422436154428 0.0017732011609806178 0 0.0059475856199772918 0.0017936555861314367 0 0.0042221422436154428 0.0017732011609806178 0 0.0042126950035266866 0.0018539259170819728 0 0.0041402682917961401 0.0018492932121793166 0 0.0041550910703714895 0.0018668042843661603 0 0.0060438019319685975 0.0020925078748346929 0 0.0064665103637973663 0.0015026271592946917 0 0.0046324507429551928 0.0015375080539810598 0 0.0070420328208844274 0.0014695308561914148 0 0.0067532199789737324 0.0020789669389774399 0 0.0042126950035266866 0.0018539259170819728 0 0.0041550910703714895 0.0018668042843661603 0 0.0041712549647650206 0.0018828986943602377 0 0.0095801652683596694 0.0016581740567282652 0 0.0093169933732384427 0.0020347242554965305 0 0.0097904427281651288 0.0019832271930262527 0 0.010023164166123684 0.0016821306149020744 0 0.0098461779356181361 0.0012699234285004125 0 0.0095801652683596694 0.0016581740567282652 0 0.010023164166123684 0.0016821306149020744 0 0.0095801652683596694 0.0016581740567282652 0 0.0097904427281651288 0.0019832271930262527 0 0.0067532199789737324 0.0020789669389774399 0 0.0099117034110039401 0.0016798249581054673 0 0.0041712549647650206 0.0018828986943602377 0 0.0041374514955608227 0.0018759844356681116 0 0.0041550868397655059 0.0018838392438959861 0 0.0041550910703714895 0.0018668042843661603 0 0.0041712549647650206 0.0018828986943602377 0 0.004132605250844427 0.0018749132373540053 0 0.004132605250844427 0.0018749132373540053 0 0.0041090894640917275 0.0018720901131622314 0 0.0041374514955608227 0.0018759844356681116 0 0.0041712549647650206 0.0018828986943602377 0 0.004132605250844427 0.0018749132373540053 0 0.0041374514955608227 0.0018759844356681116 0 0.0040969752317716861 0.0018843902419335417 0 0.004132605250844427 0.0018749132373540053 0 0.0041090894640917275 0.0018720901131622314 0 0.0041183596749569803 0.0018677815839932123 0 0.0040944901122334128 0.0018337513167556341 0 0.0041002007067769989 0.0018465338072899615 0 0.0041090894640917275 0.0018720901131622314 0 0.0041183596749569803 0.0018677815839932123 0 0.0041374514955608227 0.0018759844356681116 0 0.0041090894640917275 0.0018720901131622314 0 0.0041183596749569803 0.0018677815839932123 0 0.0041002007067769989 0.0018465338072899615 0 0.0041183596749569803 0.0018677815839932123 0 0.0041374514955608227 0.0018759844356681116 0 0.0041550868397655059 0.0018838392438959861 0 0.012879660816833052 0.00074863305049322588 0 0.0099117034110039401 0.0016798249581054673 0 0.0089604393881039489 0.0012498650887648476 0 0.0089087451228743644 0.0013232657513826394 0 0.0089367082433296132 0.001315556292519979 0 0.016731177948137485 0.00082763548374377536 0 0.015736640879827221 0.0013208342656362434 0 0.015705840264125429 0.0022458523447346649 0 0.0041183596749569803 0.0018677815839932123 0 0.0041550868397655059 0.0018838392438959861 0 0.0041151292702427261 0.0018762591989633392 0 0.0099117034110039401 0.0016798249581054673 0 0.005246055340356195 0.0014853533058533789 0 0.0044397143985917525 0.002031854934754735 0 0.005246055340356195 0.0014853533058533789 0 0.015736640879827221 0.0013208342656362434 0 0.015705840264125429 0.0022458523447346649 0 0.01473624680433514 0.0015491500650048947 0 0.0099117034110039401 0.0016798249581054673 0 0.012494210942932696 0.002110790081847102 0 0.015705840264125429 0.0022458523447346649 0 0.01473624680433514 0.0015491500650048947 0 0.0147330990522493 0.0023677508826303113 0 0.0041649636411452036 0.0017395212788846187 0 0.0041425758611009248 0.0018640514038257066 0 0.0043090905208921382 0.0017612066261552851 0 0.0042969262905554811 0.0015954590992812063 0 0.0041970772582757719 0.0016213384593982293 0 0.0041649636411452036 0.0017395212788846187 0 0.0042969262905554811 0.0015954590992812063 0 0.0041649636411452036 0.0017395212788846187 0 0.0043090905208921382 0.0017612066261552851 0 0.0041007581879543079 0.0016168922912901279 0 0.0041970772582757719 0.0016213384593982293 0 0.0041649636411452036 0.0017395212788846187 0 0.0089604393881039489 0.0012498650887648476 0 0.0089680807878553172 0.0012714889599913174 0 0.0089367082433296132 0.001315556292519979 0 0.0041007581879543079 0.0016168922912901279 0 0.0041649636411452036 0.0017395212788846187 0 0.004017240769380784 0.0017399628191118672 0 0.0037216377507925014 0.0018150971038161292 0 0.005246055340356195 0.0014853533058533789 0 0.0041649636411452036 0.0017395212788846187 0 0.0040944901122334128 0.0018337513167556341 0 0.0041002007067769989 0.0018465338072899615 0 0.0064794532589239505 0.0015114549948050361 0 0.005246055340356195 0.0014853533058533789 0 0.0041649636411452036 0.0017395212788846187 0 0.0041002007067769989 0.0018465338072899615 0 0.0040989462701955422 0.0018689730960220771 0 0.0041090894640917275 0.0018720901131622314 0 0.0041002007067769989 0.0018465338072899615 0 0.0040989462701955422 0.0018689730960220771 0 0.0040969752317716861 0.0018843902419335417 0 0.0041090894640917275 0.0018720901131622314 0 0.0040989462701955422 0.0018689730960220771 0 0.0040969752317716861 0.0018843902419335417 0 0.0040989462701955422 0.0018689730960220771 0 0.0040888894778374233 0.0018917536149505086 0 0.0040989462701955422 0.0018689730960220771 0 0.0041425758611009248 0.0018640514038257066 0 0.0040888894778374233 0.0018917536149505086 0 0.0041425758611009248 0.0018640514038257066 0 0.0042046078803344954 0.0019251383572685343 0 0.0040738992162641244 0.0019167531161437391 0 0.0041425758611009248 0.0018640514038257066 0 0.0042046078803344954 0.0019251383572685343 0 0.0043090905208921382 0.0017612066261552851 0 0.0041649636411452036 0.0017395212788846187 0 0.0040989462701955422 0.0018689730960220771 0 0.0041425758611009248 0.0018640514038257066 0 0.004235174822123865 0.0018710123592693224 0 0.003821121835159163 0.0022392572728812477 0 0.0042046078803344954 0.0019251383572685343 0 0.0040738992162641244 0.0019167531161437391 0 0.0040458365005383605 0.0019238952308336217 0 0.0042046078803344954 0.0019251383572685343 0 0.0040458365005383605 0.0019238952308336217 0 0.0040061922252484679 0.0019292821124273401 0 0.0041425758611009248 0.0018640514038257066 0 0.0040738992162641244 0.0019167531161437391 0 0.0040888894778374233 0.0018917536149505086 0 0.0040738992162641244 0.0019167531161437391 0 0.0040458365005383605 0.0019238952308336217 0 0.0040168707324708735 0.001919054711888182 0 0.0040969752317716861 0.0018843902419335417 0 0.0040888894778374233 0.0018917536149505086 0 0.0040756202903970131 0.0018977513131461124 0 0.0040738992162641244 0.0019167531161437391 0 0.0040888894778374233 0.0018917536149505086 0 0.0040756202903970131 0.0018977513131461124 0 0.0040738992162641244 0.0019167531161437391 0 0.0040433332561306094 0.0019052079129746246 0 0.0040168707324708735 0.001919054711888182 0 0.0040738992162641244 0.0019167531161437391 0 0.0040756202903970131 0.0018977513131461124 0 0.0040433332561306094 0.0019052079129746246 0 0.0040915648541292324 0.0018710984909307616 0 0.0041019564138012402 0.0018776500466163263 0 0.0040756202903970131 0.0018977513131461124 0 0.0041019564138012402 0.0018776500466163263 0 0.0040969752317716861 0.0018843902419335417 0 0.0040756202903970131 0.0018977513131461124 0 0.0040915648541292324 0.0018710984909307616 0 0.0040756202903970131 0.0018977513131461124 0 0.0040433332561306094 0.0019052079129746246 0 0.0041432071050872803 0.0019525152225844666 0 0.0040065828484484242 0.0019034482080506098 0 0.0040433332561306094 0.0019052079129746246 0 0.0039861434851572565 0.0018952483540656882 0 0.0040168707324708735 0.001919054711888182 0 0.0040915648541292324 0.0018710984909307616 0 0.0040433332561306094 0.0019052079129746246 0 0.0039861434851572565 0.0018952483540656882 0 0.0039861434851572565 0.0018952483540656882 0 0.0040792731479053395 0.0018670362903837872 0 0.0039983311743868512 0.0017792019435052156 0 0.0041380208630720167 0.0020235364069142781 0 0.0039861434851572565 0.0018952483540656882 0 0.0040792731479053395 0.0018670362903837872 0 0.0040458365005383605 0.0019238952308336217 0 0.0040061922252484679 0.0019292821124273401 0 0.0039331472141245008 0.0019216021855008657 0 0.0040458365005383605 0.0019238952308336217 0 0.0040168707324708735 0.001919054711888182 0 0.0039331472141245008 0.0019216021855008657 0 0.0039861434851572565 0.0018952483540656882 0 0.0040168707324708735 0.001919054711888182 0 0.0039331472141245008 0.0019216021855008657 0 0.0039861434851572565 0.0018952483540656882 0 0.0039331472141245008 0.0019216021855008657 0 0.0038775294352508382 0.0017742870840579158 0 0.0038147173937085718 0.0019535689798795075 0 0.0039331472141245008 0.0019216021855008657 0 0.0038775294352508382 0.0017742870840579158 0 0.003821121835159163 0.0022392572728812477 0 0.0039571744728640465 0.0020833461217238626 0 0.0038775294352508382 0.0017742870840579158 0 0.003634731316245329 0.0015357301800166452 0 0.003946116083275681 0.0015857601754789901 0 0.0038147173937085718 0.0019535689798795075 0 0.0038775294352508382 0.0017742870840579158 0 0.003634731316245329 0.0015357301800166452 0 0.003821121835159163 0.0022392572728812477 0 0.0034539815672574169 0.0016969004885706968 0 0.003634731316245329 0.0015357301800166452 0 0.003946116083275681 0.0015857601754789901 0 0.0037672897517206541 0.0013021411781689288 0 0.003946116083275681 0.0015857601754789901 0 0.0041363020087916312 0.0013576765761270629 0 0.0037672897517206541 0.0013021411781689288 0 0.003946116083275681 0.0015857601754789901 0 0.0042293698038448338 0.0015733562985821815 0 0.0041363020087916312 0.0013576765761270629 0 0.003946116083275681 0.0015857601754789901 0 0.0041267862748053741 0.0017434719604809675 0 0.0042293698038448338 0.0015733562985821815 0 0.003946116083275681 0.0015857601754789901 0 0.0039983311743868512 0.0017792019435052156 0 0.0041267862748053741 0.0017434719604809675 0 0.0038775294352508382 0.0017742870840579158 0 0.003946116083275681 0.0015857601754789901 0 0.0039983311743868512 0.0017792019435052156 0 0.0039861434851572565 0.0018952483540656882 0 0.0038775294352508382 0.0017742870840579158 0 0.0039983311743868512 0.0017792019435052156 0 0.0040792731479053395 0.0018670362903837872 0 0.0039983311743868512 0.0017792019435052156 0 0.0041267862748053741 0.0017434719604809675 0 0.0042499035403403594 0.0019279760718020165 0 0.0040792731479053395 0.0018670362903837872 0 0.0041267862748053741 0.0017434719604809675 0 0.0042499035403403594 0.0019279760718020165 0 0.0041267862748053741 0.0017434719604809675 0 0.004340398874343762 0.0018025923566661682 0 0.004340398874343762 0.0018025923566661682 0 0.0044499828976343626 0.0015808006174507859 0 0.0042293698038448338 0.0015733562985821815 0 0.0041267862748053741 0.0017434719604809675 0 0.004340398874343762 0.0018025923566661682 0 0.0042293698038448338 0.0015733562985821815 0 0.0045918188113198543 0.0019106615021851443 0 0.0046956520232512089 0.0017748485265106034 0 0.0045144420964824111 0.0017536679482839691 0 0.004340398874343762 0.0018025923566661682 0 0.0045144420964824111 0.0017536679482839691 0 0.0044660670007400606 0.0018592934657204582 0 0.0045918188113198543 0.0019106615021851443 0 0.0045144420964824111 0.0017536679482839691 0 0.0044660670007400606 0.0018592934657204582 0 0.004340398874343762 0.0018025923566661682 0 0.0045144420964824111 0.0017536679482839691 0 0.0044499828976343626 0.0015808006174507859 0 0.0045144420964824111 0.0017536679482839691 0 0.004612299603449505 0.0016405959091488772 0 0.0044499828976343626 0.0015808006174507859 0 0.0046956520232512089 0.0017748485265106034 0 0.0045144420964824111 0.0017536679482839691 0 0.004612299603449505 0.0016405959091488772 0 0.0048082323938077919 0.0016149982279752314 0 0.004612299603449505 0.0016405959091488772 0 0.00463688072347734 0.0014904437581664714 0 0.0048082323938077919 0.0016149982279752314 0 0.0046956520232512089 0.0017748485265106034 0 0.004612299603449505 0.0016405959091488772 0 0.004612299603449505 0.0016405959091488772 0 0.00463688072347734 0.0014904437581664714 0 0.0044499828976343626 0.0015808006174507859 0 0.00463688072347734 0.0014904437581664714 0 0.0044499828976343626 0.0015808006174507859 0 0.0043900211139827955 0.0014021023386447168 0 0.00463688072347734 0.0014904437581664714 0 0.0043900211139827955 0.0014021023386447168 0 0.0045598180583598727 0.0012332001465514464 0 0.0047200171511505339 0.0013050355535896769 0 0.00463688072347734 0.0014904437581664714 0 0.0045598180583598727 0.0012332001465514464 0 0.0044499828976343626 0.0015808006174507859 0 0.0043900211139827955 0.0014021023386447168 0 0.0042293698038448338 0.0015733562985821815 0 0.0043900211139827955 0.0014021023386447168 0 0.0042293698038448338 0.0015733562985821815 0 0.0041363020087916312 0.0013576765761270629 0 0.0043900211139827955 0.0014021023386447168 0 0.0041363020087916312 0.0013576765761270629 0 0.0043103800035997246 0.0011822036573261672 0 0.0041363020087916312 0.0013576765761270629 0 0.0043103800035997246 0.0011822036573261672 0 0.0040111856054895392 0.0010599492879263912 0 0.0043103800035997246 0.0011822036573261672 0 0.004294529296886682 0.00099978868938634937 0 0.0040111856054895392 0.0010599492879263912 0 0.0045598180583598727 0.0012332001465514464 0 0.0044823953318367613 0.0010391695808774858 0 0.0046230222826977203 0.0010744959101498149 0 0.0047178230361041608 0.0011473140166945871 0 0.0045598180583598727 0.0012332001465514464 0 0.0046230222826977203 0.0010744959101498149 0 0.0047178230361041608 0.0011473140166945871 0 0.0047200171511505339 0.0013050355535896769 0 0.0045598180583598727 0.0012332001465514464 0 0.0043900211139827955 0.0014021023386447168 0 0.0043103800035997246 0.0011822036573261672 0 0.0045598180583598727 0.0012332001465514464 0 0.0043103800035997246 0.0011822036573261672 0 0.0045598180583598727 0.0012332001465514464 0 0.0044823953318367613 0.0010391695808774858 0 0.0043103800035997246 0.0011822036573261672 0 0.004294529296886682 0.00099978868938634937 0 0.0044823953318367613 0.0010391695808774858 0 0.0044823953318367613 0.0010391695808774858 0 0.0046230222826977203 0.0010744959101498149 0 0.0046337052744381798 0.00093834087182431258 0 0.0047229089453497903 0.0010217835653464828 0 0.0046230222826977203 0.0010744959101498149 0 0.0046337052744381798 0.00093834087182431258 0 0.0044823953318367613 0.0010391695808774858 0 0.0046337052744381798 0.00093834087182431258 0 0.0044394044146197284 0.0008337538982102963 0 0.0045929613326032839 0.00081413908249752787 0 0.0046337052744381798 0.00093834087182431258 0 0.0044394044146197284 0.0008337538982102963 0 0.0046975044173873312 0.00082364451536380209 0 0.0045929613326032839 0.00081413908249752787 0 0.0046337052744381798 0.00093834087182431258 0 0.004294529296886682 0.00099978868938634937 0 0.0044823953318367613 0.0010391695808774858 0 0.0044394044146197284 0.0008337538982102963 0 0.0044394044146197284 0.0008337538982102963 0 0.0041891558994644222 0.00079211024318316843 0 0.0043678663049311625 0.00063814703641713964 0 0.0044394044146197284 0.0008337538982102963 0 0.0045735960171601978 0.0006858234545672106 0 0.0043678663049311625 0.00063814703641713964 0 0.0045929613326032839 0.00081413908249752787 0 0.0044394044146197284 0.0008337538982102963 0 0.0045735960171601978 0.0006858234545672106 0 0.0046654702184610701 0.00074986280621570337 0 0.0045929613326032839 0.00081413908249752787 0 0.0045735960171601978 0.0006858234545672106 0 0.004294529296886682 0.00099978868938634937 0 0.0041891558994644222 0.00079211024318316843 0 0.0040111856054895392 0.0010599492879263912 0 0.004294529296886682 0.00099978868938634937 0 0.0044394044146197284 0.0008337538982102963 0 0.0041891558994644222 0.00079211024318316843 0 0.0034069341486886503 0.0010616684093644963 0 0.0040111856054895392 0.0010599492879263912 0 0.0038825897705882925 0.00071691937338627589 0 0.0041891558994644222 0.00079211024318316843 0 0.0040111856054895392 0.0010599492879263912 0 0.0038825897705882925 0.00071691937338627589 0 0.0034069341486886503 0.0010616684093644963 0 0.0034985448622216939 0.0006211114195968857 0 0.0038825897705882925 0.00071691937338627589 0 0.0034539815672574169 0.0016969004885706968 0 0.0034328650908650124 0.0010757381599372285 0 0.003634731316245329 0.0015357301800166452 0 0.0034069341486886503 0.0010616684093644963 0 0.0037672897517206541 0.0013021411781689288 0 0.0034069341486886503 0.0010616684093644963 0 0.0037672897517206541 0.0013021411781689288 0 0.0040111856054895392 0.0010599492879263912 0 0.0041363020087916312 0.0013576765761270629 0 0.0037672897517206541 0.0013021411781689288 0 0.0040111856054895392 0.0010599492879263912 0 0.0029020696797187589 0.0014515092864378033 0 0.0026315345449478573 0.00098778783512204526 0 0.002430986024175622 0.0015550967635103166 0 0.0033500129365832119 0.0018741226310198071 0 0.0034069341486886503 0.0010616684093644963 0 0.0029020696797187589 0.0014515092864378033 0 0.0034069341486886503 0.0010616684093644963 0 0.0029020696797187589 0.0014515092864378033 0 0.0026315345449478573 0.00098778783512204526 0 0.0034069341486886503 0.0010616684093644963 0 0.0026315345449478573 0.00098778783512204526 0 0.0029500618178674234 0.00043062820225863666 0 0.0026315345449478573 0.00098778783512204526 0 0.0021319695940061538 0.0011271849635968118 0 0.0024032157896015558 0.00060325493852258388 0 0.0021319695940061538 0.0011271849635968118 0 0.0016663115662631247 0.00099158492178524384 0 0.0017551536395954438 0.0014441576925589414 0 0.0021319695940061538 0.0011271849635968118 0 0.0016663115662631247 0.00099158492178524384 0 0.0020166727620642777 0.00058215991889705974 0 0.0021319695940061538 0.0011271849635968118 0 0.0017551536395954438 0.0014441576925589414 0 0.0020861662777027132 0.0015719034028500109 0 0.0026315345449478573 0.00098778783512204526 0 0.0021319695940061538 0.0011271849635968118 0 0.002430986024175622 0.0015550967635103166 0 0.0021319695940061538 0.0011271849635968118 0 0.0020861662777027132 0.0015719034028500109 0 0.002430986024175622 0.0015550967635103166 0 0.002430986024175622 0.0015550967635103166 0 0.0021445927987375998 0.0019468619457694307 0 0.0026395765756325427 0.0020073839274721774 0 0.0020861662777027132 0.0015719034028500109 0 0.002430986024175622 0.0015550967635103166 0 0.0021445927987375998 0.0019468619457694307 0 0.0017551536395954438 0.0014441576925589414 0 0.0020861662777027132 0.0015719034028500109 0 0.0016511711733179152 0.0018997639089929903 0 0.0020861662777027132 0.0015719034028500109 0 0.0021445927987375998 0.0019468619457694307 0 0.0016511711733179152 0.0018997639089929903 0 0.0021445927987375998 0.0019468619457694307 0 0.0020142301458712457 0.0023984839495445553 0 0.0016511711733179152 0.0018997639089929903 0 0.0030572997166937528 0.0023937761941801479 0 0.003078261588141837 0.0021358511201724191 0 0.0042698211659217581 0.0023799353870925574 0 0.0043505265271606558 0.0023822475788956004 0 0.0043138188955664045 0.0023487611875114291 0 0.0021445927987375998 0.0019468619457694307 0 0.0020142301458712457 0.0023984839495445553 0 0.0022999562964106219 0.0022085389619958726 0 0.0020142301458712457 0.0023984839495445553 0 0.0022999562964106219 0.0022085389619958726 0 0.0025440048394482274 0.0024414133177644549 0 0.0021445927987375998 0.0019468619457694307 0 0.0022999562964106219 0.0022085389619958726 0 0.0026395765756325427 0.0020073839274721774 0 0.0026395765756325427 0.0020073839274721774 0 0.0029647740674737613 0.0022813541119272745 0 0.0025440048394482274 0.0024414133177644549 0 0.0022999562964106219 0.0022085389619958726 0 0.0026395765756325427 0.0020073839274721774 0 0.0025440048394482274 0.0024414133177644549 0 0.0029020696797187589 0.0014515092864378033 0 0.002430986024175622 0.0015550967635103166 0 0.0026395765756325427 0.0020073839274721774 0 0.0033500129365832119 0.0018741226310198071 0 0.0029020696797187589 0.0014515092864378033 0 0.0026395765756325427 0.0020073839274721774 0 0.0033239017972578003 0.0026190038007943609 0 0.0033500129365832119 0.0018741226310198071 0 0.0029647740674737613 0.0022813541119272745 0 0.0033500129365832119 0.0018741226310198071 0 0.0026395765756325427 0.0020073839274721774 0 0.0029647740674737613 0.0022813541119272745 0 0.0033239017972578003 0.0026190038007943609 0 0.0029647740674737613 0.0022813541119272745 0 0.0030469049223786227 0.0025518806935700671 0 0.003821121835159163 0.0022392572728812477 0 0.003578355719231264 0.0025224550849446484 0 0.0033239017972578003 0.0026190038007943609 0 0.0030469049223786227 0.0025518806935700671 0 0.0028517444828525733 0.0027556152636309139 0 0.0041954602885304294 0.0023065838356472117 0 0.0044792895805706176 0.0022121601382736611 0 0.0043379345854381614 0.0021121609464142461 0 0.0030469049223786227 0.0025518806935700671 0 0.0025440048394482274 0.0024414133177644549 0 0.0028517444828525733 0.0027556152636309139 0 0.0025440048394482274 0.0024414133177644549 0 0.0028517444828525733 0.0027556152636309139 0 0.0023829442000838541 0.0028911931119659762 0 0.0029647740674737613 0.0022813541119272745 0 0.0030469049223786227 0.0025518806935700671 0 0.0025440048394482274 0.0024414133177644549 0 0.003578355719231264 0.0025224550849446484 0 0.0038822874827886965 0.002179530948049927 0 0.0044792895805706176 0.0022121601382736611 0 0.0046511349326456035 0.0019824809489742442 0 0.0047453082027314707 0.0021209533284919312 0 0.0044792895805706176 0.0022121601382736611 0 0.0046511349326456035 0.0019824809489742442 0 0.0044615832097089471 0.0019996488596698281 0 0.0046511349326456035 0.0019824809489742442 0 0.0044615832097089471 0.0019996488596698281 0 0.0046318776998011168 0.0019054839438506722 0 0.0042046078803344954 0.0019251383572685343 0 0.0041954602885304294 0.0023065838356472117 0 0.0043379345854381614 0.0021121609464142461 0 0.0044792895805706176 0.0022121601382736611 0 0.0043379345854381614 0.0021121609464142461 0 0.0044615832097089471 0.0019996488596698281 0 0.0042046078803344954 0.0019251383572685343 0 0.0043379345854381614 0.0021121609464142461 0 0.0044615832097089471 0.0019996488596698281 0 0.0044368648720104539 0.0018702756720452641 0 0.004560943640919652 0.0017980084322917296 0 0.0043090905208921382 0.0017612066261552851 0 0.0042046078803344954 0.0019251383572685343 0 0.0044368648720104539 0.0018702756720452641 0 0.0043090905208921382 0.0017612066261552851 0 0.0042046078803344954 0.0019251383572685343 0 0.0044615832097089471 0.0019996488596698281 0 0.0044368648720104539 0.0018702756720452641 0 0.0044615832097089471 0.0019996488596698281 0 0.0044368648720104539 0.0018702756720452641 0 0.0046318776998011168 0.0019054839438506722 0 0.0046318776998011168 0.0019054839438506722 0 0.004560943640919652 0.0017980084322917296 0 0.0047213207478023862 0.0018503801013553989 0 0.0044368648720104539 0.0018702756720452641 0 0.0046318776998011168 0.0019054839438506722 0 0.004560943640919652 0.0017980084322917296 0 0.004560943640919652 0.0017980084322917296 0 0.004773732911285267 0.0017224381343259991 0 0.0047213207478023862 0.0018503801013553989 0 0.004560943640919652 0.0017980084322917296 0 0.004773732911285267 0.0017224381343259991 0 0.0044382708817281066 0.0016204318441626505 0 0.004560943640919652 0.0017980084322917296 0 0.0044382708817281066 0.0016204318441626505 0 0.0043090905208921382 0.0017612066261552851 0 0.0042969262905554811 0.0015954590992812063 0 0.0044382708817281066 0.0016204318441626505 0 0.0043090905208921382 0.0017612066261552851 0 0.0058469399100388401 0.0020872971845637034 0 0.0068265485629560177 0.0023593111606002096 0 0.0065204499624111805 0.0016955001162807502 0 0.0052499212032589412 0.0019589779249830509 0 0.0059190854419059668 0.0021540617938858985 0 0.005511628163974689 0.0012621615699367884 0 0.0058469399100388401 0.0020872971845637034 0 0.0065204499624111805 0.0016955001162807502 0 0.004773732911285267 0.0017224381343259991 0 0.0047461081515195441 0.0018784068068035602 0 0.0047213207478023862 0.0018503801013553989 0 0.0048153420351094581 0.001759447962208177 0 0.0052499212032589412 0.0019589779249830509 0 0.005511628163974689 0.0012621615699367884 0 0.004773732911285267 0.0017224381343259991 0 0.0058469399100388401 0.0020872971845637034 0 0.0047461081515195441 0.0018784068068035602 0 0.0047213207478023862 0.0018503801013553989 0 0.0047243389582865419 0.0019167712039400541 0 0.0046318776998011168 0.0019054839438506722 0 0.0047213207478023862 0.0018503801013553989 0 0.0047243389582865419 0.0019167712039400541 0 0.0046511349326456035 0.0019824809489742442 0 0.0046318776998011168 0.0019054839438506722 0 0.0047243389582865419 0.0019167712039400541 0 0.0047243389582865419 0.0019167712039400541 0 0.0047257397617383023 0.0019143938399542723 0 0.0047325577965049324 0.0019270867055055127 0 0.0047461081515195441 0.0018784068068035602 0 0.0047257397617383023 0.0019143938399542723 0 0.0046987456810751215 0.0019172220247954605 0 0.0047461081515195441 0.0018784068068035602 0 0.0047243389582865419 0.0019167712039400541 0 0.0047257397617383023 0.0019143938399542723 0 0.0043287816724923702 0.0020418867099576579 0 0.0040556037262643747 0.0021335863289863696 0 0.0042543609575513572 0.0022031955303417321 0 0.0043287816724923702 0.0020418867099576579 0 0.0043632263859608774 0.0022458488420816639 0 0.0042543609575513572 0.0022031955303417321 0 0.0043287816724923702 0.0020418867099576579 0 0.0043632263859608774 0.0022458488420816639 0 0.004564248578561479 0.0021579387298746289 0 0.004632498037956817 0.0019625975134854798 0 0.0038822874827886965 0.002179530948049927 0 0.0046511349326456035 0.0019824809489742442 0 0.0047243389582865419 0.0019167712039400541 0 0.0046879774131362755 0.0019933922277976745 0 0.0047243389582865419 0.0019167712039400541 0 0.0047325577965049324 0.0019270867055055127 0 0.0046879774131362755 0.0019933922277976745 0 0.0045030121120351076 0.0021841375559724912 0 0.0038822874827886965 0.002179530948049927 0 0.0020142301458712457 0.0023984839495445553 0 0.0025440048394482274 0.0024414133177644549 0 0.0023829442000838541 0.0028911931119659762 0 0.0030572997166937528 0.0023937761941801479 0 0.0038822874827886965 0.002179530948049927 0 0.0042698211659217581 0.0023799353870925574 0 0.0040556037262643747 0.0021335863289863696 0 0.0042543609575513572 0.0022031955303417321 0 0.0042698211659217581 0.0023799353870925574 0 0.0043632263859608774 0.0022458488420816639 0 0.0042543609575513572 0.0022031955303417321 0 0.0042698211659217581 0.0023799353870925574 0 0.0043632263859608774 0.0022458488420816639 0 0.0043505265271606558 0.0023822475788956004 0 0.0043632263859608774 0.0022458488420816639 0 0.0043505265271606558 0.0023822475788956004 0 0.0045887743341451572 0.0023455182110781975 0 0.0043632263859608774 0.0022458488420816639 0 0.0045887743341451572 0.0023455182110781975 0 0.004564248578561479 0.0021579387298746289 0 0.0045887743341451572 0.0023455182110781975 0 0.0048395958747638338 0.0021966487632266666 0 0.004564248578561479 0.0021579387298746289 0 0.0045804569135200913 0.0029429691180347388 0 0.0046558513976338832 0.00296736219487248 0 0.0045573715488888217 0.0033423400628051578 0 0.0046830856098638747 0.002462580258840824 0 0.0041794379800642305 0.0033520642725462435 0 0.0045887743341451572 0.0023455182110781975 0 0.0048395958747638338 0.0021966487632266666 0 0.0048222612589741507 0.0025990674157227215 0 0.0046830856098638747 0.002462580258840824 0 0.0054686878466472183 0.0023800905192866129 0 0.0048395958747638338 0.0021966487632266666 0 0.0046802658775307203 0.0019545765560487595 0 0.004564248578561479 0.0021579387298746289 0 0.0048395958747638338 0.0021966487632266666 0 0.0046802658775307203 0.0019545765560487595 0 0.0048206781087232814 0.0019048575528009012 0 0.004632498037956817 0.0019625975134854798 0 0.0046293066451612418 0.0019650305141812314 0 0.0043287816724923702 0.0020418867099576579 0 0.0046802658775307203 0.0019545765560487595 0 0.004564248578561479 0.0021579387298746289 0 0.0047257397617383023 0.0019143938399542723 0 0.0047325577965049324 0.0019270867055055127 0 0.0046802658775307203 0.0019545765560487595 0 0.0047257397617383023 0.0019143938399542723 0 0.0046802658775307203 0.0019545765560487595 0 0.0046987456810751215 0.0019172220247954605 0 0.0046802658775307203 0.0019545765560487595 0 0.0046987456810751215 0.0019172220247954605 0 0.0048206781087232814 0.0019048575528009012 0 0.0068265485629560177 0.0023593111606002096 0 0.0077232094457632319 0.0026193911997051946 0 0.0072689818285072063 0.0020396518532202479 0 0.0059190854419059668 0.0021540617938858985 0 0.0054686878466472183 0.0023800905192866129 0 0.0054686878466472183 0.0023800905192866129 0 0.0059622531086817093 0.0023134545126910332 0 0.0077232094457632319 0.0026193911997051946 0 0.0072689818285072063 0.0020396518532202479 0 0.0077534629436706096 0.0018551544895512536 0 0.0072471083115273147 0.0015053968229060488 0 0.0072689818285072063 0.0020396518532202479 0 0.0077534629436706096 0.0018551544895512536 0 0.0072471083115273147 0.0015053968229060488 0 0.0072689818285072063 0.0020396518532202479 0 0.0065204499624111805 0.0016955001162807502 0 0.0068265485629560177 0.0023593111606002096 0 0.0072689818285072063 0.0020396518532202479 0 0.0065204499624111805 0.0016955001162807502 0 0.004852940579140241 0.0025147525766644782 0 0.0046992645857198614 0.0027299504551495358 0 0.0044960045598687916 0.0025883538665207955 0 0.0045403509516712699 0.0028078164875772332 0 0.0046992645857198614 0.0027299504551495358 0 0.0046512085901994722 0.0029730033203179073 0 0.0046992645857198614 0.0027299504551495358 0 0.0046512085901994722 0.0029730033203179073 0 0.0049037134340930849 0.0028115787657995682 0 0.004852940579140241 0.0025147525766644782 0 0.0046992645857198614 0.0027299504551495358 0 0.0049037134340930849 0.0028115787657995682 0 0.0045403509516712699 0.0028078164875772332 0 0.0046992645857198614 0.0027299504551495358 0 0.0044960045598687916 0.0025883538665207955 0 0.0041810229915109137 0.0030847800673791228 0 0.0041851223887144438 0.0027067138506785392 0 0.004370956990302168 0.0027735384927153415 0 0.0045403509516712699 0.0028078164875772332 0 0.0044960045598687916 0.0025883538665207955 0 0.004370956990302168 0.0027735384927153415 0 0.0041851223887144438 0.0027067138506785392 0 0.0044960045598687916 0.0025883538665207955 0 0.004370956990302168 0.0027735384927153415 0 0.0045403509516712699 0.0028078164875772332 0 0.004370956990302168 0.0027735384927153415 0 0.0044167311901467986 0.0029674355826575919 0 0.0044167311901467986 0.0029674355826575919 0 0.0043687559285879576 0.0031548409321318248 0 0.0046512085901994722 0.0029730033203179073 0 0.0043927529888378005 0.0030310843287208386 0 0.0044087189530702987 0.0029213887046501651 0 0.0041810229915109137 0.0030847800673791228 0 0.004370956990302168 0.0027735384927153415 0 0.0044167311901467986 0.0029674355826575919 0 0.0054686878466472183 0.0023800905192866129 0 0.0044087189530702987 0.0029213887046501651 0 0.0041810229915109137 0.0030847800673791228 0 0.0044167311901467986 0.0029674355826575919 0 0.0043754534090870052 0.0031451830904087562 0 0.0043687559285879576 0.0031548409321318248 0 0.0046512085901994722 0.0029730033203179073 0 0.0046641877627685126 0.0032650662459997237 0 0.0044087189530702987 0.0029213887046501651 0 0.0046248275701902004 0.0032392733729482916 0 0.0045403509516712699 0.0028078164875772332 0 0.0044167311901467986 0.0029674355826575919 0 0.0046512085901994722 0.0029730033203179073 0 0.0046512085901994722 0.0029730033203179073 0 0.0049129357860979977 0.0030459057045781131 0 0.0049037134340930849 0.0028115787657995682 0 0.0046512085901994722 0.0029730033203179073 0 0.0046641877627685126 0.0032650662459997237 0 0.0049129357860979977 0.0030459057045781131 0 0.004285774855093614 0.0031463580196892608 0 0.0046641877627685126 0.0032650662459997237 0 0.0044628481642997701 0.003549993931259906 0 0.0046641877627685126 0.0032650662459997237 0 0.0044628481642997701 0.003549993931259906 0 0.004801006174421479 0.0036153949003758798 0 0.0045804569135200913 0.0029429691180347388 0 0.0045994824627959311 0.002552363711603502 0 0.0047472355003734786 0.0026001318033970614 0 0.004285774855093614 0.0031463580196892608 0 0.0044628481642997701 0.003549993931259906 0 0.0041496013599470125 0.003689745010850926 0 0.0045804569135200913 0.0029429691180347388 0 0.0047472355003734786 0.0026001318033970614 0 0.0046558513976338832 0.00296736219487248 0 0.0044087189530702987 0.0029213887046501651 0 0.0044156024803969291 0.003396050246766705 0 0.0044628481642997701 0.003549993931259906 0 0.0041496013599470125 0.003689745010850926 0 0.0044046230488492093 0.0040033861152790843 0 -0.0012881664777963796 0.0031242726101421586 0 -0.0010412593436567889 0.003068056975229144 0 -0.0013319318783424807 0.0032941888095702177 0 0.0016136742037612076 0.0036492053641812442 0 0.001791498905290541 0.0033969860488536562 0 0.0044628481642997701 0.003549993931259906 0 0.0044046230488492093 0.0040033861152790843 0 0.004801006174421479 0.0036153949003758798 0 -0.0012881664777963796 0.0031242726101421586 0 -0.0014242338592640011 0.0028288806400657788 0 -0.0010412593436567889 0.003068056975229144 0 -0.0014242338592640011 0.0028288806400657788 0 -0.0011152724996838614 0.0026668610569551662 0 -0.0010412593436567889 0.003068056975229144 0 -0.0011152724996838614 0.0026668610569551662 0 -0.0013984602870261316 0.0024262761001337366 0 -0.00086125947068211597 0.0024741945752120805 0 -0.0014242338592640011 0.0028288806400657788 0 -0.0011152724996838614 0.0026668610569551662 0 -0.0013984602870261316 0.0024262761001337366 0 -0.0015888153748471136 0.002491305480358337 0 -0.00074240003584973078 0.0025421529438003198 0 -0.0011152724996838614 0.0026668610569551662 0 -0.00086125947068211597 0.0024741945752120805 0 -0.00061028237902926085 0.0026478438503230481 0 -0.00077325473087187443 0.0030683891985427239 0 -0.00023151106311903496 0.0031204982477072958 0 -0.00058852454984011679 0.0027953179057295832 0 -0.00011279688429672966 0.0023949142884982988 0 0.0010717922223100612 0.0032147386981162336 0 0.0013329143796229933 0.0025119188551827312 0 -0.00074240003584973078 0.0025421529438003198 0 0.0019120460015641522 0.00287176756318135 0 -0.00074240003584973078 0.0025421529438003198 0 0.0009706772364604443 0.0028891222436736486 0 0.0044046230488492093 0.0040033861152790843 0 0.0040124129226842987 0.0041865645584878109 0 0.0040395781965197695 0.0043632022283803711 0 -0.0011152724996838614 0.0026668610569551662 0 -0.0010412593436567889 0.003068056975229144 0 -0.00061028237902926085 0.0026478438503230481 0 0.0041496013599470125 0.003689745010850926 0 0.0044046230488492093 0.0040033861152790843 0 0.0040124129226842987 0.0041865645584878109 0 0.0016136742037612076 0.0036492053641812442 0 0.0019120460015641522 0.00287176756318135 0 0.0045887743341451572 0.0023455182110781975 0 0.0048222612589741507 0.0025990674157227215 0 0.0045898664602865144 0.0025485757123367473 0 0.0044156024803969291 0.003396050246766705 0 0.0041794379800642305 0.0033520642725462435 0 0.0045732717045647436 0.0025492625369993244 0 0.00292104814915392 0.0030220208254979472 0 0.0048222612589741507 0.0025990674157227215 0 0.0045898664602865144 0.0025485757123367473 0 0.0048140529043418845 0.0027124155805844084 0 0.0042373390689213249 0.0023939069063915208 0 0.0043138188955664045 0.0023487611875114291 0 0.0041839981540283218 0.0023441774063582442 0 0.0043505265271606558 0.0023822475788956004 0 0.0042373390689213249 0.0023939069063915208 0 0.0043138188955664045 0.0023487611875114291 0 0.0043006793059984843 0.00236258628480354 0 0.0045732717045647436 0.0025492625369993244 0 0.0043505265271606558 0.0023822475788956004 0 0.0045887743341451572 0.0023455182110781975 0 0.0045898664602865144 0.0025485757123367473 0 0.0043138188955664045 0.0023487611875114291 0 0.0041350715657128487 0.0022797566018609365 0 0.0041830662419971012 0.0021772225808732192 0 0.0043138188955664045 0.0023487611875114291 0 0.0041839981540283218 0.0023441774063582442 0 0.0041350715657128487 0.0022797566018609365 0 0.003078261588141837 0.0021358511201724191 0 0.0019641266798450614 0.0019818643320134496 0 0.0040124129226842987 0.0041865645584878109 0 0.0040395781965197695 0.0043632022283803711 0 0.0040004432614847638 0.0043346623062075779 0 0.0041209229931717375 0.0023141649821140061 0 0.0040794292589442418 0.0023396108853281235 0 0.0041044267674358332 0.0022765282997052939 0 0.00292104814915392 0.0030220208254979472 0 0.0018380821376294855 0.0028235976620771641 0 0.0019120460015641522 0.00287176756318135 0 0.0019097419686173159 0.0029100651714932414 0 0.00292104814915392 0.0030220208254979472 0 0.0019097419686173159 0.0029100651714932414 0 0.0026652897459986387 0.0026593267779285962 0 0.0023191289608566852 0.0024183904674883886 0 0.002298727206929683 0.0030649685418489506 0 0.0019120460015641522 0.00287176756318135 0 0.00292104814915392 0.0030220208254979472 0 0.0041794379800642305 0.0033520642725462435 0 0.00292104814915392 0.0030220208254979472 0 0.0042373390689213249 0.0023939069063915208 0 0.0040794292589442418 0.0023396108853281235 0 0.0041839981540283218 0.0023441774063582442 0 0.0041209229931717375 0.0023141649821140061 0 0.0040794292589442418 0.0023396108853281235 0 0.0041839981540283218 0.0023441774063582442 0 0.0041209229931717375 0.0023141649821140061 0 0.0041839981540283218 0.0023441774063582442 0 0.0041350715657128487 0.0022797566018609365 0 0.0041350715657128487 0.0022797566018609365 0 0.0041022231892858104 0.0022778171623766877 0 0.0041830662419971012 0.0021772225808732192 0 0.0041209229931717375 0.0023141649821140061 0 0.0041350715657128487 0.0022797566018609365 0 0.0041044267674358332 0.0022765282997052939 0 0.0026857247738002583 0.0028119841168816411 0 0.0018380821376294855 0.0028235976620771641 0 0.0023633667315233796 0.0028710716870240763 0 0.0022714929914708741 0.0030674790986522753 0 0.0023587884493217149 0.002973864663025595 0 0.0018380821376294855 0.0028235976620771641 0 0.0009706772364604443 0.0028891222436736486 0 0.0014166137182779943 0.0032219577652467489 0 0.0017265010625828775 0.0028803382796481702 0 0.0017154119360205224 0.0032428194264814574 0 0.0018380821376294855 0.0028235976620771641 0 0.0019097419686173159 0.0029100651714932414 0 0.0010717922223100612 0.0032147386981162336 0 0.0013209938728187464 0.0029384983405094591 0 0.0013329143796229933 0.0025119188551827312 0 0.0019097419686173159 0.0029100651714932414 0 0.0009706772364604443 0.0028891222436736486 0 0.00018090715862092657 0.0026747987373505521 0 0.00038765918026461383 0.0021030460103202693 0 0.00051673565234819938 0.0022722132080930406 0 0.00018090715862092657 0.0026747987373505521 0 0.00038765918026461383 0.0021030460103202693 0 0.00031305573240637981 0.0019398079525695612 0 0.0009706772364604443 0.0028891222436736486 0 -0.00048296734875557883 0.0019620744222004403 0 -0.0001504534985029676 0.003195808290608428 0 0.00019808696488212769 0.002202839040375095 0 -0.00015582854486684863 0.001787304220231656 0 0.0018380821376294855 0.0028235976620771641 0 0.00012110497521220365 0.0021313858421105874 0 -1.1789930988011814e-05 0.003204762888117013 0 -0.0001504534985029676 0.003195808290608428 0 0.00019808696488212769 0.002202839040375095 0 -0.00023151106311903496 0.0031204982477072958 0 -0.00015582854486684863 0.001787304220231656 0 -0.00046247835248142095 0.002446820239697806 0 0.0018380821376294855 0.0028235976620771641 0 0.0019641266798450614 0.0019818643320134496 0 0.0013144596680375071 0.0017634090369688174 0 0.0019641266798450614 0.0019818643320134496 0 0.0010775244713688023 0.0016802995414640642 0 0.00038765918026461383 0.0021030460103202693 0 0.00052294671733203475 0.0022863504850610399 0 0.0017551536395954438 0.0014441576925589414 0 0.0016511711733179152 0.0018997639089929903 0 0.001300383318897678 0.0014109234312718931 0 0.0016663115662631247 0.00099158492178524384 0 0.0017551536395954438 0.0014441576925589414 0 0.001300383318897678 0.0014109234312718931 0 0.0012403238222968799 0.0013836731494001587 0 0.0019641266798450614 0.0019818643320134496 0 0.0010775244713688023 0.0016802995414640642 0 0.00038765918026461383 0.0021030460103202693 0 0.00031305573240637981 0.0019398079525695612 0 0.0010775244713688023 0.0016802995414640642 0 0.00031305573240637981 0.0019398079525695612 0 0.00044775854575901939 0.0011332580696164754 0 0.00012110497521220365 0.0021313858421105874 0 0.00046298606186197602 0.0011692918990089314 0 0.00019808696488212769 0.002202839040375095 0 -0.00015582854486684863 0.001787304220231656 0 0.00044775854575901939 0.0011332580696164754 0 -0.00015582854486684863 0.001787304220231656 0 -0.00060498222857245686 0.0015291045946640919 0 -0.0005865360403307688 0.002001656319864755 0 -0.00060498222857245686 0.0015291045946640919 0 -0.0005865360403307688 0.002001656319864755 0 -0.00093171357841278493 0.00194369163348161 0 -0.00060498222857245686 0.0015291045946640919 0 -0.00093171357841278493 0.00194369163348161 0 -0.0015365245283014226 0.0017517398007824323 0 -0.00015582854486684863 0.001787304220231656 0 -0.0005865360403307688 0.002001656319864755 0 -0.00046247835248142095 0.002446820239697806 0 -0.0005865360403307688 0.002001656319864755 0 -0.00046247835248142095 0.002446820239697806 0 -0.00080465324898343132 0.0022406996039344498 0 -0.00093171357841278493 0.00194369163348161 0 -0.0012033171774844097 0.002182864800592195 0 -0.00080465324898343132 0.0022406996039344498 0 -0.0005865360403307688 0.002001656319864755 0 -0.00093171357841278493 0.00194369163348161 0 -0.00080465324898343132 0.0022406996039344498 0 -0.0015365245283014226 0.0017517398007824323 0 -0.0012033171774844097 0.002182864800592195 0 -0.0015388423715131038 0.0024714202241773687 0 -0.00093171357841278493 0.00194369163348161 0 -0.0015365245283014226 0.0017517398007824323 0 -0.0012033171774844097 0.002182864800592195 0 -0.0012033171774844097 0.002182864800592195 0 -0.0015388423715131038 0.0024714202241773687 0 -0.00088973906154606866 0.0025433950449978587 0 -0.0016739590939654724 0.0025604166955563129 0 -0.0011724352241825554 0.0026019473216429218 0 -0.0016059073897671707 0.002309229766604803 0 -0.00074240003584973078 0.0025421529438003198 0 -0.0015789716032015013 0.0024138216122413791 0 -0.00077325473087187443 0.0030683891985427239 0 -0.0015388423715131038 0.0024714202241773687 0 -0.00088973906154606866 0.0025433950449978587 0 -0.00077325473087187443 0.0030683891985427239 0 -0.00058852454984011679 0.0027953179057295832 0 -0.00088973906154606866 0.0025433950449978587 0 -0.00023151106311903496 0.0031204982477072958 0 -0.00058852454984011679 0.0027953179057295832 0 -0.00046247835248142095 0.002446820239697806 0 -0.00058852454984011679 0.0027953179057295832 0 -0.00046247835248142095 0.002446820239697806 0 -0.00088973906154606866 0.0025433950449978587 0 -0.00046247835248142095 0.002446820239697806 0 -0.00088973906154606866 0.0025433950449978587 0 -0.00080465324898343132 0.0022406996039344498 0 -0.0012033171774844097 0.002182864800592195 0 -0.00088973906154606866 0.0025433950449978587 0 -0.00080465324898343132 0.0022406996039344498 0 -0.0015148896620541916 0.001134445518008636 0 -0.0011946515901024555 0.0014066217454480215 0 -0.0011705996815797451 0.0010187398385101229 0 -0.0015148896620541916 0.001134445518008636 0 -0.0015924896942067458 0.0014405436824949883 0 -0.0011946515901024555 0.0014066217454480215 0 -0.0015148896620541916 0.001134445518008636 0 -0.0015924896942067458 0.0014405436824949883 0 -0.0019436279260236875 0.001316812381916626 0 -0.0015365245283014226 0.0017517398007824323 0 -0.0015924896942067458 0.0014405436824949883 0 -0.0011946515901024555 0.0014066217454480215 0 -0.0015365245283014226 0.0017517398007824323 0 -0.0015924896942067458 0.0014405436824949883 0 -0.00191794642604941 0.0016476173135630879 0 -0.00060498222857245686 0.0015291045946640919 0 -0.0015365245283014226 0.0017517398007824323 0 -0.00057803808250946097 0.00085791971622452376 0 -0.0015027397241243726 0.0017020302580681387 0 -0.00089119980214873455 0.0011472743769401397 0 -0.00060498222857245686 0.0015291045946640919 0 -0.00057803808250946097 0.00085791971622452376 0 -8.6041738902484959e-05 0.0011206150632362345 0 -0.00015582854486684863 0.001787304220231656 0 -0.00060498222857245686 0.0015291045946640919 0 -8.6041738902484959e-05 0.0011206150632362345 0 -8.6041738902484959e-05 0.0011206150632362345 0 0.00044775854575901939 0.0011332580696164754 0 0.00041058416545319094 0.00012653133479385015 0 -0.00015582854486684863 0.001787304220231656 0 -8.6041738902484959e-05 0.0011206150632362345 0 0.00044775854575901939 0.0011332580696164754 0 0.0010775244713688023 0.0016802995414640642 0 0.0010140576976911319 0.0008386883573646551 0 0.00044775854575901939 0.0011332580696164754 0 0.0010140576976911319 0.0008386883573646551 0 0.00041058416545319094 0.00012653133479385015 0 0.0014037716093273686 0.00023521011277231188 0 0.0010140576976911319 0.0008386883573646551 0 0.00044775854575901939 0.0011332580696164754 0 0.00041058416545319094 0.00012653133479385015 0 -0.00057803808250946097 0.00085791971622452376 0 -8.6041738902484959e-05 0.0011206150632362345 0 0.00041058416545319094 0.00012653133479385015 0 -0.0011946515901024555 0.0014066217454480215 0 -0.00084619744029627484 0.0010574545699647787 0 -0.0011705996815797451 0.0010187398385101229 0 -0.00089119980214873455 0.0011472743769401397 0 -0.00022210252471732074 0.00059562290837700043 0 -0.00091390009904542078 0.00080287702392032548 0 -0.0011245869591527638 0.00067058393069977852 0 -0.0011705996815797451 0.0010187398385101229 0 -0.00084619744029627484 0.0010574545699647787 0 -0.00091390009904542078 0.00080287702392032548 0 -0.0011705996815797451 0.0010187398385101229 0 0.00041058416545319094 0.00012653133479385015 0 0.0012829984174072787 -0.00047819004562502489 0 0.0014037716093273686 0.00023521011277231188 0 -0.00022210252471732074 0.00059562290837700043 0 0.00035871527702985897 0.00014081265366338341 0 -0.00084619744029627484 0.0010574545699647787 0 -0.00091390009904542078 0.00080287702392032548 0 -0.00054958485391779801 0.00074657736093864985 0 -0.00091390009904542078 0.00080287702392032548 0 -0.00074961299374237786 0.00063064655819150041 0 -0.00054958485391779801 0.00074657736093864985 0 -0.00074961299374237786 0.00063064655819150041 0 -0.0008990545714292334 0.00043788365300025534 0 -0.00069964361112957903 0.00038346028904315239 0 -0.00074961299374237786 0.00063064655819150041 0 -0.00069964361112957903 0.00038346028904315239 0 -0.00055349780752230848 0.00050425347416292721 0 -0.0011525367090706152 0.0006901430197434026 0 -0.0008990545714292334 0.00043788365300025534 0 -0.001112181279264154 0.00037979044273829234 0 -0.00074961299374237786 0.00063064655819150041 0 -0.0011525367090706152 0.0006901430197434026 0 -0.0008990545714292334 0.00043788365300025534 0 -0.00077635075727625275 0.00063648632089979406 0 -0.0011362952490241963 0.00067861376313777444 0 -0.00091390009904542078 0.00080287702392032548 0 -0.00074961299374237786 0.00063064655819150041 0 -0.0011245869591527638 0.00067058393069977852 0 -0.0011362952490241963 0.00067861376313777444 0 -0.001590559190240836 0.00072184212311481044 0 -0.0011525367090706152 0.0006901430197434026 0 -0.0013440909022400685 0.00047876170886229901 0 -0.001112181279264154 0.00037979044273829234 0 -0.0011525367090706152 0.0006901430197434026 0 -0.0016032909863629371 0.00074758733846219617 0 -0.0013440909022400685 0.00047876170886229901 0 -0.0011245869591527638 0.00067058393069977852 0 -0.0011705996815797451 0.0010187398385101229 0 -0.0015722446873517324 0.00069810399082533741 0 -0.0015148896620541916 0.001134445518008636 0 -0.0015722446873517324 0.00069810399082533741 0 -0.0018207207216786668 0.00097657315904782168 0 -0.0015148896620541916 0.001134445518008636 0 -0.0011705996815797451 0.0010187398385101229 0 -0.0015722446873517324 0.00069810399082533741 0 -0.0016032909863629371 0.00074758733846219617 0 -0.0013440909022400685 0.00047876170886229901 0 -0.0017948505896196625 0.00052035420456025252 0 -0.0015282977735264376 0.00028018102058729007 0 -0.0013440909022400685 0.00047876170886229901 0 -0.0017948505896196625 0.00052035420456025252 0 -0.0015282977735264376 0.00028018102058729007 0 -0.0017948505896196625 0.00052035420456025252 0 -0.0018289945713300937 0.00027583511830738759 0 -0.0015282977735264376 0.00028018102058729007 0 -0.0017907119672656859 0.00011876530271381124 0 -0.0018289945713300937 0.00027583511830738759 0 -0.0013440909022400685 0.00047876170886229901 0 -0.0012463239631797527 0.0002337426071040554 0 -0.001112181279264154 0.00037979044273829234 0 -0.0015282977735264376 0.00028018102058729007 0 -0.0013440909022400685 0.00047876170886229901 0 -0.0012463239631797527 0.0002337426071040554 0 -0.0012463239631797527 0.0002337426071040554 0 -0.0013674149338870111 7.0742203438874316e-05 0 -0.0011342960314257629 3.8515706921820005e-05 0 -0.0015282977735264376 0.00028018102058729007 0 -0.0012463239631797527 0.0002337426071040554 0 -0.0013674149338870111 7.0742203438874316e-05 0 -0.0013674149338870111 7.0742203438874316e-05 0 -0.0014521265162512232 -0.00012668824512086872 0 -0.0012114321417915548 -6.4338101690299512e-05 0 -0.0013674149338870111 7.0742203438874316e-05 0 -0.0012114321417915548 -6.4338101690299512e-05 0 -0.0011342960314257629 3.8515706921820005e-05 0 -0.0014851279652872654 -9.0916614389022983e-05 0 -0.0020004944948750613 2.4741502698450452e-05 0 -0.0016433095206974178 4.5975447041273004e-05 0 -0.0014521265162512232 -0.00012668824512086872 0 -0.0019559929045778897 -8.9089129309407407e-06 0 -0.0015282977735264376 0.00028018102058729007 0 -0.0016433095206974178 4.5975447041273004e-05 0 -0.0017907119672656859 0.00011876530271381124 0 -0.0015282977735264376 0.00028018102058729007 0 -0.0013674149338870111 7.0742203438874316e-05 0 -0.0016433095206974178 4.5975447041273004e-05 0 -0.0013674149338870111 7.0742203438874316e-05 0 -0.0016433095206974178 4.5975447041273004e-05 0 -0.0014521265162512232 -0.00012668824512086872 0 -0.001529245966067601 -5.3036354242379881e-05 0 -0.0014741899518272085 -0.00023152985601506172 0 -0.0019914287459453718 -5.7604299514901006e-05 0 -0.0028264175482808755 -0.00016479829545964166 0 -0.0029854713852220855 -6.0777726246850226e-05 0 -0.0041555008944800164 -0.00011293456873718772 0 -0.0039588064107785974 -6.540708163975086e-05 0 -0.0040334764496064435 -5.2350861038027274e-05 0 -0.0014851279652872654 -9.0916614389022983e-05 0 -0.0010703057680640992 -0.00019915429574807886 0 -0.0014521265162512232 -0.00012668824512086872 0 -0.0012114321417915548 -6.4338101690299512e-05 0 -0.0010365276942344635 -0.0001939831295097412 0 -0.001529245966067601 -5.3036354242379881e-05 0 -0.0014741899518272085 -0.00023152985601506172 0 -0.0010365276942344635 -0.0001939831295097412 0 -0.0028264175482808755 -0.00016479829545964166 0 -0.0027289407070675109 -0.0002355990800407531 0 -0.0041555008944800164 -0.00011293456873718772 0 -0.0042710462065828703 -5.3798639130812438e-05 0 -0.0044617205459483314 -0.00011441545410990702 0 -0.0014741899518272085 -0.00023152985601506172 0 -0.00097035748051931079 -0.00037704490656176358 0 -0.0010365276942344635 -0.0001939831295097412 0 -0.0041555008944800164 -0.00011293456873718772 0 -0.0042710462065828703 -5.3798639130812438e-05 0 -0.0041627539315932478 -4.9495332502022287e-05 0 -0.0042710462065828703 -5.3798639130812438e-05 0 -0.0041627539315932478 -4.9495332502022287e-05 0 -0.0041516466784858388 2.8029448726577159e-05 0 -0.0041627539315932478 -4.9495332502022287e-05 0 -0.0041038808318446078 -1.8942826860121194e-05 0 -0.0041516466784858388 2.8029448726577159e-05 0 -0.0041555008944800164 -0.00011293456873718772 0 -0.0041003570264989781 -5.2929391820241428e-05 0 -0.0040334764496064435 -5.2350861038027274e-05 0 -0.0041038808318446078 -1.8942826860121194e-05 0 -0.0040651164984727506 2.6129835854699247e-05 0 -0.0041516466784858388 2.8029448726577159e-05 0 -0.0041038808318446078 -1.8942826860121194e-05 0 -0.004040565101899693 -1.2294007042796721e-05 0 -0.0040651164984727506 2.6129835854699247e-05 0 -0.0041003570264989781 -5.2929391820241428e-05 0 -0.004040565101899693 -1.2294007042796721e-05 0 -0.0040334764496064435 -5.2350861038027274e-05 0 -0.0041038808318446078 -1.8942826860121194e-05 0 -0.0041003570264989781 -5.2929391820241428e-05 0 -0.004040565101899693 -1.2294007042796721e-05 0 -0.0041555008944800164 -0.00011293456873718772 0 -0.0041627539315932478 -4.9495332502022287e-05 0 -0.0041003570264989781 -5.2929391820241428e-05 0 -0.0041627539315932478 -4.9495332502022287e-05 0 -0.0041038808318446078 -1.8942826860121194e-05 0 -0.0041003570264989781 -5.2929391820241428e-05 0 -0.00068998209589933254 -0.00018413222735811876 0 -0.00077971527566109069 -0.00028271906161797208 0 -0.0008566826721811637 -0.0001528444827628587 0 -0.00068998209589933254 -0.00018413222735811876 0 -0.00077971527566109069 -0.00028271906161797208 0 -0.0005762363362946713 -0.00025972255000883117 0 -0.00077971527566109069 -0.00028271906161797208 0 -0.0010365276942344635 -0.0001939831295097412 0 -0.0008566826721811637 -0.0001528444827628587 0 -0.00077971527566109069 -0.00028271906161797208 0 -0.00097035748051931079 -0.00037704490656176358 0 -0.0010365276942344635 -0.0001939831295097412 0 -0.0010365276942344635 -0.0001939831295097412 0 -0.00092076769849717705 -2.9117939577510659e-05 0 -0.0008566826721811637 -0.0001528444827628587 0 -0.0012114321417915548 -6.4338101690299512e-05 0 -0.0010750945336108178 -6.4319326432743756e-05 0 -0.0011342960314257629 3.8515706921820005e-05 0 -0.0012114321417915548 -6.4338101690299512e-05 0 -0.0010365276942344635 -0.0001939831295097412 0 -0.0010750945336108178 -6.4319326432743756e-05 0 -0.0010750945336108178 -6.4319326432743756e-05 0 -0.00092076769849717705 -2.9117939577510659e-05 0 -0.0011342960314257629 3.8515706921820005e-05 0 -0.0010365276942344635 -0.0001939831295097412 0 -0.0010750945336108178 -6.4319326432743756e-05 0 -0.00092076769849717705 -2.9117939577510659e-05 0 -0.00068998209589933254 -0.00018413222735811876 0 -0.00073276728546268956 1.4335694373110482e-06 0 -0.00059109878819387429 -7.2876132791161379e-05 0 -0.00092076769849717705 -2.9117939577510659e-05 0 -0.0008566826721811637 -0.0001528444827628587 0 -0.00073276728546268956 1.4335694373110482e-06 0 -0.00068998209589933254 -0.00018413222735811876 0 -0.0008566826721811637 -0.0001528444827628587 0 -0.00073276728546268956 1.4335694373110482e-06 0 -0.00073276728546268956 1.4335694373110482e-06 0 -0.00083061818535522529 0.0001835684859714192 0 -0.00066619542076126824 0.00019694274758299789 0 -0.00073276728546268956 1.4335694373110482e-06 0 -0.00066619542076126824 0.00019694274758299789 0 -0.00055988473410138783 9.2376121012173058e-05 0 -0.00092076769849717705 -2.9117939577510659e-05 0 -0.00073276728546268956 1.4335694373110482e-06 0 -0.00083061818535522529 0.0001835684859714192 0 -0.00092076769849717705 -2.9117939577510659e-05 0 -0.00083061818535522529 0.0001835684859714192 0 -0.0010234050037870239 0.00018664390081813621 0 -0.00092076769849717705 -2.9117939577510659e-05 0 -0.0011342960314257629 3.8515706921820005e-05 0 -0.0010234050037870239 0.00018664390081813621 0 -0.0012463239631797527 0.0002337426071040554 0 -0.0011342960314257629 3.8515706921820005e-05 0 -0.0010234050037870239 0.00018664390081813621 0 -0.00083061818535522529 0.0001835684859714192 0 -0.0010234050037870239 0.00018664390081813621 0 -0.0008990545714292334 0.00043788365300025534 0 -0.0010234050037870239 0.00018664390081813621 0 -0.0008990545714292334 0.00043788365300025534 0 -0.001112181279264154 0.00037979044273829234 0 -0.0012463239631797527 0.0002337426071040554 0 -0.0010234050037870239 0.00018664390081813621 0 -0.001112181279264154 0.00037979044273829234 0 -0.00083061818535522529 0.0001835684859714192 0 -0.0008990545714292334 0.00043788365300025534 0 -0.00069964361112957903 0.00038346028904315239 0 -0.00083061818535522529 0.0001835684859714192 0 -0.00066619542076126824 0.00019694274758299789 0 -0.00069964361112957903 0.00038346028904315239 0 -0.0004964549948819043 0.00029852145279787195 0 -0.00029402555687800975 0.00046966479072805411 0 -0.00055349780752230848 0.00050425347416292721 0 -0.00069964361112957903 0.00038346028904315239 0 -0.0004964549948819043 0.00029852145279787195 0 -0.00055349780752230848 0.00050425347416292721 0 -0.00066619542076126824 0.00019694274758299789 0 -0.00069964361112957903 0.00038346028904315239 0 -0.0004964549948819043 0.00029852145279787195 0 -0.0004964549948819043 0.00029852145279787195 0 -0.00027128618461903353 0.00025376020724945616 0 -0.00029402555687800975 0.00046966479072805411 0 -0.0004964549948819043 0.00029852145279787195 0 -0.00027128618461903353 0.00025376020724945616 0 -0.00038039070634246649 0.0001355479312910191 0 -0.00024952989309251093 0.00017123767947889806 0 -0.00038039070634246649 0.0001355479312910191 0 -0.00026999079530103641 9.3735759667796587e-05 0 -0.00027128618461903353 0.00025376020724945616 0 -0.00024952989309251093 0.00017123767947889806 0 -0.00038039070634246649 0.0001355479312910191 0 -0.00038039070634246649 0.0001355479312910191 0 -0.00033903252406612818 2.936565970854798e-05 0 -0.00046367463623931142 -1.592468362183367e-05 0 -0.00038039070634246649 0.0001355479312910191 0 -0.00033903252406612818 2.936565970854798e-05 0 -0.00026999079530103641 9.3735759667796587e-05 0 -0.00033903252406612818 2.936565970854798e-05 0 -0.00026999079530103641 9.3735759667796587e-05 0 -0.00024693021232877579 -3.5745148225410355e-06 0 -0.00066619542076126824 0.00019694274758299789 0 -0.0004964549948819043 0.00029852145279787195 0 -0.00055988473410138783 9.2376121012173058e-05 0 -0.0004964549948819043 0.00029852145279787195 0 -0.00038039070634246649 0.0001355479312910191 0 -0.00055988473410138783 9.2376121012173058e-05 0 -0.00038039070634246649 0.0001355479312910191 0 -0.00055988473410138783 9.2376121012173058e-05 0 -0.00046367463623931142 -1.592468362183367e-05 0 -0.00073276728546268956 1.4335694373110482e-06 0 -0.00055988473410138783 9.2376121012173058e-05 0 -0.00059109878819387429 -7.2876132791161379e-05 0 -0.00068998209589933254 -0.00018413222735811876 0 -0.00059109878819387429 -7.2876132791161379e-05 0 -0.00048189507756964659 -0.00016199716002236159 0 -0.00059109878819387429 -7.2876132791161379e-05 0 -0.00046367463623931142 -1.592468362183367e-05 0 -0.00048189507756964659 -0.00016199716002236159 0 -0.00055988473410138783 9.2376121012173058e-05 0 -0.00059109878819387429 -7.2876132791161379e-05 0 -0.00046367463623931142 -1.592468362183367e-05 0 -0.00033903252406612818 2.936565970854798e-05 0 -0.00046367463623931142 -1.592468362183367e-05 0 -0.00031884248609955813 -6.4631760096531314e-05 0 -0.00031884248609955813 -6.4631760096531314e-05 0 -0.00026486454803249576 -0.00016868081461144537 0 -0.00048189507756964659 -0.00016199716002236159 0 -0.00033903252406612818 2.936565970854798e-05 0 -0.00031884248609955813 -6.4631760096531314e-05 0 -0.00024693021232877579 -3.5745148225410355e-06 0 -0.00046367463623931142 -1.592468362183367e-05 0 -0.00031884248609955813 -6.4631760096531314e-05 0 -0.00048189507756964659 -0.00016199716002236159 0 -0.00037669648119930559 -0.00024490945611058379 0 -0.00026486454803249576 -0.00016868081461144537 0 -0.00048189507756964659 -0.00016199716002236159 0 -0.00037669648119930559 -0.00024490945611058379 0 -0.00026486454803249576 -0.00016868081461144537 0 -0.00018182223172839171 -0.00023094077581739506 0 -0.00037669648119930559 -0.00024490945611058379 0 -0.0005762363362946713 -0.00025972255000883117 0 -0.00048189507756964659 -0.00016199716002236159 0 -0.00068998209589933254 -0.00018413222735811876 0 -0.0005762363362946713 -0.00025972255000883117 0 -0.00048189507756964659 -0.00016199716002236159 0 -7.3563418723104814e-05 -0.00018664622506475899 0 -0.00011258984986261982 -0.00016984774067423848 0 -0.00018182223172839171 -0.00023094077581739506 0 -7.3563418723104814e-05 -0.00018664622506475899 0 -0.00011258984986261982 -0.00016984774067423848 0 2.6857927782437778e-06 -0.00014801222558742734 0 -0.00026486454803249576 -0.00016868081461144537 0 -0.00011258984986261982 -0.00016984774067423848 0 -0.00018182223172839171 -0.00023094077581739506 0 -0.00026486454803249576 -0.00016868081461144537 0 -0.00011258984986261982 -0.00016984774067423848 0 -0.00016581402929134764 -9.9406926996901837e-05 0 -0.00011258984986261982 -0.00016984774067423848 0 -0.00016581402929134764 -9.9406926996901837e-05 0 -5.001425936123812e-05 -7.1505907952660987e-05 0 -0.00031884248609955813 -6.4631760096531314e-05 0 -0.00026486454803249576 -0.00016868081461144537 0 -0.00016581402929134764 -9.9406926996901837e-05 0 -0.00016581402929134764 -9.9406926996901837e-05 0 -0.00024693021232877579 -3.5745148225410355e-06 0 -0.00015655024625662903 -2.0378019625245514e-05 0 -0.00031884248609955813 -6.4631760096531314e-05 0 -0.00016581402929134764 -9.9406926996901837e-05 0 -0.00024693021232877579 -3.5745148225410355e-06 0 -0.00024693021232877579 -3.5745148225410355e-06 0 -0.00015655024625662903 -2.0378019625245514e-05 0 -0.00019316289493169275 4.7350415535002856e-05 0 -0.00016581402929134764 -9.9406926996901837e-05 0 -0.00015655024625662903 -2.0378019625245514e-05 0 -5.001425936123812e-05 -7.1505907952660987e-05 0 -0.00015655024625662903 -2.0378019625245514e-05 0 -5.001425936123812e-05 -7.1505907952660987e-05 0 -0.00010754734993261808 4.4797754889508587e-05 0 -5.001425936123812e-05 -7.1505907952660987e-05 0 0.0001218250508559899 -0.00011552622777852056 0 6.048754321360417e-05 1.5563679333733001e-05 0 -0.00011258984986261982 -0.00016984774067423848 0 -5.001425936123812e-05 -7.1505907952660987e-05 0 2.6857927782437778e-06 -0.00014801222558742734 0 -5.001425936123812e-05 -7.1505907952660987e-05 0 2.6857927782437778e-06 -0.00014801222558742734 0 0.0001218250508559899 -0.00011552622777852056 0 6.048754321360417e-05 1.5563679333733001e-05 0 -6.9446280755377902e-05 0.00024861538845913773 0 0.00026956130022085374 -8.0648762815453698e-05 0 0.0001218250508559899 -0.00011552622777852056 0 6.048754321360417e-05 1.5563679333733001e-05 0 0.00026956130022085374 -8.0648762815453698e-05 0 0.0011628025762311415 -0.0004618689314148201 0 0.00039107188215256974 -9.7140924877579736e-05 0 0.0025192495153269334 -0.0011713027122958243 0 0.00027902365167222973 -0.00086450763236408301 0 0.00026956130022085374 -8.0648762815453698e-05 0 -5.001425936123812e-05 -7.1505907952660987e-05 0 6.048754321360417e-05 1.5563679333733001e-05 0 -3.7237193709614527e-05 4.903440603375371e-05 0 6.048754321360417e-05 1.5563679333733001e-05 0 -3.7237193709614527e-05 4.903440603375371e-05 0 -6.4700449408097908e-05 0.00014558653338221867 0 6.048754321360417e-05 1.5563679333733001e-05 0 -6.4700449408097908e-05 0.00014558653338221867 0 -6.9446280755377902e-05 0.00024861538845913773 0 -0.00026999079530103641 9.3735759667796587e-05 0 -0.00019316289493169275 4.7350415535002856e-05 0 -0.00016943986565288435 0.00013302976104699572 0 -0.00026999079530103641 9.3735759667796587e-05 0 -0.00024693021232877579 -3.5745148225410355e-06 0 -0.00019316289493169275 4.7350415535002856e-05 0 -0.00019316289493169275 4.7350415535002856e-05 0 -0.00010754734993261808 4.4797754889508587e-05 0 -0.00016943986565288435 0.00013302976104699572 0 -5.001425936123812e-05 -7.1505907952660987e-05 0 -3.7237193709614527e-05 4.903440603375371e-05 0 -0.00010754734993261808 4.4797754889508587e-05 0 -0.00010754734993261808 4.4797754889508587e-05 0 -9.8765276562893335e-05 0.00012324167584810354 0 -0.00016943986565288435 0.00013302976104699572 0 -0.00015655024625662903 -2.0378019625245514e-05 0 -0.00019316289493169275 4.7350415535002856e-05 0 -0.00010754734993261808 4.4797754889508587e-05 0 -3.7237193709614527e-05 4.903440603375371e-05 0 -0.00010754734993261808 4.4797754889508587e-05 0 -9.8765276562893335e-05 0.00012324167584810354 0 -3.7237193709614527e-05 4.903440603375371e-05 0 -6.4700449408097908e-05 0.00014558653338221867 0 -9.8765276562893335e-05 0.00012324167584810354 0 -6.4700449408097908e-05 0.00014558653338221867 0 -0.00015707418932863195 0.00019197444883479301 0 -6.9446280755377902e-05 0.00024861538845913773 0 -6.4700449408097908e-05 0.00014558653338221867 0 -9.8765276562893335e-05 0.00012324167584810354 0 -0.00015707418932863195 0.00019197444883479301 0 -9.8765276562893335e-05 0.00012324167584810354 0 -0.00016943986565288435 0.00013302976104699572 0 -0.00015707418932863195 0.00019197444883479301 0 -0.00024952989309251093 0.00017123767947889806 0 -0.00026999079530103641 9.3735759667796587e-05 0 -0.00016943986565288435 0.00013302976104699572 0 -0.00027128618461903353 0.00025376020724945616 0 -0.00024952989309251093 0.00017123767947889806 0 -0.00015707418932863195 0.00019197444883479301 0 -0.00024952989309251093 0.00017123767947889806 0 -0.00016943986565288435 0.00013302976104699572 0 -0.00015707418932863195 0.00019197444883479301 0 -0.00027128618461903353 0.00025376020724945616 0 -0.00015707418932863195 0.00019197444883479301 0 -6.9446280755377902e-05 0.00024861538845913773 0 0.0011628025762311415 -0.0004618689314148201 0 0.00086769681872582655 -0.00023277950619542942 0 -0.00027128618461903353 0.00025376020724945616 0 -6.9446280755377902e-05 0.00024861538845913773 0 -0.00029402555687800975 0.00046966479072805411 0 0.0025192495153269334 -0.0011713027122958243 0 0.0024127573179403964 -0.0010428737590815931 0 0.0020262317826222828 -0.00095197085067203955 0 0.0025192495153269334 -0.0011713027122958243 0 0.0024127573179403964 -0.0010428737590815931 0 0.0023793886823327355 -0.0013004949520121923 0 0.0024127573179403964 -0.0010428737590815931 0 0.0023793886823327355 -0.0013004949520121923 0 0.0026761230506062703 -0.00096478139209285499 0 0.0023793886823327355 -0.0013004949520121923 0 0.0029303594618948483 -0.0011540504627198152 0 0.0032235155338338709 -0.0015497452325959255 0 0.0022535371047736411 -0.0012893200205800993 0 0.0018931334074929016 -0.0012360112308060936 0 0.0025192495153269334 -0.0011713027122958243 0 0.0023793886823327355 -0.0013004949520121923 0 0.00027902365167222973 -0.00086450763236408301 0 0.0023793886823327355 -0.0013004949520121923 0 0.0026761230506062703 -0.00096478139209285499 0 0.0029303594618948483 -0.0011540504627198152 0 0.0026761230506062703 -0.00096478139209285499 0 0.0029303594618948483 -0.0011540504627198152 0 0.0030719226293555754 -0.00088270275698907935 0 0.0026761230506062703 -0.00096478139209285499 0 0.0028412834736106975 -0.00057058285256900306 0 0.0030719226293555754 -0.00088270275698907935 0 0.0026761230506062703 -0.00096478139209285499 0 0.0028412834736106975 -0.00057058285256900306 0 0.0024246834877668134 -0.00071059558079591782 0 0.0028412834736106975 -0.00057058285256900306 0 0.0032960164383985676 -0.00048346304949009361 0 0.0030719226293555754 -0.00088270275698907935 0 0.0028412834736106975 -0.00057058285256900306 0 0.0030703698073308856 -0.00013260530270674755 0 0.0025982432555485308 -0.00019139083110964264 0 0.0028412834736106975 -0.00057058285256900306 0 0.0030703698073308856 -0.00013260530270674755 0 0.0032960164383985676 -0.00048346304949009361 0 0.0028412834736106975 -0.00057058285256900306 0 0.0025982432555485308 -0.00019139083110964264 0 0.0024246834877668134 -0.00071059558079591782 0 0.0025982432555485308 -0.00019139083110964264 0 0.0019938556894189934 -0.00036227362775734402 0 0.0022790101116971929 0.00019367300850826525 0 0.0025982432555485308 -0.00019139083110964264 0 0.0024246834877668134 -0.00071059558079591782 0 0.0019938556894189934 -0.00036227362775734402 0 0.0024127573179403964 -0.0010428737590815931 0 0.0024246834877668134 -0.00071059558079591782 0 0.0020262317826222828 -0.00095197085067203955 0 0.0024127573179403964 -0.0010428737590815931 0 0.0026761230506062703 -0.00096478139209285499 0 0.0024246834877668134 -0.00071059558079591782 0 0.0020262317826222828 -0.00095197085067203955 0 0.0012829984174072787 -0.00047819004562502489 0 0.0019938556894189934 -0.00036227362775734402 0 0.0024246834877668134 -0.00071059558079591782 0 0.0020262317826222828 -0.00095197085067203955 0 0.0019938556894189934 -0.00036227362775734402 0 0.00086769681872582655 -0.00023277950619542942 0 0.00035871527702985897 0.00014081265366338341 0 -0.00029402555687800975 0.00046966479072805411 0 -0.00055349780752230848 0.00050425347416292721 0 -0.00054958485391779801 0.00074657736093864985 0 -0.00074961299374237786 0.00063064655819150041 0 -0.00055349780752230848 0.00050425347416292721 0 -0.00054958485391779801 0.00074657736093864985 0 0.0012829984174072787 -0.00047819004562502489 0 0.0019938556894189934 -0.00036227362775734402 0 0.0014037716093273686 0.00023521011277231188 0 0.0022790101116971929 0.00019367300850826525 0 0.0014037716093273686 0.00023521011277231188 0 0.0017042676975455166 0.00096758111180470668 0 0.0019938556894189934 -0.00036227362775734402 0 0.0022790101116971929 0.00019367300850826525 0 0.0014037716093273686 0.00023521011277231188 0 0.002248581694891086 0.0002558560953821637 0 0.0018810088570981555 0.00074584528920844557 0 0.0010140576976911319 0.0008386883573646551 0 0.0014037716093273686 0.00023521011277231188 0 0.0017042676975455166 0.00096758111180470668 0 0.0010775244713688023 0.0016802995414640642 0 0.0010140576976911319 0.0008386883573646551 0 0.0017042676975455166 0.00096758111180470668 0 0.0012403238222968799 0.0013836731494001587 0 0.0018810088570981555 0.00074584528920844557 0 0.0022790101116971929 0.00019367300850826525 0 0.0020166727620642777 0.00058215991889705974 0 0.0024032157896015558 0.00060325493852258388 0 0.0021319695940061538 0.0011271849635968118 0 0.0020166727620642777 0.00058215991889705974 0 0.0024032157896015558 0.00060325493852258388 0 0.0026315345449478573 0.00098778783512204526 0 0.0024032157896015558 0.00060325493852258388 0 0.0029500618178674234 0.00043062820225863666 0 0.0030703698073308856 -0.00013260530270674755 0 0.0025982432555485308 -0.00019139083110964264 0 0.0029500618178674234 0.00043062820225863666 0 0.0022790101116971929 0.00019367300850826525 0 0.0024032157896015558 0.00060325493852258388 0 0.0029500618178674234 0.00043062820225863666 0 0.0025982432555485308 -0.00019139083110964264 0 0.0022790101116971929 0.00019367300850826525 0 0.0029500618178674234 0.00043062820225863666 0 0.0030703698073308856 -0.00013260530270674755 0 0.0029500618178674234 0.00043062820225863666 0 0.0037549709340466875 0.00023579824036366667 0 0.0034069341486886503 0.0010616684093644963 0 0.0029500618178674234 0.00043062820225863666 0 0.0034985448622216939 0.0006211114195968857 0 0.0029500618178674234 0.00043062820225863666 0 0.0037549709340466875 0.00023579824036366667 0 0.0034985448622216939 0.0006211114195968857 0 0.0037549709340466875 0.00023579824036366667 0 0.0038825897705882925 0.00071691937338627589 0 0.0041484025235846468 0.00048075557852546899 0 0.0037549709340466875 0.00023579824036366667 0 0.0034985448622216939 0.0006211114195968857 0 0.0038825897705882925 0.00071691937338627589 0 0.0041891558994644222 0.00079211024318316843 0 0.0041484025235846468 0.00048075557852546899 0 0.0043678663049311625 0.00063814703641713964 0 0.0041891558994644222 0.00079211024318316843 0 0.0038825897705882925 0.00071691937338627589 0 0.0041484025235846468 0.00048075557852546899 0 0.0041484025235846468 0.00048075557852546899 0 0.0043678663049311625 0.00063814703641713964 0 0.0044953578410457783 0.00045623775873820395 0 0.0045735960171601978 0.0006858234545672106 0 0.0043678663049311625 0.00063814703641713964 0 0.0044953578410457783 0.00045623775873820395 0 0.0044953578410457783 0.00045623775873820395 0 0.0043845982315755139 0.00014979860258829505 0 0.004616556038050528 0.00030183091536632381 0 0.0044953578410457783 0.00045623775873820395 0 0.0043845982315755139 0.00014979860258829505 0 0.0041869637013515907 0.0001774096542638268 0 0.0037549709340466875 0.00023579824036366667 0 0.0041869637013515907 0.0001774096542638268 0 0.0040725108556853096 7.6847880199520341e-06 0 0.0037549709340466875 0.00023579824036366667 0 0.0041484025235846468 0.00048075557852546899 0 0.0041869637013515907 0.0001774096542638268 0 0.0041484025235846468 0.00048075557852546899 0 0.0044953578410457783 0.00045623775873820395 0 0.0041869637013515907 0.0001774096542638268 0 0.0041869637013515907 0.0001774096542638268 0 0.0040725108556853096 7.6847880199520341e-06 0 0.0042106086219523475 -6.8702880602891761e-05 0 0.0043845982315755139 0.00014979860258829505 0 0.0041869637013515907 0.0001774096542638268 0 0.0042106086219523475 -6.8702880602891761e-05 0 0.0043845982315755139 0.00014979860258829505 0 0.0042106086219523475 -6.8702880602891761e-05 0 0.0044150301098701827 -1.6526014077843902e-05 0 0.0042106086219523475 -6.8702880602891761e-05 0 0.0041876505091418808 -0.00020618902939964197 0 0.0044150301098701827 -1.6526014077843902e-05 0 0.0042106086219523475 -6.8702880602891761e-05 0 0.004164628050684736 -0.00014632537960659276 0 0.0041876505091418808 -0.00020618902939964197 0 0.0042106086219523475 -6.8702880602891761e-05 0 0.0041059095453674027 -0.00012214645744805007 0 0.004164628050684736 -0.00014632537960659276 0 0.0040725108556853096 7.6847880199520341e-06 0 0.0042106086219523475 -6.8702880602891761e-05 0 0.0041059095453674027 -0.00012214645744805007 0 0.0040725108556853096 7.6847880199520341e-06 0 0.0041059095453674027 -0.00012214645744805007 0 0.0039771795215087051 -7.4018434101585429e-05 0 0.0037572451371057315 -0.00056666332436102992 0 0.0034159762210536847 -0.00085343522975697792 0 0.0036249178574007893 -0.0012293504353517069 0 0.0037473741027883008 0.00020162102054789872 0 0.0039399024413886508 -0.0002561781069537175 0 0.0037549709340466875 0.00023579824036366667 0 0.0040725108556853096 7.6847880199520341e-06 0 0.0039771795215087051 -7.4018434101585429e-05 0 0.0030703698073308856 -0.00013260530270674755 0 0.0037549709340466875 0.00023579824036366667 0 0.0032960164383985676 -0.00048346304949009361 0 0.0037549709340466875 0.00023579824036366667 0 0.0037572451371057315 -0.00056666332436102992 0 0.0032960164383985676 -0.00048346304949009361 0 0.0037572451371057315 -0.00056666332436102992 0 0.0032960164383985676 -0.00048346304949009361 0 0.0034159762210536847 -0.00085343522975697792 0 0.0032960164383985676 -0.00048346304949009361 0 0.0034159762210536847 -0.00085343522975697792 0 0.0030719226293555754 -0.00088270275698907935 0 0.0034159762210536847 -0.00085343522975697792 0 0.0030719226293555754 -0.00088270275698907935 0 0.0032881791867844143 -0.0011528517940194466 0 0.0029303594618948483 -0.0011540504627198152 0 0.0030719226293555754 -0.00088270275698907935 0 0.0032881791867844143 -0.0011528517940194466 0 0.0034159762210536847 -0.00085343522975697792 0 0.0032881791867844143 -0.0011528517940194466 0 0.0036249178574007893 -0.0012293504353517069 0 0.0032881791867844143 -0.0011528517940194466 0 0.0035615342445827081 -0.0014187172542244328 0 0.0036249178574007893 -0.0012293504353517069 0 0.0032881791867844143 -0.0011528517940194466 0 0.0035615342445827081 -0.0014187172542244328 0 0.0032235155338338709 -0.0015497452325959255 0 0.0029303594618948483 -0.0011540504627198152 0 0.0032881791867844143 -0.0011528517940194466 0 0.0032235155338338709 -0.0015497452325959255 0 0.0037572451371057315 -0.00056666332436102992 0 0.0036249178574007893 -0.0012293504353517069 0 0.0038204700040410876 -0.0014198955771631062 0 0.0041059095453674027 -0.00012214645744805007 0 0.0039771795215087051 -7.4018434101585429e-05 0 0.0041266702884756434 -0.00015001124530703458 0 0.0039399024413886508 -0.0002561781069537175 0 0.0033802896433795327 -0.0010007119537557999 0 0.0035615342445827081 -0.0014187172542244328 0 0.0036249178574007893 -0.0012293504353517069 0 0.0038117203759635665 -0.0014282377120374795 0 0.0036935705062517282 -0.0012990605532515213 0 0.0033802896433795327 -0.0010007119537557999 0 -9.42733667749219e-05 -0.00022375044612635387 0 -0.0001209312293153903 -0.00016745253918094247 0 -0.00013618364098554612 -0.00020945893330212009 0 0.0033802896433795327 -0.0010007119537557999 0 0.0014398127710838809 -0.00021289893741824781 0 0.0033802896433795327 -0.0010007119537557999 0 0.0014200813529964397 -0.00054102818533817367 0 0.0025040325795347871 -0.0010004492990281968 0 0.0024358438976036395 -0.00038202656901382379 0 0.001562916742255894 -0.00010647449715385069 0 0.0035615342445827081 -0.0014187172542244328 0 0.0038117203759635665 -0.0014282377120374795 0 0.0038358048610905656 -0.0017012413670519288 0 -0.00026490295179223234 -0.00036951789045949301 0 2.1747580924890715e-05 -0.00031224854420011292 0 -8.4797115393278057e-05 -0.00021393387080525288 0 0.0014200813529964397 -0.00054102818533817367 0 0.0018931334074929016 -0.0012360112308060936 0 0.0035615342445827081 -0.0014187172542244328 0 0.0038358048610905656 -0.0017012413670519288 0 0.0032235155338338709 -0.0015497452325959255 0 -0.00026490295179223234 -0.00036951789045949301 0 0.00027902365167222973 -0.00086450763236408301 0 2.1747580924890715e-05 -0.00031224854420011292 0 2.1747580924890715e-05 -0.00031224854420011292 0 0.00026956130022085374 -8.0648762815453698e-05 0 8.0997635401182567e-05 -0.00015719660326816073 0 0.00027902365167222973 -0.00086450763236408301 0 2.1747580924890715e-05 -0.00031224854420011292 0 0.00026956130022085374 -8.0648762815453698e-05 0 0.0001218250508559899 -0.00011552622777852056 0 -2.377110805764876e-06 -0.00013785990563897725 0 8.0997635401182567e-05 -0.00015719660326816073 0 2.6857927782437778e-06 -0.00014801222558742734 0 0.0001218250508559899 -0.00011552622777852056 0 -2.377110805764876e-06 -0.00013785990563897725 0 0.0001218250508559899 -0.00011552622777852056 0 0.00026956130022085374 -8.0648762815453698e-05 0 8.0997635401182567e-05 -0.00015719660326816073 0 2.1747580924890715e-05 -0.00031224854420011292 0 8.0997635401182567e-05 -0.00015719660326816073 0 -8.4797115393278057e-05 -0.00021393387080525288 0 -2.377110805764876e-06 -0.00013785990563897725 0 8.0997635401182567e-05 -0.00015719660326816073 0 -8.4797115393278057e-05 -0.00021393387080525288 0 0.0014200813529964397 -0.00054102818533817367 0 -0.00015249929935204254 -6.5190165089319647e-05 0 -0.00026490295179223234 -0.00036951789045949301 0 -8.4797115393278057e-05 -0.00021393387080525288 0 -0.0001209312293153903 -0.00016745253918094247 0 -2.377110805764876e-06 -0.00013785990563897725 0 -0.0001209312293153903 -0.00016745253918094247 0 -0.00011857777282986548 -0.00015612949000789577 0 -0.0001209312293153903 -0.00016745253918094247 0 -0.00011857777282986548 -0.00015612949000789577 0 -0.00013814550818378216 -0.0001717990303566527 0 -2.377110805764876e-06 -0.00013785990563897725 0 -8.4797115393278057e-05 -0.00021393387080525288 0 -0.0001209312293153903 -0.00016745253918094247 0 -2.377110805764876e-06 -0.00013785990563897725 0 -0.00011857777282986548 -0.00015612949000789577 0 -7.7469269678981782e-05 -0.00016415069392508949 0 -0.00011857777282986548 -0.00015612949000789577 0 -0.00015689511414336218 -0.00015286479007146632 0 -0.0001268163699713932 -0.0001627969317403225 0 -0.00011857777282986548 -0.00015612949000789577 0 -7.7469269678981782e-05 -0.00016415069392508949 0 -0.0001268163699713932 -0.0001627969317403225 0 -7.3563418723104814e-05 -0.00018664622506475899 0 2.6857927782437778e-06 -0.00014801222558742734 0 -2.377110805764876e-06 -0.00013785990563897725 0 -7.3563418723104814e-05 -0.00018664622506475899 0 -2.377110805764876e-06 -0.00013785990563897725 0 -7.7469269678981782e-05 -0.00016415069392508949 0 -0.00018716743790249426 -0.0001407219187240661 0 -0.00016083650095638746 -0.00017213481809567817 0 -0.00019257397402746058 -0.00017788000148387576 0 -0.00018716743790249426 -0.0001407219187240661 0 -0.00015149216336940438 -0.00016001638099097238 0 -0.00015689511414336218 -0.00015286479007146632 0 -0.00011857777282986548 -0.00015612949000789577 0 -0.00015149216336940438 -0.00016001638099097238 0 -0.00015689511414336218 -0.00015286479007146632 0 -0.00011857777282986548 -0.00015612949000789577 0 -0.00015149216336940438 -0.00016001638099097238 0 -0.00013814550818378216 -0.0001717990303566527 0 -0.00016083650095638746 -0.00017213481809567817 0 -0.00015149216336940438 -0.00016001638099097238 0 -0.00013814550818378216 -0.0001717990303566527 0 -0.00018716743790249426 -0.0001407219187240661 0 -0.00016083650095638746 -0.00017213481809567817 0 -0.00015149216336940438 -0.00016001638099097238 0 -0.00016083650095638746 -0.00017213481809567817 0 -0.00013814550818378216 -0.0001717990303566527 0 -0.00013618364098554612 -0.00020945893330212009 0 -0.0001209312293153903 -0.00016745253918094247 0 -0.00013814550818378216 -0.0001717990303566527 0 -0.00013618364098554612 -0.00020945893330212009 0 -0.00016083650095638746 -0.00017213481809567817 0 -0.00019257397402746058 -0.00017788000148387576 0 -0.00013618364098554612 -0.00020945893330212009 0 -8.7998419156130696e-05 -0.00015353377474528913 0 -9.6526737773381508e-05 -0.00026874831807245078 0 0.00018745908799279364 -0.00035119693915148012 0 0.0021275455891334831 -7.2158521654868251e-05 0 0.0014398127710838809 -0.00021289893741824781 0 -0.00039021000039472022 -0.00010228305471797596 0 0.0014398127710838809 -0.00021289893741824781 0 0.0040873137949009215 0.00016753604221068759 0 0.0041495021871197652 -8.7423831338975585e-05 0 0.0041856569988276433 -5.7734170454238492e-05 0 0.0040873137949009215 0.00016753604221068759 0 0.0041495021871197652 -8.7423831338975585e-05 0 0.0040511098217343184 -4.6436275051678286e-05 0 0.0014200813529964397 -0.00054102818533817367 0 0.0014398127710838809 -0.00021289893741824781 0 0.0041495021871197652 -8.7423831338975585e-05 0 0.0041856569988276433 -5.7734170454238492e-05 0 0.0041572489709891889 -0.00012701832313714316 0 0.0041266702884756434 -0.00015001124530703458 0 0.0041856569988276433 -5.7734170454238492e-05 0 0.0041572489709891889 -0.00012701832313714316 0 0.0041059095453674027 -0.00012214645744805007 0 0.0041266702884756434 -0.00015001124530703458 0 0.0041572489709891889 -0.00012701832313714316 0 0.0041495021871197652 -8.7423831338975585e-05 0 0.0041572489709891889 -0.00012701832313714316 0 0.004164628050684736 -0.00014632537960659276 0 0.0041059095453674027 -0.00012214645744805007 0 0.0041572489709891889 -0.00012701832313714316 0 0.004164628050684736 -0.00014632537960659276 0 0.0041495021871197652 -8.7423831338975585e-05 0 0.004164628050684736 -0.00014632537960659276 0 0.0041876505091418808 -0.00020618902939964197 0 0.0041495021871197652 -8.7423831338975585e-05 0 0.0041876505091418808 -0.00020618902939964197 0 0.0040511098217343184 -4.6436275051678286e-05 0 0.0041876505091418808 -0.00020618902939964197 0 0.0039313781138555406 -0.00025815669809098172 0 0.0037966154011434116 -3.9739221051660829e-05 0 0.0039313781138555406 -0.00025815669809098172 0 0.0037966154011434116 -3.9739221051660829e-05 0 0.0033150705386368121 -0.00012069751204597009 0 0.0039313781138555406 -0.00025815669809098172 0 0.0033150705386368121 -0.00012069751204597009 0 0.003643751627970036 -0.00025558213496714317 0 0.0031622891137988844 9.775970286757413e-05 0 0.0037966154011434116 -3.9739221051660829e-05 0 0.0033150705386368121 -0.00012069751204597009 0 0.0040873137949009215 0.00016753604221068759 0 0.0040511098217343184 -4.6436275051678286e-05 0 0.0037966154011434116 -3.9739221051660829e-05 0 0.0041876505091418808 -0.00020618902939964197 0 0.0040511098217343184 -4.6436275051678286e-05 0 0.0037966154011434116 -3.9739221051660829e-05 0 -8.7998419156130696e-05 -0.00015353377474528913 0 -9.6526737773381508e-05 -0.00026874831807245078 0 -0.00027492587736002158 -0.00016658436535273223 0 0.0040873137949009215 0.00016753604221068759 0 0.0037966154011434116 -3.9739221051660829e-05 0 0.0035261741651378227 0.00045797833365501486 0 0.0021275455891334831 -7.2158521654868251e-05 0 0.0015872285231088017 0.00013830168946790168 0 0.0031622891137988844 9.775970286757413e-05 0 0.0035261741651378227 0.00045797833365501486 0 0.0023077712144845847 0.00049344578744599178 0 0.0031622891137988844 9.775970286757413e-05 0 0.0037966154011434116 -3.9739221051660829e-05 0 0.0035261741651378227 0.00045797833365501486 0 0.0015872285231088017 0.00013830168946790168 0 0.0010443579932407966 0.00018713568305195067 0 -0.00027492587736002158 -0.00016658436535273223 0 -0.00033564403209741599 -9.1819681231036923e-05 0 -0.00034571176284878773 -7.753557908420573e-06 0 -0.00027492587736002158 -0.00016658436535273223 0 -0.00033564403209741599 -9.1819681231036923e-05 0 -0.00026045549716419169 -0.00010027666645701524 0 -8.7998419156130696e-05 -0.00015353377474528913 0 -0.00027492587736002158 -0.00016658436535273223 0 -0.00026045549716419169 -0.00010027666645701524 0 -0.00018716743790249426 -0.0001407219187240661 0 -0.00019257397402746058 -0.00017788000148387576 0 -0.00026045549716419169 -0.00010027666645701524 0 -0.00039021000039472022 -0.00010228305471797596 0 -0.00015719485499666062 -0.00014853583309901226 0 0.00034683004593067925 3.7756013036443423e-07 0 -0.00034571176284878773 -7.753557908420573e-06 0 -0.00031414438559832403 -0.00014827826482454189 0 0.00034895523899900659 8.7812932430143698e-08 0 0.0010443579932407966 0.00018713568305195067 0 -0.00033564403209741599 -9.1819681231036923e-05 0 -0.00034571176284878773 -7.753557908420573e-06 0 -0.00031414438559832403 -0.00014827826482454189 0 0.0031622891137988844 9.775970286757413e-05 0 0.0023077712144845847 0.00049344578744599178 0 0.0025605518934737285 2.2837711476038486e-05 0 0.00035120287484504867 2.0950116922602656e-06 0 0.0023077712144845847 0.00049344578744599178 0 0.0016151376637799995 -5.1969657200424272e-07 0 0.0023077712144845847 0.00049344578744599178 0 0.0016151376637799995 -5.1969657200424272e-07 0 0.0025605518934737285 2.2837711476038486e-05 0 0.0016151376637799995 -5.1969657200424272e-07 0 0.0025605518934737285 2.2837711476038486e-05 0 0.0028818259133584121 -2.9198419063243827e-07 0 0.0025605518934737285 2.2837711476038486e-05 0 0.0033150705386368121 -0.00012069751204597009 0 0.0028818259133584121 -2.9198419063243827e-07 0 0.0031622891137988844 9.775970286757413e-05 0 0.0025605518934737285 2.2837711476038486e-05 0 0.0033150705386368121 -0.00012069751204597009 0 0.0033150705386368121 -0.00012069751204597009 0 0.0028818259133584121 -2.9198419063243827e-07 0 0.003643751627970036 -0.00025558213496714317 0 0.0028818259133584121 -2.9198419063243827e-07 0 0.0041482302811472836 -7.682913710109596e-07 0 0.003643751627970036 -0.00025558213496714317 0 0.0041482302811472836 -7.682913710109596e-07 0 0.0039635670971965992 -0.00013835984964819266 0 0.003643751627970036 -0.00025558213496714317 0 0.0039635670971965992 -0.00013835984964819266 0 0.003643751627970036 -0.00025558213496714317 0 0.0042953213880435777 -0.0004675305387277219 0 0.0039313781138555406 -0.00025815669809098172 0 0.003643751627970036 -0.00025558213496714317 0 0.0042953213880435777 -0.0004675305387277219 0 0.0039313781138555406 -0.00025815669809098172 0 0.0042953213880435777 -0.0004675305387277219 0 0.0044458598324548298 -0.00049104333550923696 0 0.0042400556253202118 -0.00022086929066864611 0 0.0044320128079559104 -0.00025231864266821202 0 0.0041876505091418808 -0.00020618902939964197 0 0.0039313781138555406 -0.00025815669809098172 0 0.0044458598324548298 -0.00049104333550923696 0 0.0042953213880435777 -0.0004675305387277219 0 0.0044458598324548298 -0.00049104333550923696 0 0.0049100497854099789 -0.00034465232657534899 0 0.0044458598324548298 -0.00049104333550923696 0 0.0049100497854099789 -0.00034465232657534899 0 0.0048938073223281217 -0.00030828338172242083 0 0.0043845982315755139 0.00014979860258829505 0 0.0044150301098701827 -1.6526014077843902e-05 0 0.004616556038050528 0.00030183091536632381 0 0.0044320128079559104 -0.00025231864266821202 0 0.0047426890787760113 -1.7179966913936412e-05 0 0.0055752019020440802 -0.00032090997271219066 0 0.0042953213880435777 -0.0004675305387277219 0 0.0049100497854099789 -0.00034465232657534899 0 0.0047584172824274573 -0.00024787222775682864 0 0.0043929872069790998 -0.00041320088121728286 0 0.0055752019020440802 -0.00032090997271219066 0 0.0049100497854099789 -0.00034465232657534899 0 0.0055335483805532115 -0.00016475247480736386 0 0.0049100497854099789 -0.00034465232657534899 0 0.005314609970994132 -0.00015518823278271848 0 0.0055335483805532115 -0.00016475247480736386 0 0.0049100497854099789 -0.00034465232657534899 0 0.0048938073223281217 -0.00030828338172242083 0 0.005314609970994132 -0.00015518823278271848 0 0.0048938073223281217 -0.00030828338172242083 0 0.0052941517146182998 3.252698899747425e-06 0 0.005314609970994132 -0.00015518823278271848 0 0.0047711652692690783 0.00070525758482941822 0 0.0044953578410457783 0.00045623775873820395 0 0.004616556038050528 0.00030183091536632381 0 0.0049527630286512296 0.00044979157497450096 0 0.0047426890787760113 -1.7179966913936412e-05 0 0.0051868683463158326 0.00013478350452918777 0 0.0048938073223281217 -0.00030828338172242083 0 0.0052941517146182998 3.252698899747425e-06 0 0.0047711652692690783 0.00070525758482941822 0 0.0045735960171601978 0.0006858234545672106 0 0.0044953578410457783 0.00045623775873820395 0 0.005314609970994132 -0.00015518823278271848 0 0.0056498242133068569 -9.1786526562330026e-05 0 0.0055335483805532115 -0.00016475247480736386 0 0.005314609970994132 -0.00015518823278271848 0 0.0054441767624464274 -6.8452436461832877e-05 0 0.0056498242133068569 -9.1786526562330026e-05 0 0.0052941517146182998 3.252698899747425e-06 0 0.005314609970994132 -0.00015518823278271848 0 0.0054441767624464274 -6.8452436461832877e-05 0 0.0055880189739305856 -3.7550234758332245e-05 0 0.0052941517146182998 3.252698899747425e-06 0 0.0054441767624464274 -6.8452436461832877e-05 0 0.0055880189739305856 -3.7550234758332245e-05 0 0.0054441767624464274 -6.8452436461832877e-05 0 0.0056498242133068569 -9.1786526562330026e-05 0 0.0058192004279424368 -0.00012883083497222794 0 0.0055335483805532115 -0.00016475247480736386 0 0.0058342488784397959 -0.00014247964035911745 0 0.0056498242133068569 -9.1786526562330026e-05 0 0.0058192004279424368 -0.00012883083497222794 0 0.0055335483805532115 -0.00016475247480736386 0 0.006037408187247204 -7.7425159105364407e-05 0 0.0056498242133068569 -9.1786526562330026e-05 0 0.0058192004279424368 -0.00012883083497222794 0 0.0062424969878380841 -8.4683571448193726e-05 0 0.0058192004279424368 -0.00012883083497222794 0 0.0058342488784397959 -0.00014247964035911745 0 0.0065355207552795606 -1.1972438670960243e-07 0 0.0058342488784397959 -0.00014247964035911745 0 0.0054168160152140831 -3.7465962366929765e-07 0 0.0055752019020440802 -0.00032090997271219066 0 0.0058342488784397959 -0.00014247964035911745 0 0.0054168160152140831 -3.7465962366929765e-07 0 0.0041482302811472836 -7.682913710109596e-07 0 0.0039635670971965992 -0.00013835984964819266 0 0.0054127733103234666 7.8947609270974385e-07 0 0.0047584172824274573 -0.00024787222775682864 0 0.0054142847020429864 -1.5623447061205625e-07 0 0.0055752019020440802 -0.00032090997271219066 0 0.0055335483805532115 -0.00016475247480736386 0 0.0058342488784397959 -0.00014247964035911745 0 -0.0067990241585409025 0.0028095221390323417 0 -0.006711802925624199 0.0030129435430852119 0 -0.006464122000768513 0.0027170662725598911 0 -0.0067990241585409025 0.0028095221390323417 0 -0.006927421278655933 0.0029759798763060149 0 -0.0070800215400877694 0.0025989109288120631 0 -0.0046277212654251719 0.001568500778729758 0 -0.0044901721773171034 0.0020376259044498548 0 -0.0067990241585409025 0.0028095221390323417 0 -0.006927421278655933 0.0029759798763060149 0 -0.0068164456038978744 0.0030040689231194142 0 -0.006927421278655933 0.0029759798763060149 0 -0.0068164456038978744 0.0030040689231194142 0 -0.0068220371927050077 0.0030921339020256885 0 -0.0068164456038978744 0.0030040689231194142 0 -0.006711802925624199 0.0030129435430852119 0 -0.0068220371927050077 0.0030921339020256885 0 -0.0067990241585409025 0.0028095221390323417 0 -0.0068164456038978744 0.0030040689231194142 0 -0.006711802925624199 0.0030129435430852119 0 -0.0046923701335309289 0.0030153637470492919 0 -0.0044888986387707107 0.0030396255061807291 0 -0.0046635912588476047 0.0031707019175474622 0 -0.0046923701335309289 0.0030153637470492919 0 -0.0044888986387707107 0.0030396255061807291 0 -0.0045786273142190588 0.0026235261316742498 0 -0.0044888986387707107 0.0030396255061807291 0 -0.0042219506985740488 0.0030623453130591599 0 -0.0043496917785217255 0.002749345038624439 0 -0.0042219506985740488 0.0030623453130591599 0 -0.0043496917785217255 0.002749345038624439 0 -0.0040705203647428195 0.0027278626911034581 0 -0.0061589639669715826 0.0032443979489062947 0 -0.0054381532049916385 0.0025933256187723229 0 -0.0044888986387707107 0.0030396255061807291 0 -0.0043496917785217255 0.002749345038624439 0 -0.0045786273142190588 0.0026235261316742498 0 -0.006464122000768513 0.0027170662725598911 0 -0.006145239521541601 0.0023576862006735927 0 -0.0067509886687539076 0.0024474527144843728 0 -0.0043496917785217255 0.002749345038624439 0 -0.0045191445065012525 0.0022124808024923657 0 -0.0040705203647428195 0.0027278626911034581 0 -0.0043496917785217255 0.002749345038624439 0 -0.0045786273142190588 0.0026235261316742498 0 -0.0045191445065012525 0.0022124808024923657 0 -0.0054381532049916385 0.0025933256187723229 0 -0.0053372375128956807 0.002292350433247894 0 -0.0053372375128956807 0.002292350433247894 0 -0.0050692721824022137 0.0018062058818151452 0 -0.006145239521541601 0.0023576862006735927 0 -0.0067509886687539076 0.0024474527144843728 0 -0.0066795205471260385 0.0020117424908461762 0 -0.0067509886687539076 0.0024474527144843728 0 -0.0072416447625742262 0.0020930460615029779 0 -0.0066795205471260385 0.0020117424908461762 0 -0.0067990241585409025 0.0028095221390323417 0 -0.006464122000768513 0.0027170662725598911 0 -0.0067509886687539076 0.0024474527144843728 0 -0.0067990241585409025 0.0028095221390323417 0 -0.0067509886687539076 0.0024474527144843728 0 -0.0070800215400877694 0.0025989109288120631 0 -0.0067509886687539076 0.0024474527144843728 0 -0.0070800215400877694 0.0025989109288120631 0 -0.0072416447625742262 0.0020930460615029779 0 -0.0044901721773171034 0.0020376259044498548 0 -0.0045782973433305483 0.0020252299107583723 0 -0.0018955071496913544 0.0020464131971976857 0 -0.0013739665640704621 0.0020823792298033258 0 -0.0012768940036924667 0.0015412310990020434 0 -0.0013739665640704621 0.0020823792298033258 0 -0.0012768940036924667 0.0015412310990020434 0 -0.00087321698200035376 0.0019469192388522456 0 -0.0019464570235959463 0.0013581758995681091 0 -0.0012768940036924667 0.0015412310990020434 0 -0.001390205308449473 0.00087096196492353502 0 -0.0019464570235959463 0.0013581758995681091 0 -0.0018955071496913544 0.0020464131971976857 0 -0.0012768940036924667 0.0015412310990020434 0 -5.6987999200213301e-05 0.0018278646376039083 0 -0.00087321698200035376 0.0019469192388522456 0 -0.00042241068700611537 0.002267655727969109 0 -5.6987999200213301e-05 0.0018278646376039083 0 -0.00087321698200035376 0.0019469192388522456 0 -0.00052325372107155804 0.001507529127130371 0 -0.0012768940036924667 0.0015412310990020434 0 -0.00052325372107155804 0.001507529127130371 0 -0.00065671274969118841 0.00096253378254008049 0 -0.0012768940036924667 0.0015412310990020434 0 -0.00087321698200035376 0.0019469192388522456 0 -0.00052325372107155804 0.001507529127130371 0 0.00010779325787398226 0.0010745060744369026 0 -5.6987999200213301e-05 0.0018278646376039083 0 -0.00052325372107155804 0.001507529127130371 0 0.00010779325787398226 0.0010745060744369026 0 -0.00052325372107155804 0.001507529127130371 0 -0.00065671274969118841 0.00096253378254008049 0 -0.00065671274969118841 0.00096253378254008049 0 -0.00082870641552679745 0.00028914774354792751 0 3.0932628912552375e-05 0.00018548644696074083 0 -0.00067796797621299946 0.00090015172682269607 0 -0.00081731094035415492 0.00042515662251567106 0 0.00010779325787398226 0.0010745060744369026 0 -0.00065671274969118841 0.00096253378254008049 0 3.0932628912552375e-05 0.00018548644696074083 0 -0.0019915212685744006 0.00068842223420066575 0 -0.0019464570235959463 0.0013581758995681091 0 -0.001390205308449473 0.00087096196492353502 0 -0.0012768940036924667 0.0015412310990020434 0 -0.00065671274969118841 0.00096253378254008049 0 -0.001390205308449473 0.00087096196492353502 0 -0.00065671274969118841 0.00096253378254008049 0 -0.00087384230117031471 0.00043491904986027886 0 -0.001390205308449473 0.00087096196492353502 0 -0.00087384230117031471 0.00043491904986027886 0 -0.001390205308449473 0.00087096196492353502 0 -0.0014957263954432454 0.00026662800653119603 0 -0.0019915212685744006 0.00068842223420066575 0 -0.001390205308449473 0.00087096196492353502 0 -0.0014957263954432454 0.00026662800653119603 0 -0.00081731094035415492 0.00042515662251567106 0 -0.0012361375110322165 -0.00041917225162715302 0 -0.00087384230117031471 0.00043491904986027886 0 -0.0014957263954432454 0.00026662800653119603 0 -0.0010587731931762452 -8.5650942802220512e-05 0 -0.0012361375110322165 -0.00041917225162715302 0 0.0010230101006997994 -0.00017337410272036722 0 -0.0014957263954432454 0.00026662800653119603 0 -0.0010587731931762452 -8.5650942802220512e-05 0 -0.0014051100208681291 -7.5336693420897564e-05 0 -0.0010587731931762452 -8.5650942802220512e-05 0 -0.0014051100208681291 -7.5336693420897564e-05 0 -0.0013544435401640225 -0.00040233142420407087 0 -0.0014957263954432454 0.00026662800653119603 0 -0.0017126865466406489 -0.00022181388743079634 0 -0.0020439375998237306 4.3431754291505075e-05 0 -0.0017126865466406489 -0.00022181388743079634 0 -0.0014051100208681291 -7.5336693420897564e-05 0 -0.0013544435401640225 -0.00040233142420407087 0 -0.0014957263954432454 0.00026662800653119603 0 -0.0017126865466406489 -0.00022181388743079634 0 -0.0014051100208681291 -7.5336693420897564e-05 0 -0.00082870641552679745 0.00028914774354792751 0 3.0932628912552375e-05 0.00018548644696074083 0 -0.00043407622791409936 -0.00029971899992555304 0 -0.00082870641552679745 0.00028914774354792751 0 -0.00098493829498869936 -0.00035176197119089905 0 -0.00043407622791409936 -0.00029971899992555304 0 -0.00043407622791409936 -0.00029971899992555304 0 -0.00032680155404245882 -0.00081812348213443158 0 -0.00088205567668007566 -0.00071331638385080018 0 -0.00098493829498869936 -0.00035176197119089905 0 -0.00043407622791409936 -0.00029971899992555304 0 -0.00088205567668007566 -0.00071331638385080018 0 0.00046142951849944381 -0.00061236644513868225 0 3.0932628912552375e-05 0.00018548644696074083 0 -0.00043407622791409936 -0.00029971899992555304 0 0.00046142951849944381 -0.00061236644513868225 0 -0.00043407622791409936 -0.00029971899992555304 0 -0.00032680155404245882 -0.00081812348213443158 0 0.002383168346051537 -0.00015046554261803841 0 0.0013955114862331285 -0.00048430880259396506 0 0.0042223004846227959 0.00027493989550679586 0 0.0035545360640580771 9.3279219188109909e-05 0 0.0038959447877632424 -7.1278754752601676e-05 0 0.0035545360640580771 9.3279219188109909e-05 0 0.0038959447877632424 -7.1278754752601676e-05 0 0.0036285155264433049 -0.00043670843427574173 0 0.0035545360640580771 9.3279219188109909e-05 0 0.0028805865285273999 -0.00011934247491270961 0 0.002956024252819428 -0.00018027306748576681 0 0.0013955114862331285 -0.00048430880259396506 0 0.0018639290971841972 0.0001344818720379441 0 0.0035545360640580771 9.3279219188109909e-05 0 0.0036285155264433049 -0.00043670843427574173 0 0.002956024252819428 -0.00018027306748576681 0 -0.00032680155404245882 -0.00081812348213443158 0 -0.00088205567668007566 -0.00071331638385080018 0 -0.0010429565038518581 -0.0010245547967427384 0 0.0066022903828657975 0.0012700756568227408 0 0.0063253542046577725 0.0014846488829908418 0 0.0063155225123622052 0.0013226324285026574 0 0.0051006200014114189 3.8338088568677408e-05 0 0.0036155880579286418 0.00023657490574227415 0 0.0053962716485128383 -0.00011700740504231436 0 0.0060068335712314827 9.1743561836065633e-05 0 0.0043395513979123225 0.00074381513059142753 0 0.007392419032113285 0.0010300290676983309 0 0.0036155880579286418 0.00023657490574227415 0 0.007392419032113285 0.0010300290676983309 0 0.0051006200014114189 3.8338088568677408e-05 0 0.0041615557103334118 -0.00022483975837623503 0 0.0051006200014114189 3.8338088568677408e-05 0 0.0041680571134071354 -0.00023087087740232868 0 0.0038959447877632424 -7.1278754752601676e-05 0 0.0036285155264433049 -0.00043670843427574173 0 0.0059904009367196687 0.0003572207158163733 0 0.0051006200014114189 3.8338088568677408e-05 0 0.0021368268111588745 0.0020095868741401191 0 0.0017008359212611682 0.0021762723740408108 0 0.0017373294949124538 0.0026215485901943648 0 0.0037352128413835114 0.0014514133290677493 0 0.0010183014317404996 0.0020125344749372534 0 0.0016521925693462674 0.0011702376182512802 0 0.0012244540166042983 -0.00014141514167017731 0 0.00012713375251853295 0.0015367294192873706 0 0.0024806381027840481 0.00064180618415210608 0 0.0021605129507712225 0.00093350284059128875 0 0.00272390297380328 0.0011212439924858913 0 0.0024806381027840481 0.00064180618415210608 0 0.00244376249805157 0.0003078181313480453 0 0.00272390297380328 0.0011212439924858913 0 0.0005821018433515994 0.00027048913687661823 0 0.0037352128413835114 0.0014514133290677493 0 -0.00049382207579511984 0.00085074071249054942 0 0.0005821018433515994 0.00027048913687661823 0 0.00036319173952772428 0.0022207794677981305 0 0.0016521925693462674 0.0011702376182512802 0 0.00012713375251853295 0.0015367294192873706 0 -0.0017126865466406489 -0.00022181388743079634 0 -0.0013810635183450772 -0.00048020003454520807 0 -0.0013544435401640225 -0.00040233142420407087 0 0.0005821018433515994 0.00027048913687661823 0 0.00028929869507336064 -8.0477887591787797e-05 0 -0.0013781461569585983 -0.00047619243646752544 0 -0.0013544435401640225 -0.00040233142420407087 0 -0.001219625931074788 -0.00060266645658599695 0 -0.00098493829498869936 -0.00035176197119089905 0 -0.00088205567668007566 -0.00071331638385080018 0 -0.0011426278386120359 -0.0009433586417590986 0 -0.0010587731931762452 -8.5650942802220512e-05 0 -0.0013544435401640225 -0.00040233142420407087 0 -0.001219625931074788 -0.00060266645658599695 0 0.0005821018433515994 0.00027048913687661823 0 0.0010230101006997994 -0.00017337410272036722 0 -0.00088205567668007566 -0.00071331638385080018 0 -0.0010429565038518581 -0.0010245547967427384 0 -0.0011426278386120359 -0.0009433586417590986 0 0.0036155880579286418 0.00023657490574227415 0 0.0029413269946471253 0.00049178336748670326 0 0.0025713628084708231 0.00084529241046213096 0 0.0033092680336891181 0.00023747177674333583 0 0.0021316475508316706 0.00070265560285643323 0 0.0018639290971841972 0.0001344818720379441 0 0.0036155880579286418 0.00023657490574227415 0 0.0024806381027840481 0.00064180618415210608 0 0.00244376249805157 0.0003078181313480453 0 0.0020470739366139461 0.00063145204541574279 0 0.0024806381027840481 0.00064180618415210608 0 0.0020470739366139461 0.00063145204541574279 0 0.0021002687613907276 0.00078838758996108973 0 0.002362056282960608 0.00063623965532244662 0 0.0024335535755766256 0.00058388307348173555 0 0.0018639290971841972 0.0001344818720379441 0 0.0010230101006997994 -0.00017337410272036722 0 0.0010230101006997994 -0.00017337410272036722 0 0.0024335535755766256 0.00058388307348173555 0 0.0014225401009090542 0.00058057285245284433 0 0.0019814286092834713 -0.0004014388225893417 0 0.0011977437478824268 -9.3910510970485488e-05 0 0.0029413269946471253 0.00049178336748670326 0 0.0024335535755766256 0.00058388307348173555 0 0.0024386713848600964 -0.00025238573034147495 0 0.0014225401009090542 0.00058057285245284433 0 0.0019814286092834713 -0.0004014388225893417 0 0.0018639290971841972 0.0001344818720379441 0 0.0029413269946471253 0.00049178336748670326 0 0.0029413269946471253 0.00049178336748670326 0 0.0034773471188389708 0.0010142624749054081 0 0.0029124625233186334 0.00041603953976244355 0 0.0026930143458061694 0.00034566001631943194 0 0.0027390998012469569 0.00048462403356482314 0 0.0024806381027840481 0.00064180618415210608 0 0.0021605129507712225 0.00093350284059128875 0 0.0021127512316920214 0.00078964157759680046 0 0.0034773471188389708 0.0010142624749054081 0 0.0024335535755766256 0.00058388307348173555 0 0.0062517707932846509 0.0011566422306768904 0 0.0066022903828657975 0.0012700756568227408 0 0.0063155225123622052 0.0013226324285026574 0 0.0034773471188389708 0.0010142624749054081 0 0.006358250169720703 0.0018331142324559838 0 0.0061894781127157213 0.0014931891173000846 0 0.0062564574154380537 0.0014096584403469057 0 0.0061408532018916578 0.001314766583697541 0 0.0062478122744724527 0.0015128223313782823 0 0.0061894781127157213 0.0014931891173000846 0 0.0062564574154380537 0.0014096584403469057 0 0.0063253542046577725 0.0014846488829908418 0 0.0062564574154380537 0.0014096584403469057 0 0.0063155225123622052 0.0013226324285026574 0 0.0063253542046577725 0.0014846488829908418 0 0.0062478122744724527 0.0015128223313782823 0 0.0062564574154380537 0.0014096584403469057 0 0.0062517707932846509 0.0011566422306768904 0 0.0063155225123622052 0.0013226324285026574 0 0.0061408532018916578 0.001314766583697541 0 0.0090594508567548391 0.0025431816705214516 0 0.006358250169720703 0.0018331142324559838 0 0.0062564574154380537 0.0014096584403469057 0 0.0063155225123622052 0.0013226324285026574 0 0.0061408532018916578 0.001314766583697541 0 0.0090798735195213604 0.003872391203231451 0 0.0037352128413835114 0.0014514133290677493 0 0.0068563680355064119 0.0038323611793668615 0 0.0062999908812994762 0.0022145635967207832 0 0.0069127435631657786 0.0012290919749851142 0 0.0034773471188389708 0.0010142624749054081 0 0.0037352128413835114 0.0014514133290677493 0 0.0045028205845874724 0.0012301193730504336 0 0.0046573655244447872 0.0016721696259520496 0 0.0048572027391244133 0.0013469038575764855 0 0.006358250169720703 0.0018331142324559838 0 0.0037352128413835114 0.0014514133290677493 0 0.0037352128413835114 0.0014514133290677493 0 0.0047602459954969685 0.0026419483146858441 0 0.0012343514548282543 0.0017270323269934979 0 0.0017008359212611682 0.0021762723740408108 0 0.00127382112587498 0.0023621890330093108 0 0.0047602459954969685 0.0026419483146858441 0 -0.00011299629511613125 0.0027291473845202636 0 0.0021368268111588745 0.0020095868741401191 0 0.0012343514548282543 0.0017270323269934979 0 0.0017008359212611682 0.0021762723740408108 0 0.0060250238219808627 0.0038004218173564408 0 0.0051412854497478212 0.0015770981462449949 0 0.0073259351303679903 0.0022925005358569693 0 0.0032821029091052202 0.0033625346161073322 0 0.0047602459954969685 0.0026419483146858441 0 0.0014872880567195158 0.0031597158159122397 0 0.0019046413814587414 0.0028482591158896027 0 0.0013696977543040604 0.0022265842012569666 0 0.0024390119481504449 0.0034751754412536782 0 0.0014872880567195158 0.0031597158159122397 0 0.0019046413814587414 0.0028482591158896027 0 -0.0043560280870280858 0.0043077777042524659 0 -0.0046099398095540761 0.0040686286874140999 0 -0.0043601618980708178 0.003903525999384119 0 0.0032821029091052202 0.0033625346161073322 0 -0.0014759537470188874 0.0029623981527980752 0 -0.0046099398095540761 0.0040686286874140999 0 -0.0046118927472212903 0.0037466571385011984 0 -0.0043601618980708178 0.003903525999384119 0 -0.0046099398095540761 0.0040686286874140999 0 -0.0046118927472212903 0.0037466571385011984 0 -0.0048188817005952785 0.0038327342807265253 0 -0.0014759537470188874 0.0029623981527980752 0 -0.00011299629511613125 0.0027291473845202636 0 -0.0046118927472212903 0.0037466571385011984 0 -0.0048188817005952785 0.0038327342807265253 0 -0.0047432572718631803 0.0036085841799146008 0 0.0017008359212611682 0.0021762723740408108 0 0.00127382112587498 0.0023621890330093108 0 0.0015683214719887689 0.0024114454728274572 0 -0.00011299629511613125 0.0027291473845202636 0 0.00042454616031077543 0.0028937845119310825 0 0.00127382112587498 0.0023621890330093108 0 0.0013831075776301229 0.0025107215356486834 0 0.0015683214719887689 0.0024114454728274572 0 0.0017008359212611682 0.0021762723740408108 0 0.0017373294949124538 0.0026215485901943648 0 0.0015683214719887689 0.0024114454728274572 0 0.0013831075776301229 0.0025107215356486834 0 0.0017373294949124538 0.0026215485901943648 0 0.0015683214719887689 0.0024114454728274572 0 0.0012519040331287472 0.002350615930839781 0 0.0013831075776301229 0.0025107215356486834 0 0.0013010762149004683 0.003278353198655241 0 -0.00011299629511613125 0.0027291473845202636 0 -0.0031159905130183282 0.0027493147454004138 0 -0.0048188817005952785 0.0038327342807265253 0 -0.0048827682744138259 0.0033997188167688356 0 -0.0047432572718631803 0.0036085841799146008 0 0.00036319173952772428 0.0022207794677981305 0 0.00012713375251853295 0.0015367294192873706 0 -0.00097657735091355078 0.0032820440921775408 0 0.0010183014317404996 0.0020125344749372534 0 -0.0031159905130183282 0.0027493147454004138 0 0.0013831075776301229 0.0025107215356486834 0 0.0017373294949124538 0.0026215485901943648 0 0.0013010762149004683 0.003278353198655241 0 -0.00049382207579511984 0.00085074071249054942 0 -0.0031159905130183282 0.0027493147454004138 0 -0.0048827682744138259 0.0033997188167688356 0 -0.0047624770592532015 0.0034682273131781205 0 -0.0048055895099789539 0.0034014176911802778 0 -0.0046118927472212903 0.0037466571385011984 0 -0.0047432572718631803 0.0036085841799146008 0 -0.0046522234152852312 0.0035402104905945149 0 -0.0047432572718631803 0.0036085841799146008 0 -0.0046522234152852312 0.0035402104905945149 0 -0.0047624770592532015 0.0034682273131781205 0 -0.0046118927472212903 0.0037466571385011984 0 -0.0046522234152852312 0.0035402104905945149 0 -0.0044889878819697419 0.003553856755434198 0 -0.0046522234152852312 0.0035402104905945149 0 -0.0046602920261422775 0.0034017500345059227 0 -0.0044889878819697419 0.003553856755434198 0 -0.0046602920261422775 0.0034017500345059227 0 -0.0045505764971115288 0.0033237882197667185 0 -0.0044889878819697419 0.003553856755434198 0 -0.0048827682744138259 0.0033997188167688356 0 -0.0047432572718631803 0.0036085841799146008 0 -0.0047624770592532015 0.0034682273131781205 0 -0.0046522234152852312 0.0035402104905945149 0 -0.0046602920261422775 0.0034017500345059227 0 -0.0047624770592532015 0.0034682273131781205 0 -0.0046602920261422775 0.0034017500345059227 0 -0.0047624770592532015 0.0034682273131781205 0 -0.0047471722964421885 0.0033477845453874886 0 -0.0047624770592532015 0.0034682273131781205 0 -0.0048055895099789539 0.0034014176911802778 0 -0.0047471722964421885 0.0033477845453874886 0 -0.0046923701335309289 0.0030153637470492919 0 -0.0048347778651146112 0.0033500646509084732 0 -0.0046635912588476047 0.0031707019175474622 0 -0.0061589639669715826 0.0032443979489062947 0 -0.0031159905130183282 0.0027493147454004138 0 -0.0048827682744138259 0.0033997188167688356 0 -0.0047471722964421885 0.0033477845453874886 0 -0.0046635912588476047 0.0031707019175474622 0 -0.0031159905130183282 0.0027493147454004138 0 -0.0052151587027427738 0.0035595301326547444 0 -0.006711802925624199 0.0030129435430852119 0 -0.0068329019205064945 0.0032375396281133441 0 -0.0068220371927050077 0.0030921339020256885 0 -0.0046602920261422775 0.0034017500345059227 0 -0.0047471722964421885 0.0033477845453874886 0 -0.0046550587133235167 0.0033133440305769188 0 -0.0046550587133235167 0.0033133440305769188 0 -0.0046635912588476047 0.0031707019175474622 0 -0.0045505764971115288 0.0033237882197667185 0 -0.0047471722964421885 0.0033477845453874886 0 -0.0046550587133235167 0.0033133440305769188 0 -0.0046635912588476047 0.0031707019175474622 0 -0.0046602920261422775 0.0034017500345059227 0 -0.0046550587133235167 0.0033133440305769188 0 -0.0045505764971115288 0.0033237882197667185 0 -0.0046277212654251719 0.001568500778729758 0 -0.0031159905130183282 0.0027493147454004138 0 -0.006927421278655933 0.0029759798763060149 0 -0.0068329019205064945 0.0032375396281133441 0 -0.0068220371927050077 0.0030921339020256885 0 -0.0019915212685744006 0.00068842223420066575 0 -0.0014957263954432454 0.00026662800653119603 0 -0.0020439375998237306 4.3431754291505075e-05 0 -0.0048827682744138259 0.0033997188167688356 0 -0.0048055895099789539 0.0034014176911802778 0 -0.0047471722964421885 0.0033477845453874886 0 -0.0042219506985740488 0.0030623453130591599 0 -0.0040677676736866454 0.00337336923100247 0 -0.0043864926294292592 0.0033222788705401869 0 -0.0044888986387707107 0.0030396255061807291 0 -0.0046635912588476047 0.0031707019175474622 0 -0.0045505764971115288 0.0033237882197667185 0 -0.0044888986387707107 0.0030396255061807291 0 -0.0045505764971115288 0.0033237882197667185 0 -0.0043864926294292592 0.0033222788705401869 0 -0.0044888986387707107 0.0030396255061807291 0 -0.0042219506985740488 0.0030623453130591599 0 -0.0043864926294292592 0.0033222788705401869 0 -0.0043864926294292592 0.0033222788705401869 0 -0.0044889878819697419 0.003553856755434198 0 -0.0041813245568079992 0.0036298660302745847 0 -0.0045505764971115288 0.0033237882197667185 0 -0.0043864926294292592 0.0033222788705401869 0 -0.0044889878819697419 0.003553856755434198 0 -0.0040677676736866454 0.00337336923100247 0 -0.0043864926294292592 0.0033222788705401869 0 -0.0041813245568079992 0.0036298660302745847 0 -0.0041813245568079992 0.0036298660302745847 0 -0.0043601618980708178 0.003903525999384119 0 -0.0039730768212563154 0.0040042763713047736 0 -0.0044889878819697419 0.003553856755434198 0 -0.0041813245568079992 0.0036298660302745847 0 -0.0043601618980708178 0.003903525999384119 0 -0.0046118927472212903 0.0037466571385011984 0 -0.0044889878819697419 0.003553856755434198 0 -0.0043601618980708178 0.003903525999384119 0 -0.0043560280870280858 0.0043077777042524659 0 -0.0043601618980708178 0.003903525999384119 0 -0.0041303685813986885 0.004174022581230204 0 -0.0043601618980708178 0.003903525999384119 0 -0.0041303685813986885 0.004174022581230204 0 -0.0039730768212563154 0.0040042763713047736 0 -0.0038434344564363125 0.0044659719373155108 0 -0.0041303685813986885 0.004174022581230204 0 -0.0039730768212563154 0.0040042763713047736 0 -0.0038434344564363125 0.0044659719373155108 0 -0.0039730768212563154 0.0040042763713047736 0 -0.0035840009226678223 0.0041752368311527384 0 -0.0041813245568079992 0.0036298660302745847 0 -0.0039730768212563154 0.0040042763713047736 0 -0.0036831464213020267 0.0036778222000625744 0 -0.0039730768212563154 0.0040042763713047736 0 -0.0035840009226678223 0.0041752368311527384 0 -0.0036831464213020267 0.0036778222000625744 0 -0.0036049646784363583 0.0041436349419213441 0 -0.0037264522271605359 0.0037101330978665447 0 -0.0035840009226678223 0.0041752368311527384 0 -0.0034162583940693558 0.0039884755590702328 0 -0.0037720519045535508 0.0037348954136052679 0 -0.0034162583940693558 0.0039884755590702328 0 -0.00336990468071514 0.0037279146612247786 0 -0.0037720519045535508 0.0037348954136052679 0 -0.0035840009226678223 0.0041752368311527384 0 -0.0032323576845989686 0.0042654178339148648 0 -0.0034162583940693558 0.0039884755590702328 0 -0.0032323576845989686 0.0042654178339148648 0 -0.0031307898008274093 0.0040107785079455437 0 -0.0034162583940693558 0.0039884755590702328 0 -0.0031073708497565463 0.0041455874968787734 0 -0.0030430336256502687 0.0041092382898489906 0 -0.0032323576845989686 0.0042654178339148648 0 -0.002853046371821516 0.0042661698197615193 0 -0.0031307898008274093 0.0040107785079455437 0 -0.0029280645457096929 0.0043235734362969637 0 -0.0031307898008274093 0.0040107785079455437 0 -0.0027846555695587192 0.0040322528530705422 0 -0.0031307898008274093 0.0040107785079455437 0 -0.00336990468071514 0.0037279146612247786 0 -0.0030318095205053804 0.0037466756743844689 0 -0.0031307898008274093 0.0040107785079455437 0 -0.0030318095205053804 0.0037466756743844689 0 -0.0027846555695587192 0.0040322528530705422 0 -0.0031307898008274093 0.0040107785079455437 0 -0.0034162583940693558 0.0039884755590702328 0 -0.00336990468071514 0.0037279146612247786 0 -0.00336990468071514 0.0037279146612247786 0 -0.0030318095205053804 0.0037466756743844689 0 -0.003269641091514665 0.0033982000323974693 0 -0.00336990468071514 0.0037279146612247786 0 -0.003269641091514665 0.0033982000323974693 0 -0.0035857767223378832 0.0034280192396377871 0 -0.0030318095205053804 0.0037466756743844689 0 -0.003269641091514665 0.0033982000323974693 0 -0.0028897141797523708 0.0034887126078092133 0 -0.003269641091514665 0.0033982000323974693 0 -0.0028897141797523708 0.0034887126078092133 0 -0.0030290607259157868 0.0031088050702788679 0 -0.003269641091514665 0.0033982000323974693 0 -0.0035755701900959474 0.0030283318504405886 0 -0.0030290607259157868 0.0031088050702788679 0 -0.003269641091514665 0.0033982000323974693 0 -0.0035857767223378832 0.0034280192396377871 0 -0.0035755701900959474 0.0030283318504405886 0 -0.0035857767223378832 0.0034280192396377871 0 -0.0039398582539307584 0.0032364916375626071 0 -0.0035755701900959474 0.0030283318504405886 0 -0.0042219506985740488 0.0030623453130591599 0 -0.0040677676736866454 0.00337336923100247 0 -0.0038454041005367952 0.0031846834796834551 0 -0.0038972119895689917 0.0032063615457747306 0 -0.0037264522271605359 0.0037101330978665447 0 -0.0040677676736866454 0.00337336923100247 0 -0.0041813245568079992 0.0036298660302745847 0 -0.0036831464213020267 0.0036778222000625744 0 -0.0040677676736866454 0.00337336923100247 0 -0.0038454041005367952 0.0031846834796834551 0 -0.0036831464213020267 0.0036778222000625744 0 -0.00336990468071514 0.0037279146612247786 0 -0.0035857767223378832 0.0034280192396377871 0 -0.0037720519045535508 0.0037348954136052679 0 -0.0035857767223378832 0.0034280192396377871 0 -0.0039398582539307584 0.0032364916375626071 0 -0.0037720519045535508 0.0037348954136052679 0 0.0046641877627685126 0.0032650662459997237 0 0.0049129357860979977 0.0030459057045781131 0 0.0051825067181527741 0.0032237932567080962 0 0.0049129357860979977 0.0030459057045781131 0 0.0051025545818953136 0.0028930536803927374 0 0.0051825067181527741 0.0032237932567080962 0 0.0049129357860979977 0.0030459057045781131 0 0.0049037134340930849 0.0028115787657995682 0 0.0051025545818953136 0.0028930536803927374 0 0.004852940579140241 0.0025147525766644782 0 0.0049037134340930849 0.0028115787657995682 0 0.0051145322849729556 0.0026479560054992858 0 0.0049037134340930849 0.0028115787657995682 0 0.0051145322849729556 0.0026479560054992858 0 0.0051025545818953136 0.0028930536803927374 0 0.0055710617435283261 0.0022907367731799266 0 0.0054204969728174129 0.0027103393131830671 0 0.0054342974300426962 0.0030432087606469334 0 0.0050586177903357643 0.0027600002603025467 0 0.0018668564086000842 0.003734921581646108 0 0.0053028526534686753 0.0024592836594929386 0 0.0051145322849729556 0.0026479560054992858 0 0.0054204969728174129 0.0027103393131830671 0 0.0051145322849729556 0.0026479560054992858 0 0.0051025545818953136 0.0028930536803927374 0 0.0054204969728174129 0.0027103393131830671 0 0.0062843039225175742 0.0024865189740864119 0 0.0017460578038644339 0.0034580435695909088 0 0.0051025545818953136 0.0028930536803927374 0 0.0054204969728174129 0.0027103393131830671 0 0.0051825067181527741 0.0032237932567080962 0 0.0054204969728174129 0.0027103393131830671 0 0.0054342974300426962 0.0030432087606469334 0 0.0050404931393525183 0.0033960596605070478 0 -0.0021639458378238394 0.0040463563948585808 0 -0.0021688125053567903 0.0039448450676808008 0 -0.0019464683646480726 0.0038184772594688338 0 0.0018668564086000842 0.003734921581646108 0 0.00082922439693917905 0.0039431947211175924 0 0.0018668564086000842 0.003734921581646108 0 0.0017460578038644339 0.0034580435695909088 0 -0.0021688125053567903 0.0039448450676808008 0 -0.0023918101069988189 0.0037649652014856276 0 -0.0021666276610275235 0.0037195255367773457 0 -0.0021688125053567903 0.0039448450676808008 0 -0.0019464683646480726 0.0038184772594688338 0 -0.0021666276610275235 0.0037195255367773457 0 -0.0021688125053567903 0.0039448450676808008 0 -0.0024387696735117532 0.0039948111528389802 0 -0.0023918101069988189 0.0037649652014856276 0 -0.0024387696735117532 0.0039948111528389802 0 -0.0027005116158566917 0.0037801432265256747 0 -0.0023918101069988189 0.0037649652014856276 0 -0.0021705473835661655 0.0040448026309578226 0 -0.0021688125053567903 0.0039448450676808008 0 -0.0024387696735117532 0.0039948111528389802 0 0.0018668564086000842 0.003734921581646108 0 0.00095372609201160689 0.004085153019021911 0 -0.0021705473835661655 0.0040448026309578226 0 -0.0024387696735117532 0.0039948111528389802 0 -0.0024468572264390539 0.0043306346437184283 0 0.0042590699742157193 0.0034342100601569199 0 0.0041989892906433013 0.0040082685157313757 0 0.0045102980007219236 0.0036911910733813751 0 -0.0024387696735117532 0.0039948111528389802 0 -0.0024468572264390539 0.0043306346437184283 0 -0.0027846555695587192 0.0040322528530705422 0 -0.0029280645457096929 0.0043235734362969637 0 -0.0024468572264390539 0.0043306346437184283 0 -0.0027846555695587192 0.0040322528530705422 0 -0.0030318095205053804 0.0037466756743844689 0 -0.0027846555695587192 0.0040322528530705422 0 -0.0027005116158566917 0.0037801432265256747 0 -0.0024387696735117532 0.0039948111528389802 0 -0.0027846555695587192 0.0040322528530705422 0 -0.0027005116158566917 0.0037801432265256747 0 -0.0030318095205053804 0.0037466756743844689 0 -0.0027005116158566917 0.0037801432265256747 0 -0.0028897141797523708 0.0034887126078092133 0 -0.0027005116158566917 0.0037801432265256747 0 -0.0028897141797523708 0.0034887126078092133 0 -0.002587418020363697 0.0035737801817315095 0 -0.0028897141797523708 0.0034887126078092133 0 -0.0026398766017060441 0.0033084649220551233 0 -0.0030290607259157868 0.0031088050702788679 0 -0.0028897141797523708 0.0034887126078092133 0 -0.0026398766017060441 0.0033084649220551233 0 -0.002587418020363697 0.0035737801817315095 0 -0.0026398766017060441 0.0033084649220551233 0 -0.0022985690356748575 0.003540525835827966 0 -0.002587418020363697 0.0035737801817315095 0 -0.0026398766017060441 0.0033084649220551233 0 -0.0023704431164288556 0.0032165116282782775 0 -0.0022985690356748575 0.003540525835827966 0 -0.0022985690356748575 0.003540525835827966 0 -0.002587418020363697 0.0035737801817315095 0 -0.0023918101069988189 0.0037649652014856276 0 -0.0027005116158566917 0.0037801432265256747 0 -0.002587418020363697 0.0035737801817315095 0 -0.0023918101069988189 0.0037649652014856276 0 -0.0022985690356748575 0.003540525835827966 0 -0.0023918101069988189 0.0037649652014856276 0 -0.0021666276610275235 0.0037195255367773457 0 -0.0019464683646480726 0.0038184772594688338 0 -0.0021666276610275235 0.0037195255367773457 0 -0.002030877975052674 0.0035178446740905308 0 -0.0022985690356748575 0.003540525835827966 0 -0.0021666276610275235 0.0037195255367773457 0 -0.002030877975052674 0.0035178446740905308 0 -0.0023704431164288556 0.0032165116282782775 0 -0.0022985690356748575 0.003540525835827966 0 -0.0021350709621001836 0.0033246307756060489 0 -0.0022985690356748575 0.003540525835827966 0 -0.002030877975052674 0.0035178446740905308 0 -0.0021350709621001836 0.0033246307756060489 0 -0.0023704431164288556 0.0032165116282782775 0 -0.0021350709621001836 0.0033246307756060489 0 -0.0021569504027865111 0.0030224438218286391 0 -0.0021350709621001836 0.0033246307756060489 0 -0.0019293394435963159 0.0032552623815945143 0 -0.0021569504027865111 0.0030224438218286391 0 -0.002030877975052674 0.0035178446740905308 0 -0.0021350709621001836 0.0033246307756060489 0 -0.0019293394435963159 0.0032552623815945143 0 -0.002030877975052674 0.0035178446740905308 0 -0.0019293394435963159 0.0032552623815945143 0 -0.0017499975530379185 0.0033852458000091959 0 -0.0019293394435963159 0.0032552623815945143 0 -0.0017499975530379185 0.0033852458000091959 0 -0.0018062011229842097 0.0030472342388123213 0 -0.0012881664777963796 0.0031242726101421586 0 -0.0014004705498951531 0.0032491814701092699 0 -0.0013319318783424807 0.0032941888095702177 0 0.0017460578038644339 0.0034580435695909088 0 -0.0019860943026124016 0.0034506080305882303 0 -0.0013562520083776331 0.0033732287879568029 0 -0.0014004705498951531 0.0032491814701092699 0 -0.0013319318783424807 0.0032941888095702177 0 0.0046641877627685126 0.0032650662459997237 0 0.0051825067181527741 0.0032237932567080962 0 0.004801006174421479 0.0036153949003758798 0 0.0017460578038644339 0.0034580435695909088 0 0.001791498905290541 0.0033969860488536562 0 -0.0019464683646480726 0.0038184772594688338 0 -0.002030877975052674 0.0035178446740905308 0 -0.0017499975530379185 0.0033852458000091959 0 -0.0015888153748471136 0.002491305480358337 0 -0.0020592870462900698 0.0024636291392695141 0 -0.0013984602870261316 0.0024262761001337366 0 -0.0018117162139011289 0.0027177670821193936 0 -0.0019877504907540536 0.0024074192239833367 0 -0.0014242338592640011 0.0028288806400657788 0 -0.0013984602870261316 0.0024262761001337366 0 -0.0018117162139011289 0.0027177670821193936 0 -0.0013184630585470045 0.0027595261073926061 0 -0.0019860943026124016 0.0034506080305882303 0 -0.0012881664777963796 0.0031242726101421586 0 -0.0014242338592640011 0.0028288806400657788 0 -0.0014004705498951531 0.0032491814701092699 0 -0.0014242338592640011 0.0028288806400657788 0 -0.0017499975530379185 0.0033852458000091959 0 -0.0018062011229842097 0.0030472342388123213 0 -0.0014242338592640011 0.0028288806400657788 0 -0.0018117162139011289 0.0027177670821193936 0 -0.0018062011229842097 0.0030472342388123213 0 -0.0018117162139011289 0.0027177670821193936 0 -0.0018062011229842097 0.0030472342388123213 0 -0.0021569504027865111 0.0030224438218286391 0 -0.0019293394435963159 0.0032552623815945143 0 -0.0018062011229842097 0.0030472342388123213 0 -0.0021569504027865111 0.0030224438218286391 0 -0.0022963748301752232 0.0027122818671287707 0 -0.0025644617100578524 0.0024561334762808148 0 -0.0019877504907540536 0.0024074192239833367 0 -0.0018117162139011289 0.0027177670821193936 0 -0.0021569504027865111 0.0030224438218286391 0 -0.0022963748301752232 0.0027122818671287707 0 -0.0018117162139011289 0.0027177670821193936 0 -0.0022963748301752232 0.0027122818671287707 0 -0.0019877504907540536 0.0024074192239833367 0 -0.0022963748301752232 0.0027122818671287707 0 -0.0026144055587157384 0.0029031018861128883 0 -0.0025644617100578524 0.0024561334762808148 0 -0.0026398766017060441 0.0033084649220551233 0 -0.0023704431164288556 0.0032165116282782775 0 -0.0026144055587157384 0.0029031018861128883 0 -0.0021569504027865111 0.0030224438218286391 0 -0.0022963748301752232 0.0027122818671287707 0 -0.0026144055587157384 0.0029031018861128883 0 -0.0023704431164288556 0.0032165116282782775 0 -0.0021569504027865111 0.0030224438218286391 0 -0.0026144055587157384 0.0029031018861128883 0 -0.0026144055587157384 0.0029031018861128883 0 -0.0029556262950772788 0.0026651274931767718 0 -0.0030290607259157868 0.0031088050702788679 0 -0.0026398766017060441 0.0033084649220551233 0 -0.0026144055587157384 0.0029031018861128883 0 -0.0030290607259157868 0.0031088050702788679 0 -0.0026144055587157384 0.0029031018861128883 0 -0.0029556262950772788 0.0026651274931767718 0 -0.0025644617100578524 0.0024561334762808148 0 -0.0029556262950772788 0.0026651274931767718 0 -0.0030592933319299751 0.0022881307534335844 0 -0.0025644617100578524 0.0024561334762808148 0 -0.0030592933319299751 0.0022881307534335844 0 -0.0027091005907994531 0.0020951101152040939 0 -0.0025644617100578524 0.0024561334762808148 0 -0.0030592933319299751 0.0022881307534335844 0 -0.0027091005907994531 0.0020951101152040939 0 -0.0030244447314558783 0.0017805239411233279 0 -0.0027091005907994531 0.0020951101152040939 0 -0.0024283419652571326 0.0017598449901601956 0 -0.0030244447314558783 0.0017805239411233279 0 -0.0027091005907994531 0.0020951101152040939 0 -0.0023760116877440166 0.0021823494419254985 0 -0.0024283419652571326 0.0017598449901601956 0 -0.0027091005907994531 0.0020951101152040939 0 -0.0025644617100578524 0.0024561334762808148 0 -0.0023760116877440166 0.0021823494419254985 0 -0.0023760116877440166 0.0021823494419254985 0 -0.0021486728229764777 0.0025099196850529716 0 -0.0020140953808121284 0.002041363399738511 0 -0.0025644617100578524 0.0024561334762808148 0 -0.0023760116877440166 0.0021823494419254985 0 -0.0021486728229764777 0.0025099196850529716 0 -0.0025178370270075644 0.0024496959300300877 0 -0.0020592870462900698 0.0024636291392695141 0 -0.0020383534861167681 0.0020273237228513922 0 -0.0023982085418594932 0.0017781532645876944 0 -0.0020579238664382516 0.0020072492819999685 0 -0.00191794642604941 0.0016476173135630879 0 -0.0024283419652571326 0.0017598449901601956 0 -0.0023760116877440166 0.0021823494419254985 0 -0.0020140953808121284 0.002041363399738511 0 -0.0024283419652571326 0.0017598449901601956 0 -0.0015365245283014226 0.0017517398007824323 0 -0.0015388423715131038 0.0024714202241773687 0 -0.0020579238664382516 0.0020072492819999685 0 -0.0015365245283014226 0.0017517398007824323 0 -0.0020579238664382516 0.0020072492819999685 0 -0.00191794642604941 0.0016476173135630879 0 -0.0015789716032015013 0.0024138216122413791 0 -0.0020383534861167681 0.0020273237228513922 0 -0.0016059073897671707 0.002309229766604803 0 -0.0020140953808121284 0.002041363399738511 0 -0.0018984736151491533 0.0023632922582332433 0 -0.0016739590939654724 0.0025604166955563129 0 -0.0021486728229764777 0.0025099196850529716 0 -0.0018984736151491533 0.0023632922582332433 0 -0.0021486728229764777 0.0025099196850529716 0 -0.0020140953808121284 0.002041363399738511 0 -0.0018984736151491533 0.0023632922582332433 0 -0.0016739590939654724 0.0025604166955563129 0 -0.0016059073897671707 0.002309229766604803 0 -0.0018984736151491533 0.0023632922582332433 0 -0.0040705203647428195 0.0027278626911034581 0 -0.0035755701900959474 0.0030283318504405886 0 -0.0037171281090051769 0.002576859245193284 0 -0.0038972119895689917 0.0032063615457747306 0 -0.0040426888558383559 0.0027603680239662036 0 -0.0042219506985740488 0.0030623453130591599 0 -0.0038454041005367952 0.0031846834796834551 0 -0.0040705203647428195 0.0027278626911034581 0 -0.0039398582539307584 0.0032364916375626071 0 -0.0040705203647428195 0.0027278626911034581 0 -0.0035755701900959474 0.0030283318504405886 0 -0.0035755701900959474 0.0030283318504405886 0 -0.0030290607259157868 0.0031088050702788679 0 -0.0032855371660474733 0.0027732299638600581 0 -0.0029556262950772788 0.0026651274931767718 0 -0.0030290607259157868 0.0031088050702788679 0 -0.0032855371660474733 0.0027732299638600581 0 -0.0029556262950772788 0.0026651274931767718 0 -0.0032855371660474733 0.0027732299638600581 0 -0.0033545652222285948 0.0024730042169169545 0 -0.0032855371660474733 0.0027732299638600581 0 -0.0037171281090051769 0.002576859245193284 0 -0.0033545652222285948 0.0024730042169169545 0 -0.0035755701900959474 0.0030283318504405886 0 -0.0032855371660474733 0.0027732299638600581 0 -0.0037171281090051769 0.002576859245193284 0 -0.0037171281090051769 0.002576859245193284 0 -0.0036121311848142201 0.0020547807877893316 0 -0.0041022178375551711 0.0022382027743260945 0 -0.0037171281090051769 0.002576859245193284 0 -0.0033545652222285948 0.0024730042169169545 0 -0.0036121311848142201 0.0020547807877893316 0 -0.0029556262950772788 0.0026651274931767718 0 -0.0030592933319299751 0.0022881307534335844 0 -0.0033545652222285948 0.0024730042169169545 0 -0.0030592933319299751 0.0022881307534335844 0 -0.0033545652222285948 0.0024730042169169545 0 -0.0036121311848142201 0.0020547807877893316 0 -0.0030592933319299751 0.0022881307534335844 0 -0.0036121311848142201 0.0020547807877893316 0 -0.0030244447314558783 0.0017805239411233279 0 -0.0036121311848142201 0.0020547807877893316 0 -0.0041022178375551711 0.0022382027743260945 0 -0.0041537039185892662 0.0018500066991554401 0 -0.0040705203647428195 0.0027278626911034581 0 -0.0037171281090051769 0.002576859245193284 0 -0.0041022178375551711 0.0022382027743260945 0 -0.0045191445065012525 0.0022124808024923657 0 -0.0040705203647428195 0.0027278626911034581 0 -0.0041022178375551711 0.0022382027743260945 0 -0.0045191445065012525 0.0022124808024923657 0 -0.0041022178375551711 0.0022382027743260945 0 -0.0045199536953468124 0.0017590777352778743 0 -0.0050692721824022137 0.0018062058818151452 0 -0.0047907333011516376 0.0012304877144741764 0 -0.0056567861852581574 0.001948343958687487 0 -0.0048089279437384088 0.0012208519153376527 0 -0.0061398394144041588 0.0011484032305917875 0 -0.0039159441307315803 0.0015063541197192255 0 -0.0041518875179378982 0.0010786864866633914 0 -0.0048089279437384088 0.0012208519153376527 0 -0.0041537039185892662 0.0018500066991554401 0 -0.0039159441307315803 0.0015063541197192255 0 -0.0048089279437384088 0.0012208519153376527 0 -0.0045199536953468124 0.0017590777352778743 0 -0.0041537039185892662 0.0018500066991554401 0 -0.0048089279437384088 0.0012208519153376527 0 -0.0041022178375551711 0.0022382027743260945 0 -0.0045199536953468124 0.0017590777352778743 0 -0.0041537039185892662 0.0018500066991554401 0 -0.0036121311848142201 0.0020547807877893316 0 -0.0041537039185892662 0.0018500066991554401 0 -0.0039159441307315803 0.0015063541197192255 0 -0.0036121311848142201 0.0020547807877893316 0 -0.0033577723025604508 0.0014631717264449319 0 -0.0039159441307315803 0.0015063541197192255 0 -0.0036121311848142201 0.0020547807877893316 0 -0.0033577723025604508 0.0014631717264449319 0 -0.0030244447314558783 0.0017805239411233279 0 -0.0033577723025604508 0.0014631717264449319 0 -0.0039159441307315803 0.0015063541197192255 0 -0.0036244463006219136 0.0011179259856020699 0 -0.0033577723025604508 0.0014631717264449319 0 -0.0036244463006219136 0.0011179259856020699 0 -0.0032034702944149515 0.0010643626862169807 0 -0.0039159441307315803 0.0015063541197192255 0 -0.0041518875179378982 0.0010786864866633914 0 -0.0036244463006219136 0.0011179259856020699 0 -0.0041518875179378982 0.0010786864866633914 0 -0.0038047768927511249 0.00072306256345624153 0 -0.0043973040568644223 0.00014822273809960844 0 -0.0041518875179378982 0.0010786864866633914 0 -0.0038047768927511249 0.00072306256345624153 0 -0.0036244463006219136 0.0011179259856020699 0 -0.003479904802944433 0.00076374613726947046 0 -0.0032034702944149515 0.0010643626862169807 0 -0.0031708735829980117 0.00044994250349348865 0 -0.0036244463006219136 0.0011179259856020699 0 -0.003479904802944433 0.00076374613726947046 0 -0.0032034702944149515 0.0010643626862169807 0 -0.0038047768927511249 0.00072306256345624153 0 -0.0036244463006219136 0.0011179259856020699 0 -0.003479904802944433 0.00076374613726947046 0 -0.0038047768927511249 0.00072306256345624153 0 -0.003479904802944433 0.00076374613726947046 0 -0.0036088479462284668 0.00042182135031783367 0 -0.0035007223449878902 2.3504912108020271e-05 0 -0.0031708735829980117 0.00044994250349348865 0 -0.0031945528833066512 -0.00018848537266505586 0 -0.003479904802944433 0.00076374613726947046 0 -0.0036088479462284668 0.00042182135031783367 0 -0.0031708735829980117 0.00044994250349348865 0 -0.0036088479462284668 0.00042182135031783367 0 -0.0035007223449878902 2.3504912108020271e-05 0 -0.0031708735829980117 0.00044994250349348865 0 -0.0035007223449878902 2.3504912108020271e-05 0 -0.0043973040568644223 0.00014822273809960844 0 -0.00347582239499422 -9.1236719075839405e-05 0 -0.0036088479462284668 0.00042182135031783367 0 -0.0035007223449878902 2.3504912108020271e-05 0 -0.0043973040568644223 0.00014822273809960844 0 -0.0038047768927511249 0.00072306256345624153 0 -0.0036088479462284668 0.00042182135031783367 0 -0.0043973040568644223 0.00014822273809960844 0 -0.0053456316146552512 0.0003037498848735481 0 -0.0046307936868476441 0.00027606978223002646 0 -0.0061746188471326555 0.00043326499653381916 0 -0.0058501727252529721 0.00061690499339932107 0 -0.0061782272099547095 0.00044827118338828072 0 -0.0053456316146552512 0.0003037498848735481 0 -0.0058213537306639031 0.00058528955966721851 0 -0.0058501727252529721 0.00061690499339932107 0 -0.0048089279437384088 0.0012208519153376527 0 -0.0061398394144041588 0.0011484032305917875 0 -0.0041518875179378982 0.0010786864866633914 0 -0.0043973040568644223 0.00014822273809960844 0 -0.0048089279437384088 0.0012208519153376527 0 -0.0043973040568644223 0.00014822273809960844 0 -0.0058501727252529721 0.00061690499339932107 0 -0.0048089279437384088 0.0012208519153376527 0 -0.0015148896620541916 0.001134445518008636 0 -0.0019436279260236875 0.001316812381916626 0 -0.0018207207216786668 0.00097657315904782168 0 -0.0019436279260236875 0.001316812381916626 0 -0.0023132893963222663 0.0011100054785277266 0 -0.0018207207216786668 0.00097657315904782168 0 -0.0015924896942067458 0.0014405436824949883 0 -0.0019436279260236875 0.001316812381916626 0 -0.00191794642604941 0.0016476173135630879 0 -0.0019436279260236875 0.001316812381916626 0 -0.00191794642604941 0.0016476173135630879 0 -0.0024283419652571326 0.0017598449901601956 0 -0.0019436279260236875 0.001316812381916626 0 -0.0024283419652571326 0.0017598449901601956 0 -0.0023132893963222663 0.0011100054785277266 0 -0.0024283419652571326 0.0017598449901601956 0 -0.0023132893963222663 0.0011100054785277266 0 -0.0028554244202481757 0.0012614539084665501 0 -0.0024283419652571326 0.0017598449901601956 0 -0.0030244447314558783 0.0017805239411233279 0 -0.0028554244202481757 0.0012614539084665501 0 -0.0033577723025604508 0.0014631717264449319 0 -0.0030244447314558783 0.0017805239411233279 0 -0.0028554244202481757 0.0012614539084665501 0 -0.0033577723025604508 0.0014631717264449319 0 -0.0028554244202481757 0.0012614539084665501 0 -0.0032034702944149515 0.0010643626862169807 0 -0.0032034702944149515 0.0010643626862169807 0 -0.003026862048130539 0.00085221993150592034 0 -0.0032968156369926529 0.0005993558753170931 0 -0.0028554244202481757 0.0012614539084665501 0 -0.0032034702944149515 0.0010643626862169807 0 -0.003026862048130539 0.00085221993150592034 0 -0.0032091256204418118 0.00099496342811081066 0 -0.0032242924142405053 0.00052006555966570397 0 -0.003026862048130539 0.00085221993150592034 0 -0.0030083442563188919 0.00057680112387313706 0 -0.0026802784211014375 0.00079616127883722879 0 -0.0032242924142405053 0.00052006555966570397 0 -0.0037157369979008755 0.00016012048471316246 0 -0.003026862048130539 0.00085221993150592034 0 -0.0032968156369926529 0.0005993558753170931 0 -0.0030083442563188919 0.00057680112387313706 0 -0.0032968156369926529 0.0005993558753170931 0 -0.0032404469692277086 0.00028977524361120151 0 -0.0032411380567035214 0.00027691379664730156 0 -0.0032968156369926529 0.0005993558753170931 0 -0.0030083442563188919 0.00057680112387313706 0 -0.0032404469692277086 0.00028977524361120151 0 -0.0030083442563188919 0.00057680112387313706 0 -0.0027532924270058457 0.00043677581621625396 0 -0.0032404469692277086 0.00028977524361120151 0 -0.0027532924270058457 0.00043677581621625396 0 -0.0026802784211014375 0.00079616127883722879 0 -0.0024030510223590727 0.00044569899551873962 0 -0.0030083442563188919 0.00057680112387313706 0 -0.0027532924270058457 0.00043677581621625396 0 -0.0026802784211014375 0.00079616127883722879 0 -0.0023132893963222663 0.0011100054785277266 0 -0.0028554244202481757 0.0012614539084665501 0 -0.0026802784211014375 0.00079616127883722879 0 -0.0028554244202481757 0.0012614539084665501 0 -0.003026862048130539 0.00085221993150592034 0 -0.0026802784211014375 0.00079616127883722879 0 -0.0023132893963222663 0.0011100054785277266 0 -0.0026802784211014375 0.00079616127883722879 0 -0.0020962642656994299 0.00072586554688944184 0 -0.0026356171520601191 0.00079511200457136005 0 -0.0021157544103408334 0.00075861675680710769 0 -0.002118370586066811 0.00079065194794165406 0 -0.0024030510223590727 0.00044569899551873962 0 -0.002067193101262505 0.00035643983259748435 0 -0.0026802784211014375 0.00079616127883722879 0 -0.002118370586066811 0.00079065194794165406 0 -0.0024030510223590727 0.00044569899551873962 0 -0.001590559190240836 0.00072184212311481044 0 -0.0021157544103408334 0.00075861675680710769 0 -0.002118370586066811 0.00079065194794165406 0 -0.0017948505896196625 0.00052035420456025252 0 -0.002067193101262505 0.00035643983259748435 0 -0.0016032909863629371 0.00074758733846219617 0 -0.002118370586066811 0.00079065194794165406 0 -0.0017948505896196625 0.00052035420456025252 0 -0.0023132893963222663 0.0011100054785277266 0 -0.0020962642656994299 0.00072586554688944184 0 -0.0018207207216786668 0.00097657315904782168 0 -0.0015722446873517324 0.00069810399082533741 0 -0.0020962642656994299 0.00072586554688944184 0 -0.0018207207216786668 0.00097657315904782168 0 -0.001529245966067601 -5.3036354242379881e-05 0 -0.0019914287459453718 -5.7604299514901006e-05 0 -0.0020281547037289977 5.6779696819345694e-05 0 -0.0039588064107785974 -6.540708163975086e-05 0 -0.0038790002678987653 -2.2394594447567643e-05 0 -0.0039237995708710678 -3.5872862346255023e-05 0 -0.0019559929045778897 -8.9089129309407407e-06 0 -0.0019542253005759413 0.00016736531889202126 0 -0.0021582624365286294 0.00017860393256504805 0 -0.0019559929045778897 -8.9089129309407407e-06 0 -0.0017907119672656859 0.00011876530271381124 0 -0.0019542253005759413 0.00016736531889202126 0 -0.0016433095206974178 4.5975447041273004e-05 0 -0.0019559929045778897 -8.9089129309407407e-06 0 -0.0017907119672656859 0.00011876530271381124 0 -0.0017907119672656859 0.00011876530271381124 0 -0.0018289945713300937 0.00027583511830738759 0 -0.0019542253005759413 0.00016736531889202126 0 -0.0017948505896196625 0.00052035420456025252 0 -0.0018289945713300937 0.00027583511830738759 0 -0.002067193101262505 0.00035643983259748435 0 -0.002067193101262505 0.00035643983259748435 0 -0.0019542253005759413 0.00016736531889202126 0 -0.0021582624365286294 0.00017860393256504805 0 -0.0018289945713300937 0.00027583511830738759 0 -0.002067193101262505 0.00035643983259748435 0 -0.0019542253005759413 0.00016736531889202126 0 -0.002067193101262505 0.00035643983259748435 0 -0.0021582624365286294 0.00017860393256504805 0 -0.0023053577921489615 0.0002668089911620023 0 -0.0024030510223590727 0.00044569899551873962 0 -0.002067193101262505 0.00035643983259748435 0 -0.0023053577921489615 0.0002668089911620023 0 -0.0024030510223590727 0.00044569899551873962 0 -0.0023053577921489615 0.0002668089911620023 0 -0.0024445850600450254 0.00027724197903176599 0 -0.0024030510223590727 0.00044569899551873962 0 -0.0024445850600450254 0.00027724197903176599 0 -0.0025318288467766951 0.00032547188886306342 0 -0.0023053577921489615 0.0002668089911620023 0 -0.0024445850600450254 0.00027724197903176599 0 -0.0025255851960531307 0.0001507422923842794 0 -0.0021582624365286294 0.00017860393256504805 0 -0.0023053577921489615 0.0002668089911620023 0 -0.0025255851960531307 0.0001507422923842794 0 -0.0019559929045778897 -8.9089129309407407e-06 0 -0.0021582624365286294 0.00017860393256504805 0 -0.0025255851960531307 0.0001507422923842794 0 -0.0038285347416996789 2.3571847166483763e-06 0 -0.0038790002678987653 -2.2394594447567643e-05 0 -0.0038135524574436758 -3.3523189955666316e-06 0 -0.0039588064107785974 -6.540708163975086e-05 0 -0.0038790002678987653 -2.2394594447567643e-05 0 -0.0038135524574436758 -3.3523189955666316e-06 0 -0.0020004944948750613 2.4741502698450452e-05 0 -0.002486082292524552 0.00015640986652891854 0 -0.0029854713852220855 -6.0777726246850226e-05 0 -0.003168088833598232 6.2221898869390784e-05 0 -0.0020281547037289977 5.6779696819345694e-05 0 -0.0025013801791455648 6.7906053264328193e-05 0 -0.0025255851960531307 0.0001507422923842794 0 -0.0019914287459453718 -5.7604299514901006e-05 0 -0.0020281547037289977 5.6779696819345694e-05 0 -0.0025013801791455648 6.7906053264328193e-05 0 -0.0038790002678987653 -2.2394594447567643e-05 0 -0.003899711246680464 -2.2895554908732042e-05 0 -0.0039237995708710678 -3.5872862346255023e-05 0 -0.0038790002678987653 -2.2394594447567643e-05 0 -0.0038706103952780221 -8.962300432951027e-06 0 -0.003899711246680464 -2.2895554908732042e-05 0 -0.0038790002678987653 -2.2394594447567643e-05 0 -0.0038454272883845912 -1.4937470622459314e-06 0 -0.0038706103952780221 -8.962300432951027e-06 0 -0.0038386275713781981 5.584658550803032e-06 0 -0.0038454272883845912 -1.4937470622459314e-06 0 -0.0038706103952780221 -8.962300432951027e-06 0 -0.0038386275713781981 5.584658550803032e-06 0 -0.0038454272883845912 -1.4937470622459314e-06 0 -0.0038052913699119168 1.7903557186255469e-05 0 -0.0038285347416996789 2.3571847166483763e-06 0 -0.0038454272883845912 -1.4937470622459314e-06 0 -0.0038052913699119168 1.7903557186255469e-05 0 -0.0038285347416996789 2.3571847166483763e-06 0 -0.0038790002678987653 -2.2394594447567643e-05 0 -0.0038454272883845912 -1.4937470622459314e-06 0 -0.0038052913699119168 1.7903557186255469e-05 0 -0.0037933843625416038 1.8372022225760457e-05 0 -0.0037320852338752321 4.4998079400520269e-05 0 -0.0038386275713781981 5.584658550803032e-06 0 -0.0038052913699119168 1.7903557186255469e-05 0 -0.0037933843625416038 1.8372022225760457e-05 0 -0.0037933843625416038 1.8372022225760457e-05 0 -0.0037449642227992924 3.5632875368911621e-05 0 -0.0037320852338752321 4.4998079400520269e-05 0 -0.0037933843625416038 1.8372022225760457e-05 0 -0.0037449642227992924 3.5632875368911621e-05 0 -0.0037957580030299463 1.4703478353025088e-05 0 -0.0037449642227992924 3.5632875368911621e-05 0 -0.0037320852338752321 4.4998079400520269e-05 0 -0.0036277866360279101 0.0001045171880437374 0 -0.0037320852338752321 4.4998079400520269e-05 0 -0.0038135524574436758 -3.3523189955666316e-06 0 -0.0036277866360279101 0.0001045171880437374 0 -0.0038052913699119168 1.7903557186255469e-05 0 -0.0037320852338752321 4.4998079400520269e-05 0 -0.0037932565014214387 1.7597118582855149e-05 0 -0.0038285347416996789 2.3571847166483763e-06 0 -0.0038052913699119168 1.7903557186255469e-05 0 -0.0037932565014214387 1.7597118582855149e-05 0 -0.0038285347416996789 2.3571847166483763e-06 0 -0.0037932565014214387 1.7597118582855149e-05 0 -0.0038135524574436758 -3.3523189955666316e-06 0 -0.0037320852338752321 4.4998079400520269e-05 0 -0.0037932565014214387 1.7597118582855149e-05 0 -0.0038135524574436758 -3.3523189955666316e-06 0 -0.003168088833598232 6.2221898869390784e-05 0 -0.0032808507979922813 0.00027536256932855324 0 -0.0038135524574436758 -3.3523189955666316e-06 0 -0.0036277866360279101 0.0001045171880437374 0 -0.0032404469692277086 0.00028977524361120151 0 -0.0025013801791455648 6.7906053264328193e-05 0 -0.0025255851960531307 0.0001507422923842794 0 -0.0032404469692277086 0.00028977524361120151 0 -0.0027532924270058457 0.00043677581621625396 0 -0.0025255851960531307 0.0001507422923842794 0 -0.0032404469692277086 0.00028977524361120151 0 -0.0024445850600450254 0.00027724197903176599 0 -0.0025255851960531307 0.0001507422923842794 0 -0.0025318288467766951 0.00032547188886306342 0 -0.0027532924270058457 0.00043677581621625396 0 -0.0024030510223590727 0.00044569899551873962 0 -0.0025318288467766951 0.00032547188886306342 0 -0.0027532924270058457 0.00043677581621625396 0 -0.0025255851960531307 0.0001507422923842794 0 -0.0025318288467766951 0.00032547188886306342 0 -0.0035313016002690672 0.00012048462256777814 0 -0.0037157369979008755 0.00016012048471316246 0 -0.0036277866360279101 0.0001045171880437374 0 -0.0037871624849416352 4.8319841993357147e-05 0 -0.0038428201245619509 0.00014941236994326195 0 -0.0036277866360279101 0.0001045171880437374 0 -0.0032404469692277086 0.00028977524361120151 0 -0.0032411380567035214 0.00027691379664730156 0 -0.0037871624849416352 4.8319841993357147e-05 0 -0.0038428201245619509 0.00014941236994326195 0 -0.0038177609892151893 -1.6867888912517762e-06 0 -0.0037449642227992924 3.5632875368911621e-05 0 -0.0036277866360279101 0.0001045171880437374 0 -0.0037871624849416352 4.8319841993357147e-05 0 -0.0037449642227992924 3.5632875368911621e-05 0 -0.0037871624849416352 4.8319841993357147e-05 0 -0.0037957580030299463 1.4703478353025088e-05 0 -0.0037871624849416352 4.8319841993357147e-05 0 -0.0037957580030299463 1.4703478353025088e-05 0 -0.0038177609892151893 -1.6867888912517762e-06 0 -0.0038280616703948536 2.0800302720805106e-05 0 -0.0038447158894477852 4.3249795615782599e-05 0 -0.0038177609892151893 -1.6867888912517762e-06 0 -0.0037957580030299463 1.4703478353025088e-05 0 -0.0038280616703948536 2.0800302720805106e-05 0 -0.0038302583554924627 1.7915677827699192e-05 0 -0.0037957580030299463 1.4703478353025088e-05 0 -0.0038280616703948536 2.0800302720805106e-05 0 -0.0038177609892151893 -1.6867888912517762e-06 0 -0.0046347803580451341 0.00021978416538767667 0 -0.003836780814086436 0.00014279311885327146 0 -0.0038447158894477852 4.3249795615782599e-05 0 -0.0038177609892151893 -1.6867888912517762e-06 0 -0.0038371469107327536 7.3961819871748853e-05 0 -0.0040824179212717243 0.00035915844316075055 0 -0.0040614519748694315 0.0002718339009884256 0 -0.0040327389763727501 0.00026789625815925656 0 -0.0038447158894477852 4.3249795615782599e-05 0 -0.0038816697427809222 6.1945730116319105e-05 0 -0.0038753866863369978 7.4902053460075094e-05 0 -0.0038447158894477852 4.3249795615782599e-05 0 -0.0038753866863369978 7.4902053460075094e-05 0 -0.0038371469107327536 7.3961819871748853e-05 0 -0.0038280616703948536 2.0800302720805106e-05 0 -0.0038447158894477852 4.3249795615782599e-05 0 -0.0038558177087366745 3.3189689178805757e-05 0 -0.0038558177087366745 3.3189689178805757e-05 0 -0.0038816697427809222 6.1945730116319105e-05 0 -0.003890274165884292 4.4420174344257122e-05 0 -0.0038447158894477852 4.3249795615782599e-05 0 -0.0038558177087366745 3.3189689178805757e-05 0 -0.0038816697427809222 6.1945730116319105e-05 0 -0.0038816697427809222 6.1945730116319105e-05 0 -0.003890274165884292 4.4420174344257122e-05 0 -0.0039118606701011981 7.3845510901583323e-05 0 -0.0038558177087366745 3.3189689178805757e-05 0 -0.003890274165884292 4.4420174344257122e-05 0 -0.0038667466746878324 2.2094453286862092e-05 0 -0.003890274165884292 4.4420174344257122e-05 0 -0.0038667466746878324 2.2094453286862092e-05 0 -0.0039048738652442076 2.4612734646074664e-05 0 -0.0038667466746878324 2.2094453286862092e-05 0 -0.0038450963551072757 1.2115838492488917e-05 0 -0.0038832319416477949 7.1996869671691259e-06 0 -0.0038667466746878324 2.2094453286862092e-05 0 -0.0038302583554924627 1.7915677827699192e-05 0 -0.0038450963551072757 1.2115838492488917e-05 0 -0.0038558177087366745 3.3189689178805757e-05 0 -0.0038667466746878324 2.2094453286862092e-05 0 -0.0038302583554924627 1.7915677827699192e-05 0 -0.0038280616703948536 2.0800302720805106e-05 0 -0.0038558177087366745 3.3189689178805757e-05 0 -0.0038302583554924627 1.7915677827699192e-05 0 -0.0037933843625416038 1.8372022225760457e-05 0 -0.0037957580030299463 1.4703478353025088e-05 0 -0.0038302583554924627 1.7915677827699192e-05 0 -0.0038386275713781981 5.584658550803032e-06 0 -0.0037933843625416038 1.8372022225760457e-05 0 -0.0038450963551072757 1.2115838492488917e-05 0 -0.0037933843625416038 1.8372022225760457e-05 0 -0.0038302583554924627 1.7915677827699192e-05 0 -0.0038450963551072757 1.2115838492488917e-05 0 -0.003865846368007392 1.0517882752878355e-06 0 -0.0038948853863941921 -1.0341883261534469e-05 0 -0.0038832319416477949 7.1996869671691259e-06 0 -0.0038450963551072757 1.2115838492488917e-05 0 -0.003865846368007392 1.0517882752878355e-06 0 -0.0038832319416477949 7.1996869671691259e-06 0 -0.0038386275713781981 5.584658550803032e-06 0 -0.0038450963551072757 1.2115838492488917e-05 0 -0.003865846368007392 1.0517882752878355e-06 0 -0.0038386275713781981 5.584658550803032e-06 0 -0.003865846368007392 1.0517882752878355e-06 0 -0.0038706103952780221 -8.962300432951027e-06 0 -0.003865846368007392 1.0517882752878355e-06 0 -0.0038706103952780221 -8.962300432951027e-06 0 -0.0038948853863941921 -1.0341883261534469e-05 0 -0.003899711246680464 -2.2895554908732042e-05 0 -0.0039253832235811434 -2.6657219105280593e-05 0 -0.0038948853863941921 -1.0341883261534469e-05 0 -0.0038706103952780221 -8.962300432951027e-06 0 -0.003899711246680464 -2.2895554908732042e-05 0 -0.0038948853863941921 -1.0341883261534469e-05 0 -0.003899711246680464 -2.2895554908732042e-05 0 -0.0039253832235811434 -2.6657219105280593e-05 0 -0.0039237995708710678 -3.5872862346255023e-05 0 -0.0039253832235811434 -2.6657219105280593e-05 0 -0.0038948853863941921 -1.0341883261534469e-05 0 -0.0039292636106267841 -5.8312927527125067e-06 0 -0.0038948853863941921 -1.0341883261534469e-05 0 -0.0039292636106267841 -5.8312927527125067e-06 0 -0.0038832319416477949 7.1996869671691259e-06 0 -0.0039292636106267841 -5.8312927527125067e-06 0 -0.0038832319416477949 7.1996869671691259e-06 0 -0.0039048738652442076 2.4612734646074664e-05 0 -0.0038667466746878324 2.2094453286862092e-05 0 -0.0038832319416477949 7.1996869671691259e-06 0 -0.0039048738652442076 2.4612734646074664e-05 0 -0.003890274165884292 4.4420174344257122e-05 0 -0.0039048738652442076 2.4612734646074664e-05 0 -0.0039251347782976445 5.3704708159482673e-05 0 -0.003890274165884292 4.4420174344257122e-05 0 -0.0039251347782976445 5.3704708159482673e-05 0 -0.0039118606701011981 7.3845510901583323e-05 0 -0.0039251347782976445 5.3704708159482673e-05 0 -0.0039525250528383727 2.8515965228640468e-05 0 -0.0039750130388800289 8.5362567071918408e-05 0 -0.0039048738652442076 2.4612734646074664e-05 0 -0.0039251347782976445 5.3704708159482673e-05 0 -0.0039525250528383727 2.8515965228640468e-05 0 -0.0039292636106267841 -5.8312927527125067e-06 0 -0.0039048738652442076 2.4612734646074664e-05 0 -0.0039525250528383727 2.8515965228640468e-05 0 -0.0039292636106267841 -5.8312927527125067e-06 0 -0.0039525250528383727 2.8515965228640468e-05 0 -0.0039826846297012705 -8.4525424768289838e-06 0 -0.0039525250528383727 2.8515965228640468e-05 0 -0.0039826846297012705 -8.4525424768289838e-06 0 -0.0040046569878426164 3.495748312670967e-05 0 -0.0039525250528383727 2.8515965228640468e-05 0 -0.0040046569878426164 3.495748312670967e-05 0 -0.0039750130388800289 8.5362567071918408e-05 0 -0.0040046569878426164 3.495748312670967e-05 0 -0.004040565101899693 -1.2294007042796721e-05 0 -0.0040651164984727506 2.6129835854699247e-05 0 -0.0039826846297012705 -8.4525424768289838e-06 0 -0.0040046569878426164 3.495748312670967e-05 0 -0.004040565101899693 -1.2294007042796721e-05 0 -0.0039826846297012705 -8.4525424768289838e-06 0 -0.004040565101899693 -1.2294007042796721e-05 0 -0.0040334764496064435 -5.2350861038027274e-05 0 -0.0039826846297012705 -8.4525424768289838e-06 0 -0.0040334764496064435 -5.2350861038027274e-05 0 -0.0039588033588402278 -3.5576022991050679e-05 0 -0.0039292636106267841 -5.8312927527125067e-06 0 -0.0039826846297012705 -8.4525424768289838e-06 0 -0.0039588033588402278 -3.5576022991050679e-05 0 -0.0039253832235811434 -2.6657219105280593e-05 0 -0.0039292636106267841 -5.8312927527125067e-06 0 -0.0039588033588402278 -3.5576022991050679e-05 0 -0.0039588064107785974 -6.540708163975086e-05 0 -0.0039588033588402278 -3.5576022991050679e-05 0 -0.0039237995708710678 -3.5872862346255023e-05 0 -0.0039253832235811434 -2.6657219105280593e-05 0 -0.0039588033588402278 -3.5576022991050679e-05 0 -0.0039237995708710678 -3.5872862346255023e-05 0 -0.0039588064107785974 -6.540708163975086e-05 0 -0.0040334764496064435 -5.2350861038027274e-05 0 -0.0039588033588402278 -3.5576022991050679e-05 0 -0.0062627883443924373 0.00033435530572989864 0 -0.0061782272099547095 0.00044827118338828072 0 -0.0062194107235698905 0.00039605361703442084 0 -0.0062627883443924373 0.00033435530572989864 0 -0.006276797019943851 0.00035394476520434804 0 -0.0061782272099547095 0.00044827118338828072 0 -0.006276797019943851 0.00035394476520434804 0 -0.0062426138991973799 0.00045678297359577906 0 -0.0064953694210513968 0.00027160476890980307 0 -0.0058501727252529721 0.00061690499339932107 0 -0.0062426138991973799 0.00045678297359577906 0 -0.0061782272099547095 0.00044827118338828072 0 -0.006276797019943851 0.00035394476520434804 0 -0.0062426138991973799 0.00045678297359577906 0 -0.0061782272099547095 0.00044827118338828072 0 -0.0061746188471326555 0.00043326499653381916 0 -0.0061782272099547095 0.00044827118338828072 0 -0.0062194107235698905 0.00039605361703442084 0 -0.0061746188471326555 0.00043326499653381916 0 -0.006218945198534844 0.00038960132267444608 0 -0.0062079221151689346 0.00039286376416143516 0 -0.0061746188471326555 0.00043326499653381916 0 -0.006218945198534844 0.00038960132267444608 0 -0.0062194107235698905 0.00039605361703442084 0 -0.0045509213597318141 0.0002250389989661834 0 -0.0045446831335462191 0.0002225175499231973 0 -0.0045493833909234834 0.00023813584516924334 0 -0.006218945198534844 0.00038960132267444608 0 -0.0062079221151689346 0.00039286376416143516 0 -0.0062203299064009189 0.00036822381600336328 0 -0.0046307936868476441 0.00027606978223002646 0 -0.0053705409179361872 0.00037509273646153986 0 -0.0037157369979008755 0.00016012048471316246 0 -0.0046307936868476441 0.00027606978223002646 0 -0.0035007223449878902 2.3504912108020271e-05 0 -0.0031945528833066512 -0.00018848537266505586 0 -0.0034768605862371032 -9.1416555484335769e-05 0 -0.0044860862000896283 0.00012290062284671743 0 -0.0046307936868476441 0.00027606978223002646 0 -0.0062203299064009189 0.00036822381600336328 0 -0.0062610550792064554 0.00033819126034982086 0 -0.0062581315327384351 0.00032156293968822064 0 -0.0037157369979008755 0.00016012048471316246 0 -0.0046347803580451341 0.00021978416538767667 0 -0.0053705409179361872 0.00037509273646153986 0 -0.0046347803580451341 0.00021978416538767667 0 -0.006218945198534844 0.00038960132267444608 0 -0.0062203299064009189 0.00036822381600336328 0 -0.0062610550792064554 0.00033819126034982086 0 -0.0045509213597318141 0.0002250389989661834 0 -0.0045493833909234834 0.00023813584516924334 0 -0.0045546290759775777 0.00025365696477608351 0 -0.006218945198534844 0.00038960132267444608 0 -0.0062194107235698905 0.00039605361703442084 0 -0.0062610550792064554 0.00033819126034982086 0 -0.0062627883443924373 0.00033435530572989864 0 -0.0062194107235698905 0.00039605361703442084 0 -0.0062610550792064554 0.00033819126034982086 0 -0.0062627883443924373 0.00033435530572989864 0 -0.0062610550792064554 0.00033819126034982086 0 -0.0063346773620973542 0.0002617131530444203 0 -0.0062610550792064554 0.00033819126034982086 0 -0.0063346773620973542 0.0002617131530444203 0 -0.0063244973582666257 0.00029498994474330112 0 -0.0062610550792064554 0.00033819126034982086 0 -0.0062581315327384351 0.00032156293968822064 0 -0.0063244973582666257 0.00029498994474330112 0 -0.0046347803580451341 0.00021978416538767667 0 -0.0052643703212890258 0.00030776639900237813 0 -0.0063244973582666257 0.00029498994474330112 0 -0.0063446329970620633 0.00029161612796433278 0 -0.0064181865798120744 0.00025990143210309911 0 -0.0062581315327384351 0.00032156293968822064 0 -0.0063244973582666257 0.00029498994474330112 0 -0.0063446329970620633 0.00029161612796433278 0 -0.0063346773620973542 0.0002617131530444203 0 -0.0064181865798120744 0.00025990143210309911 0 -0.0063586649795502647 0.00017200650975994684 0 -0.0063346773620973542 0.0002617131530444203 0 -0.0063244973582666257 0.00029498994474330112 0 -0.0064181865798120744 0.00025990143210309911 0 -0.0063346773620973542 0.0002617131530444203 0 -0.0063270150398359844 0.00022761344811308054 0 -0.0063586649795502647 0.00017200650975994684 0 -0.0062627883443924373 0.00033435530572989864 0 -0.006276797019943851 0.00035394476520434804 0 -0.0063270150398359844 0.00022761344811308054 0 -0.0062627883443924373 0.00033435530572989864 0 -0.0063346773620973542 0.0002617131530444203 0 -0.0063270150398359844 0.00022761344811308054 0 -0.006276797019943851 0.00035394476520434804 0 -0.0063270150398359844 0.00022761344811308054 0 -0.0064953694210513968 0.00027160476890980307 0 -0.0063270150398359844 0.00022761344811308054 0 -0.0065417279486435654 2.04204162348036e-05 0 -0.0064953694210513968 0.00027160476890980307 0 -0.0069456460184661164 8.9387400632032679e-05 0 -0.0067742874983629693 0.00023251650172582979 0 -0.0063270150398359844 0.00022761344811308054 0 -0.0065417279486435654 2.04204162348036e-05 0 -0.0063586649795502647 0.00017200650975994684 0 -0.0073356998165798144 0.00013292410333461284 0 -0.0071469306595138048 5.2442050494242539e-05 0 -0.0073102974155451802 8.9492197289293073e-05 0 -0.0069456460184661164 8.9387400632032679e-05 0 -0.0071394843917970824 6.4731637294517208e-05 0 -0.0065417279486435654 2.04204162348036e-05 0 -0.0064953694210513968 0.00027160476890980307 0 -0.0071469306595138048 5.2442050494242539e-05 0 -0.0064953694210513968 0.00027160476890980307 0 -0.0071469306595138048 5.2442050494242539e-05 0 -0.0068684957089166854 0.00029163078774033002 0 -0.0073793525716680684 7.4371862368948071e-05 0 -0.0076010344174592594 2.4162060458929299e-06 0 -0.0074761643415133085 6.9284691293132751e-06 0 -0.0071469306595138048 5.2442050494242539e-05 0 -0.0074761643415133085 6.9284691293132751e-06 0 -0.0073102974155451802 8.9492197289293073e-05 0 -0.0071469306595138048 5.2442050494242539e-05 0 -0.0073793525716680684 7.4371862368948071e-05 0 -0.0074761643415133085 6.9284691293132751e-06 0 -0.0071469306595138048 5.2442050494242539e-05 0 -0.0071677038442963482 0.00030610561515781589 0 -0.0068684957089166854 0.00029163078774033002 0 -0.0071469306595138048 5.2442050494242539e-05 0 -0.0073793525716680684 7.4371862368948071e-05 0 -0.0071677038442963482 0.00030610561515781589 0 -0.0073793525716680684 7.4371862368948071e-05 0 -0.0071677038442963482 0.00030610561515781589 0 -0.0075486072385653686 0.00038742066331117132 0 -0.0071677038442963482 0.00030610561515781589 0 -0.0073245870154841968 0.00054052333824016396 0 -0.0075486072385653686 0.00038742066331117132 0 -0.0071677038442963482 0.00030610561515781589 0 -0.0069159448864483646 0.00055013770661515313 0 -0.0068684957089166854 0.00029163078774033002 0 -0.0069159448864483646 0.00055013770661515313 0 -0.0073245870154841968 0.00054052333824016396 0 -0.0071173481450025394 0.00074666499135063197 0 -0.0071677038442963482 0.00030610561515781589 0 -0.0069159448864483646 0.00055013770661515313 0 -0.0073245870154841968 0.00054052333824016396 0 -0.0062426138991973799 0.00045678297359577906 0 -0.0064953694210513968 0.00027160476890980307 0 -0.0065582052064524343 0.00044836616219527453 0 -0.0064953694210513968 0.00027160476890980307 0 -0.0068684957089166854 0.00029163078774033002 0 -0.0065582052064524343 0.00044836616219527453 0 -0.0069159448864483646 0.00055013770661515313 0 -0.0065582052064524343 0.00044836616219527453 0 -0.0066113734307788998 0.00077306570171207861 0 -0.0069159448864483646 0.00055013770661515313 0 -0.0068684957089166854 0.00029163078774033002 0 -0.0065582052064524343 0.00044836616219527453 0 -0.0062426138991973799 0.00045678297359577906 0 -0.0065582052064524343 0.00044836616219527453 0 -0.0062642231379978425 0.0006168869638165283 0 -0.0062642231379978425 0.0006168869638165283 0 -0.0061398394144041588 0.0011484032305917875 0 -0.0066113734307788998 0.00077306570171207861 0 -0.0058501727252529721 0.00061690499339932107 0 -0.0062426138991973799 0.00045678297359577906 0 -0.0062642231379978425 0.0006168869638165283 0 -0.0058501727252529721 0.00061690499339932107 0 -0.0062642231379978425 0.0006168869638165283 0 -0.0061398394144041588 0.0011484032305917875 0 -0.0066113734307788998 0.00077306570171207861 0 -0.0068911915097189273 0.00093597042370559106 0 -0.0066256605290446243 0.0013632286607844391 0 -0.0061398394144041588 0.0011484032305917875 0 -0.0066113734307788998 0.00077306570171207861 0 -0.0066256605290446243 0.0013632286607844391 0 -0.0065582052064524343 0.00044836616219527453 0 -0.0062642231379978425 0.0006168869638165283 0 -0.0066113734307788998 0.00077306570171207861 0 -0.0068911915097189273 0.00093597042370559106 0 -0.0071173481450025394 0.00074666499135063197 0 -0.00711001590403962 0.0011531859362403833 0 -0.0069159448864483646 0.00055013770661515313 0 -0.0066113734307788998 0.00077306570171207861 0 -0.0068911915097189273 0.00093597042370559106 0 -0.0069159448864483646 0.00055013770661515313 0 -0.0068911915097189273 0.00093597042370559106 0 -0.0071173481450025394 0.00074666499135063197 0 -0.0073245870154841968 0.00054052333824016396 0 -0.0071173481450025394 0.00074666499135063197 0 -0.0074239940158327203 0.00078534189659543369 0 -0.0071173481450025394 0.00074666499135063197 0 -0.0074652567780235683 0.00092318096432078989 0 -0.0074239940158327203 0.00078534189659543369 0 -0.0078433368226855614 0.00091980539773820261 0 -0.005024505704217779 0.0016582546911222509 0 -0.0071173481450025394 0.00074666499135063197 0 -0.00711001590403962 0.0011531859362403833 0 -0.0074415094059807644 0.00092903266554529844 0 -0.0073245870154841968 0.00054052333824016396 0 -0.0074825192706505367 0.00077985277245797176 0 -0.0074239940158327203 0.00078534189659543369 0 -0.00711001590403962 0.0011531859362403833 0 -0.0073737698535132484 0.0014892587353677099 0 -0.0074415094059807644 0.00092903266554529844 0 -0.0068911915097189273 0.00093597042370559106 0 -0.00711001590403962 0.0011531859362403833 0 -0.0066256605290446243 0.0013632286607844391 0 -0.00711001590403962 0.0011531859362403833 0 -0.0069564392768499787 0.0015949221086748097 0 -0.0066256605290446243 0.0013632286607844391 0 -0.0069564392768499787 0.0015949221086748097 0 -0.0066795205471260385 0.0020117424908461762 0 -0.0066256605290446243 0.0013632286607844391 0 -0.00711001590403962 0.0011531859362403833 0 -0.0069564392768499787 0.0015949221086748097 0 -0.0073737698535132484 0.0014892587353677099 0 -0.0045782973433305483 0.0020252299107583723 0 -0.0045540938575972991 0.002236969278134862 0 -0.0072416447625742262 0.0020930460615029779 0 -0.0069564392768499787 0.0015949221086748097 0 -0.0073737698535132484 0.0014892587353677099 0 -0.0072416447625742262 0.0020930460615029779 0 -0.0069564392768499787 0.0015949221086748097 0 -0.0066795205471260385 0.0020117424908461762 0 -0.0066795205471260385 0.0020117424908461762 0 -0.0062822314096798205 0.0018127142054010668 0 -0.0066256605290446243 0.0013632286607844391 0 -0.006145239521541601 0.0023576862006735927 0 -0.0066795205471260385 0.0020117424908461762 0 -0.0062822314096798205 0.0018127142054010668 0 -0.006145239521541601 0.0023576862006735927 0 -0.0056567861852581574 0.001948343958687487 0 -0.0062822314096798205 0.0018127142054010668 0 -0.0056567861852581574 0.001948343958687487 0 -0.0061398394144041588 0.0011484032305917875 0 -0.0062822314096798205 0.0018127142054010668 0 -0.0061398394144041588 0.0011484032305917875 0 -0.0062822314096798205 0.0018127142054010668 0 -0.0066256605290446243 0.0013632286607844391 0 -0.00038520880000942638 0.0028147386711781697 0 -0.00042241068700611537 0.002267655727969109 0 -0.00099947771038669643 0.0024895247322317786 0 -0.00038520880000942638 0.0028147386711781697 0 -0.00099947771038669643 0.0024895247322317786 0 -0.0010900765324881609 0.003128789294723587 0 0.00031251764820565826 0.0024880252040326749 0 -0.00038520880000942638 0.0028147386711781697 0 -0.00042241068700611537 0.002267655727969109 0 -0.00087321698200035376 0.0019469192388522456 0 -0.00042241068700611537 0.002267655727969109 0 -0.00099947771038669643 0.0024895247322317786 0 -0.0013739665640704621 0.0020823792298033258 0 -0.00087321698200035376 0.0019469192388522456 0 -0.00099947771038669643 0.0024895247322317786 0 -0.0013739665640704621 0.0020823792298033258 0 -0.00099947771038669643 0.0024895247322317786 0 -0.0018460244171923299 0.002738705399846456 0 -0.0018955071496913544 0.0020464131971976857 0 -0.0013739665640704621 0.0020823792298033258 0 -0.0018460244171923299 0.002738705399846456 0 -0.00099947771038669643 0.0024895247322317786 0 -0.0018460244171923299 0.002738705399846456 0 -0.0010900765324881609 0.003128789294723587 0 -0.0023187362828913116 0.0016837012758859368 0 -0.005024505704217779 0.0016582546911222509 0 -0.0018460244171923299 0.002738705399846456 0 -0.0010900765324881609 0.003128789294723587 0 -0.001796489997694212 0.0034368496052034421 0 -0.0045540938575972991 0.002236969278134862 0 -0.005024505704217779 0.0016582546911222509 0 -0.0049577022332078727 0.00061346212950138428 0 -0.0049383291051251421 0.00083037972287047606 0 -0.0041980325170685451 0.00087249772213160372 0 -0.0074652567780235683 0.00092318096432078989 0 -0.0074820512742425601 0.00078155940415482498 0 -0.0074239940158327203 0.00078534189659543369 0 -0.005024505704217779 0.0016582546911222509 0 -0.0065183974015040908 0.00055977318809910146 0 -0.0065183974015040908 0.00055977318809910146 0 -0.0068096243355210443 0.00056619672113917456 0 -0.0065183974015040908 0.00055977318809910146 0 -0.0058394613238171239 0.00019333680660871944 0 -0.0041966504012128959 0.0002612055098686662 0 -0.0049577022332078727 0.00061346212950138428 0 -0.0041980325170685451 0.00087249772213160372 0 -0.0058394613238171239 0.00019333680660871944 0 -0.0054552906425142248 0.00021935368055052377 0 -0.0041980325170685451 0.00087249772213160372 0 -0.0036780453887805798 0.00041911410653605352 0 -0.0034911803930367863 0.00089870673430672609 0 -0.0034665413462394803 -6.0278981545190708e-05 0 -0.0041966504012128959 0.0002612055098686662 0 -0.0036780453887805798 0.00041911410653605352 0 -0.0041966504012128959 0.0002612055098686662 0 -0.0041980325170685451 0.00087249772213160372 0 -0.0036780453887805798 0.00041911410653605352 0 -0.0019942543627468295 0.0013915860980622237 0 -0.0023187362828913116 0.0016837012758859368 0 -0.0028855770180714396 0.00028852185415782219 0 -0.0034665413462394803 -6.0278981545190708e-05 0 -0.0036780453887805798 0.00041911410653605352 0 -0.0028855770180714396 0.00028852185415782219 0 -0.0036780453887805798 0.00041911410653605352 0 -0.0034911803930367863 0.00089870673430672609 0 -0.0073133093257955854 -0.00034032463152892136 0 -0.0073970865500687264 -0.00046478444965900555 0 -0.0075141071756958779 -0.00023237608406845444 0 -0.0075581988102601675 -0.00041529269768665351 0 -0.0073970865500687264 -0.00046478444965900555 0 -0.0075141071756958779 -0.00023237608406845444 0 -0.0073133093257955854 -0.00034032463152892136 0 -0.0073485025357411075 -0.00018540553680989138 0 -0.0075141071756958779 -0.00023237608406845444 0 -0.0077247550051276967 -0.00040949479615982388 0 -0.0076183946570689085 -0.00029158429324815368 0 -0.0077218719362198386 -0.00024223613285418908 0 -0.0073245870154841968 0.00054052333824016396 0 -0.0074825192706505367 0.00077985277245797176 0 -0.0075486072385653686 0.00038742066331117132 0 -0.0065183974015040908 0.00055977318809910146 0 -0.007722555032914866 -2.5033102523953495e-05 0 -0.0077247550051276967 -0.00040949479615982388 0 -0.0075581988102601675 -0.00041529269768665351 0 -0.0076183946570689085 -0.00029158429324815368 0 -0.0075581988102601675 -0.00041529269768665351 0 -0.0075141071756958779 -0.00023237608406845444 0 -0.0076183946570689085 -0.00029158429324815368 0 -0.0075141071756958779 -0.00023237608406845444 0 -0.0076183946570689085 -0.00029158429324815368 0 -0.0076114609979807115 -0.0001434523830761003 0 -0.0076183946570689085 -0.00029158429324815368 0 -0.0076114609979807115 -0.0001434523830761003 0 -0.0077218719362198386 -0.00024223613285418908 0 -0.0076114609979807115 -0.0001434523830761003 0 -0.0077218719362198386 -0.00024223613285418908 0 -0.0076405575645803799 9.6821865532287752e-06 0 -0.007722555032914866 -2.5033102523953495e-05 0 -0.0076254127559631834 4.6456217140322003e-05 0 -0.0073793525716680684 7.4371862368948071e-05 0 -0.0075486072385653686 0.00038742066331117132 0 -0.0076405575645803799 9.6821865532287752e-06 0 -0.0073793525716680684 7.4371862368948071e-05 0 -0.0076405575645803799 9.6821865532287752e-06 0 -0.0076010344174592594 2.4162060458929299e-06 0 -0.0076114609979807115 -0.0001434523830761003 0 -0.0076405575645803799 9.6821865532287752e-06 0 -0.0076490676403463374 -6.8370578221137011e-05 0 -0.0075141071756958779 -0.00023237608406845444 0 -0.0076114609979807115 -0.0001434523830761003 0 -0.0076490676403463374 -6.8370578221137011e-05 0 -0.0076405575645803799 9.6821865532287752e-06 0 -0.0076490676403463374 -6.8370578221137011e-05 0 -0.0076010344174592594 2.4162060458929299e-06 0 -0.0076490676403463374 -6.8370578221137011e-05 0 -0.0076010344174592594 2.4162060458929299e-06 0 -0.0077457918536874585 -3.2296778502750272e-05 0 -0.0073485025357411075 -0.00018540553680989138 0 -0.0075141071756958779 -0.00023237608406845444 0 -0.0075261286142347724 -0.00011437529349528145 0 -0.0075141071756958779 -0.00023237608406845444 0 -0.0076490676403463374 -6.8370578221137011e-05 0 -0.0075261286142347724 -0.00011437529349528145 0 -0.0076490676403463374 -6.8370578221137011e-05 0 -0.0075261286142347724 -0.00011437529349528145 0 -0.0076695832677140547 -5.0750090301571722e-05 0 -0.0075261286142347724 -0.00011437529349528145 0 -0.0076695832677140547 -5.0750090301571722e-05 0 -0.007393911947876676 -4.6879589456591275e-05 0 -0.0076695832677140547 -5.0750090301571722e-05 0 -0.0078776180749054233 -4.9966403743731673e-05 0 -0.0077207560121371555 0.00011710447516824878 0 -0.0076695832677140547 -5.0750090301571722e-05 0 -0.0074704722711575657 9.3156242337602175e-05 0 -0.007393911947876676 -4.6879589456591275e-05 0 -0.0076695832677140547 -5.0750090301571722e-05 0 -0.0077207560121371555 0.00011710447516824878 0 -0.0074704722711575657 9.3156242337602175e-05 0 -0.0077457918536874585 -3.2296778502750272e-05 0 -0.0077741505345687916 -4.895454443363578e-05 0 -0.0074761643415133085 6.9284691293132751e-06 0 -0.0076010344174592594 2.4162060458929299e-06 0 -0.0077457918536874585 -3.2296778502750272e-05 0 -0.0074761643415133085 6.9284691293132751e-06 0 -0.0076490676403463374 -6.8370578221137011e-05 0 -0.0076695832677140547 -5.0750090301571722e-05 0 -0.0077457918536874585 -3.2296778502750272e-05 0 -0.0076695832677140547 -5.0750090301571722e-05 0 -0.0077457918536874585 -3.2296778502750272e-05 0 -0.0078776180749054233 -4.9966403743731673e-05 0 -0.0077457918536874585 -3.2296778502750272e-05 0 -0.0078776180749054233 -4.9966403743731673e-05 0 -0.0077741505345687916 -4.895454443363578e-05 0 -0.0078776180749054233 -4.9966403743731673e-05 0 -0.0077741505345687916 -4.895454443363578e-05 0 -0.0081078360323375495 -0.00010107429920398155 0 -0.0081078360323375495 -0.00010107429920398155 0 -0.0086647025746178444 8.3240619284892379e-05 0 -0.0089922029130583385 -0.00012683639628727797 0 -0.0077741505345687916 -4.895454443363578e-05 0 -0.0081078360323375495 -0.00010107429920398155 0 -0.0075528121318694666 -0.00015006382000303032 0 -0.0081115941400659308 -0.00010966407622322422 0 -0.0082520033613427239 -0.00011518883155985831 0 -0.0078776180749054233 -4.9966403743731673e-05 0 -0.0081078360323375495 -0.00010107429920398155 0 -0.0080182589471884634 0.00022561976886561187 0 -0.0082410702998276103 0.00018142926399967378 0 -0.0080182589471884634 0.00022561976886561187 0 -0.0081433370857658324 0.00036895102392260783 0 -0.0081078360323375495 -0.00010107429920398155 0 -0.0082410702998276103 0.00018142926399967378 0 -0.0080182589471884634 0.00022561976886561187 0 -0.0082410702998276103 0.00018142926399967378 0 -0.0086647025746178444 8.3240619284892379e-05 0 -0.0084078722584607444 0.00033281242745033743 0 -0.0081078360323375495 -0.00010107429920398155 0 -0.0082410702998276103 0.00018142926399967378 0 -0.0086647025746178444 8.3240619284892379e-05 0 -0.0077207560121371555 0.00011710447516824878 0 -0.0074704722711575657 9.3156242337602175e-05 0 -0.0074638489021056813 0.00029049619242166487 0 -0.0077207560121371555 0.00011710447516824878 0 -0.0077045660586360278 0.00040732045135648021 0 -0.0074638489021056813 0.00029049619242166487 0 -0.0077207560121371555 0.00011710447516824878 0 -0.0080182589471884634 0.00022561976886561187 0 -0.0077045660586360278 0.00040732045135648021 0 -0.0078776180749054233 -4.9966403743731673e-05 0 -0.0077207560121371555 0.00011710447516824878 0 -0.0080182589471884634 0.00022561976886561187 0 -0.0080182589471884634 0.00022561976886561187 0 -0.0077045660586360278 0.00040732045135648021 0 -0.0079266310505059032 0.00069000187048969203 0 -0.0081053881262460048 0.0003388627210880487 0 -0.0080045312155037473 0.00043308350795105699 0 -0.0077045660586360278 0.00040732045135648021 0 -0.007625294591533935 0.000829365924204828 0 -0.0074835844538268239 0.00050080325655902963 0 -0.0077045660586360278 0.00040732045135648021 0 -0.0074835844538268239 0.00050080325655902963 0 -0.0074638489021056813 0.00029049619242166487 0 -0.0077045660586360278 0.00040732045135648021 0 -0.007625294591533935 0.000829365924204828 0 -0.0079266310505059032 0.00069000187048969203 0 -0.007625294591533935 0.000829365924204828 0 -0.0080333755653403272 0.0011432236387833778 0 -0.0079266310505059032 0.00069000187048969203 0 -0.0076472082032586495 0.0013415005311933326 0 -0.0080333755653403272 0.0011432236387833778 0 -0.0078996217073798811 0.0015831978932166182 0 -0.007625294591533935 0.000829365924204828 0 -0.0076472082032586495 0.0013415005311933326 0 -0.0080333755653403272 0.0011432236387833778 0 -0.0080333755653403272 0.0011432236387833778 0 -0.0083492682718628985 0.00087031587730486057 0 -0.0085295863329794223 0.0014055963652173523 0 -0.0080333755653403272 0.0011432236387833778 0 -0.0085295863329794223 0.0014055963652173523 0 -0.0078996217073798811 0.0015831978932166182 0 -0.0080182589471884634 0.00022561976886561187 0 -0.0079266310505059032 0.00069000187048969203 0 -0.0083492682718628985 0.00087031587730486057 0 -0.0080333755653403272 0.0011432236387833778 0 -0.0079266310505059032 0.00069000187048969203 0 -0.0083492682718628985 0.00087031587730486057 0 -0.0082410702998276103 0.00018142926399967378 0 -0.0084078722584607444 0.00033281242745033743 0 -0.0081433370857658324 0.00036895102392260783 0 -0.0084078722584607444 0.00033281242745033743 0 -0.0081433370857658324 0.00036895102392260783 0 -0.0083548437115205081 0.00055997536990147403 0 -0.0086647025746178444 8.3240619284892379e-05 0 -0.0084078722584607444 0.00033281242745033743 0 -0.0089101284718501577 0.00029807137636760897 0 -0.008173713531029362 5.5682023423547024e-05 0 -0.010290611777814226 0.0012490965729877073 0 -0.0084078722584607444 0.00033281242745033743 0 -0.0086277369562153053 0.00083990215278032811 0 -0.0089101284718501577 0.00029807137636760897 0 -0.0084078722584607444 0.00033281242745033743 0 -0.0086051854069759664 0.00072990074018581652 0 -0.0083548437115205081 0.00055997536990147403 0 -0.0081433370857658324 0.00036895102392260783 0 -0.0083548437115205081 0.00055997536990147403 0 -0.0082764677476090103 0.00081784253178660232 0 -0.0080045312155037473 0.00043308350795105699 0 -0.010895206554844406 0.001590418953394825 0 -0.010290611777814226 0.0012490965729877073 0 -0.010895206554844406 0.001590418953394825 0 -0.0086051854069759664 0.00072990074018581652 0 -0.0083548437115205081 0.00055997536990147403 0 -0.0082764677476090103 0.00081784253178660232 0 -0.013644134335120369 0.0015850398051716081 0 -0.01353360815981706 0.0011812921769459779 0 -0.013869313792654157 0.0012274760217980546 0 -0.013358824955923509 0.0025714639268929538 0 -0.013024142955225549 0.0022911218726041874 0 -0.013238678363154318 0.0019497947928984489 0 -0.010895206554844406 0.001590418953394825 0 -0.01358963529557875 0.0017497177528560215 0 -0.012903624033397211 0.0026974252313952799 0 -0.013024142955225549 0.0022911218726041874 0 -0.012573106406769664 0.0019287092055577657 0 -0.010112487483923474 0.00047304917597934114 0 -0.010176922996133483 0.00027544117625157385 0 -0.0099497667135490606 0.00037964023001539545 0 -0.010290611777814226 0.0012490965729877073 0 -0.011565763828217029 0.0011973828137495873 0 -0.012903624033397211 0.0026974252313952799 0 -0.013358824955923509 0.0025714639268929538 0 -0.013024142955225549 0.0022911218726041874 0 -0.013024142955225549 0.0022911218726041874 0 -0.013238678363154318 0.0019497947928984489 0 -0.012573106406769664 0.0019287092055577657 0 -0.013238678363154318 0.0019497947928984489 0 -0.012573106406769664 0.0019287092055577657 0 -0.013134459472438778 0.0012264816016290024 0 -0.01358963529557875 0.0017497177528560215 0 -0.013205712349258828 0.0009225491786364388 0 -0.01353360815981706 0.0011812921769459779 0 -0.013869313792654157 0.0012274760217980546 0 -0.013759068161754843 0.00089819550952810858 0 -0.013869313792654157 0.0012274760217980546 0 -0.014173983689820381 0.00094713172301797051 0 -0.014205807634716943 0.0013901696104522631 0 -0.013869313792654157 0.0012274760217980546 0 -0.014173983689820381 0.00094713172301797051 0 -0.013759068161754843 0.00089819550952810858 0 -0.014173983689820381 0.00094713172301797051 0 -0.014421907021453982 0.0010239116840522792 0 -0.014205807634716943 0.0013901696104522631 0 -0.010895206554844406 0.001590418953394825 0 -0.011135198870685644 0.0014481837399783588 0 -0.013644134335120369 0.0015850398051716081 0 -0.013869313792654157 0.0012274760217980546 0 -0.014205807634716943 0.0013901696104522631 0 -0.010123516671009294 0.00034688349392325823 0 -0.0098815999753755299 0.00041238211843880074 0 -0.010073638581238198 0.00036331406475404414 0 -0.010123516671009294 0.00034688349392325823 0 -0.010110297352978435 0.00029842306024233486 0 -0.010073638581238198 0.00036331406475404414 0 -0.010110297352978435 0.00029842306024233486 0 -0.010073638581238198 0.00036331406475404414 0 -0.010002451849426129 0.0003313197762243147 0 -0.010123516671009294 0.00034688349392325823 0 -0.010110297352978435 0.00029842306024233486 0 -0.010238282833591218 0.00021041172143558789 0 -0.010110297352978435 0.00029842306024233486 0 -0.010011703609712765 0.00015919690812017927 0 -0.010238282833591218 0.00021041172143558789 0 -0.010123516671009294 0.00034688349392325823 0 -0.010320001241396967 0.0002620214361553431 0 -0.010238282833591218 0.00021041172143558789 0 -0.010123516671009294 0.00034688349392325823 0 -0.010320001241396967 0.0002620214361553431 0 -0.0099995633924488854 0.0003723173061026526 0 -0.010320001241396967 0.0002620214361553431 0 -0.010176922996133483 0.00027544117625157385 0 -0.0099995633924488854 0.0003723173061026526 0 -0.0099497667135490606 0.00037964023001539545 0 -0.0099995633924488854 0.0003723173061026526 0 -0.0095652104234163256 0.00047211061196028776 0 -0.010176922996133483 0.00027544117625157385 0 -0.0099497667135490606 0.00037964023001539545 0 -0.0099995633924488854 0.0003723173061026526 0 -0.010123516671009294 0.00034688349392325823 0 -0.0099995633924488854 0.0003723173061026526 0 -0.0098815999753755299 0.00041238211843880074 0 -0.0099995633924488854 0.0003723173061026526 0 -0.0098815999753755299 0.00041238211843880074 0 -0.0095652104234163256 0.00047211061196028776 0 -0.0086277369562153053 0.00083990215278032811 0 -0.0095652104234163256 0.00047211061196028776 0 -0.0089101284718501577 0.00029807137636760897 0 -0.010290611777814226 0.0012490965729877073 0 -0.009241707773787973 0.00044642076716569908 0 -0.010112487483923474 0.00047304917597934114 0 -0.0099497667135490606 0.00037964023001539545 0 -0.0095652104234163256 0.00047211061196028776 0 -0.0086647025746178444 8.3240619284892379e-05 0 -0.0089101284718501577 0.00029807137636760897 0 -0.00924013535581736 -0.00010319342472204337 0 -0.0095652104234163256 0.00047211061196028776 0 -0.0089101284718501577 0.00029807137636760897 0 -0.00924013535581736 -0.00010319342472204337 0 -0.0098815999753755299 0.00041238211843880074 0 -0.0095652104234163256 0.00047211061196028776 0 -0.00924013535581736 -0.00010319342472204337 0 -0.0098815999753755299 0.00041238211843880074 0 -0.00924013535581736 -0.00010319342472204337 0 -0.010018165891253586 0.00016331113684816244 0 -0.0092221362730233441 -0.00014809616954098521 0 -0.0091664661577591875 -0.00027493573671731413 0 -0.0098815999753755299 0.00041238211843880074 0 -0.010018165891253586 0.00016331113684816244 0 -0.010073638581238198 0.00036331406475404414 0 -0.010018165891253586 0.00016331113684816244 0 -0.010073638581238198 0.00036331406475404414 0 -0.010036705339895754 0.00037528744207645679 0 -0.0091664661577591875 -0.00027493573671731413 0 -0.0088222589806287288 -0.00028632427084275818 0 -0.0083899263783145678 -0.00075528604973580887 0 -0.0079388824266471165 -0.00034184621131958339 0 -0.0075792252411219186 -0.0009639465850522365 0 -0.00924013535581736 -0.00010319342472204337 0 -0.0083899263783145678 -0.00075528604973580887 0 -0.008727920027256357 -0.00015347945557587736 0 -0.0083899263783145678 -0.00075528604973580887 0 -0.0079388824266471165 -0.00034184621131958339 0 -0.008727920027256357 -0.00015347945557587736 0 -0.0079388824266471165 -0.00034184621131958339 0 -0.008727920027256357 -0.00015347945557587736 0 -0.0085200610809451696 0.00020034705345944759 0 -0.0079388824266471165 -0.00034184621131958339 0 -0.0085200610809451696 0.00020034705345944759 0 -0.007423549500279028 0.00013091891897488287 0 -0.0086647025746178444 8.3240619284892379e-05 0 -0.00924013535581736 -0.00010319342472204337 0 -0.0089922029130583385 -0.00012683639628727797 0 -0.00924013535581736 -0.00010319342472204337 0 -0.008727920027256357 -0.00015347945557587736 0 -0.0089922029130583385 -0.00012683639628727797 0 -0.008727920027256357 -0.00015347945557587736 0 -0.0085200610809451696 0.00020034705345944759 0 -0.0089922029130583385 -0.00012683639628727797 0 -0.0079308453246756117 7.9028632928736416e-05 0 -0.0082520033613427239 -0.00011518883155985831 0 -0.0077741505345687916 -4.895454443363578e-05 0 -0.0075528121318694666 -0.00015006382000303032 0 -0.0074761643415133085 6.9284691293132751e-06 0 -0.007350239191872103 1.0987975583635177e-06 0 -0.0075528121318694666 -0.00015006382000303032 0 -0.0074761643415133085 6.9284691293132751e-06 0 -0.007350239191872103 1.0987975583635177e-06 0 -0.0074761643415133085 6.9284691293132751e-06 0 -0.0073102974155451802 8.9492197289293073e-05 0 -0.007350239191872103 1.0987975583635177e-06 0 -0.0073559823222835953 0.00012625713956941549 0 -0.007423549500279028 0.00013091891897488287 0 -0.0079308453246756117 7.9028632928736416e-05 0 -0.0074694093382590594 0.00013637472798387276 0 -0.007350239191872103 1.0987975583635177e-06 0 -0.0073102974155451802 8.9492197289293073e-05 0 -0.0073559823222835953 0.00012625713956941549 0 -0.0073356998165798144 0.00013292410333461284 0 -0.0073102974155451802 8.9492197289293073e-05 0 -0.0073559823222835953 0.00012625713956941549 0 -0.0073559823222835953 0.00012625713956941549 0 -0.007423549500279028 0.00013091891897488287 0 -0.0072073344176622834 0.00031833765409270337 0 -0.0073356998165798144 0.00013292410333461284 0 -0.0073559823222835953 0.00012625713956941549 0 -0.0072073344176622834 0.00031833765409270337 0 -0.007423549500279028 0.00013091891897488287 0 -0.007006080005785946 0.00013124750357452081 0 -0.0072073344176622834 0.00031833765409270337 0 -0.007423549500279028 0.00013091891897488287 0 -0.007006080005785946 0.00013124750357452081 0 -0.006867050103938315 -0.00021676385195585791 0 -0.0067742874983629693 0.00023251650172582979 0 -0.0065506745076933581 0.0002513366522926678 0 -0.007006080005785946 0.00013124750357452081 0 -0.0072073344176622834 0.00031833765409270337 0 -0.0065396681111988845 0.00026374536038659927 0 -0.0064181865798120744 0.00025990143210309911 0 -0.0063586649795502647 0.00017200650975994684 0 -0.0065396681111988845 0.00026374536038659927 0 -0.0063446329970620633 0.00029161612796433278 0 -0.0065396681111988845 0.00026374536038659927 0 -0.0063499410406499986 3.5559191931962913e-05 0 -0.0063446329970620633 0.00029161612796433278 0 -0.0064181865798120744 0.00025990143210309911 0 -0.0065396681111988845 0.00026374536038659927 0 -0.0052643703212890258 0.00030776639900237813 0 -0.0052158328695980968 9.8883100555634317e-05 0 -0.0040614519748694315 0.0002718339009884256 0 -0.0040454790128279213 0.00017084533833225732 0 -0.0040327389763727501 0.00026789625815925656 0 -0.0065396681111988845 0.00026374536038659927 0 -0.0063499410406499986 3.5559191931962913e-05 0 -0.0066207902777961104 -1.7484591114663413e-05 0 -0.007006080005785946 0.00013124750357452081 0 -0.0065396681111988845 0.00026374536038659927 0 -0.0066207902777961104 -1.7484591114663413e-05 0 -0.007006080005785946 0.00013124750357452081 0 -0.0066207902777961104 -1.7484591114663413e-05 0 -0.006867050103938315 -0.00021676385195585791 0 -0.0066207902777961104 -1.7484591114663413e-05 0 -0.006867050103938315 -0.00021676385195585791 0 -0.0063637829023631513 -0.00049135356029218096 0 -0.0063499410406499986 3.5559191931962913e-05 0 -0.0066207902777961104 -1.7484591114663413e-05 0 -0.0063637829023631513 -0.00049135356029218096 0 -0.0052158328695980968 9.8883100555634317e-05 0 -0.0050281549311914997 -0.00021003170984181468 0 -0.006867050103938315 -0.00021676385195585791 0 -0.0063637829023631513 -0.00049135356029218096 0 -0.0066475211767677714 -0.0007618333257804849 0 -0.006867050103938315 -0.00021676385195585791 0 -0.0071909238536446481 -0.00052586457474938818 0 -0.0066475211767677714 -0.0007618333257804849 0 -0.0079388824266471165 -0.00034184621131958339 0 -0.0071909238536446481 -0.00052586457474938818 0 -0.0075792252411219186 -0.0009639465850522365 0 -0.0079388824266471165 -0.00034184621131958339 0 -0.007423549500279028 0.00013091891897488287 0 -0.0071909238536446481 -0.00052586457474938818 0 -0.007423549500279028 0.00013091891897488287 0 -0.006867050103938315 -0.00021676385195585791 0 -0.0071909238536446481 -0.00052586457474938818 0 -0.0040136196918348745 0.00019643050246767593 0 -0.0039750130388800289 8.5362567071918408e-05 0 -0.0039624676993763241 0.00013715396719028041 0 -0.0040136196918348745 0.00019643050246767593 0 -0.0039624676993763241 0.00013715396719028041 0 -0.0039887833626272608 0.00016952483044866179 0 -0.0040136196918348745 0.00019643050246767593 0 -0.0039750130388800289 8.5362567071918408e-05 0 -0.004054192067394229 8.4976219011506339e-05 0 -0.0040046569878426164 3.495748312670967e-05 0 -0.004054192067394229 8.4976219011506339e-05 0 -0.0040651164984727506 2.6129835854699247e-05 0 -0.0040046569878426164 3.495748312670967e-05 0 -0.0039750130388800289 8.5362567071918408e-05 0 -0.004054192067394229 8.4976219011506339e-05 0 -0.0039750130388800289 8.5362567071918408e-05 0 -0.0039393859378977136 8.6294675240683149e-05 0 -0.0039624676993763241 0.00013715396719028041 0 -0.0039251347782976445 5.3704708159482673e-05 0 -0.0039750130388800289 8.5362567071918408e-05 0 -0.0039393859378977136 8.6294675240683149e-05 0 -0.0039393859378977136 8.6294675240683149e-05 0 -0.0039334563172326326 0.0001070495950651521 0 -0.0039118606701011981 7.3845510901583323e-05 0 -0.0039251347782976445 5.3704708159482673e-05 0 -0.0039393859378977136 8.6294675240683149e-05 0 -0.0039118606701011981 7.3845510901583323e-05 0 -0.0039393859378977136 8.6294675240683149e-05 0 -0.0039624676993763241 0.00013715396719028041 0 -0.0039334563172326326 0.0001070495950651521 0 -0.0039624676993763241 0.00013715396719028041 0 -0.0039721652977073177 0.00015314394680724177 0 -0.0039887833626272608 0.00016952483044866179 0 -0.0039624676993763241 0.00013715396719028041 0 -0.0039462493022795657 0.00013764152711271337 0 -0.0039334563172326326 0.0001070495950651521 0 -0.0039624676993763241 0.00013715396719028041 0 -0.0039721652977073177 0.00015314394680724177 0 -0.0039462493022795657 0.00013764152711271337 0 -0.0039721652977073177 0.00015314394680724177 0 -0.0039462493022795657 0.00013764152711271337 0 -0.0039818553667182351 0.00015289514242987999 0 -0.0039462493022795657 0.00013764152711271337 0 -0.0039795914978477927 0.00016116159636235197 0 -0.0039818553667182351 0.00015289514242987999 0 -0.0039462493022795657 0.00013764152711271337 0 -0.0039207808784747864 0.00012062059456244388 0 -0.0039795914978477927 0.00016116159636235197 0 -0.0039462493022795657 0.00013764152711271337 0 -0.0039334563172326326 0.0001070495950651521 0 -0.0039094917162560252 9.4644518045256619e-05 0 -0.0038816697427809222 6.1945730116319105e-05 0 -0.0039118606701011981 7.3845510901583323e-05 0 -0.0039094917162560252 9.4644518045256619e-05 0 -0.0039334563172326326 0.0001070495950651521 0 -0.0039118606701011981 7.3845510901583323e-05 0 -0.0039094917162560252 9.4644518045256619e-05 0 -0.0039094917162560252 9.4644518045256619e-05 0 -0.0039058941768491664 0.00010497128311136434 0 -0.0038753866863369978 7.4902053460075094e-05 0 -0.0038816697427809222 6.1945730116319105e-05 0 -0.0039094917162560252 9.4644518045256619e-05 0 -0.0038753866863369978 7.4902053460075094e-05 0 -0.0039462493022795657 0.00013764152711271337 0 -0.0039207808784747864 0.00012062059456244388 0 -0.0039058941768491664 0.00010497128311136434 0 -0.0039462493022795657 0.00013764152711271337 0 -0.0039094917162560252 9.4644518045256619e-05 0 -0.0039058941768491664 0.00010497128311136434 0 -0.0039207808784747864 0.00012062059456244388 0 -0.0038371469107327536 7.3961819871748853e-05 0 -0.0039795914978477927 0.00016116159636235197 0 -0.0039207808784747864 0.00012062059456244388 0 -0.0039058941768491664 0.00010497128311136434 0 -0.0038371469107327536 7.3961819871748853e-05 0 -0.003836780814086436 0.00014279311885327146 0 -0.0039999614444681236 0.00016886621783656085 0 -0.0039058941768491664 0.00010497128311136434 0 -0.0038753866863369978 7.4902053460075094e-05 0 -0.0038371469107327536 7.3961819871748853e-05 0 -0.0040454790128279213 0.00017084533833225732 0 -0.0040327389763727501 0.00026789625815925656 0 -0.0039795914978477927 0.00016116159636235197 0 -0.0040454790128279213 0.00017084533833225732 0 -0.0040722792619799211 0.00011676312825346707 0 -0.0040176122387107953 0.00013852713869793004 0 -0.0040454790128279213 0.00017084533833225732 0 -0.0039795914978477927 0.00016116159636235197 0 -0.0040176122387107953 0.00013852713869793004 0 -0.0039795914978477927 0.00016116159636235197 0 -0.0040176122387107953 0.00013852713869793004 0 -0.0039818553667182351 0.00015289514242987999 0 -0.0040722792619799211 0.00011676312825346707 0 -0.004030645668787974 0.00011856305849002482 0 -0.0040658118002893685 9.0181194070163771e-05 0 -0.0040722792619799211 0.00011676312825346707 0 -0.0040176122387107953 0.00013852713869793004 0 -0.004030645668787974 0.00011856305849002482 0 -0.0040176122387107953 0.00013852713869793004 0 -0.004030645668787974 0.00011856305849002482 0 -0.0040063921101037439 0.00013688337791263556 0 -0.004030645668787974 0.00011856305849002482 0 -0.0040063921101037439 0.00013688337791263556 0 -0.0040082366244711398 0.0001278318103389782 0 -0.0040063921101037439 0.00013688337791263556 0 -0.0040082366244711398 0.0001278318103389782 0 -0.0039896122506786107 0.00015110989872473772 0 -0.0040063921101037439 0.00013688337791263556 0 -0.0039896122506786107 0.00015110989872473772 0 -0.0039818553667182351 0.00015289514242987999 0 -0.0040176122387107953 0.00013852713869793004 0 -0.0040063921101037439 0.00013688337791263556 0 -0.0039818553667182351 0.00015289514242987999 0 -0.0039721652977073177 0.00015314394680724177 0 -0.0039896122506786107 0.00015110989872473772 0 -0.0039818553667182351 0.00015289514242987999 0 -0.0039721652977073177 0.00015314394680724177 0 -0.0039896122506786107 0.00015110989872473772 0 -0.0039887833626272608 0.00016952483044866179 0 -0.0039887833626272608 0.00016952483044866179 0 -0.0039949354469840763 0.0001478015527987628 0 -0.0039888171199672397 0.00016083802206322151 0 -0.0039896122506786107 0.00015110989872473772 0 -0.0039887833626272608 0.00016952483044866179 0 -0.0039949354469840763 0.0001478015527987628 0 -0.0040082366244711398 0.0001278318103389782 0 -0.0039949354469840763 0.0001478015527987628 0 -0.0039988313736223843 0.0001282683591334096 0 -0.0040082366244711398 0.0001278318103389782 0 -0.0039896122506786107 0.00015110989872473772 0 -0.0039949354469840763 0.0001478015527987628 0 -0.0039949354469840763 0.0001478015527987628 0 -0.0039942878747421242 0.00014319533338744001 0 -0.0039988313736223843 0.0001282683591334096 0 -0.0038644484563879976 0.00013964222715835695 0 -0.0044789366315930732 0.0002245800382668291 0 -0.0056844994928683442 0.00050750180227144431 0 -0.0056913684196232706 0.00050360827452453104 0 -0.0056847545029831059 0.000505679011323928 0 -0.0063435720769370344 0.00073293244154369836 0 -0.006897134736303389 0.00051086679003685984 0 -0.0044789366315930732 0.0002245800382668291 0 -0.0063435720769370344 0.00073293244154369836 0 -0.0039199025737348125 0.00026532499325992591 0 -0.0044789366315930732 0.0002245800382668291 0 -0.0040136196918348745 0.00019643050246767593 0 -0.0039887833626272608 0.00016952483044866179 0 -0.0039888171199672397 0.00016083802206322151 0 -0.0040136196918348745 0.00019643050246767593 0 -0.003944001009266819 0.00047739330478998177 0 -0.0041490909458018806 0.00050626841297188763 0 -0.0077113540912735678 0.0002847644824325812 0 -0.0078890013589037015 0.00033347380224109092 0 -0.0077673948901685061 0.00014248987715328714 0 -0.0077113540912735678 0.0002847644824325812 0 -0.0077304088987407383 0.00042237520435227209 0 -0.0078890013589037015 0.00033347380224109092 0 -0.0077304088987407383 0.00042237520435227209 0 -0.0078285973201867951 0.00057423928195202882 0 -0.007608012600052067 0.00064673369578706862 0 -0.0077304088987407383 0.00042237520435227209 0 -0.0078285973201867951 0.00057423928195202882 0 -0.0078890013589037015 0.00033347380224109092 0 -0.0063435720769370344 0.00073293244154369836 0 -0.0079654067236387561 0.00055710595893217977 0 -0.0063435720769370344 0.00073293244154369836 0 -0.0062281992529103257 0.00074883321554926829 0 -0.0077179693545728605 0.0014179235243888283 0 -0.0082976907429794505 0.00088705623498386754 0 -0.0078799098390682134 0.00077571312691476139 0 -0.0077179693545728605 0.0014179235243888283 0 -0.0082976907429794505 0.00088705623498386754 0 -0.0086489266050916759 0.001131085829803915 0 -0.0040082366244711398 0.0001278318103389782 0 -0.0039988313736223843 0.0001282683591334096 0 -0.0040300215083133766 9.2170872600259716e-05 0 -0.0082976907429794505 0.00088705623498386754 0 -0.0078799098390682134 0.00077571312691476139 0 -0.0084336353720053797 0.00050078218125130798 0 -0.0082976907429794505 0.00088705623498386754 0 -0.0088693590731761633 0.00077454630178382827 0 -0.0084336353720053797 0.00050078218125130798 0 -0.0088693590731761633 0.00077454630178382827 0 -0.0089695667797393165 0.00047539390426739616 0 -0.0084336353720053797 0.00050078218125130798 0 -0.0082976907429794505 0.00088705623498386754 0 -0.0088693590731761633 0.00077454630178382827 0 -0.0086489266050916759 0.001131085829803915 0 -0.004030645668787974 0.00011856305849002482 0 -0.0040082366244711398 0.0001278318103389782 0 -0.0040300215083133766 9.2170872600259716e-05 0 -0.004030645668787974 0.00011856305849002482 0 -0.0040300215083133766 9.2170872600259716e-05 0 -0.0040658118002893685 9.0181194070163771e-05 0 -0.0040300215083133766 9.2170872600259716e-05 0 -0.0040658118002893685 9.0181194070163771e-05 0 -0.0041130341948088329 5.2302994940084633e-05 0 -0.0062281992529103257 0.00074883321554926829 0 -0.0067569159117552386 -0.00038723912010340937 0 -0.0088693590731761633 0.00077454630178382827 0 -0.0092200522526856739 0.00065517455896551766 0 -0.0095080940976819146 0.00082491444143173909 0 -0.0088693590731761633 0.00077454630178382827 0 -0.0086489266050916759 0.001131085829803915 0 -0.0095080940976819146 0.00082491444143173909 0 -0.0088693590731761633 0.00077454630178382827 0 -0.0092200522526856739 0.00065517455896551766 0 -0.0089695667797393165 0.00047539390426739616 0 -0.0092200522526856739 0.00065517455896551766 0 -0.0092406044582682891 0.00034560734573080347 0 -0.0093510666006425096 0.00043013497046051868 0 -0.0092200522526856739 0.00065517455896551766 0 -0.0092406044582682891 0.00034560734573080347 0 -0.0089695667797393165 0.00047539390426739616 0 -0.0092406044582682891 0.00034560734573080347 0 -0.0089695667797393165 0.00047539390426739616 0 -0.0090965211219854476 0.00029047543221565194 0 -0.0090965211219854476 0.00029047543221565194 0 -0.0089658792549505671 0.00019470692325263583 0 -0.0092564716759942801 0.0001273229339808659 0 -0.0089695667797393165 0.00047539390426739616 0 -0.0090965211219854476 0.00029047543221565194 0 -0.0089658792549505671 0.00019470692325263583 0 -0.0092406044582682891 0.00034560734573080347 0 -0.0090965211219854476 0.00029047543221565194 0 -0.0092564716759942801 0.0001273229339808659 0 -0.0092406044582682891 0.00034560734573080347 0 -0.0092564716759942801 0.0001273229339808659 0 -0.0094601158392905067 6.5461364540903352e-05 0 -0.0092279101279296952 0.00010514195360055396 0 -0.0090198305758364822 -2.2331282586615481e-06 0 -0.0092564716759942801 0.0001273229339808659 0 -0.0092556296726385486 1.2662793664815631e-05 0 -0.0091705837537142728 3.0263502174791908e-05 0 -0.0089658792549505671 0.00019470692325263583 0 -0.0092564716759942801 0.0001273229339808659 0 -0.0088237747193944706 -6.9649678137815471e-05 0 -0.0092564716759942801 0.0001273229339808659 0 -0.009362466386931223 -9.9709820874053779e-06 0 -0.0092556296726385486 1.2662793664815631e-05 0 -0.009362466386931223 -9.9709820874053779e-06 0 -0.0092556296726385486 1.2662793664815631e-05 0 -0.0093159300394427217 -7.5604864919363496e-05 0 -0.0092556296726385486 1.2662793664815631e-05 0 -0.0091705837537142728 3.0263502174791908e-05 0 -0.0092214046212450891 -5.5069331373040889e-05 0 -0.0088237747193944706 -6.9649678137815471e-05 0 -0.0087195049398387653 0.00012239579964320156 0 -0.0084369711415852398 -0.00024797052968250074 0 -0.0090198305758364822 -2.2331282586615481e-06 0 -0.0086815164358000838 -0.00033940442296534723 0 -0.0089658792549505671 0.00019470692325263583 0 -0.0088237747193944706 -6.9649678137815471e-05 0 -0.0087195049398387653 0.00012239579964320156 0 -0.0091705837537142728 3.0263502174791908e-05 0 -0.0090020513874075805 -4.53362410964548e-05 0 -0.0091397906216348999 -9.627573472951808e-05 0 -0.0089695667797393165 0.00047539390426739616 0 -0.0085664988948879611 -2.5606573419889295e-05 0 -0.0084336353720053797 0.00050078218125130798 0 -0.0089695667797393165 0.00047539390426739616 0 -0.0089658792549505671 0.00019470692325263583 0 -0.0087195049398387653 0.00012239579964320156 0 -0.008952523252909227 0.00044747104384206996 0 -0.0086098464918016784 2.3114031023930843e-05 0 -0.0078799098390682134 0.00077571312691476139 0 -0.0084336353720053797 0.00050078218125130798 0 -0.0080331657356679329 0.00013773715660631041 0 -0.0085664988948879611 -2.5606573419889295e-05 0 -0.0084336353720053797 0.00050078218125130798 0 -0.0080331657356679329 0.00013773715660631041 0 -0.0079654067236387561 0.00055710595893217977 0 -0.0079481504909804795 0.00013290195201100371 0 -0.0085664988948879611 -2.5606573419889295e-05 0 -0.0080331657356679329 0.00013773715660631041 0 -0.0081866415970645659 -0.0005176096922389396 0 -0.0079507427458261736 9.0589738670690637e-05 0 -0.0079497306554768103 -0.00011156555085075313 0 -0.0080121678381431301 -0.00015768690618053662 0 -0.0079507427458261736 9.0589738670690637e-05 0 -0.0079497306554768103 -0.00011156555085075313 0 -0.0078636880373380725 -5.01287534537847e-05 0 -0.0079481504909804795 0.00013290195201100371 0 -0.0086815164358000838 -0.00033940442296534723 0 -0.0086098464918016784 2.3114031023930843e-05 0 -0.0086815164358000838 -0.00033940442296534723 0 -0.0079497306554768103 -0.00011156555085075313 0 -0.0078577534887666264 -0.00013745008394380105 0 -0.0080121678381431301 -0.00015768690618053662 0 -0.0077483228054973496 -7.5421422334484518e-05 0 -0.0078375974995653491 3.7364503567723405e-05 0 -0.0077673948901685061 0.00014248987715328714 0 -0.0078636880373380725 -5.01287534537847e-05 0 -0.0077483228054973496 -7.5421422334484518e-05 0 -0.0078375974995653491 3.7364503567723405e-05 0 -0.0077298156765166015 -5.4782814487914435e-05 0 -0.007764192241026765 0.00012279285541209981 0 -0.0079507427458261736 9.0589738670690637e-05 0 -0.0078636880373380725 -5.01287534537847e-05 0 -0.0078375974995653491 3.7364503567723405e-05 0 -0.0079497306554768103 -0.00011156555085075313 0 -0.0078636880373380725 -5.01287534537847e-05 0 -0.0078577534887666264 -0.00013745008394380105 0 -0.0078636880373380725 -5.01287534537847e-05 0 -0.0078577534887666264 -0.00013745008394380105 0 -0.0077483228054973496 -7.5421422334484518e-05 0 -0.0078890013589037015 0.00033347380224109092 0 -0.0079507427458261736 9.0589738670690637e-05 0 -0.0077673948901685061 0.00014248987715328714 0 -0.0077257116197801661 -4.426964136935888e-05 0 -0.0077673948901685061 0.00014248987715328714 0 -0.0076191583321185219 5.9203408307164428e-05 0 -0.0079507427458261736 9.0589738670690637e-05 0 -0.0078375974995653491 3.7364503567723405e-05 0 -0.0077673948901685061 0.00014248987715328714 0 -0.010036705339895754 0.00037528744207645679 0 -0.0098242484751024928 0.00044661026049356824 0 -0.010002451849426129 0.0003313197762243147 0 -0.010073638581238198 0.00036331406475404414 0 -0.010036705339895754 0.00037528744207645679 0 -0.010002451849426129 0.0003313197762243147 0 -0.0088222589806287288 -0.00028632427084275818 0 -0.008309231368999262 -0.00039896643074673803 0 -0.0071909238536446481 -0.00052586457474938818 0 -0.0075792252411219186 -0.0009639465850522365 0 -0.0069450404260234478 -0.0010558817164151748 0 -0.0071909238536446481 -0.00052586457474938818 0 -0.0066475211767677714 -0.0007618333257804849 0 -0.0069450404260234478 -0.0010558817164151748 0 -0.0066475211767677714 -0.0007618333257804849 0 -0.0064583709047608268 -0.0010927064465887557 0 -0.0069450404260234478 -0.0010558817164151748 0 -0.0063637829023631513 -0.00049135356029218096 0 -0.0066475211767677714 -0.0007618333257804849 0 -0.0064006835452001445 -0.0010742350700798833 0 -0.0040722792619799211 0.00011676312825346707 0 -0.0040658118002893685 9.0181194070163771e-05 0 -0.0041130341948088329 5.2302994940084633e-05 0 -0.0066475211767677714 -0.0007618333257804849 0 -0.0064006835452001445 -0.0010742350700798833 0 -0.0064583709047608268 -0.0010927064465887557 0 -0.0050281549311914997 -0.00021003170984181468 0 -0.0067569159117552386 -0.00038723912010340937 0 -0.0064583709047608268 -0.0010927064465887557 0 -0.0064057654116174969 -0.0011468399196705766 0 -0.0069450404260234478 -0.0010558817164151748 0 -0.0092200522526856739 0.00065517455896551766 0 -0.0095080940976819146 0.00082491444143173909 0 -0.0095114171077799875 0.00072058148090395748 0 -0.0067569159117552386 -0.00038723912010340937 0 -0.0067163056061712726 -0.00043377506724288971 0 -0.0064035458612439686 -0.0010739252807949742 0 -0.0064583709047608268 -0.0010927064465887557 0 -0.0064057654116174969 -0.0011468399196705766 0 -0.0067569159117552386 -0.00038723912010340937 0 -0.0082607823560113501 0.00035342691377950394 0 -0.0094305073419052796 0.00066978700747205653 0 -0.0082607823560113501 0.00035342691377950394 0 -0.0092200522526856739 0.00065517455896551766 0 -0.009457130818492308 0.00068282769697838505 0 -0.0093510666006425096 0.00043013497046051868 0 -0.0082607823560113501 0.00035342691377950394 0 -0.008309231368999262 -0.00039896643074673803 0 -0.0095694747806278815 0.00043130631399143448 0 -0.0098242484751024928 0.00044661026049356824 0 -0.0097043082007881865 0.00030721590654676306 0 -0.0098242484751024928 0.00044661026049356824 0 -0.0097043082007881865 0.00030721590654676306 0 -0.0098542525006849475 0.00025738382455554269 0 -0.0097043082007881865 0.00030721590654676306 0 -0.0097124660134186771 0.00017810924729505422 0 -0.0098542525006849475 0.00025738382455554269 0 -0.009457130818492308 0.00068282769697838505 0 -0.0093510666006425096 0.00043013497046051868 0 -0.0094601158392905067 6.5461364540903352e-05 0 -0.0082607823560113501 0.00035342691377950394 0 -0.0096757267455085828 0.00016732475149107683 0 -0.0095694747806278815 0.00043130631399143448 0 -0.0097043082007881865 0.00030721590654676306 0 -0.0095506797798971081 0.00018750542187557283 0 -0.0092406044582682891 0.00034560734573080347 0 -0.0093510666006425096 0.00043013497046051868 0 -0.0094601158392905067 6.5461364540903352e-05 0 -0.0092564716759942801 0.0001273229339808659 0 -0.009362466386931223 -9.9709820874053779e-06 0 -0.0094601158392905067 6.5461364540903352e-05 0 -0.0097124660134186771 0.00017810924729505422 0 -0.0098153920236740706 9.5077645063722122e-05 0 -0.0098542525006849475 0.00025738382455554269 0 -0.0097043082007881865 0.00030721590654676306 0 -0.0095506797798971081 0.00018750542187557283 0 -0.0097124660134186771 0.00017810924729505422 0 -0.0095506797798971081 0.00018750542187557283 0 -0.0097124660134186771 0.00017810924729505422 0 -0.0096555178889698636 1.9341204972411396e-05 0 -0.0097124660134186771 0.00017810924729505422 0 -0.0098153920236740706 9.5077645063722122e-05 0 -0.0096555178889698636 1.9341204972411396e-05 0 -0.0098542525006849475 0.00025738382455554269 0 -0.010002451849426129 0.0003313197762243147 0 -0.010011703609712765 0.00015919690812017927 0 -0.0098153920236740706 9.5077645063722122e-05 0 -0.0098542525006849475 0.00025738382455554269 0 -0.010011703609712765 0.00015919690812017927 0 -0.0098242484751024928 0.00044661026049356824 0 -0.0098542525006849475 0.00025738382455554269 0 -0.010002451849426129 0.0003313197762243147 0 -0.010110297352978435 0.00029842306024233486 0 -0.010002451849426129 0.0003313197762243147 0 -0.010011703609712765 0.00015919690812017927 0 -0.010011703609712765 0.00015919690812017927 0 -0.010157159034130944 -2.9442357553664191e-05 0 -0.010238282833591218 0.00021041172143558789 0 -0.010011703609712765 0.00015919690812017927 0 -0.010157159034130944 -2.9442357553664191e-05 0 -0.0098369354447097324 -0.00016081746719329821 0 -0.010157159034130944 -2.9442357553664191e-05 0 -0.0098369354447097324 -0.00016081746719329821 0 -0.01019104805027138 -0.00044356538157829027 0 -0.0098153920236740706 9.5077645063722122e-05 0 -0.010011703609712765 0.00015919690812017927 0 -0.0098369354447097324 -0.00016081746719329821 0 -0.0098369354447097324 -0.00016081746719329821 0 -0.0096555178889698636 1.9341204972411396e-05 0 -0.009498595976643355 -0.00018570195843874585 0 -0.0098153920236740706 9.5077645063722122e-05 0 -0.0098369354447097324 -0.00016081746719329821 0 -0.0096555178889698636 1.9341204972411396e-05 0 -0.0096757267455085828 0.00016732475149107683 0 -0.0094567443549170363 -0.00019417001893059607 0 -0.009362466386931223 -9.9709820874053779e-06 0 -0.009498595976643355 -0.00018570195843874585 0 -0.0093159300394427217 -7.5604864919363496e-05 0 -0.009362466386931223 -9.9709820874053779e-06 0 -0.0094601158392905067 6.5461364540903352e-05 0 -0.009498595976643355 -0.00018570195843874585 0 -0.0095506797798971081 0.00018750542187557283 0 -0.0096555178889698636 1.9341204972411396e-05 0 -0.009498595976643355 -0.00018570195843874585 0 -0.009498595976643355 -0.00018570195843874585 0 -0.0096383471059376738 -0.00045233866034463124 0 -0.0094515439690119624 -0.00042669843487606901 0 -0.009498595976643355 -0.00018570195843874585 0 -0.0094515439690119624 -0.00042669843487606901 0 -0.0092929998451015076 -0.0003451995549979723 0 -0.0098369354447097324 -0.00016081746719329821 0 -0.009498595976643355 -0.00018570195843874585 0 -0.0096383471059376738 -0.00045233866034463124 0 -0.0096383471059376738 -0.00045233866034463124 0 -0.0094515439690119624 -0.00042669843487606901 0 -0.0095065335880599715 -0.00061113805262103004 0 -0.0094515439690119624 -0.00042669843487606901 0 -0.0095065335880599715 -0.00061113805262103004 0 -0.009337495093934535 -0.00053532530290395985 0 -0.0095065335880599715 -0.00061113805262103004 0 -0.009398102030668579 -0.00072620897064797378 0 -0.0095678746601522008 -0.00084040357492885798 0 -0.0095065335880599715 -0.00061113805262103004 0 -0.0096440223297195003 -0.00068478648032273921 0 -0.0095678746601522008 -0.00084040357492885798 0 -0.0096440223297195003 -0.00068478648032273921 0 -0.0098512035960744149 -0.00059865885855617815 0 -0.0097138674646013012 -0.00088321512949771216 0 -0.0096383471059376738 -0.00045233866034463124 0 -0.0096440223297195003 -0.00068478648032273921 0 -0.0098512035960744149 -0.00059865885855617815 0 -0.0096383471059376738 -0.00045233866034463124 0 -0.0095065335880599715 -0.00061113805262103004 0 -0.0096440223297195003 -0.00068478648032273921 0 -0.0098512035960744149 -0.00059865885855617815 0 -0.010086325831840168 -0.00088777238768321701 0 -0.0097138674646013012 -0.00088321512949771216 0 -0.0098512035960744149 -0.00059865885855617815 0 -0.01019104805027138 -0.00044356538157829027 0 -0.010086325831840168 -0.00088777238768321701 0 -0.01019104805027138 -0.00044356538157829027 0 -0.010086325831840168 -0.00088777238768321701 0 -0.010413879351059013 -0.00095793194820791223 0 -0.0098369354447097324 -0.00016081746719329821 0 -0.0096383471059376738 -0.00045233866034463124 0 -0.0098512035960744149 -0.00059865885855617815 0 -0.0098369354447097324 -0.00016081746719329821 0 -0.0098512035960744149 -0.00059865885855617815 0 -0.01019104805027138 -0.00044356538157829027 0 -0.0091795538134532562 -0.00054241386324618292 0 -0.0091648130090980218 -0.00057705432748058217 0 -0.0091328272165934424 -0.0005676597744551983 0 -0.0091795538134532562 -0.00054241386324618292 0 -0.0091709620965456703 -0.00054879784560862756 0 -0.0091712251281916742 -0.00053784586698491009 0 -0.0091692768842250322 -0.00054797903026729548 0 -0.0091785890607302776 -0.00055693188620521738 0 -0.0091648130090980218 -0.00057705432748058217 0 -0.0091328272165934424 -0.0005676597744551983 0 -0.0090904914598328793 -0.00060871515252955899 0 -0.0082897605100531822 -0.00032268203312570641 0 -0.0086815164358000838 -0.00033940442296534723 0 -0.0078577534887666264 -0.00013745008394380105 0 -0.0077238186924251367 -0.00028884703088012578 0 -0.0080121678381431301 -0.00015768690618053662 0 -0.0077298156765166015 -5.4782814487914435e-05 0 -0.0082897605100531822 -0.00032268203312570641 0 -0.0078577534887666264 -0.00013745008394380105 0 -0.0077483228054973496 -7.5421422334484518e-05 0 -0.0077238186924251367 -0.00028884703088012578 0 -0.0091785890607302776 -0.00055693188620521738 0 -0.0086815164358000838 -0.00033940442296534723 0 -0.0086815164358000838 -0.00033940442296534723 0 -0.0091254141734598386 -0.0004084131263515354 0 -0.0090020513874075805 -4.53362410964548e-05 0 -0.0090557435527774122 -0.00025714174300180424 0 -0.0091397906216348999 -9.627573472951808e-05 0 -0.0091709620965456703 -0.00054879784560862756 0 -0.0091592627826123305 -0.00055373689329964312 0 -0.009154177743992813 -0.00054523467393315735 0 -0.0091709620965456703 -0.00054879784560862756 0 -0.0091592627826123305 -0.00055373689329964312 0 -0.0091555691842653969 -0.00056057923717097423 0 -0.0091592627826123305 -0.00055373689329964312 0 -0.0091555691842653969 -0.00056057923717097423 0 -0.009154177743992813 -0.00054523467393315735 0 -0.0091709620965456703 -0.00054879784560862756 0 -0.009154177743992813 -0.00054523467393315735 0 -0.0091712251281916742 -0.00053784586698491009 0 -0.009154177743992813 -0.00054523467393315735 0 -0.0091712251281916742 -0.00053784586698491009 0 -0.0091494057464438488 -0.00050767347374714952 0 -0.0090557435527774122 -0.00025714174300180424 0 -0.0092929998451015076 -0.0003451995549979723 0 -0.0091494057464438488 -0.00050767347374714952 0 -0.0090557435527774122 -0.00025714174300180424 0 -0.0092562225660936127 -0.00017320631417986493 0 -0.0092929998451015076 -0.0003451995549979723 0 -0.0091254141734598386 -0.0004084131263515354 0 -0.009138737288001398 -0.00049247834814266679 0 -0.0090557435527774122 -0.00025714174300180424 0 -0.0091397906216348999 -9.627573472951808e-05 0 -0.0092562225660936127 -0.00017320631417986493 0 -0.0091397906216348999 -9.627573472951808e-05 0 -0.0092562225660936127 -0.00017320631417986493 0 -0.0092214046212450891 -5.5069331373040889e-05 0 -0.0091705837537142728 3.0263502174791908e-05 0 -0.0091397906216348999 -9.627573472951808e-05 0 -0.0092214046212450891 -5.5069331373040889e-05 0 -0.009498595976643355 -0.00018570195843874585 0 -0.0092562225660936127 -0.00017320631417986493 0 -0.0093159300394427217 -7.5604864919363496e-05 0 -0.0092562225660936127 -0.00017320631417986493 0 -0.0092214046212450891 -5.5069331373040889e-05 0 -0.0093159300394427217 -7.5604864919363496e-05 0 -0.0092556296726385486 1.2662793664815631e-05 0 -0.0092214046212450891 -5.5069331373040889e-05 0 -0.0093159300394427217 -7.5604864919363496e-05 0 -0.009498595976643355 -0.00018570195843874585 0 -0.0092562225660936127 -0.00017320631417986493 0 -0.0092929998451015076 -0.0003451995549979723 0 -0.0094515439690119624 -0.00042669843487606901 0 -0.0092929998451015076 -0.0003451995549979723 0 -0.009337495093934535 -0.00053532530290395985 0 -0.0095065335880599715 -0.00061113805262103004 0 -0.009337495093934535 -0.00053532530290395985 0 -0.009398102030668579 -0.00072620897064797378 0 -0.009337495093934535 -0.00053532530290395985 0 -0.009398102030668579 -0.00072620897064797378 0 -0.0092388214265330445 -0.00063575539313240966 0 -0.0092388214265330445 -0.00063575539313240966 0 -0.0091494057464438488 -0.00050767347374714952 0 -0.0091632306665685188 -0.00059496489460400439 0 -0.0092388214265330445 -0.00063575539313240966 0 -0.0091632306665685188 -0.00059496489460400439 0 -0.0091199958098170317 -0.00072289401321528344 0 -0.009337495093934535 -0.00053532530290395985 0 -0.0092388214265330445 -0.00063575539313240966 0 -0.0091494057464438488 -0.00050767347374714952 0 -0.0092929998451015076 -0.0003451995549979723 0 -0.009337495093934535 -0.00053532530290395985 0 -0.0091494057464438488 -0.00050767347374714952 0 -0.0091712251281916742 -0.00053784586698491009 0 -0.0091494057464438488 -0.00050767347374714952 0 -0.0091648323084887306 -0.0005409494931488026 0 -0.0091494057464438488 -0.00050767347374714952 0 -0.0091648323084887306 -0.0005409494931488026 0 -0.0091632306665685188 -0.00059496489460400439 0 -0.0091648323084887306 -0.0005409494931488026 0 -0.0091632306665685188 -0.00059496489460400439 0 -0.0091199958098170317 -0.00072289401321528344 0 -0.0091648323084887306 -0.0005409494931488026 0 -0.0092522615597355057 -0.00053696763091478869 0 -0.0092090484096702951 -0.00052126661334094123 0 -0.0091566431291981373 -0.00054646035864946855 0 -0.0091937858104770946 -0.00064921225371877551 0 -0.0092050726846687348 -0.00053114955572589571 0 -0.0092522615597355057 -0.00053696763091478869 0 -0.0091992266102981762 -0.00054448930110731161 0 -0.0091648323084887306 -0.0005409494931488026 0 -0.0092050726846687348 -0.00053114955572589571 0 -0.0092522615597355057 -0.00053696763091478869 0 -0.0092050726846687348 -0.00053114955572589571 0 -0.0091821006277650503 -0.0005381872484813391 0 -0.0091926396409307189 -0.00052872921415978878 0 -0.0091648323084887306 -0.0005409494931488026 0 -0.0092050726846687348 -0.00053114955572589571 0 -0.0091821006277650503 -0.0005381872484813391 0 -0.0091795538134532562 -0.00054241386324618292 0 -0.0091712251281916742 -0.00053784586698491009 0 -0.0091821006277650503 -0.0005381872484813391 0 -0.0091712251281916742 -0.00053784586698491009 0 -0.0091648323084887306 -0.0005409494931488026 0 -0.0091821006277650503 -0.0005381872484813391 0 -0.0091795538134532562 -0.00054241386324618292 0 -0.0091821006277650503 -0.0005381872484813391 0 -0.0091926396409307189 -0.00052872921415978878 0 -0.0093665813321611533 -0.00042613903616126422 0 -0.0093478566316256197 -0.00031127390989019253 0 -0.0094657671968744837 -0.00030792173109205171 0 -0.0093665813321611533 -0.00042613903616126422 0 -0.0092645232344023918 -0.0004114602832021901 0 -0.0093478566316256197 -0.00031127390989019253 0 -0.009333383317250794 -0.00053121957374187376 0 -0.0091452724697787292 -0.0006382841397023708 0 -0.0093665813321611533 -0.00042613903616126422 0 -0.0092522615597355057 -0.00053696763091478869 0 -0.0092645232344023918 -0.0004114602832021901 0 -0.0093665813321611533 -0.00042613903616126422 0 -0.0092522615597355057 -0.00053696763091478869 0 -0.0094744319407727082 -0.00055453303760815852 0 -0.0092522615597355057 -0.00053696763091478869 0 -0.0092090484096702951 -0.00052126661334094123 0 -0.0092645232344023918 -0.0004114602832021901 0 -0.0092645232344023918 -0.0004114602832021901 0 -0.0091617607625904332 -0.00036562461367765225 0 -0.0092380001385531357 -0.00026664907275497515 0 -0.0092645232344023918 -0.0004114602832021901 0 -0.0092380001385531357 -0.00026664907275497515 0 -0.0093478566316256197 -0.00031127390989019253 0 -0.0092090484096702951 -0.00052126661334094123 0 -0.0092645232344023918 -0.0004114602832021901 0 -0.0091617607625904332 -0.00036562461367765225 0 -0.0092020367825196396 -0.00096307050739130248 0 -0.0092980032965269688 -0.00081781068588151617 0 -0.0093525600796185715 -0.0010054225644668742 0 -0.0092388214265330445 -0.00063575539313240966 0 -0.0091199958098170317 -0.00072289401321528344 0 -0.0092980032965269688 -0.00081781068588151617 0 -0.0091937858104770946 -0.00064921225371877551 0 -0.0089963016556298958 -0.00057826058711258667 0 -0.0091199958098170317 -0.00072289401321528344 0 -0.0092020367825196396 -0.00096307050739130248 0 -0.0092980032965269688 -0.00081781068588151617 0 -0.009398102030668579 -0.00072620897064797378 0 -0.0092388214265330445 -0.00063575539313240966 0 -0.0092980032965269688 -0.00081781068588151617 0 -0.009398102030668579 -0.00072620897064797378 0 -0.0092980032965269688 -0.00081781068588151617 0 -0.009442203461998689 -0.00091244047154436794 0 -0.0092980032965269688 -0.00081781068588151617 0 -0.009442203461998689 -0.00091244047154436794 0 -0.0093525600796185715 -0.0010054225644668742 0 -0.009442203461998689 -0.00091244047154436794 0 -0.0093525600796185715 -0.0010054225644668742 0 -0.0094662582704746964 -0.0011174738272533627 0 -0.0093525600796185715 -0.0010054225644668742 0 -0.0093061323667880513 -0.0011723391938616341 0 -0.0094662582704746964 -0.0011174738272533627 0 -0.010907482737298677 -0.00075340904889482929 0 -0.010840721681213594 -0.001196654222060198 0 -0.012674990374522143 -0.00082170575736713498 0 -0.012338243964031069 -0.0012340212038461419 0 -0.012171717238466323 -0.00071177777184039783 0 -0.012674990374522143 -0.00082170575736713498 0 -0.01277209063033998 -0.0010807245509940103 0 -0.012338243964031069 -0.0012340212038461419 0 -0.012674990374522143 -0.00082170575736713498 0 -0.012649820925282534 -0.00074249705620857442 0 -0.012171717238466323 -0.00071177777184039783 0 -0.012287625777010267 -0.0012134425398541238 0 -0.010907482737298677 -0.00075340904889482929 0 -0.012674990374522143 -0.00082170575736713498 0 -0.012751653634830294 -0.0010410364444663723 0 -0.012870648021750784 -0.00086061986154568415 0 -0.012751653634830294 -0.0010410364444663723 0 -0.012870648021750784 -0.00086061986154568415 0 -0.013191496298537617 -0.00090101338662023636 0 -0.010907482737298677 -0.00075340904889482929 0 -0.011288847876522401 -0.00048943106482515449 0 -0.012674990374522143 -0.00082170575736713498 0 -0.012649820925282534 -0.00074249705620857442 0 -0.012879876669664654 -0.00068291094022356915 0 -0.012674990374522143 -0.00082170575736713498 0 -0.012870648021750784 -0.00086061986154568415 0 -0.012879876669664654 -0.00068291094022356915 0 -0.012870648021750784 -0.00086061986154568415 0 -0.013191496298537617 -0.00090101338662023636 0 -0.012879876669664654 -0.00068291094022356915 0 -0.0091130506194420698 -0.00019927653309207934 0 -0.0092380001385531357 -0.00026664907275497515 0 -0.0092542126760664124 -0.0001369263264508266 0 -0.0092020367825196396 -0.00096307050739130248 0 -0.0093525600796185715 -0.0010054225644668742 0 -0.0093061323667880513 -0.0011723391938616341 0 -0.0089963016556298958 -0.00057826058711258667 0 -0.010907482737298677 -0.00075340904889482929 0 -0.0091617607625904332 -0.00036562461367765225 0 -0.0091130506194420698 -0.00019927653309207934 0 -0.0092380001385531357 -0.00026664907275497515 0 -0.0092380001385531357 -0.00026664907275497515 0 -0.0092542126760664124 -0.0001369263264508266 0 -0.0093380349832025561 -0.00020495265803605639 0 -0.0092380001385531357 -0.00026664907275497515 0 -0.0093380349832025561 -0.00020495265803605639 0 -0.0093478566316256197 -0.00031127390989019253 0 -0.011288847876522401 -0.00048943106482515449 0 -0.011267074832559107 -0.00050485721921426105 0 -0.013191496298537617 -0.00090101338662023636 0 -0.01367192864043241 -0.0007445822694117719 0 -0.013227566384540597 -0.00052044737590339451 0 -0.0092542126760664124 -0.0001369263264508266 0 -0.0094230794638273229 -5.944371776833654e-05 0 -0.0093380349832025561 -0.00020495265803605639 0 -0.0094230794638273229 -5.944371776833654e-05 0 -0.009458285961011054 -0.00019583388440039403 0 -0.0093380349832025561 -0.00020495265803605639 0 -0.0094230794638273229 -5.944371776833654e-05 0 -0.009458285961011054 -0.00019583388440039403 0 -0.0095349100747183294 -9.1560876143892853e-05 0 -0.009458285961011054 -0.00019583388440039403 0 -0.0093380349832025561 -0.00020495265803605639 0 -0.0093478566316256197 -0.00031127390989019253 0 -0.009458285961011054 -0.00019583388440039403 0 -0.0093478566316256197 -0.00031127390989019253 0 -0.0094657671968744837 -0.00030792173109205171 0 -0.0099420021711485174 -0.0013511166909977955 0 -0.009938104677654349 -0.0010797480269004321 0 -0.0096154873431960226 -0.0012134465062930333 0 -0.012969672480017952 -0.0022920312701805957 0 -0.012797074185495975 -0.0020640893227512531 0 -0.012553509071579462 -0.0021909039206296568 0 -0.011515683269382355 -0.0018549458015688065 0 -0.011477199547308598 -0.0017530095832758248 0 -0.0099420021711485174 -0.0013511166909977955 0 -0.009938104677654349 -0.0010797480269004321 0 -0.010363462181590895 -0.0013281509099150673 0 -0.010086325831840168 -0.00088777238768321701 0 -0.009938104677654349 -0.0010797480269004321 0 -0.010363462181590895 -0.0013281509099150673 0 -0.009938104677654349 -0.0010797480269004321 0 -0.0097138674646013012 -0.00088321512949771216 0 -0.0096154873431960226 -0.0012134465062930333 0 -0.010086325831840168 -0.00088777238768321701 0 -0.009938104677654349 -0.0010797480269004321 0 -0.0097138674646013012 -0.00088321512949771216 0 -0.0096440223297195003 -0.00068478648032273921 0 -0.0097138674646013012 -0.00088321512949771216 0 -0.0095678746601522008 -0.00084040357492885798 0 -0.0097138674646013012 -0.00088321512949771216 0 -0.0095678746601522008 -0.00084040357492885798 0 -0.0096559249537772496 -0.00094931765564900089 0 -0.0097134322586666499 -0.00088571612637256979 0 -0.0096494738105870319 -0.0011490647078125902 0 -0.009398102030668579 -0.00072620897064797378 0 -0.009442203461998689 -0.00091244047154436794 0 -0.0095678746601522008 -0.00084040357492885798 0 -0.009442203461998689 -0.00091244047154436794 0 -0.0095586014441369042 -0.00097506795578483879 0 -0.0094662582704746964 -0.0011174738272533627 0 -0.009442203461998689 -0.00091244047154436794 0 -0.0095678746601522008 -0.00084040357492885798 0 -0.0095586014441369042 -0.00097506795578483879 0 -0.0095678746601522008 -0.00084040357492885798 0 -0.0095586014441369042 -0.00097506795578483879 0 -0.0096559249537772496 -0.00094931765564900089 0 -0.0099420021711485174 -0.0013511166909977955 0 -0.0096154873431960226 -0.0012134465062930333 0 -0.009532234686566254 -0.0014737622552394517 0 -0.0096494738105870319 -0.0011490647078125902 0 -0.011228206150209741 -0.0014666997286849445 0 -0.0095586014441369042 -0.00097506795578483879 0 -0.0096559249537772496 -0.00094931765564900089 0 -0.0096164171832558709 -0.001067524482614821 0 -0.011515683269382355 -0.0018549458015688065 0 -0.011228206150209741 -0.0014666997286849445 0 -0.013506751458122777 -0.0022346747405896554 0 -0.013404616875690653 -0.0018724156824506428 0 -0.013169611997966294 -0.0020749039648486354 0 -0.011228206150209741 -0.0014666997286849445 0 -0.010840721681213594 -0.001196654222060198 0 -0.0095586014441369042 -0.00097506795578483879 0 -0.0096164171832558709 -0.001067524482614821 0 -0.0094662582704746964 -0.0011174738272533627 0 -0.011896326930579432 -0.0013851018084677059 0 -0.012338243964031069 -0.0012340212038461419 0 -0.012171717238466323 -0.00071177777184039783 0 -0.011228206150209741 -0.0014666997286849445 0 -0.013264967010322879 -0.0012004009917320818 0 -0.013506751458122777 -0.0022346747405896554 0 -0.013404616875690653 -0.0018724156824506428 0 -0.013825551270204579 -0.0016968983218649612 0 -0.013118315127869609 -0.0018194813201214762 0 -0.013169611997966294 -0.0020749039648486354 0 -0.012797074185495975 -0.0020640893227512531 0 -0.013404616875690653 -0.0018724156824506428 0 -0.013118315127869609 -0.0018194813201214762 0 -0.013256370186181496 -0.0014798756243600386 0 -0.013404616875690653 -0.0018724156824506428 0 -0.013118315127869609 -0.0018194813201214762 0 -0.013169611997966294 -0.0020749039648486354 0 -0.012969672480017952 -0.0022920312701805957 0 -0.013169611997966294 -0.0020749039648486354 0 -0.012797074185495975 -0.0020640893227512531 0 -0.012969672480017952 -0.0022920312701805957 0 -0.013506751458122777 -0.0022346747405896554 0 -0.013169611997966294 -0.0020749039648486354 0 -0.012797074185495975 -0.0020640893227512531 0 -0.012604216168863602 -0.001784008678291161 0 -0.012881797175412822 -0.0016767094764130294 0 -0.013118315127869609 -0.0018194813201214762 0 -0.012797074185495975 -0.0020640893227512531 0 -0.012881797175412822 -0.0016767094764130294 0 -0.012797074185495975 -0.0020640893227512531 0 -0.012604216168863602 -0.001784008678291161 0 -0.012555186028287509 -0.0021964818923701415 0 -0.012744575387198484 -0.002052666839507868 0 -0.012562528650027662 -0.0022135678152878377 0 -0.012713424778401362 -0.0025457910498795028 0 -0.012697081580519293 -0.0025008367934712663 0 -0.012555186028287509 -0.0021964818923701415 0 -0.012697081580519293 -0.0025008367934712663 0 -0.012599094026913088 -0.0021285455026338052 0 -0.012555186028287509 -0.0021964818923701415 0 -0.012599094026913088 -0.0021285455026338052 0 -0.012555186028287509 -0.0021964818923701415 0 -0.012553509071579462 -0.0021909039206296568 0 -0.012797074185495975 -0.0020640893227512531 0 -0.012555186028287509 -0.0021964818923701415 0 -0.012553509071579462 -0.0021909039206296568 0 -0.012599094026913088 -0.0021285455026338052 0 -0.012553509071579462 -0.0021909039206296568 0 -0.012516948661427196 -0.0018575243136543193 0 -0.011477199547308598 -0.0017530095832758248 0 -0.01183194297134584 -0.001614387726085412 0 -0.011037359883458468 -0.0014268175296014479 0 -0.010413879351059013 -0.00095793194820791223 0 -0.010673109409257897 -0.00061536446682899015 0 -0.010086325831840168 -0.00088777238768321701 0 -0.010363462181590895 -0.0013281509099150673 0 -0.010413879351059013 -0.00095793194820791223 0 -0.010363462181590895 -0.0013281509099150673 0 -0.011037359883458468 -0.0014268175296014479 0 -0.010413879351059013 -0.00095793194820791223 0 -0.012475920190168402 -0.0013178691989198905 0 -0.012763136486784715 -0.0019103329091518825 0 -0.0132662078355591 -0.0015938156094142248 0 -0.012516948661427196 -0.0018575243136543193 0 -0.012475920190168402 -0.0013178691989198905 0 -0.012763136486784715 -0.0019103329091518825 0 -0.01183194297134584 -0.001614387726085412 0 -0.012476031559941987 -0.0013361929958219379 0 -0.012599094026913088 -0.0021285455026338052 0 -0.012516948661427196 -0.0018575243136543193 0 -0.012763136486784715 -0.0019103329091518825 0 -0.012763136486784715 -0.0019103329091518825 0 -0.013072831044943459 -0.0022735862421214828 0 -0.013368482696144591 -0.0019672075920646398 0 -0.012763136486784715 -0.0019103329091518825 0 -0.013072831044943459 -0.0022735862421214828 0 -0.012810909150746612 -0.0023721623384575377 0 -0.013072831044943459 -0.0022735862421214828 0 -0.013065724580532708 -0.002590594312525537 0 -0.013579046910487776 -0.002546422688245926 0 -0.013072831044943459 -0.0022735862421214828 0 -0.012810909150746612 -0.0023721623384575377 0 -0.013065724580532708 -0.002590594312525537 0 -0.012599094026913088 -0.0021285455026338052 0 -0.012763136486784715 -0.0019103329091518825 0 -0.012810909150746612 -0.0023721623384575377 0 -0.012697081580519293 -0.0025008367934712663 0 -0.012599094026913088 -0.0021285455026338052 0 -0.012810909150746612 -0.0023721623384575377 0 -0.012697081580519293 -0.0025008367934712663 0 -0.012810909150746612 -0.0023721623384575377 0 -0.012864991885915862 -0.0026569061310629687 0 -0.012864991885915862 -0.0026569061310629687 0 -0.013065724580532708 -0.002590594312525537 0 -0.013168738448809817 -0.0030318910091280001 0 -0.012810909150746612 -0.0023721623384575377 0 -0.012864991885915862 -0.0026569061310629687 0 -0.013065724580532708 -0.002590594312525537 0 -0.014241783576589118 -0.0034063898202339451 0 -0.013579046910487776 -0.002546422688245926 0 -0.013168738448809817 -0.0030318910091280001 0 -0.013065724580532708 -0.002590594312525537 0 -0.013579046910487776 -0.002546422688245926 0 -0.013168738448809817 -0.0030318910091280001 0 -0.014241783576589118 -0.0034063898202339451 0 -0.014514057604875097 -0.0027790418443585881 0 -0.013579046910487776 -0.002546422688245926 0 -0.014095841147180195 -0.0023842219481930594 0 -0.014035913858455644 -0.0019942161445840869 0 -0.013579046910487776 -0.002546422688245926 0 -0.014514057604875097 -0.0027790418443585881 0 -0.014095841147180195 -0.0023842219481930594 0 -0.013579046910487776 -0.002546422688245926 0 -0.014514057604875097 -0.0027790418443585881 0 -0.014095841147180195 -0.0023842219481930594 0 -0.014639647623746572 -0.0021357839519237729 0 -0.014639647623746572 -0.0021357839519237729 0 -0.014035913858455644 -0.0019942161445840869 0 -0.014554198793489221 -0.0019661262056398315 0 -0.014035913858455644 -0.0019942161445840869 0 -0.014554198793489221 -0.0019661262056398315 0 -0.014175841613813613 -0.0018153478524187592 0 -0.014095841147180195 -0.0023842219481930594 0 -0.014639647623746572 -0.0021357839519237729 0 -0.014035913858455644 -0.0019942161445840869 0 -0.013072831044943459 -0.0022735862421214828 0 -0.013579046910487776 -0.002546422688245926 0 -0.013368482696144591 -0.0019672075920646398 0 -0.014035913858455644 -0.0019942161445840869 0 -0.013579046910487776 -0.002546422688245926 0 -0.013368482696144591 -0.0019672075920646398 0 -0.015596170310581987 -0.0024286320767077652 0 -0.015420062677296001 -0.0025094949374442105 0 -0.01548467559020569 -0.0023684137779577744 0 -0.015596170310581987 -0.0024286320767077652 0 -0.015420062677296001 -0.0025094949374442105 0 -0.015739840162392046 -0.0025222137577427892 0 -0.015420062677296001 -0.0025094949374442105 0 -0.015382559610553676 -0.0023601001479798748 0 -0.01548467559020569 -0.0023684137779577744 0 -0.017837792054929621 -0.0031423843375331887 0 -0.017636114756355268 -0.0030342426733652619 0 -0.017470223061621614 -0.0028826441055791823 0 -0.017470223061621614 -0.0028826441055791823 0 -0.01762235422849277 -0.0028620915407549376 0 -0.017206459621374074 -0.0025921512279676487 0 -0.017636114756355268 -0.0030342426733652619 0 -0.017470223061621614 -0.0028826441055791823 0 -0.01762235422849277 -0.0028620915407549376 0 -0.01762235422849277 -0.0028620915407549376 0 -0.018417860016244115 -0.0027031368190863444 0 -0.018178302234694216 -0.0023627013311166021 0 -0.01762235422849277 -0.0028620915407549376 0 -0.017188068778222231 -0.0032026448095442599 0 -0.018417860016244115 -0.0027031368190863444 0 -0.017636114756355268 -0.0030342426733652619 0 -0.01762235422849277 -0.0028620915407549376 0 -0.017188068778222231 -0.0032026448095442599 0 -0.017837792054929621 -0.0031423843375331887 0 -0.017636114756355268 -0.0030342426733652619 0 -0.017188068778222231 -0.0032026448095442599 0 -0.015420062677296001 -0.0025094949374442105 0 -0.015254583267847541 -0.0023385265841099853 0 -0.015382559610553676 -0.0023601001479798748 0 -0.020589658699085238 -0.0029550756114605017 0 -0.018417860016244115 -0.0027031368190863444 0 -0.019351765322129986 -0.0023310312298652079 0 -0.014639647623746572 -0.0021357839519237729 0 -0.017837792054929621 -0.0031423843375331887 0 -0.017188068778222231 -0.0032026448095442599 0 -0.017451360789526565 -0.0031102724116361391 0 -0.017291852114454338 -0.0031883540448449082 0 -0.020589658699085238 -0.0029550756114605017 0 -0.017188068778222231 -0.0032026448095442599 0 -0.018417860016244115 -0.0027031368190863444 0 -0.014241783576589118 -0.0034063898202339451 0 -0.014514057604875097 -0.0027790418443585881 0 -0.017188068778222231 -0.0032026448095442599 0 -0.014865880087112813 -0.0021764828409520909 0 -0.016306306219533755 -0.002853869203508243 0 -0.014639647623746572 -0.0021357839519237729 0 -0.015420062677296001 -0.0025094949374442105 0 -0.015039195735639638 -0.002260360418205203 0 -0.014514057604875097 -0.0027790418443585881 0 -0.014639647623746572 -0.0021357839519237729 0 -0.017188068778222231 -0.0032026448095442599 0 -0.014639647623746572 -0.0021357839519237729 0 -0.014822789034888513 -0.0021041436619808965 0 -0.015039195735639638 -0.002260360418205203 0 -0.014639647623746572 -0.0021357839519237729 0 -0.014554198793489221 -0.0019661262056398315 0 -0.014822789034888513 -0.0021041436619808965 0 -0.014554198793489221 -0.0019661262056398315 0 -0.014822789034888513 -0.0021041436619808965 0 -0.014963876414058212 -0.001886398615366129 0 -0.014822789034888513 -0.0021041436619808965 0 -0.015029763417523599 -0.0020836226473322454 0 -0.014963876414058212 -0.001886398615366129 0 -0.015029763417523599 -0.0020836226473322454 0 -0.015134318389043978 -0.0019860936928484054 0 -0.014963876414058212 -0.001886398615366129 0 -0.015029763417523599 -0.0020836226473322454 0 -0.015039195735639638 -0.002260360418205203 0 -0.015182911729861881 -0.0021719935112982478 0 -0.014822789034888513 -0.0021041436619808965 0 -0.015029763417523599 -0.0020836226473322454 0 -0.015039195735639638 -0.002260360418205203 0 -0.015416637616792652 -0.0021719825386025157 0 -0.01548467559020569 -0.0023684137779577744 0 -0.015851192144712759 -0.001820286474984603 0 -0.015420062677296001 -0.0025094949374442105 0 -0.015039195735639638 -0.002260360418205203 0 -0.015254583267847541 -0.0023385265841099853 0 -0.015254583267847541 -0.0023385265841099853 0 -0.015416637616792652 -0.0021719825386025157 0 -0.015382559610553676 -0.0023601001479798748 0 -0.015254583267847541 -0.0023385265841099853 0 -0.015182911729861881 -0.0021719935112982478 0 -0.015416637616792652 -0.0021719825386025157 0 -0.015039195735639638 -0.002260360418205203 0 -0.015254583267847541 -0.0023385265841099853 0 -0.015182911729861881 -0.0021719935112982478 0 -0.015029763417523599 -0.0020836226473322454 0 -0.015182911729861881 -0.0021719935112982478 0 -0.015134318389043978 -0.0019860936928484054 0 -0.015182911729861881 -0.0021719935112982478 0 -0.015134318389043978 -0.0019860936928484054 0 -0.01537511920634527 -0.0019395646482442692 0 -0.015182911729861881 -0.0021719935112982478 0 -0.01537511920634527 -0.0019395646482442692 0 -0.015416637616792652 -0.0021719825386025157 0 -0.01537511920634527 -0.0019395646482442692 0 -0.015416637616792652 -0.0021719825386025157 0 -0.015851192144712759 -0.001820286474984603 0 -0.015416637616792652 -0.0021719825386025157 0 -0.015382559610553676 -0.0023601001479798748 0 -0.01548467559020569 -0.0023684137779577744 0 -0.015596170310581987 -0.0024286320767077652 0 -0.01548467559020569 -0.0023684137779577744 0 -0.015813350974649164 -0.0022692808871707143 0 -0.015517741265333687 -0.0016228130691806307 0 -0.015373092257190787 -0.0012586470782179836 0 -0.015788769203384869 -0.0013358610792880336 0 -0.015517741265333687 -0.0016228130691806307 0 -0.015207257435454711 -0.0017046798255715453 0 -0.015373092257190787 -0.0012586470782179836 0 -0.01537511920634527 -0.0019395646482442692 0 -0.015517741265333687 -0.0016228130691806307 0 -0.015851192144712759 -0.001820286474984603 0 -0.01537511920634527 -0.0019395646482442692 0 -0.015517741265333687 -0.0016228130691806307 0 -0.015207257435454711 -0.0017046798255715453 0 -0.015134318389043978 -0.0019860936928484054 0 -0.01537511920634527 -0.0019395646482442692 0 -0.015207257435454711 -0.0017046798255715453 0 -0.015207257435454711 -0.0017046798255715453 0 -0.015005032420863713 -0.001582467906004172 0 -0.015373092257190787 -0.0012586470782179836 0 -0.014554198793489221 -0.0019661262056398315 0 -0.015005032420863713 -0.001582467906004172 0 -0.014883569957034529 -0.0011131986214662915 0 -0.014554198793489221 -0.0019661262056398315 0 -0.014376018015820049 -0.0012205818212166445 0 -0.014226065399116899 -0.0015810558284229011 0 -0.014561258486564666 -0.0020424037835111977 0 -0.014433370744417733 -0.00090175633254550467 0 -0.014554198793489221 -0.0019661262056398315 0 -0.015005032420863713 -0.001582467906004172 0 -0.014963876414058212 -0.001886398615366129 0 -0.015207257435454711 -0.0017046798255715453 0 -0.015005032420863713 -0.001582467906004172 0 -0.014963876414058212 -0.001886398615366129 0 -0.015134318389043978 -0.0019860936928484054 0 -0.015207257435454711 -0.0017046798255715453 0 -0.014963876414058212 -0.001886398615366129 0 -0.014190182195076674 -0.0013175125588113594 0 -0.014376018015820049 -0.0012205818212166445 0 -0.014226065399116899 -0.0015810558284229011 0 -0.014193557119754162 -0.001153699313363568 0 -0.014433370744417733 -0.00090175633254550467 0 -0.014190182195076674 -0.0013175125588113594 0 -0.014150279435709224 -0.0010327775265114327 0 -0.014363189467550094 -0.0012108755344999703 0 -0.014150279435709224 -0.0010327775265114327 0 -0.014363189467550094 -0.0012108755344999703 0 -0.014218632871689689 -0.00079625973820712629 0 -0.015005032420863713 -0.001582467906004172 0 -0.014883569957034529 -0.0011131986214662915 0 -0.015373092257190787 -0.0012586470782179836 0 -0.014883569957034529 -0.0011131986214662915 0 -0.015373092257190787 -0.0012586470782179836 0 -0.015682412729259767 -0.00083882893078981839 0 -0.014433370744417733 -0.00090175633254550467 0 -0.01502665520668935 -0.00035048121331297832 0 -0.014154904019561796 -0.00018357848093394151 0 -0.014318310501474189 -3.6061401545340816e-06 0 -0.014480739811607673 -5.0133141808318956e-05 0 -0.012763136486784715 -0.0019103329091518825 0 -0.0132662078355591 -0.0015938156094142248 0 -0.013368482696144591 -0.0019672075920646398 0 -0.0132662078355591 -0.0015938156094142248 0 -0.013368482696144591 -0.0019672075920646398 0 -0.013894944274448925 -0.0017354572983161055 0 -0.014035913858455644 -0.0019942161445840869 0 -0.013368482696144591 -0.0019672075920646398 0 -0.013894944274448925 -0.0017354572983161055 0 -0.014035913858455644 -0.0019942161445840869 0 -0.013894944274448925 -0.0017354572983161055 0 -0.014175841613813613 -0.0018153478524187592 0 -0.013894944274448925 -0.0017354572983161055 0 -0.014175841613813613 -0.0018153478524187592 0 -0.014226065399116899 -0.0015810558284229011 0 -0.014554198793489221 -0.0019661262056398315 0 -0.014175841613813613 -0.0018153478524187592 0 -0.014226065399116899 -0.0015810558284229011 0 -0.0132662078355591 -0.0015938156094142248 0 -0.013894944274448925 -0.0017354572983161055 0 -0.013839204149826709 -0.0014046574834995576 0 -0.013894944274448925 -0.0017354572983161055 0 -0.014226065399116899 -0.0015810558284229011 0 -0.013839204149826709 -0.0014046574834995576 0 -0.014190182195076674 -0.0013175125588113594 0 -0.014226065399116899 -0.0015810558284229011 0 -0.013839204149826709 -0.0014046574834995576 0 -0.014190182195076674 -0.0013175125588113594 0 -0.013839204149826709 -0.0014046574834995576 0 -0.01389366115635322 -0.0011023876465728489 0 -0.014150279435709224 -0.0010327775265114327 0 -0.01389366115635322 -0.0011023876465728489 0 -0.014022167078094241 -0.00080961856609345359 0 -0.014190182195076674 -0.0013175125588113594 0 -0.014150279435709224 -0.0010327775265114327 0 -0.01389366115635322 -0.0011023876465728489 0 -0.013839204149826709 -0.0014046574834995576 0 -0.01389366115635322 -0.0011023876465728489 0 -0.013403452426319993 -0.0011330242069343477 0 -0.012475920190168402 -0.0013178691989198905 0 -0.0132662078355591 -0.0015938156094142248 0 -0.013403452426319993 -0.0011330242069343477 0 -0.0132662078355591 -0.0015938156094142248 0 -0.013839204149826709 -0.0014046574834995576 0 -0.013403452426319993 -0.0011330242069343477 0 -0.012874363945039047 -0.00057044631170015641 0 -0.013684333360686264 -0.00069933249558057895 0 -0.013583711706275783 -7.9763390469501325e-05 0 -0.012475920190168402 -0.0013178691989198905 0 -0.013403452426319993 -0.0011330242069343477 0 -0.012874363945039047 -0.00057044631170015641 0 -0.013403452426319993 -0.0011330242069343477 0 -0.012874363945039047 -0.00057044631170015641 0 -0.013684333360686264 -0.00069933249558057895 0 -0.01389366115635322 -0.0011023876465728489 0 -0.013403452426319993 -0.0011330242069343477 0 -0.013684333360686264 -0.00069933249558057895 0 -0.01389366115635322 -0.0011023876465728489 0 -0.014022167078094241 -0.00080961856609345359 0 -0.013684333360686264 -0.00069933249558057895 0 -0.014022167078094241 -0.00080961856609345359 0 -0.013684333360686264 -0.00069933249558057895 0 -0.01407210994764173 -0.0004004213817062677 0 -0.013684333360686264 -0.00069933249558057895 0 -0.013583711706275783 -7.9763390469501325e-05 0 -0.01407210994764173 -0.0004004213817062677 0 -0.013583711706275783 -7.9763390469501325e-05 0 -0.01407210994764173 -0.0004004213817062677 0 -0.013970011014445276 7.9730108203493743e-05 0 -0.012874363945039047 -0.00057044631170015641 0 -0.013583711706275783 -7.9763390469501325e-05 0 -0.013031553426629622 0.00028898737551909492 0 -0.014397079744080468 0.00012764676781473072 0 -0.014318310501474189 -3.6061401545340816e-06 0 -0.014480739811607673 -5.0133141808318956e-05 0 -0.014397079744080468 0.00012764676781473072 0 -0.014318310501474189 -3.6061401545340816e-06 0 -0.014242892092115673 9.5917322836388858e-05 0 -0.014363189467550094 -0.0012108755344999703 0 -0.014474905788209558 -0.00050408487146449065 0 -0.014218632871689689 -0.00079625973820712629 0 -0.014154904019561796 -0.00018357848093394151 0 -0.014318310501474189 -3.6061401545340816e-06 0 -0.014242892092115673 9.5917322836388858e-05 0 -0.014433370744417733 -0.00090175633254550467 0 -0.014346200175785128 -0.00018092970440520935 0 -0.014474905788209558 -0.00050408487146449065 0 -0.014218632871689689 -0.00079625973820712629 0 -0.01407210994764173 -0.0004004213817062677 0 -0.014150279435709224 -0.0010327775265114327 0 -0.014022167078094241 -0.00080961856609345359 0 -0.014218632871689689 -0.00079625973820712629 0 -0.014022167078094241 -0.00080961856609345359 0 -0.014218632871689689 -0.00079625973820712629 0 -0.01407210994764173 -0.0004004213817062677 0 -0.01407210994764173 -0.0004004213817062677 0 -0.013970011014445276 7.9730108203493743e-05 0 -0.014238447535257793 -5.0470872244972786e-05 0 -0.013970011014445276 7.9730108203493743e-05 0 -0.014238447535257793 -5.0470872244972786e-05 0 -0.014156497944167875 0.00032846601058779097 0 -0.014474905788209558 -0.00050408487146449065 0 -0.01407210994764173 -0.0004004213817062677 0 -0.014238447535257793 -5.0470872244972786e-05 0 -0.014346200175785128 -0.00018092970440520935 0 -0.014421667998599038 0.00030443158952454271 0 -0.014242892092115673 9.5917322836388858e-05 0 -0.014342851714543501 0.00029020681159482503 0 -0.014349196863206149 0.0004343226979665202 0 -0.014474905788209558 -0.00050408487146449065 0 -0.014238447535257793 -5.0470872244972786e-05 0 -0.014506724680572448 0.0002024848649036534 0 -0.014397079744080468 0.00012764676781473072 0 -0.014242892092115673 9.5917322836388858e-05 0 -0.014342851714543501 0.00029020681159482503 0 -0.014342851714543501 0.00029020681159482503 0 -0.01442482638355972 0.00024232296324456091 0 -0.014464166507663523 0.00030425419520815238 0 -0.014397079744080468 0.00012764676781473072 0 -0.014342851714543501 0.00029020681159482503 0 -0.01442482638355972 0.00024232296324456091 0 -0.014397079744080468 0.00012764676781473072 0 -0.01442482638355972 0.00024232296324456091 0 -0.014499299313876538 0.00020990574637700299 0 -0.014349196863206149 0.0004343226979665202 0 -0.014459147304231611 0.00075322401489740691 0 -0.014584611965543349 0.00057344932549469518 0 -0.014342851714543501 0.00029020681159482503 0 -0.014349196863206149 0.0004343226979665202 0 -0.014584611965543349 0.00057344932549469518 0 -0.014421667998599038 0.00030443158952454271 0 -0.014470932000116498 0.00070233478619453503 0 -0.014506724680572448 0.0002024848649036534 0 -0.014290646883537624 0.00058093110966826831 0 -0.014459147304231611 0.00075322401489740691 0 -0.014383163867882643 0.00031742914759107899 0 -0.014462333606009388 0.0004019898882833837 0 -0.014506724680572448 0.0002024848649036534 0 -0.014290646883537624 0.00058093110966826831 0 -0.014156497944167875 0.00032846601058779097 0 -0.013970011014445276 7.9730108203493743e-05 0 -0.014156497944167875 0.00032846601058779097 0 -0.013716687404176572 0.00046148705343298726 0 -0.014156497944167875 0.00032846601058779097 0 -0.014033435516213787 0.00066308027462002803 0 -0.013716687404176572 0.00046148705343298726 0 -0.014290646883537624 0.00058093110966826831 0 -0.014156497944167875 0.00032846601058779097 0 -0.014033435516213787 0.00066308027462002803 0 -0.014238447535257793 -5.0470872244972786e-05 0 -0.014506724680572448 0.0002024848649036534 0 -0.014156497944167875 0.00032846601058779097 0 -0.014173983689820381 0.00094713172301797051 0 -0.014290646883537624 0.00058093110966826831 0 -0.014033435516213787 0.00066308027462002803 0 -0.014173983689820381 0.00094713172301797051 0 -0.014033435516213787 0.00066308027462002803 0 -0.013759068161754843 0.00089819550952810858 0 -0.014173983689820381 0.00094713172301797051 0 -0.014290646883537624 0.00058093110966826831 0 -0.014459147304231611 0.00075322401489740691 0 -0.014173983689820381 0.00094713172301797051 0 -0.014421907021453982 0.0010239116840522792 0 -0.014459147304231611 0.00075322401489740691 0 -0.013031553426629622 0.00028898737551909492 0 -0.013716687404176572 0.00046148705343298726 0 -0.013345109049026234 0.00077192809993512502 0 -0.013031553426629622 0.00028898737551909492 0 -0.013134459472438778 0.0012264816016290024 0 -0.012088972797606796 0.00096913532621358933 0 -0.01305090815507612 0.00034827394322935472 0 -0.013205712349258828 0.0009225491786364388 0 -0.013583711706275783 -7.9763390469501325e-05 0 -0.013970011014445276 7.9730108203493743e-05 0 -0.013716687404176572 0.00046148705343298726 0 -0.013583711706275783 -7.9763390469501325e-05 0 -0.013031553426629622 0.00028898737551909492 0 -0.013716687404176572 0.00046148705343298726 0 -0.013716687404176572 0.00046148705343298726 0 -0.013759068161754843 0.00089819550952810858 0 -0.013345109049026234 0.00077192809993512502 0 -0.014033435516213787 0.00066308027462002803 0 -0.013716687404176572 0.00046148705343298726 0 -0.013759068161754843 0.00089819550952810858 0 -0.01353360815981706 0.0011812921769459779 0 -0.013759068161754843 0.00089819550952810858 0 -0.013345109049026234 0.00077192809993512502 0 -0.011565763828217029 0.0011973828137495873 0 -0.011343301416144759 0.00046607997521687453 0 -0.012573106406769664 0.0019287092055577657 0 -0.013134459472438778 0.0012264816016290024 0 -0.012088972797606796 0.00096913532621358933 0 -0.010320001241396967 0.0002620214361553431 0 -0.010176922996133483 0.00027544117625157385 0 -0.010679996719600741 0.00013415855670126907 0 -0.013031553426629622 0.00028898737551909492 0 -0.012088972797606796 0.00096913532621358933 0 -0.011366093738654869 -0.00025917726844219613 0 -0.011343301416144759 0.00046607997521687453 0 -0.01132919474902752 -0.00023221294350616039 0 -0.010679996719600741 0.00013415855670126907 0 -0.010514278695162749 5.1795271472868268e-05 0 -0.011366093738654869 -0.00025917726844219613 0 -0.010320001241396967 0.0002620214361553431 0 -0.010679996719600741 0.00013415855670126907 0 -0.010514278695162749 5.1795271472868268e-05 0 -0.010320001241396967 0.0002620214361553431 0 -0.010238282833591218 0.00021041172143558789 0 -0.010514278695162749 5.1795271472868268e-05 0 -0.010157159034130944 -2.9442357553664191e-05 0 -0.010238282833591218 0.00021041172143558789 0 -0.010514278695162749 5.1795271472868268e-05 0 -0.010157159034130944 -2.9442357553664191e-05 0 -0.01019104805027138 -0.00044356538157829027 0 -0.010514278695162749 5.1795271472868268e-05 0 -0.011037359883458468 -0.0014268175296014479 0 -0.010673109409257897 -0.00061536446682899015 0 -0.011366093738654869 -0.00025917726844219613 0 -0.010514278695162749 5.1795271472868268e-05 0 -0.010673109409257897 -0.00061536446682899015 0 -0.011366093738654869 -0.00025917726844219613 0 -0.01019104805027138 -0.00044356538157829027 0 -0.010514278695162749 5.1795271472868268e-05 0 -0.010673109409257897 -0.00061536446682899015 0 -0.01019104805027138 -0.00044356538157829027 0 -0.010413879351059013 -0.00095793194820791223 0 -0.010673109409257897 -0.00061536446682899015 0 -0.011037359883458468 -0.0014268175296014479 0 -0.012475920190168402 -0.0013178691989198905 0 -0.011366093738654869 -0.00025917726844219613 0 -0.012475920190168402 -0.0013178691989198905 0 -0.012874363945039047 -0.00057044631170015641 0 -0.011366093738654869 -0.00025917726844219613 0 -0.012874363945039047 -0.00057044631170015641 0 -0.013031553426629622 0.00028898737551909492 0 -0.011366093738654869 -0.00025917726844219613 0 -0.0051343693401464593 -9.9146715665342921e-05 0 -0.0055918344404754117 -5.0160203408091864e-05 0 -0.0053458514942608271 -9.9561918507476425e-06 0 -0.0051343693401464593 -9.9146715665342921e-05 0 -0.0053458514942608271 -9.9561918507476425e-06 0 -0.004891652688733145 -6.3693937085171167e-05 0 -0.0053458514942608271 -9.9561918507476425e-06 0 -0.0049630696682682555 0.00011287729597701575 0 -0.004891652688733145 -6.3693937085171167e-05 0 -0.0051343693401464593 -9.9146715665342921e-05 0 -0.004891652688733145 -6.3693937085171167e-05 0 -0.0047308275754056736 -0.0001735259435855306 0 -0.0051343693401464593 -9.9146715665342921e-05 0 -0.0049030173493811004 -7.1645027677825523e-07 0 -0.0055918344404754117 -5.0160203408091864e-05 0 -0.0049030173493811004 -7.1645027677825523e-07 0 -0.0055918344404754117 -5.0160203408091864e-05 0 -0.0062011662592252013 -7.1552707412049912e-08 0 -0.0055918344404754117 -5.0160203408091864e-05 0 -0.0062011662592252013 -7.1552707412049912e-08 0 -0.0061669136493555229 -1.6469329249416327e-05 0 -0.0057199103741240346 5.6292781149194946e-06 0 -0.0056970768915044073 3.7856286854963816e-06 0 -0.0061669136493555229 -1.6469329249416327e-05 0 -0.0055918344404754117 -5.0160203408091864e-05 0 -0.0057199103741240346 5.6292781149194946e-06 0 -0.0061669136493555229 -1.6469329249416327e-05 0 -0.0055918344404754117 -5.0160203408091864e-05 0 -0.0057199103741240346 5.6292781149194946e-06 0 -0.0053458514942608271 -9.9561918507476425e-06 0 -0.0056119975117423261 5.2836294543919901e-05 0 -0.0052591456557953484 -8.5537500294048123e-05 0 -0.0057199103741240346 5.6292781149194946e-06 0 -0.0053458514942608271 -9.9561918507476425e-06 0 -0.0049630696682682555 0.00011287729597701575 0 -0.0057199103741240346 5.6292781149194946e-06 0 -0.0056970768915044073 3.7856286854963816e-06 0 -0.0057032955655957375 -5.3545833731652206e-06 0 -0.0087076103160893606 -0.00020482454273672117 0 -0.0086397626836885958 -0.00025211996135914396 0 -0.0086093551061593894 -0.00035311804752124906 0 -0.0056970768915044073 3.7856286854963816e-06 0 -0.0057032955655957375 -5.3545833731652206e-06 0 -0.0057135356153571147 -1.2989314930475977e-05 0 -0.0073641814051047085 -8.8794489565610955e-05 0 -0.0061440466848080915 -7.1814035658797598e-05 0 -0.0087076103160893606 -0.00020482454273672117 0 -0.0086397626836885958 -0.00025211996135914396 0 -0.0086545852548321686 -0.00018717359487329635 0 -0.008623800914358588 -0.00022314334029664812 0 -0.0086397626836885958 -0.00025211996135914396 0 -0.0086545852548321686 -0.00018717359487329635 0 -0.008623800914358588 -0.00022314334029664812 0 -0.0086130032761253892 -0.00019144573414226886 0 -0.0086545852548321686 -0.00018717359487329635 0 -0.008623800914358588 -0.00022314334029664812 0 -0.0086397626836885958 -0.00025211996135914396 0 -0.0086136737266054655 -0.00025394668357012505 0 -0.0086397626836885958 -0.00025211996135914396 0 -0.0086136737266054655 -0.00025394668357012505 0 -0.0086109824521644826 -0.00029045565000015066 0 -0.0085394065109985241 -0.00024561717584459675 0 -0.0085401157541321292 -0.00020845654001560264 0 -0.0085739483434964549 -0.00020415479408107836 0 -0.0085394065109985241 -0.00024561717584459675 0 -0.0085739483434964549 -0.00020415479408107836 0 -0.0085693201899964596 -0.00025115176794384694 0 -0.0085739483434964549 -0.00020415479408107836 0 -0.0085988663682811887 -0.00023221084364481417 0 -0.0085693201899964596 -0.00025115176794384694 0 -0.0085739483434964549 -0.00020415479408107836 0 -0.0085988663682811887 -0.00023221084364481417 0 -0.0086130032761253892 -0.00019144573414226886 0 -0.008623800914358588 -0.00022314334029664812 0 -0.0085988663682811887 -0.00023221084364481417 0 -0.0086130032761253892 -0.00019144573414226886 0 -0.008623800914358588 -0.00022314334029664812 0 -0.0085988663682811887 -0.00023221084364481417 0 -0.0086136737266054655 -0.00025394668357012505 0 -0.0085988663682811887 -0.00023221084364481417 0 -0.0086136737266054655 -0.00025394668357012505 0 -0.0085889988434177979 -0.00027525795325869393 0 -0.0085911589584231219 -0.00029772976768321056 0 -0.0086109824521644826 -0.00029045565000015066 0 -0.0085889988434177979 -0.00027525795325869393 0 -0.0086136737266054655 -0.00025394668357012505 0 -0.0086109824521644826 -0.00029045565000015066 0 -0.0085889988434177979 -0.00027525795325869393 0 -0.0085911589584231219 -0.00029772976768321056 0 -0.0085889988434177979 -0.00027525795325869393 0 -0.0085650543904825117 -0.00030524893587394566 0 -0.0085988663682811887 -0.00023221084364481417 0 -0.0085889988434177979 -0.00027525795325869393 0 -0.0085693201899964596 -0.00025115176794384694 0 -0.0085889988434177979 -0.00027525795325869393 0 -0.0085693201899964596 -0.00025115176794384694 0 -0.0085422345991539583 -0.00028746412103987417 0 -0.0085889988434177979 -0.00027525795325869393 0 -0.0085422345991539583 -0.00028746412103987417 0 -0.0085650543904825117 -0.00030524893587394566 0 -0.0085394065109985241 -0.00024561717584459675 0 -0.0085693201899964596 -0.00025115176794384694 0 -0.0085422345991539583 -0.00028746412103987417 0 -0.0085394065109985241 -0.00024561717584459675 0 -0.0085422345991539583 -0.00028746412103987417 0 -0.0085023724427003827 -0.0002755278393734687 0 -0.0044024237711324798 -7.6991879181093916e-05 0 -0.0044202901248494792 -3.5126186850770501e-05 0 -0.004136589591804565 -0.00038264031253212877 0 -0.0085342022882200913 -0.00038365063170648229 0 -0.0086093551061593894 -0.00035311804752124906 0 -0.008481597235335335 -0.00045024532616853836 0 -0.0085422345991539583 -0.00028746412103987417 0 -0.0085347176417103852 -0.00034036825184834298 0 -0.0085650543904825117 -0.00030524893587394566 0 -0.0085422345991539583 -0.00028746412103987417 0 -0.0085347176417103852 -0.00034036825184834298 0 -0.0084959113579008913 -0.00032035487089285492 0 -0.0085347176417103852 -0.00034036825184834298 0 -0.0085650543904825117 -0.00030524893587394566 0 -0.0085654432334508011 -0.00032977655190485834 0 -0.0085347176417103852 -0.00034036825184834298 0 -0.0085654432334508011 -0.00032977655190485834 0 -0.0085678446338404244 -0.0003495954794943294 0 -0.0086109824521644826 -0.00029045565000015066 0 -0.008592063790937781 -0.00032129240632345057 0 -0.0086093551061593894 -0.00035311804752124906 0 -0.0085654432334508011 -0.00032977655190485834 0 -0.008592063790937781 -0.00032129240632345057 0 -0.0085678446338404244 -0.0003495954794943294 0 -0.0085911589584231219 -0.00029772976768321056 0 -0.0085650543904825117 -0.00030524893587394566 0 -0.008592063790937781 -0.00032129240632345057 0 -0.0085650543904825117 -0.00030524893587394566 0 -0.0085654432334508011 -0.00032977655190485834 0 -0.008592063790937781 -0.00032129240632345057 0 -0.0085911589584231219 -0.00029772976768321056 0 -0.0086109824521644826 -0.00029045565000015066 0 -0.008592063790937781 -0.00032129240632345057 0 -0.008592063790937781 -0.00032129240632345057 0 -0.0085678446338404244 -0.0003495954794943294 0 -0.0086093551061593894 -0.00035311804752124906 0 -0.0085678446338404244 -0.0003495954794943294 0 -0.0085342022882200913 -0.00038365063170648229 0 -0.0086093551061593894 -0.00035311804752124906 0 -0.0059865553319445874 -0.00017856642307081423 0 -0.0061440466848080915 -7.1814035658797598e-05 0 -0.0085347176417103852 -0.00034036825184834298 0 -0.0085342022882200913 -0.00038365063170648229 0 -0.0084769608813601138 -0.00038199212269706339 0 -0.0085347176417103852 -0.00034036825184834298 0 -0.0085678446338404244 -0.0003495954794943294 0 -0.0085342022882200913 -0.00038365063170648229 0 -0.0049630696682682555 0.00011287729597701575 0 -0.0044656374543079842 -1.3252876099346427e-05 0 -0.004891652688733145 -6.3693937085171167e-05 0 -0.0086397626836885958 -0.00025211996135914396 0 -0.0086109824521644826 -0.00029045565000015066 0 -0.0086093551061593894 -0.00035311804752124906 0 -0.0052591456557953484 -8.5537500294048123e-05 0 -0.0061440466848080915 -7.1814035658797598e-05 0 -0.0044656374543079842 -1.3252876099346427e-05 0 -0.0045925916337318769 -0.00011943653329780968 0 -0.004891652688733145 -6.3693937085171167e-05 0 -0.0044024237711324798 -7.6991879181093916e-05 0 -0.0045925916337318769 -0.00011943653329780968 0 -0.0043685869837968338 -0.0002461368671491493 0 -0.0044024237711324798 -7.6991879181093916e-05 0 -0.0044656374543079842 -1.3252876099346427e-05 0 -0.0045925916337318769 -0.00011943653329780968 0 -0.0045925916337318769 -0.00011943653329780968 0 -0.004891652688733145 -6.3693937085171167e-05 0 -0.0047308275754056736 -0.0001735259435855306 0 -0.0047308275754056736 -0.0001735259435855306 0 -0.0041928726206375199 -0.00041615660495264087 0 -0.0048410462555374678 -0.00021514848958184915 0 -0.0041640909821725998 -0.0003850851918948504 0 -0.0040423510977277326 -0.00024724353666152155 0 -0.0045925916337318769 -0.00011943653329780968 0 -0.0047308275754056736 -0.0001735259435855306 0 -0.0043685869837968338 -0.0002461368671491493 0 -0.0047308275754056736 -0.0001735259435855306 0 -0.0043685869837968338 -0.0002461368671491493 0 -0.0041928726206375199 -0.00041615660495264087 0 -0.0043685869837968338 -0.0002461368671491493 0 -0.0041928726206375199 -0.00041615660495264087 0 -0.004136589591804565 -0.00038264031253212877 0 -0.0061440466848080915 -7.1814035658797598e-05 0 -0.0065630330796334034 -0.00040471648958807316 0 -0.0044024237711324798 -7.6991879181093916e-05 0 -0.0043685869837968338 -0.0002461368671491493 0 -0.004136589591804565 -0.00038264031253212877 0 -0.0041928726206375199 -0.00041615660495264087 0 -0.0041505264724420897 -0.00033093113388253236 0 -0.004136589591804565 -0.00038264031253212877 0 -0.0041928726206375199 -0.00041615660495264087 0 -0.0040416786842923519 -0.00021156344733232565 0 -0.0036336150163032012 -0.00012107321713558264 0 -0.0041928726206375199 -0.00041615660495264087 0 -0.0041505264724420897 -0.00033093113388253236 0 -0.0040416786842923519 -0.00021156344733232565 0 -0.0040416786842923519 -0.00021156344733232565 0 -0.0036336150163032012 -0.00012107321713558264 0 -0.0038765682417923565 -3.2546287505044697e-05 0 -0.0040416786842923519 -0.00021156344733232565 0 -0.0041120056878824734 -0.00016135004041561716 0 -0.0038765682417923565 -3.2546287505044697e-05 0 -0.0041505264724420897 -0.00033093113388253236 0 -0.0040416786842923519 -0.00021156344733232565 0 -0.0041120056878824734 -0.00016135004041561716 0 -0.0041928726206375199 -0.00041615660495264087 0 -0.0036336150163032012 -0.00012107321713558264 0 -0.003244967551643821 -0.00027748483620409359 0 -0.0036336150163032012 -0.00012107321713558264 0 -0.003244967551643821 -0.00027748483620409359 0 -0.0030694652699709531 -0.00014481747661185075 0 -0.0051343693401464593 -9.9146715665342921e-05 0 -0.0049030173493811004 -7.1645027677825523e-07 0 -0.0048410462555374678 -0.00021514848958184915 0 -0.0051343693401464593 -9.9146715665342921e-05 0 -0.0047308275754056736 -0.0001735259435855306 0 -0.0048410462555374678 -0.00021514848958184915 0 -0.0049030173493811004 -7.1645027677825523e-07 0 -0.0048410462555374678 -0.00021514848958184915 0 -0.0036090945199476689 8.2808796325151873e-07 0 -0.0040423510977277326 -0.00024724353666152155 0 -0.0036064135548555662 -9.3249306741529198e-08 0 -0.003244967551643821 -0.00027748483620409359 0 -0.0036041845734249597 -6.2449722872431155e-08 0 -0.0030694652699709531 -0.00014481747661185075 0 -0.0026183052482879779 -6.2233975228794372e-07 0 -0.0030694652699709531 -0.00014481747661185075 0 -0.0027393617088525271 4.8867121652823894e-05 0 -0.0036041845734249597 -6.2449722872431155e-08 0 -0.0026183052482879779 -6.2233975228794372e-07 0 -0.0030694652699709531 -0.00014481747661185075 0 -0.0030694652699709531 -0.00014481747661185075 0 -0.0027393617088525271 4.8867121652823894e-05 0 -0.0034606377723253407 0.00024398992963447355 0 -0.0027393617088525271 4.8867121652823894e-05 0 -0.0028753767826378272 0.00058417518450931769 0 -0.0034606377723253407 0.00024398992963447355 0 -0.0027393617088525271 4.8867121652823894e-05 0 -0.0016311568251674775 1.4231945027154063e-06 0 -0.0028753767826378272 0.00058417518450931769 0 -0.0026183052482879779 -6.2233975228794372e-07 0 -0.0027393617088525271 4.8867121652823894e-05 0 -0.0016311568251674775 1.4231945027154063e-06 0 -0.0016280805766790579 9.0771188021188731e-07 0 -0.00064420954362666752 -6.1368820264992742e-05 0 -0.00064024369995114064 -6.896175744467033e-07 0 -0.0016280805766790579 9.0771188021188731e-07 0 -0.00064420954362666752 -6.1368820264992742e-05 0 -0.00049583496574201772 0.00019250429444744451 0 -0.0016293284942921775 1.5872319126951899e-07 0 -0.001809343448460165 0.00037247042193960442 0 -0.001809343448460165 0.00037247042193960442 0 -0.0011743107358791083 2.8801922402015898e-06 0 -0.00064420954362666752 -6.1368820264992742e-05 0 -0.00049583496574201772 0.00019250429444744451 0 -0.00034161799302152504 -0.00010701431063968093 0 -0.00049583496574201772 0.00019250429444744451 0 -0.00034161799302152504 -0.00010701431063968093 0 -0.0001322320357581269 0.00010579763393124803 0 -0.00033564403209741599 -9.1819681231036923e-05 0 -0.00034161799302152504 -0.00010701431063968093 0 -0.00031414438559832403 -0.00014827826482454189 0 -0.00064420954362666752 -6.1368820264992742e-05 0 -0.00034161799302152504 -0.00010701431063968093 0 -0.00031414438559832403 -0.00014827826482454189 0 0.00034683004593067925 3.7756013036443423e-07 0 -0.00031414438559832403 -0.00014827826482454189 0 -0.00064024369995114064 -6.896175744467033e-07 0 -0.00064420954362666752 -6.1368820264992742e-05 0 -0.00031414438559832403 -0.00014827826482454189 0 -0.00064024369995114064 -6.896175744467033e-07 0 -0.00026045549716419169 -0.00010027666645701524 0 -0.00030010627220137983 -8.8537852693437814e-05 0 -0.00023011990583798208 -8.2130969421731137e-05 0 -0.00018716743790249426 -0.0001407219187240661 0 -0.00026045549716419169 -0.00010027666645701524 0 -0.00023011990583798208 -8.2130969421731137e-05 0 -0.00033564403209741599 -9.1819681231036923e-05 0 -0.00026045549716419169 -0.00010027666645701524 0 -0.00030010627220137983 -8.8537852693437814e-05 0 -0.00033564403209741599 -9.1819681231036923e-05 0 -0.00034161799302152504 -0.00010701431063968093 0 -0.00030010627220137983 -8.8537852693437814e-05 0 -0.0028753767826378272 0.00058417518450931769 0 -0.0034494597180597954 0.0006695794587724108 0 -0.0034606377723253407 0.00024398992963447355 0 -0.00030010627220137983 -8.8537852693437814e-05 0 -0.00030481166032234671 -5.1749267376572958e-05 0 -0.00023011990583798208 -8.2130969421731137e-05 0 -0.0011743107358791083 2.8801922402015898e-06 0 -0.0020864817663314166 5.0913624218180751e-05 0 -0.00034161799302152504 -0.00010701431063968093 0 -0.00030010627220137983 -8.8537852693437814e-05 0 -0.00030481166032234671 -5.1749267376572958e-05 0 -0.00017318061278649274 8.0373162565066278e-05 0 -0.0011743107358791083 2.8801922402015898e-06 0 -0.0011743107358791083 2.8801922402015898e-06 0 -5.5715484391148162e-05 -0.00016261343606973795 0 -0.00026619788675527546 -0.00016776182276817965 0 -0.00022314440819525433 -0.00016984182110516756 0 -0.00023623788673177406 -0.00015498415555893319 0 -0.003735600762397785 0.00030293071666728837 0 -0.0034606377723253407 0.00024398992963447355 0 -0.0038121037838200465 6.9082046846020959e-05 0 -0.0034494597180597954 0.0006695794587724108 0 -0.003735600762397785 0.00030293071666728837 0 -0.0034606377723253407 0.00024398992963447355 0 -0.0036336150163032012 -0.00012107321713558264 0 -0.0034606377723253407 0.00024398992963447355 0 -0.0038765682417923565 -3.2546287505044697e-05 0 -0.0036336150163032012 -0.00012107321713558264 0 -0.0030694652699709531 -0.00014481747661185075 0 -0.0034606377723253407 0.00024398992963447355 0 -0.0035635802017874875 0.00022953293392788727 0 -0.0037897967062348191 3.5218668382520311e-05 0 -0.0034606377723253407 0.00024398992963447355 0 -0.0038765682417923565 -3.2546287505044697e-05 0 -0.0041206742791804352 2.2054918407717619e-05 0 -0.003735600762397785 0.00030293071666728837 0 -0.0038121037838200465 6.9082046846020959e-05 0 -0.0039166959235217924 9.4101704709501256e-05 0 -0.0041120056878824734 -0.00016135004041561716 0 -0.0038765682417923565 -3.2546287505044697e-05 0 -0.0041206742791804352 2.2054918407717619e-05 0 -0.0038121037838200465 6.9082046846020959e-05 0 -0.0039166959235217924 9.4101704709501256e-05 0 -0.0040658644358177289 -8.7487877821838383e-05 0 -0.0002283315065857582 -0.00016066670270368402 0 -0.00022418446650719967 -0.0001650048398590424 0 -0.00020576778165662434 -0.00016283424603509398 0 -0.0002283315065857582 -0.00016066670270368402 0 -0.00022418446650719967 -0.0001650048398590424 0 -0.00024319758663275998 -0.0001567073253734164 0 -0.0019291203141603786 4.4190102458112309e-05 0 -0.0030720229398873626 -0.0001803338386723144 0 -0.00020576778165662434 -0.00016283424603509398 0 -0.00016588702737626378 -0.00017381248110662621 0 -0.00019844461668724271 -0.00017966203183780505 0 -0.00022418446650719967 -0.0001650048398590424 0 -0.00020576778165662434 -0.00016283424603509398 0 -0.00019844461668724271 -0.00017966203183780505 0 -0.0020864817663314166 5.0913624218180751e-05 0 -0.0019291203141603786 4.4190102458112309e-05 0 -0.00023623788673177406 -0.00015498415555893319 0 -0.0002283315065857582 -0.00016066670270368402 0 -0.00020576778165662434 -0.00016283424603509398 0 -5.5715484391148162e-05 -0.00016261343606973795 0 -0.0002572602213897153 -0.00012799995942140084 0 -0.00022314440819525433 -0.00016984182110516756 0 -0.00020576778165662434 -0.00016283424603509398 0 -0.00018371935190504527 -0.00014801124836096282 0 -0.00022314440819525433 -0.00016984182110516756 0 -0.00023623788673177406 -0.00015498415555893319 0 -0.00020576778165662434 -0.00016283424603509398 0 -0.00020576778165662434 -0.00016283424603509398 0 -0.00018371935190504527 -0.00014801124836096282 0 -0.00016588702737626378 -0.00017381248110662621 0 -0.00015689511414336218 -0.00015286479007146632 0 -0.00018371935190504527 -0.00014801124836096282 0 -0.00016588702737626378 -0.00017381248110662621 0 -0.00018716743790249426 -0.0001407219187240661 0 -0.00015689511414336218 -0.00015286479007146632 0 -0.00018371935190504527 -0.00014801124836096282 0 -0.00018716743790249426 -0.0001407219187240661 0 -0.00023011990583798208 -8.2130969421731137e-05 0 -0.00018371935190504527 -0.00014801124836096282 0 -7.3563418723104814e-05 -0.00018664622506475899 0 -7.7469269678981782e-05 -0.00016415069392508949 0 -0.00011584914431423707 -0.00019066050293411121 0 -7.7469269678981782e-05 -0.00016415069392508949 0 -0.00011584914431423707 -0.00019066050293411121 0 -0.0001268163699713932 -0.0001627969317403225 0 -0.00015689511414336218 -0.00015286479007146632 0 -0.0001268163699713932 -0.0001627969317403225 0 -0.00016588702737626378 -0.00017381248110662621 0 -0.00011584914431423707 -0.00019066050293411121 0 -0.0001268163699713932 -0.0001627969317403225 0 -0.00016588702737626378 -0.00017381248110662621 0 -0.00016588702737626378 -0.00017381248110662621 0 -0.00016124790739015544 -0.00021774779100247398 0 -0.00018451980219547702 -0.00019963498526816869 0 -0.00011584914431423707 -0.00019066050293411121 0 -0.00016124790739015544 -0.00021774779100247398 0 -0.00017020670531433453 -0.00025859392047956702 0 -0.00011584914431423707 -0.00019066050293411121 0 -0.00016588702737626378 -0.00017381248110662621 0 -0.00016124790739015544 -0.00021774779100247398 0 -0.00018451980219547702 -0.00019963498526816869 0 -0.0002036337571764995 -0.00018028316529351948 0 -0.00019793989869856061 -0.00026444673798719609 0 -0.00016124790739015544 -0.00021774779100247398 0 -0.00018451980219547702 -0.00019963498526816869 0 -0.00019793989869856061 -0.00026444673798719609 0 -0.00016588702737626378 -0.00017381248110662621 0 -0.00018451980219547702 -0.00019963498526816869 0 -0.00019844461668724271 -0.00017966203183780505 0 -0.00018451980219547702 -0.00019963498526816869 0 -0.00019844461668724271 -0.00017966203183780505 0 -0.0002036337571764995 -0.00018028316529351948 0 -0.00022418446650719967 -0.0001650048398590424 0 -0.00019844461668724271 -0.00017966203183780505 0 -0.0002036337571764995 -0.00018028316529351948 0 -0.00022418446650719967 -0.0001650048398590424 0 -0.0002036337571764995 -0.00018028316529351948 0 -0.00024021712582371189 -0.00015615596587233586 0 -0.0058624160039587071 0.00057458591080892911 0 -0.0059170757292927711 0.00056279164320949574 0 -0.0058926468412207325 0.00042471313626289578 0 -0.0058624160039587071 0.00057458591080892911 0 -0.0059170757292927711 0.00056279164320949574 0 -0.00577949807317434 0.00047183964335746452 0 -0.0059170757292927711 0.00056279164320949574 0 -0.0058586197933309042 0.00043189326292333998 0 -0.00577949807317434 0.00047183964335746452 0 -0.0058586197933309042 0.00043189326292333998 0 -0.005762876916352474 0.0003974902697998221 0 -0.00577949807317434 0.00047183964335746452 0 -0.0059170757292927711 0.00056279164320949574 0 -0.0058586197933309042 0.00043189326292333998 0 -0.0059774451596018088 0.00041040462387784333 0 -0.0058586197933309042 0.00043189326292333998 0 -0.0058792199831500871 0.00035381420693912982 0 -0.0059774451596018088 0.00041040462387784333 0 -0.0061440474363135024 0.00011655794928058772 0 -0.0061410710744897066 7.5035979164350284e-05 0 -0.0060387056295849945 0.00015042367854383812 0 -0.0058792199831500871 0.00035381420693912982 0 -0.0059407780770059579 0.00030096909079062464 0 -0.0059774451596018088 0.00041040462387784333 0 -0.0058586197933309042 0.00043189326292333998 0 -0.0058255283004066648 0.00037031757740401658 0 -0.005762876916352474 0.0003974902697998221 0 -0.0058255283004066648 0.00037031757740401658 0 -0.0058049187735752378 0.00029530899797259946 0 -0.005762876916352474 0.0003974902697998221 0 -0.0058586197933309042 0.00043189326292333998 0 -0.0058792199831500871 0.00035381420693912982 0 -0.0058255283004066648 0.00037031757740401658 0 -0.0058792199831500871 0.00035381420693912982 0 -0.0058049187735752378 0.00029530899797259946 0 -0.0059407780770059579 0.00030096909079062464 0 -0.0058792199831500871 0.00035381420693912982 0 -0.0058255283004066648 0.00037031757740401658 0 -0.0058049187735752378 0.00029530899797259946 0 -0.0058049187735752378 0.00029530899797259946 0 -0.0059581138429412811 0.00025057167081391738 0 -0.0059407780770059579 0.00030096909079062464 0 -0.0058049187735752378 0.00029530899797259946 0 -0.0059581138429412811 0.00025057167081391738 0 -0.0060387056295849945 0.00015042367854383812 0 -0.005877419898520358 0.00025245694088052689 0 -0.0060665952901377993 0.00013090876356619576 0 -0.0059581138429412811 0.00025057167081391738 0 -0.0059407780770059579 0.00030096909079062464 0 -0.0060393684380656574 0.00025347882929838085 0 -0.0082119936675560945 -0.00041524759393124597 0 -0.0082908203697749164 -0.00049392639140877985 0 -0.0083274977716118002 -0.00040473627838761011 0 -0.007330658767332539 -0.00021878828109513391 0 -0.0064121797670605128 -0.00038406739177185311 0 -0.005877419898520358 0.00025245694088052689 0 -0.0064121797670605128 -0.00038406739177185311 0 -0.0061440474363135024 0.00011655794928058772 0 -0.0061410710744897066 7.5035979164350284e-05 0 -0.0063170585305086391 -2.4404700929741683e-05 0 -0.0058049187735752378 0.00029530899797259946 0 -0.0056551923093807006 0.00039957379711217576 0 -0.005762876916352474 0.0003974902697998221 0 -0.0002036337571764995 -0.00018028316529351948 0 -0.00024021712582371189 -0.00015615596587233586 0 -0.00024612762403531426 -0.0001465849426559758 0 -0.0029893692513999182 0.00017614826428683793 0 -0.0031030885618814927 0.00018923312120612876 0 -0.0058624160039587071 0.00057458591080892911 0 -0.00577949807317434 0.00047183964335746452 0 -0.0055707292699296498 0.00047687698638219445 0 -0.0056551923093807006 0.00039957379711217576 0 -0.00577949807317434 0.00047183964335746452 0 -0.0055707292699296498 0.00047687698638219445 0 -0.0056551923093807006 0.00039957379711217576 0 -0.005762876916352474 0.0003974902697998221 0 -0.00577949807317434 0.00047183964335746452 0 -0.0039166959235217924 9.4101704709501256e-05 0 -0.0040869347281378421 -6.9650491605391526e-05 0 -0.0040658644358177289 -8.7487877821838383e-05 0 -0.00022418446650719967 -0.0001650048398590424 0 -0.00024319758663275998 -0.0001567073253734164 0 -0.00024021712582371189 -0.00015615596587233586 0 -0.00025491494299831937 -0.0001512044906081384 0 -0.00024021712582371189 -0.00015615596587233586 0 -0.00024612762403531426 -0.0001465849426559758 0 -0.0041004691204318718 0.00076672432764117492 0 -0.0037105630935298406 0.00045189407152792328 0 -0.0044986240988848991 0.00039132708609838039 0 -0.0030720229398873626 -0.0001803338386723144 0 -0.0031030885618814927 0.00018923312120612876 0 -0.0030720229398873626 -0.0001803338386723144 0 -0.0022130932541401371 -0.00056843076254339115 0 -0.0030720229398873626 -0.0001803338386723144 0 -0.0051099767199976305 0.00011188009216814279 0 -0.0064121797670605128 -0.00038406739177185311 0 -0.0051099767199976305 0.00011188009216814279 0 -0.0058444197304687653 -0.00087680385220497239 0 -0.0037105630935298406 0.00045189407152792328 0 -0.0044986240988848991 0.00039132708609838039 0 -0.0082908203697749164 -0.00049392639140877985 0 -0.0083471900752549316 -0.00053732606787898257 0 -0.0083400752926418645 -0.00046794981806434608 0 -0.0064121797670605128 -0.00038406739177185311 0 -0.0031030885618814927 0.00018923312120612876 0 -0.0041505264724420897 -0.00033093113388253236 0 -0.0042277448950457696 -0.00023233911607327024 0 -0.004136589591804565 -0.00038264031253212877 0 -0.0041206742791804352 2.2054918407717619e-05 0 -0.0044640273287054307 -0.00024681757841047818 0 -0.0042277448950457696 -0.00023233911607327024 0 -0.0037897967062348191 3.5218668382520311e-05 0 -0.0051099767199976305 0.00011188009216814279 0 -0.0044640273287054307 -0.00024681757841047818 0 -0.0042277448950457696 -0.00023233911607327024 0 -0.004136589591804565 -0.00038264031253212877 0 -0.0051099767199976305 0.00011188009216814279 0 -0.0065630330796334034 -0.00040471648958807316 0 -0.0041120056878824734 -0.00016135004041561716 0 -0.0041206742791804352 2.2054918407717619e-05 0 -0.0042277448950457696 -0.00023233911607327024 0 -0.0041505264724420897 -0.00033093113388253236 0 -0.0041120056878824734 -0.00016135004041561716 0 -0.0042277448950457696 -0.00023233911607327024 0 -0.0083471900752549316 -0.00053732606787898257 0 -0.008481597235335335 -0.00045024532616853836 0 -0.0083954601513869416 -0.00043577370191112859 0 -0.008481597235335335 -0.00045024532616853836 0 -0.0083954601513869416 -0.00043577370191112859 0 -0.0084769608813601138 -0.00038199212269706339 0 -0.0085342022882200913 -0.00038365063170648229 0 -0.008481597235335335 -0.00045024532616853836 0 -0.0084769608813601138 -0.00038199212269706339 0 -0.0083471900752549316 -0.00053732606787898257 0 -0.0083400752926418645 -0.00046794981806434608 0 -0.0083954601513869416 -0.00043577370191112859 0 -0.0082908203697749164 -0.00049392639140877985 0 -0.0083400752926418645 -0.00046794981806434608 0 -0.0083274977716118002 -0.00040473627838761011 0 -0.0083954601513869416 -0.00043577370191112859 0 -0.0083274977716118002 -0.00040473627838761011 0 -0.0084191682047522667 -0.00036198070590494341 0 -0.0083400752926418645 -0.00046794981806434608 0 -0.0083954601513869416 -0.00043577370191112859 0 -0.0083274977716118002 -0.00040473627838761011 0 -0.0083274977716118002 -0.00040473627838761011 0 -0.0084191682047522667 -0.00036198070590494341 0 -0.0083761742394426429 -0.00030518582382882046 0 -0.0084191682047522667 -0.00036198070590494341 0 -0.0084467955642437559 -0.00031029396198533428 0 -0.0083761742394426429 -0.00030518582382882046 0 -0.0084191682047522667 -0.00036198070590494341 0 -0.0084769608813601138 -0.00038199212269706339 0 -0.0084959113579008913 -0.00032035487089285492 0 -0.0083954601513869416 -0.00043577370191112859 0 -0.0084191682047522667 -0.00036198070590494341 0 -0.0084769608813601138 -0.00038199212269706339 0 -0.0084191682047522667 -0.00036198070590494341 0 -0.0084467955642437559 -0.00031029396198533428 0 -0.0084959113579008913 -0.00032035487089285492 0 -0.0085347176417103852 -0.00034036825184834298 0 -0.0084769608813601138 -0.00038199212269706339 0 -0.0084959113579008913 -0.00032035487089285492 0 -0.0084467955642437559 -0.00031029396198533428 0 -0.0084959113579008913 -0.00032035487089285492 0 -0.0085023724427003827 -0.0002755278393734687 0 -0.0085023724427003827 -0.0002755278393734687 0 -0.008458100946257088 -0.00025935989265140843 0 -0.0085061348875198894 -0.0002320864207221475 0 -0.0085422345991539583 -0.00028746412103987417 0 -0.0084959113579008913 -0.00032035487089285492 0 -0.0085023724427003827 -0.0002755278393734687 0 -0.0084467955642437559 -0.00031029396198533428 0 -0.0085023724427003827 -0.0002755278393734687 0 -0.008458100946257088 -0.00025935989265140843 0 -0.008458100946257088 -0.00025935989265140843 0 -0.0084762196691856532 -0.000208648784146928 0 -0.0084212327351545699 -0.00023049765524026916 0 -0.008458100946257088 -0.00025935989265140843 0 -0.0084762196691856532 -0.000208648784146928 0 -0.0085061348875198894 -0.0002320864207221475 0 -0.0084762196691856532 -0.000208648784146928 0 -0.0085061348875198894 -0.0002320864207221475 0 -0.0085181505307083665 -0.00018953334819265272 0 -0.0085401157541321292 -0.00020845654001560264 0 -0.0085061348875198894 -0.0002320864207221475 0 -0.0085181505307083665 -0.00018953334819265272 0 -0.0085394065109985241 -0.00024561717584459675 0 -0.0085023724427003827 -0.0002755278393734687 0 -0.0085061348875198894 -0.0002320864207221475 0 -0.0085394065109985241 -0.00024561717584459675 0 -0.0085401157541321292 -0.00020845654001560264 0 -0.0085061348875198894 -0.0002320864207221475 0 -0.0083761742394426429 -0.00030518582382882046 0 -0.0084212327351545699 -0.00023049765524026916 0 -0.0083699220145757973 -0.00024133346952112872 0 -0.0083761742394426429 -0.00030518582382882046 0 -0.0083699220145757973 -0.00024133346952112872 0 -0.0083087023250949001 -0.00027071398327969709 0 -0.0084467955642437559 -0.00031029396198533428 0 -0.008458100946257088 -0.00025935989265140843 0 -0.0083761742394426429 -0.00030518582382882046 0 -0.008458100946257088 -0.00025935989265140843 0 -0.0083761742394426429 -0.00030518582382882046 0 -0.0084212327351545699 -0.00023049765524026916 0 -0.0084212327351545699 -0.00023049765524026916 0 -0.0083699220145757973 -0.00024133346952112872 0 -0.0083859208753891013 -0.00020041198980033257 0 -0.0083699220145757973 -0.00024133346952112872 0 -0.0083048275552302358 -0.00021065994532096238 0 -0.0083859208753891013 -0.00020041198980033257 0 -0.0083087023250949001 -0.00027071398327969709 0 -0.0082053638657279566 -0.00021787490377764914 0 -0.0082561255656365476 -0.00032393251566612365 0 -0.0083761742394426429 -0.00030518582382882046 0 -0.0083087023250949001 -0.00027071398327969709 0 -0.0082561255656365476 -0.00032393251566612365 0 -0.0083699220145757973 -0.00024133346952112872 0 -0.0083087023250949001 -0.00027071398327969709 0 -0.0083048275552302358 -0.00021065994532096238 0 -0.0083087023250949001 -0.00027071398327969709 0 -0.0082053638657279566 -0.00021787490377764914 0 -0.0083048275552302358 -0.00021065994532096238 0 -0.0075396403096259649 -0.00017975664354453783 0 -0.0066760215635213388 -0.00013448775352905797 0 -0.0082053638657279566 -0.00021787490377764914 0 -0.0082561255656365476 -0.00032393251566612365 0 -0.0081112358454664048 -0.00032888632405428484 0 -0.0068119139793597402 -0.00014676749955354728 0 -0.0066555684500980185 -0.00037280423349842314 0 -0.0066347000473674922 -0.00017611350058058142 0 -0.0082119936675560945 -0.00041524759393124597 0 -0.0082561255656365476 -0.00032393251566612365 0 -0.0081112358454664048 -0.00032888632405428484 0 -0.0061440474363135024 0.00011655794928058772 0 -0.0060387056295849945 0.00015042367854383812 0 -0.0060365159074324791 0.00016595629934701675 0 -0.007330658767332539 -0.00021878828109513391 0 -0.0066760215635213388 -0.00013448775352905797 0 -0.0082119936675560945 -0.00041524759393124597 0 -0.0083274977716118002 -0.00040473627838761011 0 -0.0082561255656365476 -0.00032393251566612365 0 -0.0083274977716118002 -0.00040473627838761011 0 -0.0083761742394426429 -0.00030518582382882046 0 -0.0082561255656365476 -0.00032393251566612365 0 -0.0063433041170997987 0.00010084467098083024 0 -0.0062762185875625941 -1.401157047217168e-05 0 -0.0064456409561458143 -9.5501719898993858e-05 0 -0.0063433041170997987 0.00010084467098083024 0 -0.0064456409561458143 -9.5501719898993858e-05 0 -0.0065041575805429236 2.6790819455785261e-05 0 -0.0063433041170997987 0.00010084467098083024 0 -0.0062221959296334915 0.00010267102743197978 0 -0.0062762185875625941 -1.401157047217168e-05 0 -0.0063433041170997987 0.00010084467098083024 0 -0.0062221959296334915 0.00010267102743197978 0 -0.0061743554883268914 0.00024959719143245832 0 -0.0061054463087312338 0.00015162274298149566 0 -0.0062221959296334915 0.00010267102743197978 0 -0.0061743554883268914 0.00024959719143245832 0 -0.0061054463087312338 0.00015162274298149566 0 -0.0062221959296334915 0.00010267102743197978 0 -0.0061640290474398616 6.0458520203969002e-05 0 -0.0061054463087312338 0.00015162274298149566 0 -0.0060429708243551023 -3.7536900693028109e-07 0 -0.0061640290474398616 6.0458520203969002e-05 0 -0.0062174598896065081 1.9868463728453197e-05 0 -0.0066760215635213388 -0.00013448775352905797 0 -0.0061054463087312338 0.00015162274298149566 0 -0.0060387056295849945 0.00015042367854383812 0 -0.0060365159074324791 0.00016595629934701675 0 -0.0061054463087312338 0.00015162274298149566 0 -0.0060387056295849945 0.00015042367854383812 0 -0.0060393684380656574 0.00025347882929838085 0 -0.0062221959296334915 0.00010267102743197978 0 -0.0062762185875625941 -1.401157047217168e-05 0 -0.0061640290474398616 6.0458520203969002e-05 0 -0.0060429708243551023 -3.7536900693028109e-07 0 -0.0062762185875625941 -1.401157047217168e-05 0 -0.0061640290474398616 6.0458520203969002e-05 0 -0.0066555684500980185 -0.00037280423349842314 0 -0.0066347000473674922 -0.00017611350058058142 0 -0.0064244620475563544 -0.00014608374176370274 0 -0.0066760215635213388 -0.00013448775352905797 0 -0.0063176561000762767 -0.00012389509015198387 0 -0.0060429708243551023 -3.7536900693028109e-07 0 -0.0062762185875625941 -1.401157047217168e-05 0 -0.0064244620475563544 -0.00014608374176370274 0 -0.0062762185875625941 -1.401157047217168e-05 0 -0.0064244620475563544 -0.00014608374176370274 0 -0.0064456409561458143 -9.5501719898993858e-05 0 -0.0064244620475563544 -0.00014608374176370274 0 -0.0064456409561458143 -9.5501719898993858e-05 0 -0.0064484248018783228 -9.1033033822469003e-05 0 -0.0064456409561458143 -9.5501719898993858e-05 0 -0.0066375692325374202 -7.8507767095389039e-05 0 -0.0065041575805429236 2.6790819455785261e-05 0 -0.006443780073818366 -9.3634001767584971e-05 0 -0.0064732601880766712 -0.00016892259675122293 0 -0.0064456409561458143 -9.5501719898993858e-05 0 -0.006586900161732339 -0.00017796917290758494 0 -0.0066375692325374202 -7.8507767095389039e-05 0 -0.0064456409561458143 -9.5501719898993858e-05 0 -0.006586900161732339 -0.00017796917290758494 0 -0.0065335171294370505 -0.00025536382429314247 0 -0.0066830835462197971 -0.00012693266332229887 0 -0.0068748286056629273 -0.00020217540000632325 0 -0.0067673815290250697 -0.00040992870859143054 0 -0.0066830835462197971 -0.00012693266332229887 0 -0.0068748286056629273 -0.00020217540000632325 0 -0.0068851186755837027 4.6137543766009259e-05 0 -0.006658391951624926 -9.3497256667756293e-05 0 -0.0067059323383606958 -0.00033544934797120641 0 -0.006586900161732339 -0.00017796917290758494 0 -0.0066375692325374202 -7.8507767095389039e-05 0 -0.0066628225814167642 -0.0002467727787360859 0 -0.0066830835462197971 -0.00012693266332229887 0 -0.0065945744190310648 0.00016104430373302175 0 -0.0068851186755837027 4.6137543766009259e-05 0 -0.0063433041170997987 0.00010084467098083024 0 -0.0065041575805429236 2.6790819455785261e-05 0 -0.0065945744190310648 0.00016104430373302175 0 -0.0066375692325374202 -7.8507767095389039e-05 0 -0.0065041575805429236 2.6790819455785261e-05 0 -0.0065945744190310648 0.00016104430373302175 0 -0.006658391951624926 -9.3497256667756293e-05 0 -0.0065996558049330571 0.00013824674713627585 0 -0.0063433041170997987 0.00010084467098083024 0 -0.0065945744190310648 0.00016104430373302175 0 -0.0063340556858603545 0.00036970533284150307 0 -0.0065945744190310648 0.00016104430373302175 0 -0.0066742833491893454 0.00047138986778052768 0 -0.0063340556858603545 0.00036970533284150307 0 -0.0065945744190310648 0.00016104430373302175 0 -0.0066742833491893454 0.00047138986778052768 0 -0.006892866760828148 0.00038576851034007032 0 -0.0065945744190310648 0.00016104430373302175 0 -0.006892866760828148 0.00038576851034007032 0 -0.0068851186755837027 4.6137543766009259e-05 0 -0.0066742833491893454 0.00047138986778052768 0 -0.0065375442115077056 0.00070244983053353264 0 -0.0069857164387921063 0.00072162550602205666 0 -0.0066742833491893454 0.00047138986778052768 0 -0.0069857164387921063 0.00072162550602205666 0 -0.006892866760828148 0.00038576851034007032 0 -0.0066742833491893454 0.00047138986778052768 0 -0.0063340556858603545 0.00036970533284150307 0 -0.0065375442115077056 0.00070244983053353264 0 -0.0063340556858603545 0.00036970533284150307 0 -0.0060927939208367185 0.00040597422472368153 0 -0.0059480601659768484 0.00062067219616669742 0 -0.0063340556858603545 0.00036970533284150307 0 -0.0059480601659768484 0.00062067219616669742 0 -0.0065375442115077056 0.00070244983053353264 0 -0.0063433041170997987 0.00010084467098083024 0 -0.0063340556858603545 0.00036970533284150307 0 -0.0061743554883268914 0.00024959719143245832 0 -0.0063340556858603545 0.00036970533284150307 0 -0.0061743554883268914 0.00024959719143245832 0 -0.0060927939208367185 0.00040597422472368153 0 -0.0059581138429412811 0.00025057167081391738 0 -0.0060387056295849945 0.00015042367854383812 0 -0.0060393684380656574 0.00025347882929838085 0 -0.0060393684380656574 0.00025347882929838085 0 -0.0061743554883268914 0.00024959719143245832 0 -0.0060700038180643741 0.00033264449281742873 0 -0.0061054463087312338 0.00015162274298149566 0 -0.0060393684380656574 0.00025347882929838085 0 -0.0061743554883268914 0.00024959719143245832 0 -0.0061743554883268914 0.00024959719143245832 0 -0.0060700038180643741 0.00033264449281742873 0 -0.0060927939208367185 0.00040597422472368153 0 -0.0060700038180643741 0.00033264449281742873 0 -0.0059774451596018088 0.00041040462387784333 0 -0.0060927939208367185 0.00040597422472368153 0 -0.0060393684380656574 0.00025347882929838085 0 -0.0060700038180643741 0.00033264449281742873 0 -0.0059774451596018088 0.00041040462387784333 0 -0.0059407780770059579 0.00030096909079062464 0 -0.0060393684380656574 0.00025347882929838085 0 -0.0059774451596018088 0.00041040462387784333 0 -0.0059774451596018088 0.00041040462387784333 0 -0.0060927939208367185 0.00040597422472368153 0 -0.0059480601659768484 0.00062067219616669742 0 -0.0059170757292927711 0.00056279164320949574 0 -0.0059774451596018088 0.00041040462387784333 0 -0.0059480601659768484 0.00062067219616669742 0 -0.0029893692513999182 0.00017614826428683793 0 -0.0030487184509979145 8.621379592810406e-05 0 -0.0058926468412207325 0.00042471313626289578 0 -0.0053692860788010022 0.0001486061337958798 0 -0.005344597523669556 0.00071663758120210392 0 -0.0059170757292927711 0.00056279164320949574 0 -0.0059480601659768484 0.00062067219616669742 0 -0.0058926468412207325 0.00042471313626289578 0 -0.005949287657278376 0.00063700741130718729 0 -0.0059169924515121795 0.00069689925105572228 0 -0.0059480601659768484 0.00062067219616669742 0 -0.0058926468412207325 0.00042471313626289578 0 -0.005344597523669556 0.00071663758120210392 0 -0.0030487184509979145 8.621379592810406e-05 0 -0.002852114563258774 -9.9375842158422672e-05 0 -0.00016124790739015544 -0.00021774779100247398 0 -0.00019793989869856061 -0.00026444673798719609 0 -0.00017020670531433453 -0.00025859392047956702 0 -0.00017020670531433453 -0.00025859392047956702 0 -0.00029398591141204433 -0.00030017990978629722 0 -0.00031432097460536645 -0.00036140447774917807 0 -0.00019793989869856061 -0.00026444673798719609 0 -0.00017020670531433453 -0.00025859392047956702 0 -0.00031432097460536645 -0.00036140447774917807 0 -0.00017020670531433453 -0.00025859392047956702 0 -0.00018182223172839171 -0.00023094077581739506 0 -0.00029398591141204433 -0.00030017990978629722 0 -7.3563418723104814e-05 -0.00018664622506475899 0 -0.00011584914431423707 -0.00019066050293411121 0 -0.00017020670531433453 -0.00025859392047956702 0 -7.3563418723104814e-05 -0.00018664622506475899 0 -0.00017020670531433453 -0.00025859392047956702 0 -0.00018182223172839171 -0.00023094077581739506 0 -0.00037669648119930559 -0.00024490945611058379 0 -0.0005762363362946713 -0.00025972255000883117 0 -0.0005816198349791349 -0.00040896973946777647 0 -0.00037669648119930559 -0.00024490945611058379 0 -0.00018182223172839171 -0.00023094077581739506 0 -0.00029398591141204433 -0.00030017990978629722 0 -0.00037669648119930559 -0.00024490945611058379 0 -0.0005816198349791349 -0.00040896973946777647 0 -0.00029398591141204433 -0.00030017990978629722 0 -0.0005816198349791349 -0.00040896973946777647 0 -0.00029398591141204433 -0.00030017990978629722 0 -0.00031432097460536645 -0.00036140447774917807 0 -0.0027409062249609292 -0.00021005110963333141 0 -0.002852114563258774 -9.9375842158422672e-05 0 -0.0048747938124178002 -2.9654540039721154e-05 0 -0.0053692860788010022 0.0001486061337958798 0 -0.0050014220807857853 0.00029017258458732457 0 -0.0053692860788010022 0.0001486061337958798 0 -0.0050014220807857853 0.00029017258458732457 0 -0.005344597523669556 0.00071663758120210392 0 -0.0050014220807857853 0.00029017258458732457 0 -0.005344597523669556 0.00071663758120210392 0 -0.0048699695109136335 0.00048144134724825818 0 -0.005344597523669556 0.00071663758120210392 0 -0.0047714298365195062 0.00066855040890907063 0 -0.0048699695109136335 0.00048144134724825818 0 -0.0059169924515121795 0.00069689925105572228 0 -0.0059600888691302562 0.00070818920134013165 0 -0.0047714298365195062 0.00066855040890907063 0 -0.0046336522804467399 0.00050695924663247927 0 -0.0048699695109136335 0.00048144134724825818 0 -0.0069857164387921063 0.00072162550602205666 0 -0.0073751584877259913 0.00073139755917975291 0 -0.0072302855741511254 0.00050929913089662086 0 -0.0041892490906983038 0.00058842288500420752 0 -0.005509529319327397 0.00058876338197483009 0 -0.0059600888691302562 0.00070818920134013165 0 -0.005509529319327397 0.00058876338197483009 0 -0.0047714298365195062 0.00066855040890907063 0 -0.0046336522804467399 0.00050695924663247927 0 -0.0043386254495175868 0.00059168574782797164 0 -0.0046336522804467399 0.00050695924663247927 0 -0.0044298618582936083 0.0003785485513367075 0 -0.0043474045438506824 0.00055060263713661655 0 -0.0046336522804467399 0.00050695924663247927 0 -0.0044298618582936083 0.0003785485513367075 0 -0.0046582896724631367 0.00025687225583469013 0 -0.0050014220807857853 0.00029017258458732457 0 -0.0048699695109136335 0.00048144134724825818 0 -0.0046582896724631367 0.00025687225583469013 0 -0.0046336522804467399 0.00050695924663247927 0 -0.0048699695109136335 0.00048144134724825818 0 -0.0046582896724631367 0.00025687225583469013 0 -0.0048747938124178002 -2.9654540039721154e-05 0 -0.0046582896724631367 0.00025687225583469013 0 -0.0045380019279881835 6.2654486165305455e-05 0 -0.0048747938124178002 -2.9654540039721154e-05 0 -0.0050014220807857853 0.00029017258458732457 0 -0.0046582896724631367 0.00025687225583469013 0 -0.0046582896724631367 0.00025687225583469013 0 -0.0045380019279881835 6.2654486165305455e-05 0 -0.0043595427632227707 0.00018449115171037349 0 -0.0044298618582936083 0.0003785485513367075 0 -0.0046582896724631367 0.00025687225583469013 0 -0.0043595427632227707 0.00018449115171037349 0 -0.0044617205459483314 -0.00011441545410990702 0 -0.0045380019279881835 6.2654486165305455e-05 0 -0.0043771035583938358 2.4555280565273462e-05 0 -0.0042710462065828703 -5.3798639130812438e-05 0 -0.0044617205459483314 -0.00011441545410990702 0 -0.0043771035583938358 2.4555280565273462e-05 0 -0.0045380019279881835 6.2654486165305455e-05 0 -0.0043771035583938358 2.4555280565273462e-05 0 -0.0043595427632227707 0.00018449115171037349 0 -0.00077971527566109069 -0.00028271906161797208 0 -0.00097035748051931079 -0.00037704490656176358 0 -0.0005816198349791349 -0.00040896973946777647 0 -0.0044617205459483314 -0.00011441545410990702 0 -0.0048747938124178002 -2.9654540039721154e-05 0 -0.0045380019279881835 6.2654486165305455e-05 0 -0.00077971527566109069 -0.00028271906161797208 0 -0.0005762363362946713 -0.00025972255000883117 0 -0.0005816198349791349 -0.00040896973946777647 0 -0.0027289407070675109 -0.0002355990800407531 0 -0.0027409062249609292 -0.00021005110963333141 0 -0.0041516466784858388 2.8029448726577159e-05 0 -0.0042580879561750556 7.7729500472132948e-05 0 -0.0041751667949233478 0.00015092610516529849 0 -0.004054192067394229 8.4976219011506339e-05 0 -0.0041516466784858388 2.8029448726577159e-05 0 -0.0041751667949233478 0.00015092610516529849 0 -0.004054192067394229 8.4976219011506339e-05 0 -0.0040651164984727506 2.6129835854699247e-05 0 -0.0041516466784858388 2.8029448726577159e-05 0 -0.0042710462065828703 -5.3798639130812438e-05 0 -0.0041516466784858388 2.8029448726577159e-05 0 -0.0042580879561750556 7.7729500472132948e-05 0 -0.0042710462065828703 -5.3798639130812438e-05 0 -0.0043771035583938358 2.4555280565273462e-05 0 -0.0042580879561750556 7.7729500472132948e-05 0 -0.0043771035583938358 2.4555280565273462e-05 0 -0.0042580879561750556 7.7729500472132948e-05 0 -0.0043595427632227707 0.00018449115171037349 0 -0.0042580879561750556 7.7729500472132948e-05 0 -0.0043595427632227707 0.00018449115171037349 0 -0.0041751667949233478 0.00015092610516529849 0 -0.0043595427632227707 0.00018449115171037349 0 -0.0041751667949233478 0.00015092610516529849 0 -0.0042418150581288554 0.00032634689148565611 0 -0.0040136196918348745 0.00019643050246767593 0 -0.004054192067394229 8.4976219011506339e-05 0 -0.0041751667949233478 0.00015092610516529849 0 -0.0040136196918348745 0.00019643050246767593 0 -0.0041751667949233478 0.00015092610516529849 0 -0.0042418150581288554 0.00032634689148565611 0 -0.0040136196918348745 0.00019643050246767593 0 -0.0042418150581288554 0.00032634689148565611 0 -0.0041490909458018806 0.00050626841297188763 0 -0.0044298618582936083 0.0003785485513367075 0 -0.0042418150581288554 0.00032634689148565611 0 -0.0043474045438506824 0.00055060263713661655 0 -0.0044298618582936083 0.0003785485513367075 0 -0.0043595427632227707 0.00018449115171037349 0 -0.0042418150581288554 0.00032634689148565611 0 -0.0042418150581288554 0.00032634689148565611 0 -0.0043474045438506824 0.00055060263713661655 0 -0.0041490909458018806 0.00050626841297188763 0 -0.005509529319327397 0.00058876338197483009 0 -0.006897134736303389 0.00051086679003685984 0 -0.005509529319327397 0.00058876338197483009 0 -0.0048926802229674283 0.0005064276366209768 0 -0.0073751584877259913 0.00073139755917975291 0 -0.007608012600052067 0.00064673369578706862 0 -0.0074357546313527341 0.00051464695480776877 0 -0.0056723895223139064 0.00051239357891002776 0 -0.0056814474320128292 0.00050919558041404706 0 -0.0056847545029831059 0.000505679011323928 0 -0.0044789366315930732 0.0002245800382668291 0 -0.0048926802229674283 0.0005064276366209768 0 -0.0056844994928683442 0.00050750180227144431 0 -0.0056814474320128292 0.00050919558041404706 0 -0.0056847545029831059 0.000505679011323928 0 -0.0077304088987407383 0.00042237520435227209 0 -0.007608012600052067 0.00064673369578706862 0 -0.0075676572018479301 0.00034696383562984239 0 -0.007608012600052067 0.00064673369578706862 0 -0.0075676572018479301 0.00034696383562984239 0 -0.0074357546313527341 0.00051464695480776877 0 -0.0077113540912735678 0.0002847644824325812 0 -0.0077304088987407383 0.00042237520435227209 0 -0.0075676572018479301 0.00034696383562984239 0 -0.0075676572018479301 0.00034696383562984239 0 -0.0074076593764680022 0.0003135553311272307 0 -0.0076065131258169294 0.00018083561856489872 0 -0.0077113540912735678 0.0002847644824325812 0 -0.0075676572018479301 0.00034696383562984239 0 -0.0076065131258169294 0.00018083561856489872 0 -0.0074076593764680022 0.0003135553311272307 0 -0.0072253569273905355 0.00021914454630785947 0 -0.0074661583195535942 0.00010605674817938986 0 -0.0075676572018479301 0.00034696383562984239 0 -0.0074076593764680022 0.0003135553311272307 0 -0.0074357546313527341 0.00051464695480776877 0 -0.0074076593764680022 0.0003135553311272307 0 -0.0074357546313527341 0.00051464695480776877 0 -0.0072302855741511254 0.00050929913089662086 0 -0.0073751584877259913 0.00073139755917975291 0 -0.0074357546313527341 0.00051464695480776877 0 -0.0072302855741511254 0.00050929913089662086 0 -0.0069857164387921063 0.00072162550602205666 0 -0.0072302855741511254 0.00050929913089662086 0 -0.0070667185188045432 0.00047891823228740486 0 -0.0069857164387921063 0.00072162550602205666 0 -0.0070667185188045432 0.00047891823228740486 0 -0.006892866760828148 0.00038576851034007032 0 -0.006892866760828148 0.00038576851034007032 0 -0.0072253569273905355 0.00021914454630785947 0 -0.0068851186755837027 4.6137543766009259e-05 0 -0.0070667185188045432 0.00047891823228740486 0 -0.006892866760828148 0.00038576851034007032 0 -0.0072253569273905355 0.00021914454630785947 0 -0.0072302855741511254 0.00050929913089662086 0 -0.0070667185188045432 0.00047891823228740486 0 -0.0072253569273905355 0.00021914454630785947 0 -0.0074076593764680022 0.0003135553311272307 0 -0.0072302855741511254 0.00050929913089662086 0 -0.0072253569273905355 0.00021914454630785947 0 -0.0072253569273905355 0.00021914454630785947 0 -0.0073528336715900965 1.110444454021635e-06 0 -0.0074661583195535942 0.00010605674817938986 0 -0.0072263128028191128 0.00019966281462709102 0 -0.0071554056162774346 -3.7087080276404636e-05 0 -0.0072253569273905355 0.00021914454630785947 0 -0.0072204776480779154 1.108311426078268e-05 0 -0.0073528336715900965 1.110444454021635e-06 0 -0.0072253569273905355 0.00021914454630785947 0 -0.0068851186755837027 4.6137543766009259e-05 0 -0.0070864027987524534 -0.00010736904666113596 0 -0.0068748286056629273 -0.00020217540000632325 0 -0.0070864027987524534 -0.00010736904666113596 0 -0.0069559158355067376 -0.00040060927876937451 0 -0.0068748286056629273 -0.00020217540000632325 0 -0.0068851186755837027 4.6137543766009259e-05 0 -0.0070864027987524534 -0.00010736904666113596 0 -0.0071554056162774346 -3.7087080276404636e-05 0 -0.0070859974779874718 -0.00028014002739312175 0 -0.0072204776480779154 1.108311426078268e-05 0 -0.0073528336715900965 1.110444454021635e-06 0 -0.0073422264886400974 -0.00013317307091307104 0 -0.0073528336715900965 1.110444454021635e-06 0 -0.0075370801817531089 -7.6019674407096661e-05 0 -0.0073422264886400974 -0.00013317307091307104 0 -0.0073528336715900965 1.110444454021635e-06 0 -0.0075370801817531089 -7.6019674407096661e-05 0 -0.0074661583195535942 0.00010605674817938986 0 -0.0077257116197801661 -4.426964136935888e-05 0 -0.0075370801817531089 -7.6019674407096661e-05 0 -0.0076191583321185219 5.9203408307164428e-05 0 -0.0075370801817531089 -7.6019674407096661e-05 0 -0.0076191583321185219 5.9203408307164428e-05 0 -0.0074661583195535942 0.00010605674817938986 0 -0.0076191583321185219 5.9203408307164428e-05 0 -0.0076065131258169294 0.00018083561856489872 0 -0.0074661583195535942 0.00010605674817938986 0 -0.0077673948901685061 0.00014248987715328714 0 -0.0076191583321185219 5.9203408307164428e-05 0 -0.0076065131258169294 0.00018083561856489872 0 -0.0077113540912735678 0.0002847644824325812 0 -0.0077673948901685061 0.00014248987715328714 0 -0.0076065131258169294 0.00018083561856489872 0 -0.0074076593764680022 0.0003135553311272307 0 -0.0076065131258169294 0.00018083561856489872 0 -0.0074661583195535942 0.00010605674817938986 0 -0.0080145056227126053 -0.00028965644733619262 0 -0.0076188559865605805 -0.00028216268244236756 0 -0.0075389942920431928 -0.00027999395875783601 0 -0.0073422264886400974 -0.00013317307091307104 0 -0.0073851428408800851 -0.00034891825980360168 0 -0.0084611866057089907 -0.00031096192741179472 0 -0.0083198777032545586 -0.00037304224575517497 0 -0.0084391759628869474 -0.00044407508340843759 0 -0.0084611866057089907 -0.00031096192741179472 0 -0.0084391759628869474 -0.00044407508340843759 0 -0.0085730254802762196 -0.0004726970084492849 0 -0.0091795538134532562 -0.00054241386324618292 0 -0.0091648130090980218 -0.00057705432748058217 0 -0.0091926396409307189 -0.00052872921415978878 0 -0.0085973318952742208 -0.00024919189830428269 0 -0.0084611866057089907 -0.00031096192741179472 0 -0.0085730254802762196 -0.0004726970084492849 0 -0.0082897605100531822 -0.00032268203312570641 0 -0.0089215822192452512 -0.00051282460046287955 0 -0.0082897605100531822 -0.00032268203312570641 0 -0.0080145056227126053 -0.00028965644733619262 0 -0.0077257116197801661 -4.426964136935888e-05 0 -0.0076979924399521171 -0.00021449895623214894 0 -0.0075370801817531089 -7.6019674407096661e-05 0 -0.0076979924399521171 -0.00021449895623214894 0 -0.0075370801817531089 -7.6019674407096661e-05 0 -0.0075389942920431928 -0.00027999395875783601 0 -0.0075370801817531089 -7.6019674407096661e-05 0 -0.0075389942920431928 -0.00027999395875783601 0 -0.0073422264886400974 -0.00013317307091307104 0 -0.0073087616988670384 -0.00014996495924317352 0 -0.0076188559865605805 -0.00028216268244236756 0 -0.0072204776480779154 1.108311426078268e-05 0 -0.0073422264886400974 -0.00013317307091307104 0 -0.0072873278631462078 -0.00017301172852811559 0 -0.0073422264886400974 -0.00013317307091307104 0 -0.0072873278631462078 -0.00017301172852811559 0 -0.0073298313582614944 -0.00023114452586396765 0 -0.0072204776480779154 1.108311426078268e-05 0 -0.0072873278631462078 -0.00017301172852811559 0 -0.0072116247229817524 -0.00015263746504115953 0 -0.0072873278631462078 -0.00017301172852811559 0 -0.0072116247229817524 -0.00015263746504115953 0 -0.007271901433789885 -0.00025225027969967589 0 -0.0070859974779874718 -0.00028014002739312175 0 -0.0069642253505074383 -0.00044128557174779551 0 -0.0072116247229817524 -0.00015263746504115953 0 -0.007271901433789885 -0.00025225027969967589 0 -0.0071817493846677658 -0.00029185907278531196 0 -0.007271901433789885 -0.00025225027969967589 0 -0.0073481026299841712 -0.000313074760463173 0 -0.0072787306281253778 -0.00034449780368552425 0 -0.007271901433789885 -0.00025225027969967589 0 -0.0072787306281253778 -0.00034449780368552425 0 -0.0071817493846677658 -0.00029185907278531196 0 -0.0073422264886400974 -0.00013317307091307104 0 -0.0073298313582614944 -0.00023114452586396765 0 -0.0073993817572645436 -0.00028150019747427701 0 -0.0072873278631462078 -0.00017301172852811559 0 -0.007271901433789885 -0.00025225027969967589 0 -0.0073298313582614944 -0.00023114452586396765 0 -0.007271901433789885 -0.00025225027969967589 0 -0.0073298313582614944 -0.00023114452586396765 0 -0.0073481026299841712 -0.000313074760463173 0 -0.0076188559865605805 -0.00028216268244236756 0 -0.0073455817790987268 -0.00034014924126262315 0 -0.0073298313582614944 -0.00023114452586396765 0 -0.0073993817572645436 -0.00028150019747427701 0 -0.0073481026299841712 -0.000313074760463173 0 -0.0073481026299841712 -0.000313074760463173 0 -0.0073507818448713567 -0.00043161644138703251 0 -0.0074863944893003029 -0.00043113762559352637 0 -0.0074435827547010445 -0.0002686964470504216 0 -0.0073481026299841712 -0.000313074760463173 0 -0.0074863944893003029 -0.00043113762559352637 0 -0.0072787306281253778 -0.00034449780368552425 0 -0.0072436637735785736 -0.00044013520561825086 0 -0.0071817493846677658 -0.00029185907278531196 0 -0.0073481026299841712 -0.000313074760463173 0 -0.0073507818448713567 -0.00043161644138703251 0 -0.0072787306281253778 -0.00034449780368552425 0 -0.0073507818448713567 -0.00043161644138703251 0 -0.0072787306281253778 -0.00034449780368552425 0 -0.0072436637735785736 -0.00044013520561825086 0 -0.0072436637735785736 -0.00044013520561825086 0 -0.0073625327676244455 -0.00058325415448661801 0 -0.0072166120420271715 -0.00058123422496528894 0 -0.0073507818448713567 -0.00043161644138703251 0 -0.0072436637735785736 -0.00044013520561825086 0 -0.0073625327676244455 -0.00058325415448661801 0 -0.0074863944893003029 -0.00043113762559352637 0 -0.0075322438629691216 -0.00058145683106420286 0 -0.0073625327676244455 -0.00058325415448661801 0 -0.0073507818448713567 -0.00043161644138703251 0 -0.0074863944893003029 -0.00043113762559352637 0 -0.0073625327676244455 -0.00058325415448661801 0 -0.0084635598633215868 -0.00057273341639099034 0 -0.00835773115571092 -0.00053994556262893921 0 -0.0083975752381458407 -0.00070747830169578488 0 -0.0084635598633215868 -0.00057273341639099034 0 -0.0085496644286403075 -0.00069986687655624311 0 -0.0083975752381458407 -0.00070747830169578488 0 -0.0078738564613179112 -0.00046276811149610609 0 -0.0091554044344996695 -0.00067841877013570409 0 -0.0083198777032545586 -0.00037304224575517497 0 -0.00835773115571092 -0.00053994556262893921 0 -0.0084391759628869474 -0.00044407508340843759 0 -0.0076188559865605805 -0.00028216268244236756 0 -0.0078738564613179112 -0.00046276811149610609 0 -0.0084635598633215868 -0.00057273341639099034 0 -0.00835773115571092 -0.00053994556262893921 0 -0.0084391759628869474 -0.00044407508340843759 0 -0.0084635598633215868 -0.00057273341639099034 0 -0.0084391759628869474 -0.00044407508340843759 0 -0.0085730254802762196 -0.0004726970084492849 0 -0.0092050726846687348 -0.00053114955572589571 0 -0.0091926396409307189 -0.00052872921415978878 0 -0.0091992266102981762 -0.00054448930110731161 0 -0.0089215822192452512 -0.00051282460046287955 0 -0.0091452724697787292 -0.0006382841397023708 0 -0.0084635598633215868 -0.00057273341639099034 0 -0.0085730254802762196 -0.0004726970084492849 0 -0.0085496644286403075 -0.00069986687655624311 0 -0.0091452724697787292 -0.0006382841397023708 0 -0.0095328269646820073 -0.00041189986507246605 0 -0.0095131324074221296 -0.00063698828120797542 0 -0.0096055080296931199 -0.00053725264631686559 0 -0.0095425554251593447 -0.00045564989977541859 0 -0.0095131324074221296 -0.00063698828120797542 0 -0.0096055080296931199 -0.00053725264631686559 0 -0.0097019799570521523 -0.00062821072111277521 0 -0.0093665813321611533 -0.00042613903616126422 0 -0.0094744319407727082 -0.00055453303760815852 0 -0.0095127527120699943 -0.00040838948277485991 0 -0.0096055080296931199 -0.00053725264631686559 0 -0.0097019799570521523 -0.00062821072111277521 0 -0.0096637240819322841 -0.00039569064498810392 0 -0.0091554044344996695 -0.00067841877013570409 0 -0.010255789991456479 -0.00040288389416057537 0 -0.0091452724697787292 -0.0006382841397023708 0 -0.0091554044344996695 -0.00067841877013570409 0 -0.010871698332561176 -0.00039054621934707698 0 -0.010897963802045709 -0.0004341500336267424 0 -0.010859229169054102 -0.00041951825359705873 0 -0.0095328269646820073 -0.00041189986507246605 0 -0.0095631572980368184 -0.00029619122549192029 0 -0.0096637240819322841 -0.00039569064498810392 0 -0.0095425554251593447 -0.00045564989977541859 0 -0.0095742077921000899 -0.00027627444361270366 0 -0.0095127527120699943 -0.00040838948277485991 0 -0.0094657671968744837 -0.00030792173109205171 0 -0.0095742077921000899 -0.00027627444361270366 0 -0.0096055080296931199 -0.00053725264631686559 0 -0.0096637240819322841 -0.00039569064498810392 0 -0.0095425554251593447 -0.00045564989977541859 0 -0.0093665813321611533 -0.00042613903616126422 0 -0.0095127527120699943 -0.00040838948277485991 0 -0.0094657671968744837 -0.00030792173109205171 0 -0.0094657671968744837 -0.00030792173109205171 0 -0.009551197127780053 -0.00021239505270131235 0 -0.0095742077921000899 -0.00027627444361270366 0 -0.009458285961011054 -0.00019583388440039403 0 -0.0094657671968744837 -0.00030792173109205171 0 -0.009551197127780053 -0.00021239505270131235 0 -0.009458285961011054 -0.00019583388440039403 0 -0.009551197127780053 -0.00021239505270131235 0 -0.0095453635758901857 -0.00016106720928727223 0 -0.009551197127780053 -0.00021239505270131235 0 -0.0095742077921000899 -0.00027627444361270366 0 -0.0096368694621553827 -0.00017316750104515052 0 -0.010897963802045709 -0.0004341500336267424 0 -0.010921323987735898 -0.00047866473703192199 0 -0.01086921399795541 -0.00045564572716700518 0 -0.010255789991456479 -0.00040288389416057537 0 -0.011714055560243559 -0.00018664039052022899 0 -0.0096637240819322841 -0.00039569064498810392 0 -0.0095742077921000899 -0.00027627444361270366 0 -0.0096368694621553827 -0.00017316750104515052 0 -0.011714055560243559 -0.00018664039052022899 0 -0.01335989189585912 0.00019263940771651594 0 -0.015426647399591492 0.00074481762975680741 0 -0.015370207524831191 0.00067651290238234202 0 -0.015258783337937933 0.00085214490816825337 0 -0.015426647399591492 0.00074481762975680741 0 -0.015370207524831191 0.00067651290238234202 0 -0.015460679019030286 0.00060355040204768682 0 -0.0096417121416361787 -0.00017715381714630501 0 -0.0096195586008769526 -0.00016537232388374264 0 -0.0096304031441737051 1.6333513290975649e-05 0 -0.011714055560243559 -0.00018664039052022899 0 -0.013308797413549438 0.00034142180234377812 0 -0.0095349100747183294 -9.1560876143892853e-05 0 -0.0096195586008769526 -0.00016537232388374264 0 -0.0096304031441737051 1.6333513290975649e-05 0 -0.0094230794638273229 -5.944371776833654e-05 0 -0.0095349100747183294 -9.1560876143892853e-05 0 -0.0096304031441737051 1.6333513290975649e-05 0 -0.009458285961011054 -0.00019583388440039403 0 -0.0095349100747183294 -9.1560876143892853e-05 0 -0.0095453635758901857 -0.00016106720928727223 0 -0.0095349100747183294 -9.1560876143892853e-05 0 -0.0095453635758901857 -0.00016106720928727223 0 -0.0096195586008769526 -0.00016537232388374264 0 -0.009551197127780053 -0.00021239505270131235 0 -0.0095453635758901857 -0.00016106720928727223 0 -0.0096195586008769526 -0.00016537232388374264 0 -0.009551197127780053 -0.00021239505270131235 0 -0.0096368694621553827 -0.00017316750104515052 0 -0.0096195586008769526 -0.00016537232388374264 0 -0.011714055560243559 -0.00018664039052022899 0 -0.011348907988486198 -5.345251203129247e-05 0 -0.015240041624861327 0.00066208674374482039 0 -0.015115680406907287 0.00080753690290564703 0 -0.01503691798086218 0.0006816758844012589 0 -0.015370207524831191 0.00067651290238234202 0 -0.015240041624861327 0.00066208674374482039 0 -0.015258783337937933 0.00085214490816825337 0 -0.015240041624861327 0.00066208674374482039 0 -0.015258783337937933 0.00085214490816825337 0 -0.015115680406907287 0.00080753690290564703 0 -0.015115680406907287 0.00080753690290564703 0 -0.015054644635121604 0.00096276436176804332 0 -0.015025858209547863 0.00087761469262419007 0 -0.015258783337937933 0.00085214490816825337 0 -0.015115680406907287 0.00080753690290564703 0 -0.015054644635121604 0.00096276436176804332 0 -0.010811439462232723 -0.00042939202622409393 0 -0.010859229169054102 -0.00041951825359705873 0 -0.010831029029510759 -0.00038973623885223807 0 -0.01335989189585912 0.00019263940771651594 0 -0.012677954352023155 7.8878976755696913e-05 0 -0.01086921399795541 -0.00045564572716700518 0 -0.010811439462232723 -0.00042939202622409393 0 -0.010859229169054102 -0.00041951825359705873 0 -0.010897963802045709 -0.0004341500336267424 0 -0.01086921399795541 -0.00045564572716700518 0 -0.010859229169054102 -0.00041951825359705873 0 -0.010871698332561176 -0.00039054621934707698 0 -0.010859229169054102 -0.00041951825359705873 0 -0.010831029029510759 -0.00038973623885223807 0 -0.0091554044344996695 -0.00067841877013570409 0 -0.0090085299359323693 -0.000490042062800806 0 -0.010811439462232723 -0.00042939202622409393 0 -0.010831029029510759 -0.00038973623885223807 0 -0.010782305423324532 -0.00038822693925594313 0 -0.0090085299359323693 -0.000490042062800806 0 -0.0095083177438527299 -0.00027628843488351117 0 -0.011427349965003733 9.6012234356273891e-05 0 -0.011147015562855953 8.338698843518005e-05 0 -0.011115351074149382 -1.6780854965301291e-06 0 -0.012677954352023155 7.8878976755696913e-05 0 -0.0095083177438527299 -0.00027628843488351117 0 -0.011556763377951076 -0.00023743524237305333 0 -0.011427349965003733 9.6012234356273891e-05 0 -0.011115351074149382 -1.6780854965301291e-06 0 -0.0095083177438527299 -0.00027628843488351117 0 -0.010093906750167515 -0.00025621715411240783 0 -0.010093906750167515 -0.00025621715411240783 0 -0.0098361486163779568 0.00025322078803954493 0 -0.0063684362123241278 0.00075761686386418528 0 -0.0067241712203788724 0.00080048117901940642 0 -0.0064550375879299298 0.00054638177117672282 0 -0.012973751849036244 -0.00037125083563285252 0 -0.012990348237623168 -0.00034499129689370662 0 -0.013104339384536029 -0.00036501888471480027 0 -0.010093906750167515 -0.00025621715411240783 0 -0.012885643940615516 0.00055565168193058925 0 -0.012990348237623168 -0.00034499129689370662 0 -0.013075398396362863 -0.00023417476186707352 0 -0.013071117962964774 -0.00031225916767039548 0 -0.014841555728665889 0.0010651662221089762 0 -0.014966242889880159 0.00092834030957119501 0 -0.01477995648361718 0.00087206567811885858 0 -0.012885643940615516 0.00055565168193058925 0 -0.014047449165412961 0.00032592847026930582 0 -0.015054644635121604 0.00096276436176804332 0 -0.014841555728665889 0.0010651662221089762 0 -0.014966242889880159 0.00092834030957119501 0 -0.012677954352023155 7.8878976755696913e-05 0 -0.012885643940615516 0.00055565168193058925 0 -0.015054644635121604 0.00096276436176804332 0 -0.014966242889880159 0.00092834030957119501 0 -0.015025858209547863 0.00087761469262419007 0 -0.015115680406907287 0.00080753690290564703 0 -0.015025858209547863 0.00087761469262419007 0 -0.014966067578064096 0.00081450266966792771 0 -0.014966242889880159 0.00092834030957119501 0 -0.015025858209547863 0.00087761469262419007 0 -0.014966067578064096 0.00081450266966792771 0 -0.015115680406907287 0.00080753690290564703 0 -0.014966067578064096 0.00081450266966792771 0 -0.01503691798086218 0.0006816758844012589 0 -0.014966242889880159 0.00092834030957119501 0 -0.014966067578064096 0.00081450266966792771 0 -0.01477995648361718 0.00087206567811885858 0 -0.014966067578064096 0.00081450266966792771 0 -0.01477995648361718 0.00087206567811885858 0 -0.014860153830208443 0.00070193417983097626 0 -0.01477995648361718 0.00087206567811885858 0 -0.014860153830208443 0.00070193417983097626 0 -0.014708168677176885 0.00067866866577039942 0 -0.014966067578064096 0.00081450266966792771 0 -0.014860153830208443 0.00070193417983097626 0 -0.01503691798086218 0.0006816758844012589 0 -0.01327107733490801 -0.00013988936250564391 0 -0.013192572320062147 -0.00020257127110139217 0 -0.01328694358730855 -0.00022536669898732653 0 -0.01327107733490801 -0.00013988936250564391 0 -0.013146192096282566 -0.00014168735146543706 0 -0.013192572320062147 -0.00020257127110139217 0 -0.014860153830208443 0.00070193417983097626 0 -0.014708168677176885 0.00067866866577039942 0 -0.014766058647652456 0.00054278106392306833 0 -0.013075398396362863 -0.00023417476186707352 0 -0.013146192096282566 -0.00014168735146543706 0 -0.013192572320062147 -0.00020257127110139217 0 -0.013075398396362863 -0.00023417476186707352 0 -0.013192572320062147 -0.00020257127110139217 0 -0.013183550999579801 -0.0002714281901690038 0 -0.014047449165412961 0.00032592847026930582 0 -0.013849544749178331 0.00023989589838700236 0 -0.013192572320062147 -0.00020257127110139217 0 -0.013183550999579801 -0.0002714281901690038 0 -0.01328694358730855 -0.00022536669898732653 0 -0.013183550999579801 -0.0002714281901690038 0 -0.013071117962964774 -0.00031225916767039548 0 -0.013104339384536029 -0.00036501888471480027 0 -0.013075398396362863 -0.00023417476186707352 0 -0.013183550999579801 -0.0002714281901690038 0 -0.013071117962964774 -0.00031225916767039548 0 -0.012990348237623168 -0.00034499129689370662 0 -0.013071117962964774 -0.00031225916767039548 0 -0.013104339384536029 -0.00036501888471480027 0 -0.0098361486163779568 0.00025322078803954493 0 -0.010182159642206213 0.00024291999205675087 0 -0.0067241712203788724 0.00080048117901940642 0 -0.0069164025664691471 0.00053889532811484883 0 -0.0071455915634639133 0.00085680051036086165 0 -0.013183550999579801 -0.0002714281901690038 0 -0.013104339384536029 -0.00036501888471480027 0 -0.013221266702982445 -0.00035157308528349553 0 -0.0069164025664691471 0.00053889532811484883 0 -0.0069011931425257177 0.00018405347376041577 0 -0.0066328110015426147 0.0004206550758056039 0 -0.0069164025664691471 0.00053889532811484883 0 -0.0069011931425257177 0.00018405347376041577 0 -0.0072657907352593207 0.00047052249925506233 0 -0.0069011931425257177 0.00018405347376041577 0 -0.0066328110015426147 0.0004206550758056039 0 -0.0065168277104968274 0.00015597524624743464 0 -0.0066328110015426147 0.0004206550758056039 0 -0.0064230255201568028 0.00033468031748636268 0 -0.0065168277104968274 0.00015597524624743464 0 -0.0067241712203788724 0.00080048117901940642 0 -0.0069164025664691471 0.00053889532811484883 0 -0.0066328110015426147 0.0004206550758056039 0 -0.0067241712203788724 0.00080048117901940642 0 -0.0066328110015426147 0.0004206550758056039 0 -0.0064550375879299298 0.00054638177117672282 0 -0.0063684362123241278 0.00075761686386418528 0 -0.0064550375879299298 0.00054638177117672282 0 -0.0062284430784335671 0.00043275478787227711 0 -0.0064550375879299298 0.00054638177117672282 0 -0.0062284430784335671 0.00043275478787227711 0 -0.0064230255201568028 0.00033468031748636268 0 -0.0066328110015426147 0.0004206550758056039 0 -0.0064550375879299298 0.00054638177117672282 0 -0.0064230255201568028 0.00033468031748636268 0 -0.010093906750167515 -0.00025621715411240783 0 -0.0071725026309780188 -0.00016625213761584104 0 -0.0088340148117037071 -0.00017191451269358936 0 -0.0089476111770065477 -0.0001664111827187113 0 -0.0088731912538588704 -0.00031571743533902966 0 -0.0095083177438527299 -0.00027628843488351117 0 -0.0071725026309780188 -0.00016625213761584104 0 -0.0072436637735785736 -0.00044013520561825086 0 -0.0072166120420271715 -0.00058123422496528894 0 -0.0071603753857348877 -0.00044527083326051804 0 -0.0072436637735785736 -0.00044013520561825086 0 -0.0071603753857348877 -0.00044527083326051804 0 -0.0072090476947536094 -0.0003186722963002995 0 -0.0072586693380465844 -0.00039398960020555385 0 -0.0069642253505074383 -0.00044128557174779551 0 -0.0071725026309780188 -0.00016625213761584104 0 -0.0069642253505074383 -0.00044128557174779551 0 -0.0071725026309780188 -0.00016625213761584104 0 -0.0063996429316868254 -5.6080520452323347e-05 0 -0.0066432893635601223 -0.00048255170892177806 0 -0.0065971045321139886 -0.00037671490731654145 0 -0.0066880218902226913 -0.00037048489972436166 0 -0.0062284430784335671 0.00043275478787227711 0 -0.0064230255201568028 0.00033468031748636268 0 -0.0063269647813304119 0.00014673370319741874 0 -0.0064230255201568028 0.00033468031748636268 0 -0.0063269647813304119 0.00014673370319741874 0 -0.0065168277104968274 0.00015597524624743464 0 -0.0063996429316868254 -5.6080520452323347e-05 0 -0.0064732601880766712 -0.00016892259675122293 0 -0.0063269647813304119 0.00014673370319741874 0 -0.0064004760103901397 -7.2026512511115339e-05 0 -0.0065168277104968274 0.00015597524624743464 0 -0.0065971045321139886 -0.00037671490731654145 0 -0.0066268859802721142 -0.00031564122896731827 0 -0.0065335171294370505 -0.00025536382429314247 0 -0.0069642253505074383 -0.00044128557174779551 0 -0.0067059323383606958 -0.00033544934797120641 0 -0.0066880218902226913 -0.00037048489972436166 0 -0.0066268859802721142 -0.00031564122896731827 0 -0.0066628225814167642 -0.0002467727787360859 0 -0.0065971045321139886 -0.00037671490731654145 0 -0.0066880218902226913 -0.00037048489972436166 0 -0.0066268859802721142 -0.00031564122896731827 0 -0.0066268859802721142 -0.00031564122896731827 0 -0.0066628225814167642 -0.0002467727787360859 0 -0.0065335171294370505 -0.00025536382429314247 0 -0.0069559158355067376 -0.00040060927876937451 0 -0.0068412323658786963 -0.0006784248328014482 0 -0.0067673815290250697 -0.00040992870859143054 0 -0.0068748286056629273 -0.00020217540000632325 0 -0.0069559158355067376 -0.00040060927876937451 0 -0.0067673815290250697 -0.00040992870859143054 0 -0.006586900161732339 -0.00017796917290758494 0 -0.0066628225814167642 -0.0002467727787360859 0 -0.0065335171294370505 -0.00025536382429314247 0 -0.0064244620475563544 -0.00014608374176370274 0 -0.0064484248018783228 -9.1033033822469003e-05 0 -0.0065234597954640008 -7.2856567599004722e-06 0 -0.0064456409561458143 -9.5501719898993858e-05 0 -0.0064004760103901397 -7.2026512511115339e-05 0 -0.0064484248018783228 -9.1033033822469003e-05 0 -0.0064004760103901397 -7.2026512511115339e-05 0 -0.0064484248018783228 -9.1033033822469003e-05 0 -0.0065234597954640008 -7.2856567599004722e-06 0 -0.0064244620475563544 -0.00014608374176370274 0 -0.0065234597954640008 -7.2856567599004722e-06 0 -0.0066596345424510565 -2.0382180596804651e-05 0 -0.0066347000473674922 -0.00017611350058058142 0 -0.0064244620475563544 -0.00014608374176370274 0 -0.0066596345424510565 -2.0382180596804651e-05 0 -0.0068115174894883999 0.00022210320898709258 0 -0.0065394042571236448 -3.779979136754478e-06 0 -0.0066342727098167888 0.00019427040462315014 0 -0.0065234597954640008 -7.2856567599004722e-06 0 -0.0066596345424510565 -2.0382180596804651e-05 0 -0.0064004760103901397 -7.2026512511115339e-05 0 -0.0065234597954640008 -7.2856567599004722e-06 0 -0.0065168277104968274 0.00015597524624743464 0 -0.0069011931425257177 0.00018405347376041577 0 -0.0065234597954640008 -7.2856567599004722e-06 0 -0.0065168277104968274 0.00015597524624743464 0 -0.008317854885802162 -0.00013378702296449084 0 -0.008433265383069594 -9.8553248570276467e-05 0 -0.0085982307256374027 0.00013058975555749273 0 -0.0083147813905113804 -0.00026005511470467737 0 -0.0085982307256374027 0.00013058975555749273 0 -0.0083279869271980361 0.00035820892576207312 0 -0.006961685097339439 3.0326336017680573e-05 0 -0.0068206357278525259 0.00017269356215385856 0 -0.0069876701992140884 0.00031319167588453301 0 -0.0080140124599879601 -0.00014022777947901677 0 -0.0074321269086625712 0.00043107355579342151 0 -0.0080140124599879601 -0.00014022777947901677 0 -0.0086176694689852115 0.00012571877589184966 0 -0.0066596345424510565 -2.0382180596804651e-05 0 -0.006961685097339439 3.0326336017680573e-05 0 -0.0068206357278525259 0.00017269356215385856 0 -0.0066342727098167888 0.00019427040462315014 0 -0.0066596345424510565 -2.0382180596804651e-05 0 -0.0068206357278525259 0.00017269356215385856 0 -0.0068119139793597402 -0.00014676749955354728 0 -0.0066596345424510565 -2.0382180596804651e-05 0 -0.006961685097339439 3.0326336017680573e-05 0 -0.0068119139793597402 -0.00014676749955354728 0 -0.0066347000473674922 -0.00017611350058058142 0 -0.0066596345424510565 -2.0382180596804651e-05 0 -0.008317854885802162 -0.00013378702296449084 0 -0.0083048275552302358 -0.00021065994532096238 0 -0.0083986822907904015 -0.00015908347912235111 0 -0.0075396403096259649 -0.00017975664354453783 0 -0.0080140124599879601 -0.00014022777947901677 0 -0.0082053638657279566 -0.00021787490377764914 0 -0.0083024760972349489 -8.4223893376056261e-05 0 -0.0083048275552302358 -0.00021065994532096238 0 -0.0080140124599879601 -0.00014022777947901677 0 -0.0082962228590706451 -0.00018900773298199109 0 -0.008317854885802162 -0.00013378702296449084 0 -0.008433265383069594 -9.8553248570276467e-05 0 -0.0083986822907904015 -0.00015908347912235111 0 -0.0083048275552302358 -0.00021065994532096238 0 -0.0083859208753891013 -0.00020041198980033257 0 -0.0083986822907904015 -0.00015908347912235111 0 -0.0083859208753891013 -0.00020041198980033257 0 -0.0084308291412235857 -0.00018309261369542335 0 -0.0083986822907904015 -0.00015908347912235111 0 -0.0084308291412235857 -0.00018309261369542335 0 -0.0084592798169244258 -0.00015032698473284396 0 -0.0084862968572674315 -0.00016518697993289907 0 -0.0084212327351545699 -0.00023049765524026916 0 -0.0083859208753891013 -0.00020041198980033257 0 -0.0084308291412235857 -0.00018309261369542335 0 -0.0084762196691856532 -0.000208648784146928 0 -0.0084212327351545699 -0.00023049765524026916 0 -0.0084308291412235857 -0.00018309261369542335 0 -0.0084592798169244258 -0.00015032698473284396 0 -0.0085029425768081597 -0.00011969712016482704 0 -0.00845468730185721 -0.00011809228276104862 0 -0.0084592798169244258 -0.00015032698473284396 0 -0.0083986822907904015 -0.00015908347912235111 0 -0.00845468730185721 -0.00011809228276104862 0 -0.0084308291412235857 -0.00018309261369542335 0 -0.0084592798169244258 -0.00015032698473284396 0 -0.0083986822907904015 -0.00015908347912235111 0 -0.008433265383069594 -9.8553248570276467e-05 0 -0.0083986822907904015 -0.00015908347912235111 0 -0.00845468730185721 -0.00011809228276104862 0 -0.0085181505307083665 -0.00018953334819265272 0 -0.0085222312598526931 -0.00015526781565347467 0 -0.0085593335443357038 -0.00016487139345833094 0 -0.0085401157541321292 -0.00020845654001560264 0 -0.0085181505307083665 -0.00018953334819265272 0 -0.0085593335443357038 -0.00016487139345833094 0 -0.0085181505307083665 -0.00018953334819265272 0 -0.0084862968572674315 -0.00016518697993289907 0 -0.0085222312598526931 -0.00015526781565347467 0 -0.0084762196691856532 -0.000208648784146928 0 -0.0084308291412235857 -0.00018309261369542335 0 -0.0084862968572674315 -0.00016518697993289907 0 -0.0084762196691856532 -0.000208648784146928 0 -0.0085181505307083665 -0.00018953334819265272 0 -0.0084862968572674315 -0.00016518697993289907 0 -0.0084592798169244258 -0.00015032698473284396 0 -0.0084862968572674315 -0.00016518697993289907 0 -0.0085029425768081597 -0.00011969712016482704 0 -0.0084862968572674315 -0.00016518697993289907 0 -0.0085222312598526931 -0.00015526781565347467 0 -0.0085029425768081597 -0.00011969712016482704 0 -0.0085222312598526931 -0.00015526781565347467 0 -0.008547111885167654 -0.00012672402164318886 0 -0.0085029425768081597 -0.00011969712016482704 0 -0.0085222312598526931 -0.00015526781565347467 0 -0.008547111885167654 -0.00012672402164318886 0 -0.0085593335443357038 -0.00016487139345833094 0 -0.0085029425768081597 -0.00011969712016482704 0 -0.0085241448037781074 -7.7015101261403485e-05 0 -0.0085665642282057863 -8.7102222141737209e-05 0 -0.008547111885167654 -0.00012672402164318886 0 -0.0085029425768081597 -0.00011969712016482704 0 -0.0085665642282057863 -8.7102222141737209e-05 0 -0.0085029425768081597 -0.00011969712016482704 0 -0.0085241448037781074 -7.7015101261403485e-05 0 -0.0084779765546536962 -9.1195056095876245e-05 0 -0.0085241448037781074 -7.7015101261403485e-05 0 -0.0084779765546536962 -9.1195056095876245e-05 0 -0.0084991490800600481 -4.2801627731068845e-05 0 -0.0085241448037781074 -7.7015101261403485e-05 0 -0.0085768096521816103 -4.4555681805978445e-05 0 -0.0085665642282057863 -8.7102222141737209e-05 0 -0.0085241448037781074 -7.7015101261403485e-05 0 -0.0084991490800600481 -4.2801627731068845e-05 0 -0.0085768096521816103 -4.4555681805978445e-05 0 -0.008433265383069594 -9.8553248570276467e-05 0 -0.0084779765546536962 -9.1195056095876245e-05 0 -0.0084991490800600481 -4.2801627731068845e-05 0 -0.008433265383069594 -9.8553248570276467e-05 0 -0.0085982307256374027 0.00013058975555749273 0 -0.0089316971554646227 0.0001119408944946133 0 -0.008469300667723851 -9.126700370926806e-05 0 -0.0087111306642123562 3.6707434742414227e-05 0 -0.008433265383069594 -9.8553248570276467e-05 0 -0.00845468730185721 -0.00011809228276104862 0 -0.0084779765546536962 -9.1195056095876245e-05 0 -0.0085029425768081597 -0.00011969712016482704 0 -0.00845468730185721 -0.00011809228276104862 0 -0.0084779765546536962 -9.1195056095876245e-05 0 -0.0086912650850314369 0.00039164030437337298 0 -0.0089316971554646227 0.0001119408944946133 0 -0.0089332315261198871 0.00055680320416992058 0 -0.0085982307256374027 0.00013058975555749273 0 -0.0086912650850314369 0.00039164030437337298 0 -0.0089316971554646227 0.0001119408944946133 0 -0.0085982307256374027 0.00013058975555749273 0 -0.0086912650850314369 0.00039164030437337298 0 -0.0083279869271980361 0.00035820892576207312 0 -0.0087111306642123562 3.6707434742414227e-05 0 -0.0090537013425818266 0.0002416438243602078 0 -0.0089316971554646227 0.0001119408944946133 0 -0.0091902351730491546 0.00051902868712049054 0 -0.0094579202544654885 0.00045703103298511989 0 -0.0084991490800600481 -4.2801627731068845e-05 0 -0.0086132823098907015 2.6063509791313069e-06 0 -0.0085768096521816103 -4.4555681805978445e-05 0 -0.0089316971554646227 0.0001119408944946133 0 -0.0091902351730491546 0.00051902868712049054 0 -0.0089332315261198871 0.00055680320416992058 0 -0.0089332315261198871 0.00055680320416992058 0 -0.0091662036735911251 0.00085434572183031531 0 -0.0086790170493952039 0.0008081707250291657 0 -0.0091902351730491546 0.00051902868712049054 0 -0.0089332315261198871 0.00055680320416992058 0 -0.0091662036735911251 0.00085434572183031531 0 -0.0091902351730491546 0.00051902868712049054 0 -0.0091662036735911251 0.00085434572183031531 0 -0.0094642333851806346 0.00062219359709895182 0 -0.0086912650850314369 0.00039164030437337298 0 -0.0089332315261198871 0.00055680320416992058 0 -0.0086790170493952039 0.0008081707250291657 0 -0.0086912650850314369 0.00039164030437337298 0 -0.0086790170493952039 0.0008081707250291657 0 -0.0083279869271980361 0.00035820892576207312 0 -0.0069876701992140884 0.00031319167588453301 0 -0.0068096177611974614 0.00041161673049205119 0 -0.0070226937713600158 0.00063219597749595853 0 -0.0074321269086625712 0.00043107355579342151 0 -0.0092626792541060377 0.00040493871032932572 0 -0.0067815691306134093 0.00038252420261785058 0 -0.0092626792541060377 0.00040493871032932572 0 -0.0086790170493952039 0.0008081707250291657 0 -0.0083279869271980361 0.00035820892576207312 0 -0.0083563262683285684 0.0010263965322333413 0 -0.0068206357278525259 0.00017269356215385856 0 -0.0069876701992140884 0.00031319167588453301 0 -0.0068096177611974614 0.00041161673049205119 0 -0.0068115174894883999 0.00022210320898709258 0 -0.0067815691306134093 0.00038252420261785058 0 -0.0066342727098167888 0.00019427040462315014 0 -0.0068206357278525259 0.00017269356215385856 0 -0.0068096177611974614 0.00041161673049205119 0 -0.0069164025664691471 0.00053889532811484883 0 -0.0072657907352593207 0.00047052249925506233 0 -0.0071455915634639133 0.00085680051036086165 0 -0.013221266702982445 -0.00035157308528349553 0 -0.013323995654711877 -0.00033553584558777382 0 -0.013289220164636292 -0.00031043920696687666 0 -0.010182159642206213 0.00024291999205675087 0 -0.010572852447824755 0.00034372095258611572 0 -0.0072657907352593207 0.00047052249925506233 0 -0.0071455915634639133 0.00085680051036086165 0 -0.0076343493476974346 0.00082618017412753361 0 -0.0071455915634639133 0.00085680051036086165 0 -0.0076343493476974346 0.00082618017412753361 0 -0.0076384500476876054 0.00088742134434038888 0 -0.0086790170493952039 0.0008081707250291657 0 -0.0083563262683285684 0.0010263965322333413 0 -0.0084239466837356183 0.0011030847934387531 0 -0.01332370113176827 -0.00029150249614360571 0 -0.013330195694410888 -0.00029160114178208011 0 -0.013339892661119745 -0.00027011974659480647 0 -0.0092626792541060377 0.00040493871032932572 0 -0.010572852447824755 0.00034372095258611572 0 -0.0092626792541060377 0.00040493871032932572 0 -0.010952078520913377 0.00035972382024018659 0 -0.0099576253953417796 0.00046560019648332444 0 -0.0099596583666793879 0.0005347690613125446 0 -0.010022132675532563 0.00053785657925519348 0 -0.010572852447824755 0.00034372095258611572 0 -0.010952078520913377 0.00035972382024018659 0 -0.013339892661119745 -0.00027011974659480647 0 -0.013289220164636292 -0.00031043920696687666 0 -0.013272654469719562 -0.0002846589742358622 0 -0.013339892661119745 -0.00027011974659480647 0 -0.013272654469719562 -0.0002846589742358622 0 -0.013344484853067809 -0.00023397157504484345 0 -0.010572852447824755 0.00034372095258611572 0 -0.012811433696431125 -0.00042300552368970261 0 -0.013330195694410888 -0.00029160114178208011 0 -0.013339892661119745 -0.00027011974659480647 0 -0.013372419323907859 -0.00025035983337273347 0 -0.013323995654711877 -0.00033553584558777382 0 -0.013339892661119745 -0.00027011974659480647 0 -0.013289220164636292 -0.00031043920696687666 0 -0.013339892661119745 -0.00027011974659480647 0 -0.013344484853067809 -0.00023397157504484345 0 -0.01337743494288487 -0.00023646837410137435 0 -0.013183550999579801 -0.0002714281901690038 0 -0.013272654469719562 -0.0002846589742358622 0 -0.01328694358730855 -0.00022536669898732653 0 -0.013183550999579801 -0.0002714281901690038 0 -0.013221266702982445 -0.00035157308528349553 0 -0.013272654469719562 -0.0002846589742358622 0 -0.013221266702982445 -0.00035157308528349553 0 -0.013289220164636292 -0.00031043920696687666 0 -0.013272654469719562 -0.0002846589742358622 0 -0.01328694358730855 -0.00022536669898732653 0 -0.013344484853067809 -0.00023397157504484345 0 -0.013367040114541399 -0.00018667394593824952 0 -0.013272654469719562 -0.0002846589742358622 0 -0.01328694358730855 -0.00022536669898732653 0 -0.013344484853067809 -0.00023397157504484345 0 -0.013344484853067809 -0.00023397157504484345 0 -0.013367040114541399 -0.00018667394593824952 0 -0.013400231614192756 -0.00020980675115785086 0 -0.013344484853067809 -0.00023397157504484345 0 -0.013400231614192756 -0.00020980675115785086 0 -0.01337743494288487 -0.00023646837410137435 0 -0.013367040114541399 -0.00018667394593824952 0 -0.013422242209893243 -0.00018443635323602496 0 -0.013400231614192756 -0.00020980675115785086 0 -0.013367040114541399 -0.00018667394593824952 0 -0.013422242209893243 -0.00018443635323602496 0 -0.013436066892296447 -0.00015546665848883349 0 -0.013367040114541399 -0.00018667394593824952 0 -0.013347440417908689 -0.00012224011886458969 0 -0.013436066892296447 -0.00015546665848883349 0 -0.01327107733490801 -0.00013988936250564391 0 -0.013367040114541399 -0.00018667394593824952 0 -0.013347440417908689 -0.00012224011886458969 0 -0.01327107733490801 -0.00013988936250564391 0 -0.01328694358730855 -0.00022536669898732653 0 -0.013367040114541399 -0.00018667394593824952 0 -0.013434942181503725 -0.00020140911227905847 0 -0.01341006872857247 -0.00022159207492374158 0 -0.01343434611383121 -0.00020996591325040987 0 -0.013434942181503725 -0.00020140911227905847 0 -0.01343434611383121 -0.00020996591325040987 0 -0.013448024053243525 -0.00022025880002415898 0 -0.013434942181503725 -0.00020140911227905847 0 -0.013400231614192756 -0.00020980675115785086 0 -0.01341006872857247 -0.00022159207492374158 0 -0.013422242209893243 -0.00018443635323602496 0 -0.013434942181503725 -0.00020140911227905847 0 -0.013443124830160556 -0.00018848721512307209 0 -0.013422242209893243 -0.00018443635323602496 0 -0.013434942181503725 -0.00020140911227905847 0 -0.013400231614192756 -0.00020980675115785086 0 -0.013400231614192756 -0.00020980675115785086 0 -0.01337743494288487 -0.00023646837410137435 0 -0.01341006872857247 -0.00022159207492374158 0 -0.01337743494288487 -0.00023646837410137435 0 -0.01341006872857247 -0.00022159207492374158 0 -0.013372419323907859 -0.00025035983337273347 0 -0.01341006872857247 -0.00022159207492374158 0 -0.013399475283263743 -0.00024433251537762376 0 -0.013421438301158214 -0.00022879210484607034 0 -0.01341006872857247 -0.00022159207492374158 0 -0.013421438301158214 -0.00022879210484607034 0 -0.01343434611383121 -0.00020996591325040987 0 -0.01341006872857247 -0.00022159207492374158 0 -0.013399475283263743 -0.00024433251537762376 0 -0.013372419323907859 -0.00025035983337273347 0 -0.013399475283263743 -0.00024433251537762376 0 -0.013372419323907859 -0.00025035983337273347 0 -0.013374911167497507 -0.00027037156780910631 0 -0.013339892661119745 -0.00027011974659480647 0 -0.01337743494288487 -0.00023646837410137435 0 -0.013372419323907859 -0.00025035983337273347 0 -0.010952078520913377 0.00035972382024018659 0 -0.01369785731626494 -4.4066906666823848e-05 0 -0.010952078520913377 0.00035972382024018659 0 -0.011148078662215909 0.0004234657618227153 0 -0.013306833263802833 -0.0002789012912823489 0 -0.013372419323907859 -0.00025035983337273347 0 -0.013374911167497507 -0.00027037156780910631 0 -0.0086790170493952039 0.0008081707250291657 0 -0.0084239466837356183 0.0011030847934387531 0 -0.0089441995683390129 0.0011386299849161295 0 -0.011148078662215909 0.0004234657618227153 0 -0.011409952754033229 0.00073670595480942124 0 -0.0091662036735911251 0.00085434572183031531 0 -0.0086790170493952039 0.0008081707250291657 0 -0.0089441995683390129 0.0011386299849161295 0 -0.0091662036735911251 0.00085434572183031531 0 -0.0089441995683390129 0.0011386299849161295 0 -0.009486858223998253 0.0011711455639606728 0 -0.013399475283263743 -0.00024433251537762376 0 -0.013374911167497507 -0.00027037156780910631 0 -0.013403071344556103 -0.00025579720440808371 0 -0.0095056978923727733 0.0011670187583852855 0 -0.0096759297727296665 0.00091304562353573555 0 -0.0094642333851806346 0.00062219359709895182 0 -0.0091662036735911251 0.00085434572183031531 0 -0.009486858223998253 0.0011711455639606728 0 -0.0094642333851806346 0.00062219359709895182 0 -0.011409952754033229 0.00073670595480942124 0 -0.011688200170974649 0.0011725549994321858 0 -0.011409952754033229 0.00073670595480942124 0 -0.0092754657601276953 0.00081585758756313965 0 -0.0095056978923727733 0.0011670187583852855 0 -0.0096759297727296665 0.00091304562353573555 0 -0.0099784871789131164 0.0011901857617058727 0 -0.010451732196575397 0.00063089357100745876 0 -0.0092052250039321628 0.00040075091671005174 0 -0.0099784871789131164 0.0011901857617058727 0 -0.010456514388624929 0.0012085391121779338 0 -0.0099654505786894512 0.00082964085726791213 0 -0.011688200170974649 0.0011725549994321858 0 -0.010451732196575397 0.00063089357100745876 0 -0.0096759297727296665 0.00091304562353573555 0 -0.0099784871789131164 0.0011901857617058727 0 -0.0099654505786894512 0.00082964085726791213 0 -0.01304256418519256 0.0011151751075667105 0 -0.012841630157900415 0.00056089266276835366 0 -0.012340616617336937 0.0012368874576864385 0 -0.01304256418519256 0.0011151751075667105 0 -0.013251270255110578 0.00064811585760297886 0 -0.012841630157900415 0.00056089266276835366 0 -0.013251270255110578 0.00064811585760297886 0 -0.012841630157900415 0.00056089266276835366 0 -0.013183045043801352 0.0001850165483571168 0 -0.013399475283263743 -0.00024433251537762376 0 -0.013403071344556103 -0.00025579720440808371 0 -0.013421438301158214 -0.00022879210484607034 0 -0.01360962383918307 0.0010865648071826329 0 -0.01304256418519256 0.0011151751075667105 0 -0.013251270255110578 0.00064811585760297886 0 -0.011409952754033229 0.00073670595480942124 0 -0.013619972031475629 1.9525042788365638e-05 0 -0.01360962383918307 0.0010865648071826329 0 -0.013251270255110578 0.00064811585760297886 0 -0.013546276521837198 0.00036366264241068677 0 -0.013619972031475629 1.9525042788365638e-05 0 -0.013433488249388828 -0.00014365342800903819 0 -0.013546276521837198 0.00036366264241068677 0 -0.013183045043801352 0.0001850165483571168 0 -0.013435223823174405 -0.00011355825639406627 0 -0.013251270255110578 0.00064811585760297886 0 -0.013546276521837198 0.00036366264241068677 0 -0.013183045043801352 0.0001850165483571168 0 -0.012841630157900415 0.00056089266276835366 0 -0.013183045043801352 0.0001850165483571168 0 -0.012655555031676681 6.6084489751502671e-05 0 -0.013183045043801352 0.0001850165483571168 0 -0.013163005970364103 -0.00014343023671022634 0 -0.012655555031676681 6.6084489751502671e-05 0 -0.013183045043801352 0.0001850165483571168 0 -0.013163005970364103 -0.00014343023671022634 0 -0.013435223823174405 -0.00011355825639406627 0 -0.013163005970364103 -0.00014343023671022634 0 -0.013435223823174405 -0.00011355825639406627 0 -0.013447950367509834 -0.00025920657364574337 0 -0.012542429105838677 -0.0001350715831092652 0 -0.011475538492051967 3.0744486280251409e-08 0 -0.012858066494193601 -4.4256917690237178e-07 0 -0.013163005970364103 -0.00014343023671022634 0 -0.012542429105838677 -0.0001350715831092652 0 -0.012655555031676681 6.6084489751502671e-05 0 -0.013163005970364103 -0.00014343023671022634 0 -0.012542429105838677 -0.0001350715831092652 0 -0.013241189483909942 -0.00024582615113887023 0 -0.012542429105838677 -0.0001350715831092652 0 -0.012655555031676681 6.6084489751502671e-05 0 -0.012074470334165588 7.7869058563594217e-07 0 -0.012841630157900415 0.00056089266276835366 0 -0.012655555031676681 6.6084489751502671e-05 0 -0.012216146011205676 0.00031477832064207912 0 -0.012655555031676681 6.6084489751502671e-05 0 -0.012074470334165588 7.7869058563594217e-07 0 -0.012216146011205676 0.00031477832064207912 0 -0.012074470334165588 7.7869058563594217e-07 0 -0.010887263936392725 7.2491447900492121e-05 0 -0.012216146011205676 0.00031477832064207912 0 -0.012542429105838677 -0.0001350715831092652 0 -0.012074470334165588 7.7869058563594217e-07 0 -0.011475538492051967 3.0744486280251409e-08 0 -0.012074470334165588 7.7869058563594217e-07 0 -0.011475538492051967 3.0744486280251409e-08 0 -0.010887263936392725 7.2491447900492121e-05 0 -0.011194806628740438 0.00019943252037810444 0 -0.010451732196575397 0.00063089357100745876 0 -0.010887263936392725 7.2491447900492121e-05 0 -0.012216146011205676 0.00031477832064207912 0 -0.012340616617336937 0.0012368874576864385 0 -0.011475538492051967 3.0744486280251409e-08 0 -0.010887263936392725 7.2491447900492121e-05 0 -0.010095687605529514 8.8608925012197914e-07 0 -0.010887263936392725 7.2491447900492121e-05 0 -0.01037906839235408 4.3920921676015592e-05 0 -0.010095687605529514 8.8608925012197914e-07 0 -0.012841630157900415 0.00056089266276835366 0 -0.012216146011205676 0.00031477832064207912 0 -0.012340616617336937 0.0012368874576864385 0 -0.0088812744869389924 0.00026404417894321594 0 -0.0088217167862451266 -7.8538379965229099e-07 0 -0.0086765807006913241 2.3370675510128277e-05 0 -0.0088812744869389924 0.00026404417894321594 0 -0.0091413700855887334 -8.0265219105931754e-05 0 -0.0088217167862451266 -7.8538379965229099e-07 0 -0.0088812744869389924 0.00026404417894321594 0 -0.010091430567421693 8.0734917622017633e-07 0 -0.0091413700855887334 -8.0265219105931754e-05 0 -0.010091430567421693 8.0734917622017633e-07 0 -0.0091413700855887334 -8.0265219105931754e-05 0 -0.0087965813260444184 -4.2030216837090276e-07 0 -0.010451732196575397 0.00063089357100745876 0 -0.010092239810103494 -1.1638656776021644e-07 0 -0.0091413700855887334 -8.0265219105931754e-05 0 -0.0088223801843727839 -6.7295972011595546e-05 0 -0.0087965813260444184 -4.2030216837090276e-07 0 -0.0091413700855887334 -8.0265219105931754e-05 0 -0.0088223801843727839 -6.7295972011595546e-05 0 -0.0088324066877009284 -7.3248665748815641e-05 0 -0.0088223801843727839 -6.7295972011595546e-05 0 -0.0087965813260444184 -4.2030216837090276e-07 0 -0.0083861473919774731 3.4513935366870309e-05 0 -0.0083861473919774731 3.4513935366870309e-05 0 -0.0087119374443842199 -8.0455051039024449e-06 0 -0.0087571117360513324 -2.8115128693069453e-06 0 -0.0082239074989086149 1.6036124593673908e-06 0 -0.007627500855175994 -3.7287292192009883e-05 0 -0.0087965813260444184 -4.2030216837090276e-07 0 -0.0083861473919774731 3.4513935366870309e-05 0 -0.00749804430234238 3.3288327167092194e-07 0 -0.0088223801843727839 -6.7295972011595546e-05 0 -0.0083861473919774731 3.4513935366870309e-05 0 -0.008747258440805105 -5.4444944866699959e-05 0 -0.0083861473919774731 3.4513935366870309e-05 0 -0.0087119374443842199 -8.0455051039024449e-06 0 -0.008747258440805105 -5.4444944866699959e-05 0 -0.0087119374443842199 -8.0455051039024449e-06 0 -0.0087546030853399986 -4.5440684997798472e-05 0 -0.0087233318503702837 -2.8250955844684865e-05 0 -0.0087119374443842199 -8.0455051039024449e-06 0 -0.008747258440805105 -5.4444944866699959e-05 0 -0.0087546030853399986 -4.5440684997798472e-05 0 -0.008747258440805105 -5.4444944866699959e-05 0 -0.0087546030853399986 -4.5440684997798472e-05 0 -0.0088324066877009284 -7.3248665748815641e-05 0 -0.0087546030853399986 -4.5440684997798472e-05 0 -0.0088324066877009284 -7.3248665748815641e-05 0 -0.0087352770104214585 -3.3412199853977014e-05 0 -0.0088223801843727839 -6.7295972011595546e-05 0 -0.008747258440805105 -5.4444944866699959e-05 0 -0.0088324066877009284 -7.3248665748815641e-05 0 -0.0091413700855887334 -8.0265219105931754e-05 0 -0.0088324066877009284 -7.3248665748815641e-05 0 -0.0088217167862451266 -7.8538379965229099e-07 0 -0.0088324066877009284 -7.3248665748815641e-05 0 -0.0088217167862451266 -7.8538379965229099e-07 0 -0.0087352770104214585 -3.3412199853977014e-05 0 -0.0088217167862451266 -7.8538379965229099e-07 0 -0.0086765807006913241 2.3370675510128277e-05 0 -0.0087352770104214585 -3.3412199853977014e-05 0 -0.0086765807006913241 2.3370675510128277e-05 0 -0.0086726499694517335 -1.6674705605261255e-05 0 -0.0087352770104214585 -3.3412199853977014e-05 0 -0.0092052250039321628 0.00040075091671005174 0 -0.0090537013425818266 0.0002416438243602078 0 -0.0096759297727296665 0.00091304562353573555 0 -0.0099654505786894512 0.00082964085726791213 0 -0.0094642333851806346 0.00062219359709895182 0 -0.0086765807006913241 2.3370675510128277e-05 0 -0.0086726499694517335 -1.6674705605261255e-05 0 -0.0086132823098907015 2.6063509791313069e-06 0 -0.0099654505786894512 0.00082964085726791213 0 -0.0094579202544654885 0.00045703103298511989 0 -0.0094642333851806346 0.00062219359709895182 0 -0.0091902351730491546 0.00051902868712049054 0 -0.0094579202544654885 0.00045703103298511989 0 -0.0094642333851806346 0.00062219359709895182 0 -0.0086132823098907015 2.6063509791313069e-06 0 -0.0086431991089764848 -3.1815641340576538e-05 0 -0.0085768096521816103 -4.4555681805978445e-05 0 -0.0086726499694517335 -1.6674705605261255e-05 0 -0.0086132823098907015 2.6063509791313069e-06 0 -0.0086431991089764848 -3.1815641340576538e-05 0 -0.0086431991089764848 -3.1815641340576538e-05 0 -0.0086642558980632341 -5.4684188589071917e-05 0 -0.0086137969262213773 -5.443103680447688e-05 0 -0.0086431991089764848 -3.1815641340576538e-05 0 -0.0085768096521816103 -4.4555681805978445e-05 0 -0.0086137969262213773 -5.443103680447688e-05 0 -0.0087546030853399986 -4.5440684997798472e-05 0 -0.0087352770104214585 -3.3412199853977014e-05 0 -0.0087030897967645144 -3.4702957382350962e-05 0 -0.0086726499694517335 -1.6674705605261255e-05 0 -0.0087352770104214585 -3.3412199853977014e-05 0 -0.0087030897967645144 -3.4702957382350962e-05 0 -0.0086726499694517335 -1.6674705605261255e-05 0 -0.0086431991089764848 -3.1815641340576538e-05 0 -0.0087030897967645144 -3.4702957382350962e-05 0 -0.0086431991089764848 -3.1815641340576538e-05 0 -0.0087030897967645144 -3.4702957382350962e-05 0 -0.0086642558980632341 -5.4684188589071917e-05 0 -0.0087546030853399986 -4.5440684997798472e-05 0 -0.0087030897967645144 -3.4702957382350962e-05 0 -0.0087233318503702837 -2.8250955844684865e-05 0 -0.0087030897967645144 -3.4702957382350962e-05 0 -0.0086642558980632341 -5.4684188589071917e-05 0 -0.0087233318503702837 -2.8250955844684865e-05 0 -0.0086642558980632341 -5.4684188589071917e-05 0 -0.0086905954524279499 -7.2635499780022839e-05 0 -0.0087233318503702837 -2.8250955844684865e-05 0 -0.0086642558980632341 -5.4684188589071917e-05 0 -0.0086905954524279499 -7.2635499780022839e-05 0 -0.0086352118981478081 -9.830053205746344e-05 0 -0.0086121969372661006 -7.9777906457380272e-05 0 -0.0086137969262213773 -5.443103680447688e-05 0 -0.0085665642282057863 -8.7102222141737209e-05 0 -0.0085768096521816103 -4.4555681805978445e-05 0 -0.0086137969262213773 -5.443103680447688e-05 0 -0.0085665642282057863 -8.7102222141737209e-05 0 -0.0086642558980632341 -5.4684188589071917e-05 0 -0.0086121969372661006 -7.9777906457380272e-05 0 -0.0086137969262213773 -5.443103680447688e-05 0 -0.0086121969372661006 -7.9777906457380272e-05 0 -0.0086352118981478081 -9.830053205746344e-05 0 -0.0085913677816310298 -0.00011489641511539457 0 -0.0086642558980632341 -5.4684188589071917e-05 0 -0.0086121969372661006 -7.9777906457380272e-05 0 -0.0086352118981478081 -9.830053205746344e-05 0 -0.0086121969372661006 -7.9777906457380272e-05 0 -0.0085913677816310298 -0.00011489641511539457 0 -0.0085665642282057863 -8.7102222141737209e-05 0 -0.008547111885167654 -0.00012672402164318886 0 -0.0085913677816310298 -0.00011489641511539457 0 -0.0085665642282057863 -8.7102222141737209e-05 0 -0.0085913677816310298 -0.00011489641511539457 0 -0.0086031618414229918 -0.00014974906346854443 0 -0.0085593335443357038 -0.00016487139345833094 0 -0.008547111885167654 -0.00012672402164318886 0 -0.0085913677816310298 -0.00011489641511539457 0 -0.0085593335443357038 -0.00016487139345833094 0 -0.0086352118981478081 -9.830053205746344e-05 0 -0.0085913677816310298 -0.00011489641511539457 0 -0.0086031618414229918 -0.00014974906346854443 0 -0.0086352118981478081 -9.830053205746344e-05 0 -0.0086031618414229918 -0.00014974906346854443 0 -0.0086478667085271212 -0.00013486469839453895 0 -0.0086031618414229918 -0.00014974906346854443 0 -0.0086130032761253892 -0.00019144573414226886 0 -0.0086478667085271212 -0.00013486469839453895 0 -0.0085739483434964549 -0.00020415479408107836 0 -0.0086031618414229918 -0.00014974906346854443 0 -0.0086130032761253892 -0.00019144573414226886 0 -0.0085739483434964549 -0.00020415479408107836 0 -0.0086031618414229918 -0.00014974906346854443 0 -0.0085593335443357038 -0.00016487139345833094 0 -0.0085401157541321292 -0.00020845654001560264 0 -0.0085739483434964549 -0.00020415479408107836 0 -0.0085593335443357038 -0.00016487139345833094 0 -0.0086905954524279499 -7.2635499780022839e-05 0 -0.0086917195940713621 -0.00012012005651053103 0 -0.0086478667085271212 -0.00013486469839453895 0 -0.0086905954524279499 -7.2635499780022839e-05 0 -0.0086352118981478081 -9.830053205746344e-05 0 -0.0086478667085271212 -0.00013486469839453895 0 -0.0086130032761253892 -0.00019144573414226886 0 -0.0086478667085271212 -0.00013486469839453895 0 -0.0086545852548321686 -0.00018717359487329635 0 -0.0086917195940713621 -0.00012012005651053103 0 -0.0086478667085271212 -0.00013486469839453895 0 -0.0086545852548321686 -0.00018717359487329635 0 -0.0087076103160893606 -0.00020482454273672117 0 -0.0086917195940713621 -0.00012012005651053103 0 -0.0086545852548321686 -0.00018717359487329635 0 -0.0056970768915044073 3.7856286854963816e-06 0 -0.0061669136493555229 -1.6469329249416327e-05 0 -0.0065408016160073993 0.00010428666586318821 0 -0.0087076103160893606 -0.00020482454273672117 0 -0.0086917195940713621 -0.00012012005651053103 0 -0.0087571117360513324 -2.8115128693069453e-06 0 -0.0073641814051047085 -8.8794489565610955e-05 0 -0.007627500855175994 -3.7287292192009883e-05 0 -0.0062011662592252013 -7.1552707412049912e-08 0 -0.0061669136493555229 -1.6469329249416327e-05 0 -0.00749804430234238 3.3288327167092194e-07 0 -0.0061669136493555229 -1.6469329249416327e-05 0 -0.00749804430234238 3.3288327167092194e-07 0 -0.0065408016160073993 0.00010428666586318821 0 -0.0083861473919774731 3.4513935366870309e-05 0 -0.00749804430234238 3.3288327167092194e-07 0 -0.0065408016160073993 0.00010428666586318821 0 -0.0086905954524279499 -7.2635499780022839e-05 0 -0.0087233318503702837 -2.8250955844684865e-05 0 -0.0087571117360513324 -2.8115128693069453e-06 0 -0.0086905954524279499 -7.2635499780022839e-05 0 -0.0086917195940713621 -0.00012012005651053103 0 -0.0087571117360513324 -2.8115128693069453e-06 0 -0.0087119374443842199 -8.0455051039024449e-06 0 -0.0087233318503702837 -2.8250955844684865e-05 0 -0.0087571117360513324 -2.8115128693069453e-06 0 -0.017823476803241631 -0.00017534058852865933 0 -0.018385957682102556 -3.3826433972793284e-07 0 -0.01700404486511737 -6.1731751733220594e-08 0 -0.017823476803241631 -0.00017534058852865933 0 -0.017110406813611066 -8.7801384337566105e-06 0 -0.01700404486511737 -6.1731751733220594e-08 0 -0.017823476803241631 -0.00017534058852865933 0 -0.018385957682102556 -3.3826433972793284e-07 0 -0.018522683690630627 -0.00021744607273945537 0 -0.017823476803241631 -0.00017534058852865933 0 -0.01817717879304304 -0.00011665883502579469 0 -0.018522683690630627 -0.00021744607273945537 0 -0.018336116166749048 -0.0001463783564893813 0 -0.01817717879304304 -0.00011665883502579469 0 -0.018522683690630627 -0.00021744607273945537 0 -0.018336116166749048 -0.0001463783564893813 0 -0.01817717879304304 -0.00011665883502579469 0 -0.018364673450986156 -5.7269859196943075e-05 0 -0.01817717879304304 -0.00011665883502579469 0 -0.018343832433697898 6.0857523984146386e-05 0 -0.018364673450986156 -5.7269859196943075e-05 0 -0.017823476803241631 -0.00017534058852865933 0 -0.01817717879304304 -0.00011665883502579469 0 -0.017923429588957013 0.00022659273775989827 0 -0.01817717879304304 -0.00011665883502579469 0 -0.017923429588957013 0.00022659273775989827 0 -0.018343832433697898 6.0857523984146386e-05 0 -0.01528267128551683 0.00062963679968708916 0 -0.01481509710768943 0.00037639852340645382 0 -0.014562228420214898 0.00092137366012433569 0 -0.016616895646487679 0.00038829008707873529 0 -0.016305231694516944 0.00053775131971223016 0 -0.01528267128551683 0.00062963679968708916 0 -0.01481509710768943 0.00037639852340645382 0 -0.015412419959480743 -3.1600551545149554e-05 0 -0.01528267128551683 0.00062963679968708916 0 -0.015630354295014078 0.00020286753991591964 0 -0.015412419959480743 -3.1600551545149554e-05 0 -0.01528267128551683 0.00062963679968708916 0 -0.015630354295014078 0.00020286753991591964 0 -0.016109284098872453 0.00027156219509408042 0 -0.015630354295014078 0.00020286753991591964 0 -0.016109284098872453 0.00027156219509408042 0 -0.015633272417932696 0.00015324511614637682 0 -0.016616895646487679 0.00038829008707873529 0 -0.016170688818228338 0.00031395756497350891 0 -0.017823476803241631 -0.00017534058852865933 0 -0.017923429588957013 0.00022659273775989827 0 -0.017110406813611066 -8.7801384337566105e-06 0 -0.017923429588957013 0.00022659273775989827 0 -0.017110406813611066 -8.7801384337566105e-06 0 -0.016109284098872453 0.00027156219509408042 0 -0.017110406813611066 -8.7801384337566105e-06 0 -0.016419496796677445 0.00010247551735686363 0 -0.016109284098872453 0.00027156219509408042 0 -0.017110406813611066 -8.7801384337566105e-06 0 -0.01700404486511737 -6.1731751733220594e-08 0 -0.016419496796677445 0.00010247551735686363 0 -0.01700404486511737 -6.1731751733220594e-08 0 -0.016419496796677445 0.00010247551735686363 0 -0.015621969796770493 8.1679874826970648e-07 0 -0.016109284098872453 0.00027156219509408042 0 -0.015633272417932696 0.00015324511614637682 0 -0.015621969796770493 8.1679874826970648e-07 0 -0.016419496796677445 0.00010247551735686363 0 -0.016109284098872453 0.00027156219509408042 0 -0.015621969796770493 8.1679874826970648e-07 0 -0.015633272417932696 0.00015324511614637682 0 -0.015621969796770493 8.1679874826970648e-07 0 -0.014475577601952378 -8.5476223422053488e-05 0 -0.015621969796770493 8.1679874826970648e-07 0 -0.014475577601952378 -8.5476223422053488e-05 0 -0.0142394928158042 -5.2223792185541293e-07 0 -0.015630354295014078 0.00020286753991591964 0 -0.015633272417932696 0.00015324511614637682 0 -0.015412419959480743 -3.1600551545149554e-05 0 -0.015633272417932696 0.00015324511614637682 0 -0.014475577601952378 -8.5476223422053488e-05 0 -0.01373429177872138 0.0001825220095948198 0 -0.015533211236416282 0.00016840702060881124 0 -0.014592899570195822 4.9426216395915642e-05 0 -0.014475577601952378 -8.5476223422053488e-05 0 -0.013579030779844455 -0.00024491685324118389 0 -0.01373429177872138 0.0001825220095948198 0 -0.014475577601952378 -8.5476223422053488e-05 0 -0.013723760160789559 -0.00018610486307543499 0 -0.013579030779844455 -0.00024491685324118389 0 -0.014475577601952378 -8.5476223422053488e-05 0 -0.0142394928158042 -5.2223792185541293e-07 0 -0.013723760160789559 -0.00018610486307543499 0 -0.0142394928158042 -5.2223792185541293e-07 0 -0.013723760160789559 -0.00018610486307543499 0 -0.012858066494193601 -4.4256917690237178e-07 0 -0.013723760160789559 -0.00018610486307543499 0 -0.013241189483909942 -0.00024582615113887023 0 -0.013579030779844455 -0.00024491685324118389 0 -0.012542429105838677 -0.0001350715831092652 0 -0.013241189483909942 -0.00024582615113887023 0 -0.012858066494193601 -4.4256917690237178e-07 0 -0.013723760160789559 -0.00018610486307543499 0 -0.013241189483909942 -0.00024582615113887023 0 -0.012858066494193601 -4.4256917690237178e-07 0 -0.013447950367509834 -0.00025920657364574337 0 -0.013579030779844455 -0.00024491685324118389 0 -0.013411041593050626 -0.00014658929196765137 0 -0.013433488249388828 -0.00014365342800903819 0 -0.013444407624166899 -0.00025899087476154896 0 -0.01343434611383121 -0.00020996591325040987 0 -0.013447950367509834 -0.00025920657364574337 0 -0.013448024053243525 -0.00022025880002415898 0 -0.013163005970364103 -0.00014343023671022634 0 -0.013241189483909942 -0.00024582615113887023 0 -0.013447950367509834 -0.00025920657364574337 0 -0.013241189483909942 -0.00024582615113887023 0 -0.013447950367509834 -0.00025920657364574337 0 -0.013579030779844455 -0.00024491685324118389 0 -0.013579030779844455 -0.00024491685324118389 0 -0.01373429177872138 0.0001825220095948198 0 -0.013411041593050626 -0.00014658929196765137 0 -0.014592899570195822 4.9426216395915642e-05 0 -0.013961512457762842 -0.00017126374197905643 0 -0.01481509710768943 0.00037639852340645382 0 -0.015412419959480743 -3.1600551545149554e-05 0 -0.014482494690859807 -0.00023156491803383007 0 -0.013718369539759703 2.3974531966590293e-05 0 -0.014482494690859807 -0.00023156491803383007 0 -0.013925474514545141 0.00038570506297756643 0 -0.013718369539759703 2.3974531966590293e-05 0 -0.013606725704164701 -0.00026218181781352583 0 -0.014482494690859807 -0.00023156491803383007 0 -0.013638210851876342 -0.00026090142306148972 0 -0.013961512457762842 -0.00017126374197905643 0 -0.013606725704164701 -0.00026218181781352583 0 -0.013411041593050626 -0.00014658929196765137 0 -0.013462105376393181 -0.00019800028759774967 0 -0.013447950367509834 -0.00025920657364574337 0 -0.013462105376393181 -0.00019800028759774967 0 -0.013460807879019791 -0.00020755009287539602 0 -0.013447950367509834 -0.00025920657364574337 0 -0.013411041593050626 -0.00014658929196765137 0 -0.013462105376393181 -0.00019800028759774967 0 -0.013462105376393181 -0.00019800028759774967 0 -0.013514093494051688 -0.00021727577487621295 0 -0.013460807879019791 -0.00020755009287539602 0 -0.013606725704164701 -0.00026218181781352583 0 -0.013462105376393181 -0.00019800028759774967 0 -0.013514093494051688 -0.00021727577487621295 0 -0.013514093494051688 -0.00021727577487621295 0 -0.013460807879019791 -0.00020755009287539602 0 -0.013470323169711571 -0.00021170761099424847 0 -0.013434942181503725 -0.00020140911227905847 0 -0.013460807879019791 -0.00020755009287539602 0 -0.013443124830160556 -0.00018848721512307209 0 -0.013460807879019791 -0.00020755009287539602 0 -0.013443124830160556 -0.00018848721512307209 0 -0.013470323169711571 -0.00021170761099424847 0 -0.013434942181503725 -0.00020140911227905847 0 -0.013460807879019791 -0.00020755009287539602 0 -0.013448024053243525 -0.00022025880002415898 0 -0.013447950367509834 -0.00025920657364574337 0 -0.013460807879019791 -0.00020755009287539602 0 -0.013448024053243525 -0.00022025880002415898 0 -0.013347440417908689 -0.00012224011886458969 0 -0.013436066892296447 -0.00015546665848883349 0 -0.013369579690427553 -2.8015802027977941e-05 0 -0.013295838339531999 -5.829732447811487e-05 0 -0.013347440417908689 -0.00012224011886458969 0 -0.013369579690427553 -2.8015802027977941e-05 0 -0.013295838339531999 -5.829732447811487e-05 0 -0.013369579690427553 -2.8015802027977941e-05 0 -0.013302170791643657 -1.2984837026636697e-05 0 -0.01327107733490801 -0.00013988936250564391 0 -0.013295838339531999 -5.829732447811487e-05 0 -0.013347440417908689 -0.00012224011886458969 0 -0.013436066892296447 -0.00015546665848883349 0 -0.013507047964182159 -0.00027129996694564337 0 -0.013470323169711571 -0.00021170761099424847 0 -0.013436066892296447 -0.00015546665848883349 0 -0.013438195440561447 7.0226404283746008e-05 0 -0.013369579690427553 -2.8015802027977941e-05 0 -0.013444355580953632 -0.00014891246946335975 0 -0.013475434122189293 -0.00010555772016062053 0 -0.013422242209893243 -0.00018443635323602496 0 -0.013443124830160556 -0.00018848721512307209 0 -0.013436066892296447 -0.00015546665848883349 0 -0.013443124830160556 -0.00018848721512307209 0 -0.013436066892296447 -0.00015546665848883349 0 -0.013470323169711571 -0.00021170761099424847 0 -0.013606725704164701 -0.00026218181781352583 0 -0.013514093494051688 -0.00021727577487621295 0 -0.013507047964182159 -0.00027129996694564337 0 -0.013514093494051688 -0.00021727577487621295 0 -0.013507047964182159 -0.00027129996694564337 0 -0.013470323169711571 -0.00021170761099424847 0 -0.013369579690427553 -2.8015802027977941e-05 0 -0.01327802619209763 0.00014772502514787773 0 -0.013290562019798861 3.9608217125354023e-05 0 -0.013369579690427553 -2.8015802027977941e-05 0 -0.013375331906731746 0.0001494144884884854 0 -0.013271465726249005 0.0002055829943886528 0 -0.012941376246013483 -6.0110395089643827e-05 0 -0.014667905828525684 0.00053130310448971723 0 -0.013438195440561447 7.0226404283746008e-05 0 -0.013369579690427553 -2.8015802027977941e-05 0 -0.013375331906731746 0.0001494144884884854 0 -0.013369579690427553 -2.8015802027977941e-05 0 -0.013302170791643657 -1.2984837026636697e-05 0 -0.013290562019798861 3.9608217125354023e-05 0 -0.013375331906731746 0.0001494144884884854 0 -0.013424271973131809 0.0002822316306968606 0 -0.013271465726249005 0.0002055829943886528 0 -0.013438195440561447 7.0226404283746008e-05 0 -0.013375331906731746 0.0001494144884884854 0 -0.013424271973131809 0.0002822316306968606 0 -0.013606725704164701 -0.00026218181781352583 0 -0.013507047964182159 -0.00027129996694564337 0 -0.013380355588557984 -4.6954381597621697e-05 0 -0.013475434122189293 -0.00010555772016062053 0 -0.013277801186128682 0.00016386574286020192 0 -0.013718369539759703 2.3974531966590293e-05 0 -0.013606725704164701 -0.00026218181781352583 0 -0.013380355588557984 -4.6954381597621697e-05 0 -0.013718369539759703 2.3974531966590293e-05 0 -0.013380355588557984 -4.6954381597621697e-05 0 -0.013583258921497905 0.00030396587407802459 0 -0.013335731264829556 0.00034947909159127729 0 -0.013424271973131809 0.0002822316306968606 0 -0.013271465726249005 0.0002055829943886528 0 -0.013335731264829556 0.00034947909159127729 0 -0.013424271973131809 0.0002822316306968606 0 -0.013407256837652195 0.00049514468601895376 0 -0.013277801186128682 0.00016386574286020192 0 -0.014622285838203485 0.0004525495866762099 0 -0.014948380647961494 0.00078419722441044719 0 -0.014622285838203485 0.0004525495866762099 0 -0.016493149664688986 0.0010453817017757382 0 -0.016272682979410636 0.00052313311180674784 0 -0.01689816656207533 0.00068667984290212054 0 -0.014622285838203485 0.0004525495866762099 0 -0.016528892767850089 0.00020769498296051791 0 -0.014622285838203485 0.0004525495866762099 0 -0.01767350755444214 -5.7772150793970255e-05 0 -0.016272682979410636 0.00052313311180674784 0 -0.016469636729209952 -0.0004840642993767418 0 -0.016664562418909588 0.00018546848438618372 0 -0.016222804108985012 0.00039739487606079408 0 -0.016302405426388045 8.6519108458082321e-05 0 -0.01612348315028465 0.00010630413543280294 0 -0.013255484082012206 0.0004899377265287796 0 -0.013652103298182377 0.00072554166416443548 0 -0.013537193899290369 0.0011565618510545224 0 -0.013742918615344124 0.00098312119636399407 0 -0.013652103298182377 0.00072554166416443548 0 -0.013537193899290369 0.0011565618510545224 0 -0.013742918615344124 0.00098312119636399407 0 -0.013652103298182377 0.00072554166416443548 0 -0.01385852522714193 0.00091278706072718248 0 -0.013255484082012206 0.0004899377265287796 0 -0.013652103298182377 0.00072554166416443548 0 -0.013583258921497905 0.00030396587407802459 0 -0.013652103298182377 0.00072554166416443548 0 -0.013583258921497905 0.00030396587407802459 0 -0.013925474514545141 0.00038570506297756643 0 -0.013380355588557984 -4.6954381597621697e-05 0 -0.013255484082012206 0.0004899377265287796 0 -0.013583258921497905 0.00030396587407802459 0 -0.013718369539759703 2.3974531966590293e-05 0 -0.013583258921497905 0.00030396587407802459 0 -0.013925474514545141 0.00038570506297756643 0 -0.013925474514545141 0.00038570506297756643 0 -0.014346978477439029 0.00054040948806660476 0 -0.014034293540547343 0.00078270617807262846 0 -0.01481509710768943 0.00037639852340645382 0 -0.014482494690859807 -0.00023156491803383007 0 -0.014346978477439029 0.00054040948806660476 0 -0.01481509710768943 0.00037639852340645382 0 -0.014346978477439029 0.00054040948806660476 0 -0.014562228420214898 0.00092137366012433569 0 -0.014482494690859807 -0.00023156491803383007 0 -0.013925474514545141 0.00038570506297756643 0 -0.014346978477439029 0.00054040948806660476 0 -0.014346978477439029 0.00054040948806660476 0 -0.014562228420214898 0.00092137366012433569 0 -0.014034293540547343 0.00078270617807262846 0 -0.014562228420214898 0.00092137366012433569 0 -0.014034293540547343 0.00078270617807262846 0 -0.013895693201939275 0.0011282594128987947 0 -0.013652103298182377 0.00072554166416443548 0 -0.013925474514545141 0.00038570506297756643 0 -0.014034293540547343 0.00078270617807262846 0 -0.013652103298182377 0.00072554166416443548 0 -0.014034293540547343 0.00078270617807262846 0 -0.01385852522714193 0.00091278706072718248 0 -0.014034293540547343 0.00078270617807262846 0 -0.01385852522714193 0.00091278706072718248 0 -0.013895693201939275 0.0011282594128987947 0 -0.013742918615344124 0.00098312119636399407 0 -0.01385852522714193 0.00091278706072718248 0 -0.013895693201939275 0.0011282594128987947 0 -0.018343832433697898 6.0857523984146386e-05 0 -0.01846594352414118 1.4679151716779874e-05 0 -0.018449123839278405 1.6618764568665478e-05 0 -0.018467169776903932 1.9029944609340817e-05 0 -0.018449123839278405 1.6618764568665478e-05 0 -0.018456507427648434 -6.2847292443004518e-06 0 -0.016846767184147585 0.00040525729693527591 0 -0.017509979907328662 0.00030628523124718259 0 -0.01841715138035933 -3.590864164138588e-05 0 -0.018456507427648434 -6.2847292443004518e-06 0 -0.018457478184137729 -3.2989641710483043e-05 0 -0.018449123839278405 1.6618764568665478e-05 0 -0.01841715138035933 -3.590864164138588e-05 0 -0.018456507427648434 -6.2847292443004518e-06 0 -0.018467169776903932 1.9029944609340817e-05 0 -0.018484227223313065 5.4422464465695415e-07 0 -0.01849655525408184 1.7529640044164757e-05 0 -0.018484227223313065 5.4422464465695415e-07 0 -0.018456507427648434 -6.2847292443004518e-06 0 -0.018457478184137729 -3.2989641710483043e-05 0 -0.018467169776903932 1.9029944609340817e-05 0 -0.018484227223313065 5.4422464465695415e-07 0 -0.018456507427648434 -6.2847292443004518e-06 0 -0.016305231694516944 0.00053775131971223016 0 -0.016846767184147585 0.00040525729693527591 0 -0.018343832433697898 6.0857523984146386e-05 0 -0.018449123839278405 1.6618764568665478e-05 0 -0.018364673450986156 -5.7269859196943075e-05 0 -0.018449123839278405 1.6618764568665478e-05 0 -0.01841715138035933 -3.590864164138588e-05 0 -0.018364673450986156 -5.7269859196943075e-05 0 -0.018336116166749048 -0.0001463783564893813 0 -0.018364673450986156 -5.7269859196943075e-05 0 -0.018400224608933202 -8.2258122559491565e-05 0 -0.018336116166749048 -0.0001463783564893813 0 -0.018400224608933202 -8.2258122559491565e-05 0 -0.018401346509322694 -0.00012605757334329911 0 -0.01841715138035933 -3.590864164138588e-05 0 -0.018364673450986156 -5.7269859196943075e-05 0 -0.018400224608933202 -8.2258122559491565e-05 0 -0.018457478184137729 -3.2989641710483043e-05 0 -0.018464861913911453 -8.7447765098515255e-05 0 -0.018537245456366362 1.110470778326206e-06 0 -0.018484227223313065 5.4422464465695415e-07 0 -0.018457478184137729 -3.2989641710483043e-05 0 -0.018537245456366362 1.110470778326206e-06 0 -0.018400224608933202 -8.2258122559491565e-05 0 -0.018457478184137729 -3.2989641710483043e-05 0 -0.018464861913911453 -8.7447765098515255e-05 0 -0.01841715138035933 -3.590864164138588e-05 0 -0.018400224608933202 -8.2258122559491565e-05 0 -0.018457478184137729 -3.2989641710483043e-05 0 -0.018400224608933202 -8.2258122559491565e-05 0 -0.018464861913911453 -8.7447765098515255e-05 0 -0.018401346509322694 -0.00012605757334329911 0 -0.018464861913911453 -8.7447765098515255e-05 0 -0.018537245456366362 1.110470778326206e-06 0 -0.018540914512381199 -0.00022233170905945818 0 -0.018537245456366362 1.110470778326206e-06 0 -0.01879457102379798 0.00010520446810588933 0 -0.018942280049420019 -0.0001770632196290357 0 -0.018919017037578291 7.5063631770570059e-05 0 -0.01879457102379798 0.00010520446810588933 0 -0.018942280049420019 -0.0001770632196290357 0 -0.019012703736172799 5.854318221760337e-05 0 -0.018919017037578291 7.5063631770570059e-05 0 -0.018942280049420019 -0.0001770632196290357 0 -0.018919017037578291 7.5063631770570059e-05 0 -0.01879457102379798 0.00010520446810588933 0 -0.018945469232136442 0.00022568206785177988 0 -0.019012703736172799 5.854318221760337e-05 0 -0.018919017037578291 7.5063631770570059e-05 0 -0.018973275861503026 0.00012915116746554323 0 -0.019012703736172799 5.854318221760337e-05 0 -0.018973275861503026 0.00012915116746554323 0 -0.019013787060502968 0.0001601203928053024 0 -0.018919017037578291 7.5063631770570059e-05 0 -0.018973275861503026 0.00012915116746554323 0 -0.018945469232136442 0.00022568206785177988 0 -0.01879457102379798 0.00010520446810588933 0 -0.018935958177332051 0.00027230776651216316 0 -0.018621478769441147 0.00028629100790396089 0 -0.01767350755444214 -5.7772150793970255e-05 0 -0.016528892767850089 0.00020769498296051791 0 -0.01879457102379798 0.00010520446810588933 0 -0.018945469232136442 0.00022568206785177988 0 -0.018935958177332051 0.00027230776651216316 0 -0.018973275861503026 0.00012915116746554323 0 -0.019013787060502968 0.0001601203928053024 0 -0.018945469232136442 0.00022568206785177988 0 -0.019013787060502968 0.0001601203928053024 0 -0.018945469232136442 0.00022568206785177988 0 -0.01893115581394357 0.00028465980393580371 0 -0.017761002146173915 -2.6153649738135451e-05 0 -0.01767350755444214 -5.7772150793970255e-05 0 -0.013742918615344124 0.00098312119636399407 0 -0.013895693201939275 0.0011282594128987947 0 -0.013537193899290369 0.0011565618510545224 0 -0.018469022101825914 3.338497725723113e-05 0 -0.018509716629545318 1.900476239638689e-05 0 -0.01849655525408184 1.7529640044164757e-05 0 -0.016846767184147585 0.00040525729693527591 0 -0.016528892767850089 0.00020769498296051791 0 -0.016846767184147585 0.00040525729693527591 0 -0.018486684787254275 -8.5289885842985123e-05 0 -0.018537245456366362 1.110470778326206e-06 0 -0.018509716629545318 1.900476239638689e-05 0 -0.01849655525408184 1.7529640044164757e-05 0 -0.018484227223313065 5.4422464465695415e-07 0 -0.018537245456366362 1.110470778326206e-06 0 -0.01849655525408184 1.7529640044164757e-05 0 -0.018537245456366362 1.110470778326206e-06 0 -0.01879457102379798 0.00010520446810588933 0 -0.018621478769441147 0.00028629100790396089 0 -0.018426340033861358 0.00028607318736411551 0 -0.016528892767850089 0.00020769498296051791 0 -0.01893115581394357 0.00028465980393580371 0 -0.019490895327917014 0.00026136245463902647 0 -0.01921528545641504 0.00010388697427823177 0 -0.01767350755444214 -5.7772150793970255e-05 0 -0.018223312858122048 -0.00020889425121224328 0 -0.016469636729209952 -0.0004840642993767418 0 -0.0173391711806508 -0.00058715774572547653 0 -0.017014404135268814 1.0604985917580521e-05 0 -0.019013787060502968 0.0001601203928053024 0 -0.01893115581394357 0.00028465980393580371 0 -0.01921528545641504 0.00010388697427823177 0 -0.022493168515739851 0.00051225877140308824 0 -0.021532551589216058 0.00030616618421549965 0 -0.01921528545641504 0.00010388697427823177 0 -0.01950745663476041 -2.9536830505191439e-05 0 -0.018942280049420019 -0.0001770632196290357 0 -0.019012703736172799 5.854318221760337e-05 0 -0.019013787060502968 0.0001601203928053024 0 -0.01921528545641504 0.00010388697427823177 0 -0.019012703736172799 5.854318221760337e-05 0 -0.01921528545641504 0.00010388697427823177 0 -0.018942280049420019 -0.0001770632196290357 0 -0.019490895327917014 0.00026136245463902647 0 -0.01950745663476041 -2.9536830505191439e-05 0 -0.020127971006410141 0.00019347822367404309 0 -0.019490895327917014 0.00026136245463902647 0 -0.01921528545641504 0.00010388697427823177 0 -0.01950745663476041 -2.9536830505191439e-05 0 -0.02452253506061013 0.00080859777997275976 0 -0.024623123923955045 0.00083408911439490543 0 -0.024622300357354441 0.0007045466372846722 0 -0.022493168515739851 0.00051225877140308824 0 -0.020172472015466559 0.0002031874425981566 0 -0.020174001046105575 0.00057502003874522272 0 -0.020468213083097594 0.000449420620924027 0 -0.020303047476887104 0.00012878658744567358 0 -0.020172472015466559 0.0002031874425981566 0 -0.022728232703591165 0.00041163485269983302 0 -0.024623123923955045 0.00083408911439490543 0 -0.024715003307300705 0.00071929048585708962 0 -0.024622300357354441 0.0007045466372846722 0 -0.020174001046105575 0.00057502003874522272 0 -0.020024246690844662 0.00059065301284723034 0 -0.020303047476887104 0.00012878658744567358 0 -0.020174001046105575 0.00057502003874522272 0 -0.020028085857373097 0.00058708310537907435 0 -0.020435586940318176 0.00075727967597611094 0 -0.020172472015466559 0.0002031874425981566 0 -0.019108418435367213 0.00052284508315819233 0 -0.017587867510924754 0.0001748755304166892 0 -0.017591652029009731 0.00041169549179264622 0 -0.017853230691523288 0.00028333166382953757 0 -0.020174001046105575 0.00057502003874522272 0 -0.020435586940318176 0.00075727967597611094 0 -0.020468213083097594 0.000449420620924027 0 -0.020111893715888066 0.0003496408697827588 0 -0.020172472015466559 0.0002031874425981566 0 -0.018223312858122048 -0.00020889425121224328 0 -0.020172472015466559 0.0002031874425981566 0 -0.0173391711806508 -0.00058715774572547653 0 -0.01827895547593188 -0.00068345311912044072 0 -0.017709022087461564 0.00011760647373790424 0 -0.020172472015466559 0.0002031874425981566 0 -0.01726166607385839 0.00030811655303135236 0 -0.017587867510924754 0.0001748755304166892 0 -0.017355125756270143 0.00048400549700764166 0 -0.017591652029009731 0.00041169549179264622 0 -0.017355125756270143 0.00048400549700764166 0 -0.017591652029009731 0.00041169549179264622 0 -0.017431180604022982 0.00075200165158797409 0 -0.017591652029009731 0.00041169549179264622 0 -0.017909912724770903 0.00060261881191072601 0 -0.017853230691523288 0.00028333166382953757 0 -0.017591652029009731 0.00041169549179264622 0 -0.017431180604022982 0.00075200165158797409 0 -0.017693762630709355 0.00081803900448357628 0 -0.017591652029009731 0.00041169549179264622 0 -0.017693762630709355 0.00081803900448357628 0 -0.017909912724770903 0.00060261881191072601 0 -0.017709022087461564 0.00011760647373790424 0 -0.017186858631554627 0.00089336493786322036 0 -0.01689816656207533 0.00068667984290212054 0 -0.01726166607385839 0.00030811655303135236 0 -0.016801543833352733 0.00078118121419511351 0 -0.017355125756270143 0.00048400549700764166 0 -0.017431180604022982 0.00075200165158797409 0 -0.017146145173383635 0.00079542127192814953 0 -0.017709022087461564 0.00011760647373790424 0 -0.017014404135268814 1.0604985917580521e-05 0 -0.01689816656207533 0.00068667984290212054 0 -0.0173391711806508 -0.00058715774572547653 0 -0.017709022087461564 0.00011760647373790424 0 -0.017014404135268814 1.0604985917580521e-05 0 -0.016469636729209952 -0.0004840642993767418 0 -0.017014404135268814 1.0604985917580521e-05 0 -0.016664562418909588 0.00018546848438618372 0 -0.017014404135268814 1.0604985917580521e-05 0 -0.016664562418909588 0.00018546848438618372 0 -0.01689816656207533 0.00068667984290212054 0 -0.016272682979410636 0.00052313311180674784 0 -0.016664562418909588 0.00018546848438618372 0 -0.01689816656207533 0.00068667984290212054 0 -0.016493149664688986 0.0010453817017757382 0 -0.017143397776522441 0.00086533065237400571 0 -0.01689816656207533 0.00068667984290212054 0 -0.016801543833352733 0.00078118121419511351 0 -0.01696464396650758 0.00080128063415191254 0 -0.014948380647961494 0.00078419722441044719 0 -0.014667905828525684 0.00053130310448971723 0 -0.016801543833352733 0.00078118121419511351 0 -0.014667905828525684 0.00053130310448971723 0 -0.015503765127363033 0.00043005125860604628 0 -0.015517377193032714 0.00050736242336505311 0 -0.015429692108161228 0.00052646307801698883 0 -0.016493149664688986 0.0010453817017757382 0 -0.017143397776522441 0.00086533065237400571 0 -0.01668462683475452 0.0015445781291904533 0 -0.015503765127363033 0.00043005125860604628 0 -0.015517377193032714 0.00050736242336505311 0 -0.015609446230006116 0.0005062558331050338 0 -0.016801543833352733 0.00078118121419511351 0 -0.015850596040528336 0.00049893821058565426 0 -0.015517377193032714 0.00050736242336505311 0 -0.015539647631264503 0.00057222635074137388 0 -0.015609446230006116 0.0005062558331050338 0 -0.015517377193032714 0.00050736242336505311 0 -0.015539647631264503 0.00057222635074137388 0 -0.015429692108161228 0.00052646307801698883 0 -0.01327802619209763 0.00014772502514787773 0 -0.013290562019798861 3.9608217125354023e-05 0 -0.013204838676524375 -2.2660499172931576e-05 0 -0.015539647631264503 0.00057222635074137388 0 -0.015429692108161228 0.00052646307801698883 0 -0.01546743469371914 0.00063643679455176552 0 -0.014667905828525684 0.00053130310448971723 0 -0.014451312885254738 0.00024172821296678819 0 -0.013290562019798861 3.9608217125354023e-05 0 -0.013255784501358453 -4.9847161979319608e-06 0 -0.013204838676524375 -2.2660499172931576e-05 0 -0.013302170791643657 -1.2984837026636697e-05 0 -0.013290562019798861 3.9608217125354023e-05 0 -0.013255784501358453 -4.9847161979319608e-06 0 -0.013295838339531999 -5.829732447811487e-05 0 -0.013302170791643657 -1.2984837026636697e-05 0 -0.013255784501358453 -4.9847161979319608e-06 0 -0.013255784501358453 -4.9847161979319608e-06 0 -0.013204838676524375 -2.2660499172931576e-05 0 -0.013231636991764368 -2.3890617749287457e-05 0 -0.015136917892083801 0.00047966828107825853 0 -0.014451312885254738 0.00024172821296678819 0 -0.014758641296159074 0.00034508276308031197 0 -0.014628393894325345 0.00047730533225556364 0 -0.014766058647652456 0.00054278106392306833 0 -0.013849544749178331 0.00023989589838700236 0 -0.014451312885254738 0.00024172821296678819 0 -0.014708168677176885 0.00067866866577039942 0 -0.014628393894325345 0.00047730533225556364 0 -0.014766058647652456 0.00054278106392306833 0 -0.01327107733490801 -0.00013988936250564391 0 -0.013146192096282566 -0.00014168735146543706 0 -0.013233624531494239 -6.767391784141393e-05 0 -0.013146192096282566 -0.00014168735146543706 0 -0.013204838676524375 -2.2660499172931576e-05 0 -0.013233624531494239 -6.767391784141393e-05 0 -0.01327107733490801 -0.00013988936250564391 0 -0.013295838339531999 -5.829732447811487e-05 0 -0.013233624531494239 -6.767391784141393e-05 0 -0.013295838339531999 -5.829732447811487e-05 0 -0.013255784501358453 -4.9847161979319608e-06 0 -0.013233624531494239 -6.767391784141393e-05 0 -0.013255784501358453 -4.9847161979319608e-06 0 -0.013231636991764368 -2.3890617749287457e-05 0 -0.013233624531494239 -6.767391784141393e-05 0 -0.013204838676524375 -2.2660499172931576e-05 0 -0.013231636991764368 -2.3890617749287457e-05 0 -0.013233624531494239 -6.767391784141393e-05 0 -0.01503691798086218 0.0006816758844012589 0 -0.014917144244868027 0.00050070752886802823 0 -0.015093798828908824 0.00053494333946004868 0 -0.014860153830208443 0.00070193417983097626 0 -0.01503691798086218 0.0006816758844012589 0 -0.014917144244868027 0.00050070752886802823 0 -0.014860153830208443 0.00070193417983097626 0 -0.014766058647652456 0.00054278106392306833 0 -0.014917144244868027 0.00050070752886802823 0 -0.014758641296159074 0.00034508276308031197 0 -0.014766058647652456 0.00054278106392306833 0 -0.014917144244868027 0.00050070752886802823 0 -0.014758641296159074 0.00034508276308031197 0 -0.014917144244868027 0.00050070752886802823 0 -0.014903513196644434 0.00035317660715655823 0 -0.014917144244868027 0.00050070752886802823 0 -0.015076050234887919 0.00033897264011701001 0 -0.015093798828908824 0.00053494333946004868 0 -0.014917144244868027 0.00050070752886802823 0 -0.014903513196644434 0.00035317660715655823 0 -0.015076050234887919 0.00033897264011701001 0 -0.015021784326866952 0.00032696620096733353 0 -0.015850596040528336 0.00049893821058565426 0 -0.01528143315382835 0.00045583377617444893 0 -0.015211728233516054 0.00040362575839855057 0 -0.015299700391326672 0.00040080805839894925 0 -0.014903513196644434 0.00035317660715655823 0 -0.015076050234887919 0.00033897264011701001 0 -0.014893051179389074 0.00021023867844789491 0 -0.015136917892083801 0.00047966828107825853 0 -0.015850596040528336 0.00049893821058565426 0 -0.014758641296159074 0.00034508276308031197 0 -0.014903513196644434 0.00035317660715655823 0 -0.014893051179389074 0.00021023867844789491 0 -0.017431180604022982 0.00075200165158797409 0 -0.017476677338945444 0.0010320514048752605 0 -0.017693762630709355 0.00081803900448357628 0 -0.017431180604022982 0.00075200165158797409 0 -0.017146145173383635 0.00079542127192814953 0 -0.017476677338945444 0.0010320514048752605 0 -0.015211728233516054 0.00040362575839855057 0 -0.015263616886531876 0.00033535004461804715 0 -0.015299700391326672 0.00040080805839894925 0 -0.015850596040528336 0.00049893821058565426 0 -0.016555394054931793 0.00055465721975091729 0 -0.015263616886531876 0.00033535004461804715 0 -0.015299700391326672 0.00040080805839894925 0 -0.01537952477710147 0.00037023075557620337 0 -0.01537952477710147 0.00037023075557620337 0 -0.015345978676872037 0.00044369085275146818 0 -0.015466787491433398 0.00042605128527019949 0 -0.01528143315382835 0.00045583377617444893 0 -0.015299700391326672 0.00040080805839894925 0 -0.015345978676872037 0.00044369085275146818 0 -0.015299700391326672 0.00040080805839894925 0 -0.01537952477710147 0.00037023075557620337 0 -0.015345978676872037 0.00044369085275146818 0 -0.01528143315382835 0.00045583377617444893 0 -0.015345978676872037 0.00044369085275146818 0 -0.015294781308270488 0.00050188268789992565 0 -0.015076050234887919 0.00033897264011701001 0 -0.015294781308270488 0.00050188268789992565 0 -0.015093798828908824 0.00053494333946004868 0 -0.015021784326866952 0.00032696620096733353 0 -0.015351375817566832 0.00052936116292414499 0 -0.015345978676872037 0.00044369085275146818 0 -0.015294781308270488 0.00050188268789992565 0 -0.015407375881822897 0.00049288488381125548 0 -0.015294781308270488 0.00050188268789992565 0 -0.015353197540063653 0.00056753058211071023 0 -0.015407375881822897 0.00049288488381125548 0 -0.015370207524831191 0.00067651290238234202 0 -0.015240041624861327 0.00066208674374482039 0 -0.015353197540063653 0.00056753058211071023 0 -0.015240041624861327 0.00066208674374482039 0 -0.015294781308270488 0.00050188268789992565 0 -0.015353197540063653 0.00056753058211071023 0 -0.015240041624861327 0.00066208674374482039 0 -0.015294781308270488 0.00050188268789992565 0 -0.015093798828908824 0.00053494333946004868 0 -0.015240041624861327 0.00066208674374482039 0 -0.01503691798086218 0.0006816758844012589 0 -0.015093798828908824 0.00053494333946004868 0 -0.014171016120059709 -0.00057432193512531142 0 -0.014080684619761722 3.8359815522382003e-06 0 -0.01382515256612948 -0.00033667787739496735 0 -0.01367192864043241 -0.0007445822694117719 0 -0.014171016120059709 -0.00057432193512531142 0 -0.01382515256612948 -0.00033667787739496735 0 -0.011267074832559107 -0.00050485721921426105 0 -0.013308797413549438 0.00034142180234377812 0 -0.015456545001824038 0.00059961404500752391 0 -0.015416335562566372 0.00058515653923988677 0 -0.015503261683084628 0.00047989348080902151 0 -0.015353197540063653 0.00056753058211071023 0 -0.015416335562566372 0.00058515653923988677 0 -0.015407375881822897 0.00049288488381125548 0 -0.013308797413549438 0.00034142180234377812 0 -0.015362231149497517 0.00080066357816796507 0 -0.015370207524831191 0.00067651290238234202 0 -0.015460679019030286 0.00060355040204768682 0 -0.015416335562566372 0.00058515653923988677 0 -0.015370207524831191 0.00067651290238234202 0 -0.015353197540063653 0.00056753058211071023 0 -0.015416335562566372 0.00058515653923988677 0 -0.015416335562566372 0.00058515653923988677 0 -0.015407375881822897 0.00049288488381125548 0 -0.015503261683084628 0.00047989348080902151 0 -0.013308797413549438 0.00034142180234377812 0 -0.014900923375055946 0.00013170724822908109 0 -0.014900923375055946 0.00013170724822908109 0 -0.015155548883547459 0.00061311668324859196 0 -0.014080684619761722 3.8359815522382003e-06 0 -0.013984001015639534 0.00059909848278247562 0 -0.013622485245555375 0.00026604860955578666 0 -0.015503261683084628 0.00047989348080902151 0 -0.015466787491433398 0.00042605128527019949 0 -0.015545675861029579 0.00040161108291037422 0 -0.015345978676872037 0.00044369085275146818 0 -0.015407375881822897 0.00049288488381125548 0 -0.015466787491433398 0.00042605128527019949 0 -0.015407375881822897 0.00049288488381125548 0 -0.015503261683084628 0.00047989348080902151 0 -0.015466787491433398 0.00042605128527019949 0 -0.01537952477710147 0.00037023075557620337 0 -0.015466787491433398 0.00042605128527019949 0 -0.015552246864752586 0.00036734519234539811 0 -0.015552246864752586 0.00036734519234539811 0 -0.015752966489179589 0.00056971630470011871 0 -0.015827842527824446 0.0003074322262341743 0 -0.015466787491433398 0.00042605128527019949 0 -0.015552246864752586 0.00036734519234539811 0 -0.015545675861029579 0.00040161108291037422 0 -0.015155548883547459 0.00061311668324859196 0 -0.015877859524744353 0.00033159541314785784 0 -0.015636270677940035 0.00043647584544335191 0 -0.015155548883547459 0.00061311668324859196 0 -0.015552246864752586 0.00036734519234539811 0 -0.015649736680779902 0.00025531989952102993 0 -0.015827842527824446 0.0003074322262341743 0 -0.015649736680779902 0.00025531989952102993 0 -0.015827842527824446 0.0003074322262341743 0 -0.015914745032932255 0.00017501242721441838 0 -0.018429279720839884 0.00064532687970685261 0 -0.018910268988255138 0.00081049525323857719 0 -0.02177909772362404 0.0010294470601780628 0 -0.021342312083076652 0.0011880011969046932 0 -0.021896265548847878 0.0014341430132398306 0 -0.02177909772362404 0.0010294470601780628 0 -0.021342312083076652 0.0011880011969046932 0 -0.021517316022649731 0.00083029140482541455 0 -0.015649736680779902 0.00025531989952102993 0 -0.015592753967881345 0.00015191655190688745 0 -0.015914745032932255 0.00017501242721441838 0 -0.015592753967881345 0.00015191655190688745 0 -0.015473771960738323 0.00025573805892414479 0 -0.0154372020101648 0.00012827189155035224 0 -0.021342312083076652 0.0011880011969046932 0 -0.020893759660870943 0.00089835297920721352 0 -0.021172846247667063 0.00083747496120821995 0 -0.018429279720839884 0.00064532687970685261 0 -0.018366227242271313 0.0006960260349173317 0 -0.021342312083076652 0.0011880011969046932 0 -0.020837230569602898 0.00095315930919763231 0 -0.020893759660870943 0.00089835297920721352 0 -0.015649736680779902 0.00025531989952102993 0 -0.015592753967881345 0.00015191655190688745 0 -0.015473771960738323 0.00025573805892414479 0 -0.01537952477710147 0.00037023075557620337 0 -0.015552246864752586 0.00036734519234539811 0 -0.015473771960738323 0.00025573805892414479 0 -0.015552246864752586 0.00036734519234539811 0 -0.015649736680779902 0.00025531989952102993 0 -0.015473771960738323 0.00025573805892414479 0 -0.01537952477710147 0.00037023075557620337 0 -0.015473771960738323 0.00025573805892414479 0 -0.015334998573630181 0.0002434654345472919 0 -0.015263616886531876 0.00033535004461804715 0 -0.01537952477710147 0.00037023075557620337 0 -0.015334998573630181 0.0002434654345472919 0 -0.016555394054931793 0.00055465721975091729 0 -0.016438692367171714 0.00047206052247465339 0 -0.017909912724770903 0.00060261881191072601 0 -0.018121780220286089 0.00038954705736541024 0 -0.017853230691523288 0.00028333166382953757 0 -0.015473771960738323 0.00025573805892414479 0 -0.015334998573630181 0.0002434654345472919 0 -0.0154372020101648 0.00012827189155035224 0 -0.016438692367171714 0.00047206052247465339 0 -0.018366227242271313 0.0006960260349173317 0 -0.021000024979781744 0.00077444725669072103 0 -0.020893759660870943 0.00089835297920721352 0 -0.021172846247667063 0.00083747496120821995 0 -0.020845322746625861 0.00094516454111696056 0 -0.020893759660870943 0.00089835297920721352 0 -0.020878403085002342 0.00073003183703371167 0 -0.021000024979781744 0.00077444725669072103 0 -0.020893759660870943 0.00089835297920721352 0 -0.020878403085002342 0.00073003183703371167 0 -0.018366227242271313 0.0006960260349173317 0 -0.018853552555856086 0.00045909843116863927 0 -0.020845322746625861 0.00094516454111696056 0 -0.020878403085002342 0.00073003183703371167 0 -0.020682678248860897 0.00066727573819303041 0 -0.020878403085002342 0.00073003183703371167 0 -0.020682678248860897 0.00066727573819303041 0 -0.020814792468510722 0.00047791296587618078 0 -0.020878403085002342 0.00073003183703371167 0 -0.020814792468510722 0.00047791296587618078 0 -0.02105836605225786 0.00063265655429110715 0 -0.021000024979781744 0.00077444725669072103 0 -0.020878403085002342 0.00073003183703371167 0 -0.02105836605225786 0.00063265655429110715 0 -0.020845322746625861 0.00094516454111696056 0 -0.020435586940318176 0.00075727967597611094 0 -0.020682678248860897 0.00066727573819303041 0 -0.018366227242271313 0.0006960260349173317 0 -0.019108418435367213 0.00052284508315819233 0 -0.020435586940318176 0.00075727967597611094 0 -0.020682678248860897 0.00066727573819303041 0 -0.020468213083097594 0.000449420620924027 0 -0.020682678248860897 0.00066727573819303041 0 -0.020468213083097594 0.000449420620924027 0 -0.020814792468510722 0.00047791296587618078 0 -0.020468213083097594 0.000449420620924027 0 -0.020618299522440493 0.00025737004583290966 0 -0.020814792468510722 0.00047791296587618078 0 -0.020468213083097594 0.000449420620924027 0 -0.020618299522440493 0.00025737004583290966 0 -0.020303047476887104 0.00012878658744567358 0 -0.020814792468510722 0.00047791296587618078 0 -0.021110400365296062 0.00038706955977753848 0 -0.02105836605225786 0.00063265655429110715 0 -0.020618299522440493 0.00025737004583290966 0 -0.020814792468510722 0.00047791296587618078 0 -0.02088557026212309 0.00025160067841860817 0 -0.02088557026212309 0.00025160067841860817 0 -0.021110400365296062 0.00038706955977753848 0 -0.021147655313605782 0.00012788151579573297 0 -0.020814792468510722 0.00047791296587618078 0 -0.02088557026212309 0.00025160067841860817 0 -0.021110400365296062 0.00038706955977753848 0 -0.021110400365296062 0.00038706955977753848 0 -0.021435736431499011 0.00028335993130861888 0 -0.021147655313605782 0.00012788151579573297 0 -0.021110400365296062 0.00038706955977753848 0 -0.02105836605225786 0.00063265655429110715 0 -0.021327563296586208 0.00059489214248766378 0 -0.021110400365296062 0.00038706955977753848 0 -0.021435736431499011 0.00028335993130861888 0 -0.021327563296586208 0.00059489214248766378 0 -0.021435736431499011 0.00028335993130861888 0 -0.021590859651908278 0.00050820186488144967 0 -0.021775825493207862 0.00017999634664541425 0 -0.021590859651908278 0.00050820186488144967 0 -0.021775825493207862 0.00017999634664541425 0 -0.021901552624524208 0.0006692557633247129 0 -0.021435736431499011 0.00028335993130861888 0 -0.021590859651908278 0.00050820186488144967 0 -0.021327563296586208 0.00059489214248766378 0 -0.021590859651908278 0.00050820186488144967 0 -0.021517316022649731 0.00083029140482541455 0 -0.021327563296586208 0.00059489214248766378 0 -0.021590859651908278 0.00050820186488144967 0 -0.021517316022649731 0.00083029140482541455 0 -0.021901552624524208 0.0006692557633247129 0 -0.02177909772362404 0.0010294470601780628 0 -0.021517316022649731 0.00083029140482541455 0 -0.021901552624524208 0.0006692557633247129 0 -0.021342312083076652 0.0011880011969046932 0 -0.021517316022649731 0.00083029140482541455 0 -0.021172846247667063 0.00083747496120821995 0 -0.021172846247667063 0.00083747496120821995 0 -0.02105836605225786 0.00063265655429110715 0 -0.021327563296586208 0.00059489214248766378 0 -0.021000024979781744 0.00077444725669072103 0 -0.021172846247667063 0.00083747496120821995 0 -0.02105836605225786 0.00063265655429110715 0 -0.021517316022649731 0.00083029140482541455 0 -0.021172846247667063 0.00083747496120821995 0 -0.021327563296586208 0.00059489214248766378 0 -0.021193293555554955 -0.00015895371017130792 0 -0.021283981043930027 -0.00034618689452610722 0 -0.02090666312712413 -0.00036331315131182422 0 -0.022046142625077571 -0.00037382984465971625 0 -0.021731870960507386 -0.00026198489990891924 0 -0.022745038052590122 -0.00040707415292444703 0 -0.02296916656301274 -0.00039577735087821129 0 -0.022866767294479798 -0.00023720604559777602 0 -0.021193293555554955 -0.00015895371017130792 0 -0.021283981043930027 -0.00034618689452610722 0 -0.021438152553540136 -5.2268092793537287e-05 0 -0.021283981043930027 -0.00034618689452610722 0 -0.021679964162794409 -0.00028744411881669263 0 -0.021438152553540136 -5.2268092793537287e-05 0 -0.022706448882929827 -0.00034906540229811243 0 -0.022719650692445737 -0.0003484926384153913 0 -0.022683073534652223 -0.00048565498281019528 0 -0.021283981043930027 -0.00034618689452610722 0 -0.021671342941646736 -0.00033128476832449018 0 -0.021679964162794409 -0.00028744411881669263 0 -0.022046142625077571 -0.00037382984465971625 0 -0.022101017298755864 -0.00038058051440163836 0 -0.022101017298755864 -0.00038058051440163836 0 -0.022044228551695338 -0.00042561510409395368 0 -0.021757175539267135 -0.00047643729186547343 0 -0.02170836282439129 -0.00042734479660114753 0 -0.021960580111697391 -0.00022109897969342483 0 -0.022044228551695338 -0.00042561510409395368 0 -0.021942181318809352 -0.00034200921734238389 0 -0.021985156460200349 -0.00045739677874123463 0 -0.021988762225530589 -0.0004573242713307169 0 -0.021985703489072705 -0.0004542185558121521 0 -0.022101017298755864 -0.00038058051440163836 0 -0.021942181318809352 -0.00034200921734238389 0 -0.021942181318809352 -0.00034200921734238389 0 -0.021445356192899188 -3.1761356375677351e-05 0 -0.021677609856645085 -0.00028943589260001706 0 -0.021438152553540136 -5.2268092793537287e-05 0 -0.021775825493207862 0.00017999634664541425 0 -0.021942181318809352 -0.00034200921734238389 0 -0.021781913640428707 0.0001532262785471013 0 -0.02170836282439129 -0.00042734479660114753 0 -0.021816135524410502 0.00012696412676586639 0 -0.021960580111697391 -0.00022109897969342483 0 -0.021435736431499011 0.00028335993130861888 0 -0.021438152553540136 -5.2268092793537287e-05 0 -0.021775825493207862 0.00017999634664541425 0 -0.021193293555554955 -0.00015895371017130792 0 -0.021147655313605782 0.00012788151579573297 0 -0.02090666312712413 -0.00036331315131182422 0 -0.021435736431499011 0.00028335993130861888 0 -0.021438152553540136 -5.2268092793537287e-05 0 -0.021147655313605782 0.00012788151579573297 0 -0.021193293555554955 -0.00015895371017130792 0 -0.021438152553540136 -5.2268092793537287e-05 0 -0.021147655313605782 0.00012788151579573297 0 -0.020932169152489799 -3.6276004814183912e-06 0 -0.021731870960507386 -0.00026198489990891924 0 -0.021147655313605782 0.00012788151579573297 0 -0.020745574123086922 1.1642259834267276e-05 0 -0.020909195374904481 -0.00031849675815808209 0 -0.02088557026212309 0.00025160067841860817 0 -0.021147655313605782 0.00012788151579573297 0 -0.020745574123086922 1.1642259834267276e-05 0 -0.020618299522440493 0.00025737004583290966 0 -0.02088557026212309 0.00025160067841860817 0 -0.020745574123086922 1.1642259834267276e-05 0 -0.020745574123086922 1.1642259834267276e-05 0 -0.020605434200194245 -0.00033143914632376099 0 -0.020303047476887104 0.00012878658744567358 0 -0.020618299522440493 0.00025737004583290966 0 -0.020745574123086922 1.1642259834267276e-05 0 -0.020303047476887104 0.00012878658744567358 0 -0.023105877935508098 0.00034344752569345863 0 -0.022728232703591165 0.00041163485269983302 0 -0.024784681479169839 0.00059849726590064333 0 -0.024739370760458956 0.00059707211517486002 0 -0.024715003307300705 0.00071929048585708962 0 -0.023105877935508098 0.00034344752569345863 0 -0.024952564609777496 0.000540673013239463 0 -0.024777536755665578 0.00059284154886389193 0 -0.024756032510961753 0.00054736533119977015 0 -0.024739370760458956 0.00059707211517486002 0 -0.020745574123086922 1.1642259834267276e-05 0 -0.020605434200194245 -0.00033143914632376099 0 -0.020909195374904481 -0.00031849675815808209 0 -0.023105877935508098 0.00034344752569345863 0 -0.021731870960507386 -0.00026198489990891924 0 -0.023087744301757779 -1.9077573654346007e-05 0 -0.022620138473972436 -4.2235711900950121e-05 0 -0.022844911400523568 0.00037039904796448491 0 -0.02296916656301274 -0.00039577735087821129 0 -0.023067241860213996 -0.00022215358385639395 0 -0.022866767294479798 -0.00023720604559777602 0 -0.021731870960507386 -0.00026198489990891924 0 -0.023662023360515611 0.00019108291120667711 0 -0.023662023360515611 0.00019108291120667711 0 -0.023952882937282021 -4.0076526288072971e-05 0 -0.023067241860213996 -0.00022215358385639395 0 -0.022962779754003515 -5.0021851936642882e-05 0 -0.022866767294479798 -0.00023720604559777602 0 -0.024805768600370356 0.0005410377690545122 0 -0.024756032510961753 0.00054736533119977015 0 -0.024780020195043544 0.00048276675141920727 0 -0.024756032510961753 0.00054736533119977015 0 -0.024780020195043544 0.00048276675141920727 0 -0.024713638602602523 0.00051767210463549065 0 -0.024777536755665578 0.00059284154886389193 0 -0.024805768600370356 0.0005410377690545122 0 -0.024756032510961753 0.00054736533119977015 0 -0.023105877935508098 0.00034344752569345863 0 -0.023662023360515611 0.00019108291120667711 0 -0.023662023360515611 0.00019108291120667711 0 -0.024856218790894016 0.00037523887000808496 0 -0.024158496114398617 -1.950974321573395e-05 0 -0.024335797532403503 0.00030587486980253331 0 -0.023989889291160867 0.00025051356036654099 0 -0.024976769352762395 0.00019360612721168387 0 -0.024993176503624297 0.00019995821488349172 0 -0.024986780765807001 0.00017886892409831268 0 -0.024993176503624297 0.00019995821488349172 0 -0.025022785034310116 0.00016490177164480717 0 -0.024986780765807001 0.00017886892409831268 0 -0.024856218790894016 0.00037523887000808496 0 -0.023952882937282021 -4.0076526288072971e-05 0 -0.024085945101368057 -0.00032130775174946498 0 -0.023732293939742698 -0.0003791283545718626 0 -0.02376640882381445 -0.00022638609987492376 0 -0.023952882937282021 -4.0076526288072971e-05 0 -0.02314658744852266 -0.00033789221010389068 0 -0.024085945101368057 -0.00032130775174946498 0 -0.02376640882381445 -0.00022638609987492376 0 -0.023929935236146695 -6.6455979221629767e-05 0 -0.023952882937282021 -4.0076526288072971e-05 0 -0.024538444126655175 3.0362906634839796e-05 0 -0.022962779754003515 -5.0021851936642882e-05 0 -0.022866767294479798 -0.00023720604559777602 0 -0.022589361319328281 -0.00011004276039225724 0 -0.022745038052590122 -0.00040707415292444703 0 -0.022866767294479798 -0.00023720604559777602 0 -0.022589361319328281 -0.00011004276039225724 0 -0.022101017298755864 -0.00038058051440163836 0 -0.02314658744852266 -0.00033789221010389068 0 -0.022745038052590122 -0.00040707415292444703 0 -0.022519696268192082 -0.00041788979935836 0 -0.022589361319328281 -0.00011004276039225724 0 -0.02373143001081254 -0.00038964412663282627 0 -0.02376640882381445 -0.00022638609987492376 0 -0.023542415603078889 -0.0003133826704835128 0 -0.02376640882381445 -0.00022638609987492376 0 -0.023542415603078889 -0.0003133826704835128 0 -0.023569270041210493 -0.00010955331522822457 0 -0.02314658744852266 -0.00033789221010389068 0 -0.023618638601311429 -0.0002146015484181648 0 -0.02376024685814879 -5.2058088890972256e-05 0 -0.023774162706129327 0.00019365826618799543 0 -0.023569270041210493 -0.00010955331522822457 0 -0.02376640882381445 -0.00022638609987492376 0 -0.02376024685814879 -5.2058088890972256e-05 0 -0.023569270041210493 -0.00010955331522822457 0 -0.02376024685814879 -5.2058088890972256e-05 0 -0.023929935236146695 -6.6455979221629767e-05 0 -0.023774162706129327 0.00019365826618799543 0 -0.02376640882381445 -0.00022638609987492376 0 -0.02376024685814879 -5.2058088890972256e-05 0 -0.023929935236146695 -6.6455979221629767e-05 0 -0.025017337254357761 0.00011402007716833285 0 -0.025057074121042733 0.00010684919118328733 0 -0.025038393753053705 7.451047901393769e-05 0 -0.025022785034310116 0.00016490177164480717 0 -0.025017337254357761 0.00011402007716833285 0 -0.025057074121042733 0.00010684919118328733 0 -0.024538444126655175 3.0362906634839796e-05 0 -0.024472247254127562 8.2126639986321594e-05 0 -0.024497567102861769 2.1245078900695413e-05 0 -0.02434417937213805 -6.9486261876627661e-05 0 -0.024330501401105199 -0.00024027708064584192 0 -0.024497567102861769 2.1245078900695413e-05 0 -0.02428658420167799 3.8346023670423682e-05 0 -0.02434417937213805 -6.9486261876627661e-05 0 -0.024472247254127562 8.2126639986321594e-05 0 -0.02396353733928918 -0.00015012089517936508 0 -0.024472247254127562 8.2126639986321594e-05 0 -0.02484037147028547 5.3472572612994028e-05 0 -0.02509813799371156 5.2676796289254202e-05 0 -0.025038393753053705 7.451047901393769e-05 0 -0.02501446159644214 2.7237718825835417e-05 0 -0.02484037147028547 5.3472572612994028e-05 0 -0.025091618821006717 3.7676037756558794e-05 0 -0.024497567102861769 2.1245078900695413e-05 0 -0.02439722174565952 0.00018273940850585635 0 -0.02428658420167799 3.8346023670423682e-05 0 -0.025059127898680464 0.000110963616730723 0 -0.02509813799371156 5.2676796289254202e-05 0 -0.025038393753053705 7.451047901393769e-05 0 -0.024472247254127562 8.2126639986321594e-05 0 -0.024940774262725694 0.00020879895634232586 0 -0.025017337254357761 0.00011402007716833285 0 -0.025038393753053705 7.451047901393769e-05 0 -0.02500999786339568 7.0221182780467103e-05 0 -0.02500999786339568 7.0221182780467103e-05 0 -0.02501446159644214 2.7237718825835417e-05 0 -0.024997189153824692 4.2372271376669048e-05 0 -0.025038393753053705 7.451047901393769e-05 0 -0.02500999786339568 7.0221182780467103e-05 0 -0.02501446159644214 2.7237718825835417e-05 0 -0.02501446159644214 2.7237718825835417e-05 0 -0.025000043292034344 2.413054519605465e-08 0 -0.024999961885848909 3.4348711853577775e-08 0 -0.02500536321673464 1.2655481298829086e-05 0 -0.025000043292034344 2.413054519605465e-08 0 -0.024999991734488178 -6.3849529348857125e-09 0 -0.02500536321673464 1.2655481298829086e-05 0 -0.02501446159644214 2.7237718825835417e-05 0 -0.025000043292034344 2.413054519605465e-08 0 -0.025006704000522875 7.1328986880598245e-06 0 -0.025000004563717679 -3.317771123196734e-09 0 -0.0250000163024857 1.474430284138989e-08 0 -0.024962181956522875 5.0840448616682229e-05 0 -0.024999961885848909 3.4348711853577775e-08 0 -0.024997189153824692 4.2372271376669048e-05 0 -0.02498549513070783 2.9080235348766709e-05 0 -0.024999999207176153 8.5090101232290499e-09 0 -0.02501446159644214 2.7237718825835417e-05 0 -0.024999961885848909 3.4348711853577775e-08 0 -0.024997189153824692 4.2372271376669048e-05 0 -0.024962181956522875 5.0840448616682229e-05 0 -0.024997189153824692 4.2372271376669048e-05 0 -0.024992243068957254 9.1447807959214812e-05 0 -0.02500999786339568 7.0221182780467103e-05 0 -0.024997189153824692 4.2372271376669048e-05 0 -0.024992243068957254 9.1447807959214812e-05 0 -0.025017337254357761 0.00011402007716833285 0 -0.02500999786339568 7.0221182780467103e-05 0 -0.024992243068957254 9.1447807959214812e-05 0 -0.024962181956522875 5.0840448616682229e-05 0 -0.024971565838424584 0.00011299158665612761 0 -0.024932544784629106 9.2334175328814659e-05 0 -0.024962181956522875 5.0840448616682229e-05 0 -0.024992243068957254 9.1447807959214812e-05 0 -0.024971565838424584 0.00011299158665612761 0 -0.024971565838424584 0.00011299158665612761 0 -0.02499119749455124 0.00014283681625071277 0 -0.024971349341707992 0.00019008881452436179 0 -0.025022785034310116 0.00016490177164480717 0 -0.025017337254357761 0.00011402007716833285 0 -0.02499119749455124 0.00014283681625071277 0 -0.025017337254357761 0.00011402007716833285 0 -0.024992243068957254 9.1447807959214812e-05 0 -0.02499119749455124 0.00014283681625071277 0 -0.024992243068957254 9.1447807959214812e-05 0 -0.024971565838424584 0.00011299158665612761 0 -0.02499119749455124 0.00014283681625071277 0 -0.025022785034310116 0.00016490177164480717 0 -0.02499119749455124 0.00014283681625071277 0 -0.024986780765807001 0.00017886892409831268 0 -0.02499119749455124 0.00014283681625071277 0 -0.024986780765807001 0.00017886892409831268 0 -0.024971349341707992 0.00019008881452436179 0 -0.024976769352762395 0.00019360612721168387 0 -0.024986780765807001 0.00017886892409831268 0 -0.024971349341707992 0.00019008881452436179 0 -0.024856218790894016 0.00037523887000808496 0 -0.024996309486733259 0.00016961013102399894 0 -0.024971349341707992 0.00019008881452436179 0 -0.024911246967552651 0.00020690774721147235 0 -0.024899628218369895 0.00031974536050914762 0 -0.024911246967552651 0.00020690774721147235 0 -0.024889973106251028 0.00013269804296872832 0 -0.024675175063811915 0.00036507333937665719 0 -0.024911246967552651 0.00020690774721147235 0 -0.024675175063811915 0.00036507333937665719 0 -0.024899628218369895 0.00031974536050914762 0 -0.024896332627325705 0.00012565800445451657 0 -0.024962460383210028 6.7422126412977097e-05 0 -0.024911246967552651 0.00020690774721147235 0 -0.024889973106251028 0.00013269804296872832 0 -0.024932544784629106 9.2334175328814659e-05 0 -0.024971349341707992 0.00019008881452436179 0 -0.024911246967552651 0.00020690774721147235 0 -0.024932544784629106 9.2334175328814659e-05 0 -0.024971565838424584 0.00011299158665612761 0 -0.024971349341707992 0.00019008881452436179 0 -0.024932544784629106 9.2334175328814659e-05 0 -0.025006704000522875 7.1328986880598245e-06 0 -0.02500154976193919 3.882184162064364e-05 0 -0.024990732010461258 3.546342989035997e-06 0 -0.02498549513070783 2.9080235348766709e-05 0 -0.024962460383210028 6.7422126412977097e-05 0 -0.024889973106251028 0.00013269804296872832 0 -0.02500154976193919 3.882184162064364e-05 0 -0.024932160493728484 1.9352368748475616e-05 0 -0.02500154976193919 3.882184162064364e-05 0 -0.024932160493728484 1.9352368748475616e-05 0 -0.024990732010461258 3.546342989035997e-06 0 -0.024932160493728484 1.9352368748475616e-05 0 -0.024999913742384257 -4.1898101790084187e-08 0 -0.024990732010461258 3.546342989035997e-06 0 -0.025006704000522875 7.1328986880598245e-06 0 -0.0250000163024857 1.474430284138989e-08 0 -0.024990732010461258 3.546342989035997e-06 0 -0.024999913742384257 -4.1898101790084187e-08 0 -0.0250000163024857 1.474430284138989e-08 0 -0.024990732010461258 3.546342989035997e-06 0 -0.024999784979195933 1.6313338230578502e-08 0 -0.024861620414553341 -2.9133946187438459e-05 0 -0.024977568134559432 -4.9771682475767109e-06 0 -0.024932160493728484 1.9352368748475616e-05 0 -0.024999913742384257 -4.1898101790084187e-08 0 -0.024861620414553341 -2.9133946187438459e-05 0 -0.024999913742384257 -4.1898101790084187e-08 0 -0.024999784979195933 1.6313338230578502e-08 0 -0.024861620414553341 -2.9133946187438459e-05 0 -0.024932160493728484 1.9352368748475616e-05 0 -0.024861620414553341 -2.9133946187438459e-05 0 -0.024773930229134104 0.00012926774067387688 0 -0.024861620414553341 -2.9133946187438459e-05 0 -0.024617906256202825 9.2848766980149221e-05 0 -0.024773930229134104 0.00012926774067387688 0 -0.024617906256202825 9.2848766980149221e-05 0 -0.024773930229134104 0.00012926774067387688 0 -0.024578375288514618 0.00025226814812615424 0 -0.024889973106251028 0.00013269804296872832 0 -0.024932160493728484 1.9352368748475616e-05 0 -0.024773930229134104 0.00012926774067387688 0 -0.024889973106251028 0.00013269804296872832 0 -0.024773930229134104 0.00012926774067387688 0 -0.024675175063811915 0.00036507333937665719 0 -0.024773930229134104 0.00012926774067387688 0 -0.024578375288514618 0.00025226814812615424 0 -0.024675175063811915 0.00036507333937665719 0 -0.024578375288514618 0.00025226814812615424 0 -0.02454602376198272 0.00039625668162771293 0 -0.024675175063811915 0.00036507333937665719 0 -0.02454602376198272 0.00039625668162771293 0 -0.024566618733250341 0.00048598300967809941 0 -0.024675175063811915 0.00036507333937665719 0 -0.02454602376198272 0.00039625668162771293 0 -0.024566618733250341 0.00048598300967809941 0 -0.024477908050379943 0.00048048726274453271 0 -0.024566618733250341 0.00048598300967809941 0 -0.024470324254358557 0.00055614031105205618 0 -0.02456767494326324 0.00059681061918073818 0 -0.024566618733250341 0.00048598300967809941 0 -0.024470324254358557 0.00055614031105205618 0 -0.024477908050379943 0.00048048726274453271 0 -0.024566618733250341 0.00048598300967809941 0 -0.024657318950171654 0.00049124492901378425 0 -0.02456767494326324 0.00059681061918073818 0 -0.024566618733250341 0.00048598300967809941 0 -0.024675175063811915 0.00036507333937665719 0 -0.024657318950171654 0.00049124492901378425 0 -0.024667038013507874 0.00036405889440585212 0 -0.024805823540068009 0.00039161037490426814 0 -0.024675175063811915 0.00036507333937665719 0 -0.024697299575092257 0.0004574452551243334 0 -0.024657318950171654 0.00049124492901378425 0 -0.024697299575092257 0.0004574452551243334 0 -0.024713638602602523 0.00051767210463549065 0 -0.024657318950171654 0.00049124492901378425 0 -0.024780020195043544 0.00048276675141920727 0 -0.024697299575092257 0.0004574452551243334 0 -0.024713638602602523 0.00051767210463549065 0 -0.025045117824431262 0.00032610473815879117 0 -0.024971349341707992 0.00019008881452436179 0 -0.024899628218369895 0.00031974536050914762 0 -0.024856218790894016 0.00037523887000808496 0 -0.024805823540068009 0.00039161037490426814 0 -0.024713638602602523 0.00051767210463549065 0 -0.024714212103851729 0.00056564654080738764 0 -0.024676583525545928 0.0005767775751952971 0 -0.024756032510961753 0.00054736533119977015 0 -0.024713638602602523 0.00051767210463549065 0 -0.024714212103851729 0.00056564654080738764 0 -0.024756032510961753 0.00054736533119977015 0 -0.024714212103851729 0.00056564654080738764 0 -0.024739370760458956 0.00059707211517486002 0 -0.024657318950171654 0.00049124492901378425 0 -0.024676583525545928 0.0005767775751952971 0 -0.02456767494326324 0.00059681061918073818 0 -0.024713638602602523 0.00051767210463549065 0 -0.024657318950171654 0.00049124492901378425 0 -0.024676583525545928 0.0005767775751952971 0 -0.024676583525545928 0.0005767775751952971 0 -0.024622300357354441 0.0007045466372846722 0 -0.02456767494326324 0.00059681061918073818 0 -0.024676583525545928 0.0005767775751952971 0 -0.024689645765407758 0.00064557729407742034 0 -0.024622300357354441 0.0007045466372846722 0 -0.024739370760458956 0.00059707211517486002 0 -0.024689645765407758 0.00064557729407742034 0 -0.024715003307300705 0.00071929048585708962 0 -0.024714212103851729 0.00056564654080738764 0 -0.024739370760458956 0.00059707211517486002 0 -0.024689645765407758 0.00064557729407742034 0 -0.024714212103851729 0.00056564654080738764 0 -0.024676583525545928 0.0005767775751952971 0 -0.024689645765407758 0.00064557729407742034 0 -0.024689645765407758 0.00064557729407742034 0 -0.024715003307300705 0.00071929048585708962 0 -0.024622300357354441 0.0007045466372846722 0 -0.024622300357354441 0.0007045466372846722 0 -0.024485299239807697 0.00073390520933810813 0 -0.02456767494326324 0.00059681061918073818 0 -0.02452253506061013 0.00080859777997275976 0 -0.024622300357354441 0.0007045466372846722 0 -0.024485299239807697 0.00073390520933810813 0 -0.024485299239807697 0.00073390520933810813 0 -0.024323267592511001 0.0007495488514267408 0 -0.024347890748245952 0.00084830979457458234 0 -0.02452253506061013 0.00080859777997275976 0 -0.024485299239807697 0.00073390520933810813 0 -0.024347890748245952 0.00084830979457458234 0 -0.024485299239807697 0.00073390520933810813 0 -0.024414538917677229 0.00068037236273053121 0 -0.024323267592511001 0.0007495488514267408 0 -0.024470324254358557 0.00055614031105205618 0 -0.024469903603879031 0.00062669645135920331 0 -0.02456767494326324 0.00059681061918073818 0 -0.024485299239807697 0.00073390520933810813 0 -0.024469903603879031 0.00062669645135920331 0 -0.02456767494326324 0.00059681061918073818 0 -0.024414538917677229 0.00068037236273053121 0 -0.024469903603879031 0.00062669645135920331 0 -0.024411659270248909 0.00062162698485035449 0 -0.024485299239807697 0.00073390520933810813 0 -0.024414538917677229 0.00068037236273053121 0 -0.024469903603879031 0.00062669645135920331 0 -0.024470324254358557 0.00055614031105205618 0 -0.024469903603879031 0.00062669645135920331 0 -0.024411659270248909 0.00062162698485035449 0 -0.023800680329992923 0.00045623573904054218 0 -0.024185721972571711 0.00039622559650982628 0 -0.023548309866942136 0.00015739818546439192 0 -0.023800680329992923 0.00045623573904054218 0 -0.024092312962055679 0.00067154628517772927 0 -0.023752069131696911 0.00082364485295226644 0 -0.023800680329992923 0.00045623573904054218 0 -0.024185721972571711 0.00039622559650982628 0 -0.024092312962055679 0.00067154628517772927 0 -0.024411659270248909 0.00062162698485035449 0 -0.024323267592511001 0.0007495488514267408 0 -0.024398430770717065 0.00055530101844630071 0 -0.02432887407765268 0.00073491254946326026 0 -0.024316353794074423 0.00045795431493971959 0 -0.024185721972571711 0.00039622559650982628 0 -0.024092312962055679 0.00067154628517772927 0 -0.024323267592511001 0.0007495488514267408 0 -0.024414538917677229 0.00068037236273053121 0 -0.024411659270248909 0.00062162698485035449 0 -0.024323267592511001 0.0007495488514267408 0 -0.024185721972571711 0.00039622559650982628 0 -0.024323267592511001 0.0007495488514267408 0 -0.024230449791297577 0.00033251033944109627 0 -0.024470324254358557 0.00055614031105205618 0 -0.024411659270248909 0.00062162698485035449 0 -0.024398430770717065 0.00055530101844630071 0 -0.021532551589216058 0.00030616618421549965 0 -0.021170009130101128 0.00030603472474036592 0 -0.024092312962055679 0.00067154628517772927 0 -0.024347890748245952 0.00084830979457458234 0 -0.023752069131696911 0.00082364485295226644 0 -0.024092312962055679 0.00067154628517772927 0 -0.024323267592511001 0.0007495488514267408 0 -0.024347890748245952 0.00084830979457458234 0 -0.018537245456366362 1.110470778326206e-06 0 -0.018942280049420019 -0.0001770632196290357 0 -0.018540914512381199 -0.00022233170905945818 0 -0.018464861913911453 -8.7447765098515255e-05 0 -0.018540914512381199 -0.00022233170905945818 0 -0.018401346509322694 -0.00012605757334329911 0 -0.018540914512381199 -0.00022233170905945818 0 -0.018401346509322694 -0.00012605757334329911 0 -0.018371430990086351 -0.00013091942273395435 0 -0.018336116166749048 -0.0001463783564893813 0 -0.018401346509322694 -0.00012605757334329911 0 -0.018371430990086351 -0.00013091942273395435 0 -0.023800680329992923 0.00045623573904054218 0 -0.023752069131696911 0.00082364485295226644 0 -0.023014068494913425 0.0006480296044411389 0 -0.021170009130101128 0.00030603472474036592 0 -0.020693804183048746 0.00025762138376214422 0 -0.023800680329992923 0.00045623573904054218 0 -0.023014068494913425 0.0006480296044411389 0 -0.023548309866942136 0.00015739818546439192 0 -0.023868519766871179 0.00026365072763617564 0 -0.023476985779945132 0.00013961223424699412 0 -0.023014068494913425 0.0006480296044411389 0 -0.023548309866942136 0.00015739818546439192 0 -0.022890315097789181 -1.7596862277844822e-05 0 -0.023014068494913425 0.0006480296044411389 0 -0.022890315097789181 -1.7596862277844822e-05 0 -0.02249654092413083 0.00010044220249451146 0 -0.024079291356968586 0.00032920184447837866 0 -0.024183282652150036 0.00025183384245984171 0 -0.024028212586639539 0.00021019483286374531 0 -0.024176296341730588 0.00034734328518593266 0 -0.024079291356968586 0.00032920184447837866 0 -0.024183282652150036 0.00025183384245984171 0 -0.02421744371378275 0.00031773525024759796 0 -0.024279444985912873 0.00027105515293122235 0 -0.024183282652150036 0.00025183384245984171 0 -0.024176296341730588 0.00034734328518593266 0 -0.02421744371378275 0.00031773525024759796 0 -0.024183282652150036 0.00025183384245984171 0 -0.024185721972571711 0.00039622559650982628 0 -0.024176296341730588 0.00034734328518593266 0 -0.02421744371378275 0.00031773525024759796 0 -0.024166441522482398 0.00038278042750992654 0 -0.023868519766871179 0.00026365072763617564 0 -0.024398430770717065 0.00055530101844630071 0 -0.024477908050379943 0.00048048726274453271 0 -0.024407651505322623 0.0003965413811209146 0 -0.02421744371378275 0.00031773525024759796 0 -0.024230449791297577 0.00033251033944109627 0 -0.024279444985912873 0.00027105515293122235 0 -0.024316353794074423 0.00045795431493971959 0 -0.024342187912911761 0.00032320014922170373 0 -0.024185721972571711 0.00039622559650982628 0 -0.02421744371378275 0.00031773525024759796 0 -0.024230449791297577 0.00033251033944109627 0 -0.024470324254358557 0.00055614031105205618 0 -0.024398430770717065 0.00055530101844630071 0 -0.024477908050379943 0.00048048726274453271 0 -0.02454602376198272 0.00039625668162771293 0 -0.024477908050379943 0.00048048726274453271 0 -0.024407651505322623 0.0003965413811209146 0 -0.024578375288514618 0.00025226814812615424 0 -0.024407651505322623 0.0003965413811209146 0 -0.024356091379426952 0.00015705335138449761 0 -0.024342187912911761 0.00032320014922170373 0 -0.024349378533563053 0.00016478861696466601 0 -0.024578375288514618 0.00025226814812615424 0 -0.02454602376198272 0.00039625668162771293 0 -0.024407651505322623 0.0003965413811209146 0 -0.024279444985912873 0.00027105515293122235 0 -0.024356091379426952 0.00015705335138449761 0 -0.024183282652150036 0.00025183384245984171 0 -0.024356091379426952 0.00015705335138449761 0 -0.024210364058069089 0.00013462583532456167 0 -0.024183282652150036 0.00025183384245984171 0 -0.024283471650802524 6.151183782382597e-05 0 -0.024356091379426952 0.00015705335138449761 0 -0.024210364058069089 0.00013462583532456167 0 -0.024617906256202825 9.2848766980149221e-05 0 -0.024578375288514618 0.00025226814812615424 0 -0.024356091379426952 0.00015705335138449761 0 -0.024617906256202825 9.2848766980149221e-05 0 -0.024356091379426952 0.00015705335138449761 0 -0.024411755305995698 -5.6671190345608734e-05 0 -0.024861620414553341 -2.9133946187438459e-05 0 -0.024617906256202825 9.2848766980149221e-05 0 -0.024411755305995698 -5.6671190345608734e-05 0 -0.024861620414553341 -2.9133946187438459e-05 0 -0.025007024784278915 -4.0508725799790961e-05 0 -0.024977568134559432 -4.9771682475767109e-06 0 -0.024855351958437168 -3.5238883459607401e-05 0 -0.024690872088558094 -4.5716904193441129e-05 0 -0.024283471650802524 6.151183782382597e-05 0 -0.024411755305995698 -5.6671190345608734e-05 0 -0.024171556858832158 8.198508840169162e-07 0 -0.025007024784278915 -4.0508725799790961e-05 0 -0.025019640095428699 -2.4695775425331279e-05 0 -0.025024441018306479 -3.3038691449756404e-05 0 -0.024283471650802524 6.151183782382597e-05 0 -0.024356091379426952 0.00015705335138449761 0 -0.024411755305995698 -5.6671190345608734e-05 0 -0.024690872088558094 -4.5716904193441129e-05 0 -0.024691668570699779 1.8559943061746811e-05 0 -0.025007024784278915 -4.0508725799790961e-05 0 -0.025019640095428699 -2.4695775425331279e-05 0 -0.025000101794458579 -8.1817564748089955e-09 0 -0.025023681117520853 -3.9782570870270976e-05 0 -0.024999988474310793 1.4375569490194488e-08 0 -0.024999784979195933 1.6313338230578502e-08 0 -0.025000101794458579 -8.1817564748089955e-09 0 -0.024977568134559432 -4.9771682475767109e-06 0 -0.025007024784278915 -4.0508725799790961e-05 0 -0.025000101794458579 -8.1817564748089955e-09 0 -0.024977568134559432 -4.9771682475767109e-06 0 -0.025001730735242332 4.9111559659072569e-06 0 -0.025004117446474565 1.8347207206909009e-05 0 -0.024989774009506339 7.9566570479052175e-06 0 -0.025001730735242332 4.9111559659072569e-06 0 -0.024989774009506339 7.9566570479052175e-06 0 -0.024999728443458543 -2.1760053657714464e-08 0 -0.025001730735242332 4.9111559659072569e-06 0 -0.025000150054728974 2.6150384641715168e-08 0 -0.024999728443458543 -2.1760053657714464e-08 0 -0.025023681117520853 -3.9782570870270976e-05 0 -0.024691668570699779 1.8559943061746811e-05 0 -0.024656614733545325 4.9849685968171595e-06 0 -0.024530044429255854 1.9917359300194942e-05 0 -0.024582572246873088 9.5578793373435103e-05 0 -0.024691668570699779 1.8559943061746811e-05 0 -0.024790712646582256 2.9599991972388111e-05 0 -0.025004117446474565 1.8347207206909009e-05 0 -0.024999877083427414 3.8631561244064207e-05 0 -0.024989774009506339 7.9566570479052175e-06 0 -0.024530044429255854 1.9917359300194942e-05 0 -0.024582572246873088 9.5578793373435103e-05 0 -0.024476519528963948 0.00010287603869666613 0 -0.024582572246873088 9.5578793373435103e-05 0 -0.024476674068286689 0.00017628928824996092 0 -0.024476519528963948 0.00010287603869666613 0 -0.024283471650802524 6.151183782382597e-05 0 -0.024171556858832158 8.198508840169162e-07 0 -0.024210364058069089 0.00013462583532456167 0 -0.024691668570699779 1.8559943061746811e-05 0 -0.024303792588869944 0.00013216414214299333 0 -0.024171556858832158 8.198508840169162e-07 0 -0.024095677780294044 0.00012482918218884289 0 -0.024210364058069089 0.00013462583532456167 0 -0.024095677780294044 0.00012482918218884289 0 -0.024210364058069089 0.00013462583532456167 0 -0.024183282652150036 0.00025183384245984171 0 -0.024303792588869944 0.00013216414214299333 0 -0.024315835510551654 0.00022225177891696619 0 -0.024095677780294044 0.00012482918218884289 0 -0.024183282652150036 0.00025183384245984171 0 -0.024028212586639539 0.00021019483286374531 0 -0.024582572246873088 9.5578793373435103e-05 0 -0.024485658328011917 0.00024801610467653702 0 -0.024476674068286689 0.00017628928824996092 0 -0.024485658328011917 0.00024801610467653702 0 -0.023903006523158889 0.00023338460427088292 0 -0.023988005562517005 0.00080718818994428786 0 -0.024485658328011917 0.00024801610467653702 0 -0.024476674068286689 0.00017628928824996092 0 -0.023903006523158889 0.00023338460427088292 0 -0.024476674068286689 0.00017628928824996092 0 -0.023903006523158889 0.00023338460427088292 0 -0.023341304986415266 1.3975508158884579e-05 0 -0.024429192746024085 0.00018503218268320343 0 -0.023793214299488462 0.00017824685475689755 0 -0.024476674068286689 0.00017628928824996092 0 -0.024389214715616534 0.00015696858098054498 0 -0.024247546786168236 0.0003737746540381535 0 -0.023903006523158889 0.00023338460427088292 0 -0.023123986727111506 0.00039185044020601911 0 -0.023341304986415266 1.3975508158884579e-05 0 -0.024289892860940087 0.00011703683666128382 0 -0.02438694092194893 2.9905024834803751e-05 0 -0.024124615515202678 -6.7003138451875177e-05 0 -0.024389214715616534 0.00015696858098054498 0 -0.024289892860940087 0.00011703683666128382 0 -0.024247546786168236 0.0003737746540381535 0 -0.024389214715616534 0.00015696858098054498 0 -0.024289892860940087 0.00011703683666128382 0 -0.02438694092194893 2.9905024834803751e-05 0 -0.024476674068286689 0.00017628928824996092 0 -0.024389214715616534 0.00015696858098054498 0 -0.024476519528963948 0.00010287603869666613 0 -0.024389214715616534 0.00015696858098054498 0 -0.024476519528963948 0.00010287603869666613 0 -0.02438694092194893 2.9905024834803751e-05 0 -0.024790712646582256 2.9599991972388111e-05 0 -0.024580124483967968 3.814607600954919e-05 0 -0.024530044429255854 1.9917359300194942e-05 0 -0.024476519528963948 0.00010287603869666613 0 -0.02438694092194893 2.9905024834803751e-05 0 -0.024999877083427414 3.8631561244064207e-05 0 -0.024989774009506339 7.9566570479052175e-06 0 -0.024826441954597194 9.5818327240411116e-05 0 -0.024580124483967968 3.814607600954919e-05 0 -0.024182331889823789 -2.5228791980537791e-05 0 -0.024989774009506339 7.9566570479052175e-06 0 -0.024826441954597194 9.5818327240411116e-05 0 -0.024714283321432256 -6.9980803966835885e-05 0 -0.024826441954597194 9.5818327240411116e-05 0 -0.024714283321432256 -6.9980803966835885e-05 0 -0.024124615515202678 -6.7003138451875177e-05 0 -0.024989774009506339 7.9566570479052175e-06 0 -0.024714283321432256 -6.9980803966835885e-05 0 -0.024999728443458543 -2.1760053657714464e-08 0 -0.024714283321432256 -6.9980803966835885e-05 0 -0.024998098018164539 -6.8669774181299576e-07 0 -0.024124615515202678 -6.7003138451875177e-05 0 -0.024998098018164539 -6.8669774181299576e-07 0 -0.024124615515202678 -6.7003138451875177e-05 0 -0.022543512730031499 1.3019505998060692e-06 0 -0.024714283321432256 -6.9980803966835885e-05 0 -0.024999728443458543 -2.1760053657714464e-08 0 -0.024998098018164539 -6.8669774181299576e-07 0 -0.024289892860940087 0.00011703683666128382 0 -0.024124615515202678 -6.7003138451875177e-05 0 -0.024247546786168236 0.0003737746540381535 0 -0.024124615515202678 -6.7003138451875177e-05 0 -0.024247546786168236 0.0003737746540381535 0 -0.022543512730031499 1.3019505998060692e-06 0 -0.023123986727111506 0.00039185044020601911 0 -0.023341304986415266 1.3975508158884579e-05 0 -0.022535178308728074 -2.2772443384249891e-06 0 -0.023793214299488462 0.00017824685475689755 0 -0.022539710021800011 7.0094373970175612e-08 0 -0.022463202625133041 0.00013374997303123676 0 -0.022325705012345647 2.0318945136215323e-08 0 -0.023123986727111506 0.00039185044020601911 0 -0.022330008380101986 2.352237322496694e-06 0 -0.022535178308728074 -2.2772443384249891e-06 0 -0.021762292697463718 -0.00016978917986472519 0 -0.022322094083286087 -3.34124540135348e-08 0 -0.021153873442614091 -6.9254099024944691e-08 0 -0.021149896188186537 9.0749153741494839e-08 0 -0.020486457827947863 0.00021673096093731038 0 -0.02114758547850339 1.7466758378405697e-06 0 -0.019248657525088697 0.00027170223091212782 0 -0.019768171513481078 -7.271891769218606e-07 0 -0.021743838962256547 0.00025597282192799337 0 -0.02185082883815271 5.3990011446310466e-06 0 -0.022091786646456557 6.9618864814137549e-05 0 -0.021153873442614091 -6.9254099024944691e-08 0 -0.021743838962256547 0.00025597282192799337 0 -0.02185082883815271 5.3990011446310466e-06 0 -0.021762292697463718 -0.00016978917986472519 0 -0.021153873442614091 -6.9254099024944691e-08 0 -0.02185082883815271 5.3990011446310466e-06 0 -0.02185082883815271 5.3990011446310466e-06 0 -0.022205466207126434 -7.0347941596556214e-05 0 -0.022091786646456557 6.9618864814137549e-05 0 -0.023903006523158889 0.00023338460427088292 0 -0.023123986727111506 0.00039185044020601911 0 -0.023988005562517005 0.00080718818994428786 0 -0.021762292697463718 -0.00016978917986472519 0 -0.02185082883815271 5.3990011446310466e-06 0 -0.022205466207126434 -7.0347941596556214e-05 0 -0.022463202625133041 0.00013374997303123676 0 -0.023142302188780165 0.00019054833063396098 0 -0.023142302188780165 0.00019054833063396098 0 -0.022357220386685184 0.0002540228836243342 0 -0.023476985779945132 0.00013961223424699412 0 -0.023142302188780165 0.00019054833063396098 0 -0.024079291356968586 0.00032920184447837866 0 -0.024028212586639539 0.00021019483286374531 0 -0.023954758979908682 0.00028941472513248725 0 -0.022890315097789181 -1.7596862277844822e-05 0 -0.022272683793126771 -0.00018199224222749673 0 -0.02249654092413083 0.00010044220249451146 0 -0.024315835510551654 0.00022225177891696619 0 -0.023142302188780165 0.00019054833063396098 0 -0.022272683793126771 -0.00018199224222749673 0 -0.02249654092413083 0.00010044220249451146 0 -0.022091786646456557 6.9618864814137549e-05 0 -0.02249654092413083 0.00010044220249451146 0 -0.022091786646456557 6.9618864814137549e-05 0 -0.02231250990058941 0.00043932487288704286 0 -0.021743838962256547 0.00025597282192799337 0 -0.022091786646456557 6.9618864814137549e-05 0 -0.02231250990058941 0.00043932487288704286 0 -0.020486457827947863 0.00021673096093731038 0 -0.020414222742135529 0.00024949666185513492 0 -0.018484741977298224 6.038805446098877e-05 0 -0.01841993297962416 -0.00011492609583692801 0 -0.018522683690630627 -0.00021744607273945537 0 -0.019248657525088697 0.00027170223091212782 0 -0.018484741977298224 6.038805446098877e-05 0 -0.018522683690630627 -0.00021744607273945537 0 -0.018371430990086351 -0.00013091942273395435 0 -0.018484741977298224 6.038805446098877e-05 0 -0.01841993297962416 -0.00011492609583692801 0 -0.020693804183048746 0.00025762138376214422 0 -0.020414222742135529 0.00024949666185513492 0 -0.023014068494913425 0.0006480296044411389 0 -0.02249654092413083 0.00010044220249451146 0 -0.02231250990058941 0.00043932487288704286 0 -0.018336116166749048 -0.0001463783564893813 0 -0.018371430990086351 -0.00013091942273395435 0 -0.01841993297962416 -0.00011492609583692801 0 -0.018336116166749048 -0.0001463783564893813 0 -0.01841993297962416 -0.00011492609583692801 0 -0.018522683690630627 -0.00021744607273945537 0 -0.019248657525088697 0.00027170223091212782 0 -0.018522683690630627 -0.00021744607273945537 0 -0.019768171513481078 -7.271891769218606e-07 0 -0.018385957682102556 -3.3826433972793284e-07 0 -0.018522683690630627 -0.00021744607273945537 0 -0.019768171513481078 -7.271891769218606e-07 0 -0.023945111322345853 -0.00039920415325502646 0 -0.02419158305602585 -4.8073088389774231e-05 0 -0.02402354345030229 5.4323392879020876e-05 0 -0.02347531139462708 -9.2025552397324633e-05 0 -0.023945111322345853 -0.00039920415325502646 0 -0.02402354345030229 5.4323392879020876e-05 0 -0.022765021196336221 -0.00062315070815159015 0 -0.022755959537412229 -0.00064249468649936676 0 -0.022727782713453944 -0.00078248401997566713 0 -0.023333858043715704 -0.00050394272917923116 0 -0.022801492330849084 -0.00063531459652740299 0 -0.02347531139462708 -9.2025552397324633e-05 0 -0.023945111322345853 -0.00039920415325502646 0 -0.022755959537412229 -0.00064249468649936676 0 -0.023333858043715704 -0.00050394272917923116 0 -0.023618410358234029 -0.00034137199665470823 0 -0.022765021196336221 -0.00062315070815159015 0 -0.02305462292156979 -0.00047429980014895129 0 -0.022977707553538295 -0.00076759199697533419 0 -0.02305462292156979 -0.00047429980014895129 0 -0.023324079817596433 -0.00072207123921348346 0 -0.022977707553538295 -0.00076759199697533419 0 -0.02305462292156979 -0.00047429980014895129 0 -0.023324079817596433 -0.00072207123921348346 0 -0.02345708670264993 -0.00030632397327752813 0 -0.023618410358234029 -0.00034137199665470823 0 -0.023830591665394158 -0.00021433273012040415 0 -0.024183018302496924 -0.00020310487090268009 0 -0.02419158305602585 -4.8073088389774231e-05 0 -0.024195883723430199 -0.00010195309050914561 0 -0.023945111322345853 -0.00039920415325502646 0 -0.024183018302496924 -0.00020310487090268009 0 -0.02419158305602585 -4.8073088389774231e-05 0 -0.02419158305602585 -4.8073088389774231e-05 0 -0.024214485950501324 -8.6375646266225416e-05 0 -0.024203910978796275 -4.4742604811274264e-05 0 -0.02419158305602585 -4.8073088389774231e-05 0 -0.024214485950501324 -8.6375646266225416e-05 0 -0.024195883723430199 -0.00010195309050914561 0 -0.024214485950501324 -8.6375646266225416e-05 0 -0.024248724183242046 -0.0001167619990907313 0 -0.024246134635653921 -0.00010199082578956945 0 -0.024214485950501324 -8.6375646266225416e-05 0 -0.024248724183242046 -0.0001167619990907313 0 -0.024194683245472547 -0.00011010885044172791 0 -0.024214485950501324 -8.6375646266225416e-05 0 -0.024203910978796275 -4.4742604811274264e-05 0 -0.024246134635653921 -0.00010199082578956945 0 -0.024233861131492413 7.5779303620709135e-05 0 -0.024060050924395025 4.0563038775248791e-05 0 -0.024286533344599619 0.00019690243027897013 0 -0.02402354345030229 5.4323392879020876e-05 0 -0.024113519891567375 0.00023022965102799899 0 -0.02419158305602585 -4.8073088389774231e-05 0 -0.024203910978796275 -4.4742604811274264e-05 0 -0.02402354345030229 5.4323392879020876e-05 0 -0.02402354345030229 5.4323392879020876e-05 0 -0.024113519891567375 0.00023022965102799899 0 -0.023830236887639918 0.00032170698176399898 0 -0.02347531139462708 -9.2025552397324633e-05 0 -0.02402354345030229 5.4323392879020876e-05 0 -0.023830236887639918 0.00032170698176399898 0 -0.024113519891567375 0.00023022965102799899 0 -0.023830236887639918 0.00032170698176399898 0 -0.024174625218658295 0.00022387896345770877 0 -0.024198922945989836 0.00028746193836226151 0 -0.023830236887639918 0.00032170698176399898 0 -0.024174625218658295 0.00022387896345770877 0 -0.024198922945989836 0.00028746193836226151 0 -0.02421680503115058 0.0004361022757893285 0 -0.024304956911399923 0.00038990890169280994 0 -0.02421680503115058 0.0004361022757893285 0 -0.023830236887639918 0.00032170698176399898 0 -0.024213744401368961 0.00055285913710495158 0 -0.024198922945989836 0.00028746193836226151 0 -0.02421680503115058 0.0004361022757893285 0 -0.023830236887639918 0.00032170698176399898 0 -0.023745418754681773 0.00030184708988926064 0 -0.023410412237581533 0.00017606380997812709 0 -0.024418203817713445 0.00032482327420462387 0 -0.024319570905665937 0.00044256239340008608 0 -0.024440884012060893 0.00036733674701247532 0 -0.024418203817713445 0.00032482327420462387 0 -0.024304956911399923 0.00038990890169280994 0 -0.024319570905665937 0.00044256239340008608 0 -0.024198922945989836 0.00028746193836226151 0 -0.024304956911399923 0.00038990890169280994 0 -0.024369270522562388 0.00026160446911251616 0 -0.024418203817713445 0.00032482327420462387 0 -0.024304956911399923 0.00038990890169280994 0 -0.024369270522562388 0.00026160446911251616 0 -0.02421680503115058 0.0004361022757893285 0 -0.024304956911399923 0.00038990890169280994 0 -0.024246999418096712 0.00055141945988588939 0 -0.024304956911399923 0.00038990890169280994 0 -0.024319570905665937 0.00044256239340008608 0 -0.024246999418096712 0.00055141945988588939 0 -0.024319570905665937 0.00044256239340008608 0 -0.024246999418096712 0.00055141945988588939 0 -0.024209666041129854 0.00052959790603321344 0 -0.024246999418096712 0.00055141945988588939 0 -0.023927518854895337 0.00058406393994063369 0 -0.024209666041129854 0.00052959790603321344 0 -0.024246999418096712 0.00055141945988588939 0 -0.024377594845763836 0.00038674722469884536 0 -0.024213744401368961 0.00055285913710495158 0 -0.024246999418096712 0.00055141945988588939 0 -0.024377594845763836 0.00038674722469884536 0 -0.023927518854895337 0.00058406393994063369 0 -0.024377594845763836 0.00038674722469884536 0 -0.023927518854895337 0.00058406393994063369 0 -0.023708065102824857 2.2398217957874633e-05 0 -0.02347531139462708 -9.2025552397324633e-05 0 -0.023830236887639918 0.00032170698176399898 0 -0.022582590287951849 -0.00012368814813165668 0 -0.02347531139462708 -9.2025552397324633e-05 0 -0.022582590287951849 -0.00012368814813165668 0 -0.022755959537412229 -0.00064249468649936676 0 -0.02421680503115058 0.0004361022757893285 0 -0.024246999418096712 0.00055141945988588939 0 -0.024213744401368961 0.00055285913710495158 0 -0.021918406869819999 -0.0006611801665355097 0 -0.022582590287951849 -0.00012368814813165668 0 -0.022755959537412229 -0.00064249468649936676 0 -0.023116334184638387 -0.00016547037388012581 0 -0.023410412237581533 0.00017606380997812709 0 -0.021918406869819999 -0.0006611801665355097 0 -0.022383437403269393 -0.0008762330513274318 0 -0.021936955281736434 -0.00098200826859019276 0 -0.021918406869819999 -0.0006611801665355097 0 -0.022755959537412229 -0.00064249468649936676 0 -0.022383437403269393 -0.0008762330513274318 0 -0.022383437403269393 -0.0008762330513274318 0 -0.021936955281736434 -0.00098200826859019276 0 -0.021641878766838478 -0.0011633819943336302 0 -0.022383437403269393 -0.0008762330513274318 0 -0.021641878766838478 -0.0011633819943336302 0 -0.022382424422641049 -0.0012268646792049814 0 -0.024377594845763836 0.00038674722469884536 0 -0.02411830714996635 -0.00042028538283350465 0 -0.023708065102824857 2.2398217957874633e-05 0 -0.021918406869819999 -0.0006611801665355097 0 -0.021753169771089337 -0.0010274644248247078 0 -0.021602873497703241 -0.00097640383980454268 0 -0.023116334184638387 -0.00016547037388012581 0 -0.022988927944306931 -0.00069932987851519977 0 -0.021918406869819999 -0.0006611801665355097 0 -0.021936955281736434 -0.00098200826859019276 0 -0.021753169771089337 -0.0010274644248247078 0 -0.021936955281736434 -0.00098200826859019276 0 -0.021753169771089337 -0.0010274644248247078 0 -0.021741026230610389 -0.001114933881265128 0 -0.021753169771089337 -0.0010274644248247078 0 -0.021602873497703241 -0.00097640383980454268 0 -0.021628271946219448 -0.0010772394142138113 0 -0.022988927944306931 -0.00069932987851519977 0 -0.021540837135775003 -0.0011732311649038983 0 -0.02149533309554201 -0.0011273377959978414 0 -0.021540837135775003 -0.0011732311649038983 0 -0.021602873497703241 -0.00097640383980454268 0 -0.021628271946219448 -0.0010772394142138113 0 -0.021500958660766654 -0.0011568594943147971 0 -0.021628271946219448 -0.0010772394142138113 0 -0.021686007074007065 -0.0011292159980914802 0 -0.021500958660766654 -0.0011568594943147971 0 -0.021686007074007065 -0.0011292159980914802 0 -0.021039492406931676 -0.0015488983664319745 0 -0.020827332962297246 -0.0011446491396478766 0 -0.021753169771089337 -0.0010274644248247078 0 -0.021628271946219448 -0.0010772394142138113 0 -0.021686007074007065 -0.0011292159980914802 0 -0.021753169771089337 -0.0010274644248247078 0 -0.021686007074007065 -0.0011292159980914802 0 -0.021741026230610389 -0.001114933881265128 0 -0.021686007074007065 -0.0011292159980914802 0 -0.021741026230610389 -0.001114933881265128 0 -0.021681196440818794 -0.0012889068384277381 0 -0.021686007074007065 -0.0011292159980914802 0 -0.021681196440818794 -0.0012889068384277381 0 -0.021039492406931676 -0.0015488983664319745 0 -0.018947520769902644 -0.0014121888412635384 0 -0.019351765322129986 -0.0023310312298652079 0 -0.018178302234694216 -0.0023627013311166021 0 -0.018417860016244115 -0.0027031368190863444 0 -0.019351765322129986 -0.0023310312298652079 0 -0.018178302234694216 -0.0023627013311166021 0 -0.020344884257116901 -0.0013903420962415533 0 -0.019161657190552739 -0.0018600768535180249 0 -0.018947520769902644 -0.0014121888412635384 0 -0.018178302234694216 -0.0023627013311166021 0 -0.017334639550217763 -0.0021852327165293381 0 -0.01762235422849277 -0.0028620915407549376 0 -0.018178302234694216 -0.0023627013311166021 0 -0.017334639550217763 -0.0021852327165293381 0 -0.01762235422849277 -0.0028620915407549376 0 -0.017334639550217763 -0.0021852327165293381 0 -0.017206459621374074 -0.0025921512279676487 0 -0.021641878766838478 -0.0011633819943336302 0 -0.022454807664269445 -0.0018914323230385462 0 -0.022382424422641049 -0.0012268646792049814 0 -0.021936955281736434 -0.00098200826859019276 0 -0.021741026230610389 -0.001114933881265128 0 -0.021641878766838478 -0.0011633819943336302 0 -0.021741026230610389 -0.001114933881265128 0 -0.021681196440818794 -0.0012889068384277381 0 -0.021641878766838478 -0.0011633819943336302 0 -0.020344884257116901 -0.0013903420962415533 0 -0.021483159135856293 -0.0011531931633218357 0 -0.020589658699085238 -0.0029550756114605017 0 -0.019351765322129986 -0.0023310312298652079 0 -0.021641878766838478 -0.0011633819943336302 0 -0.018947520769902644 -0.0014121888412635384 0 -0.019351765322129986 -0.0023310312298652079 0 -0.021641878766838478 -0.0011633819943336302 0 -0.017451360789526565 -0.0031102724116361391 0 -0.017819800385911532 -0.0024795556189993006 0 -0.020589658699085238 -0.0029550756114605017 0 -0.021641878766838478 -0.0011633819943336302 0 -0.022454807664269445 -0.0018914323230385462 0 -0.017819800385911532 -0.0024795556189993006 0 -0.017806806054428005 -0.0020600780075039769 0 -0.012864991885915862 -0.0026569061310629687 0 -0.013168738448809817 -0.0030318910091280001 0 -0.012763215128347631 -0.0026832718189695416 0 -0.012697081580519293 -0.0025008367934712663 0 -0.012864991885915862 -0.0026569061310629687 0 -0.012763215128347631 -0.0026832718189695416 0 -0.022454807664269445 -0.0018914323230385462 0 -0.022899420777850933 -0.0014209099387162969 0 -0.022382424422641049 -0.0012268646792049814 0 -0.022899420777850933 -0.0014209099387162969 0 -0.022382424422641049 -0.0012268646792049814 0 -0.022632482621499153 -0.0010215006253993675 0 -0.022383437403269393 -0.0008762330513274318 0 -0.022382424422641049 -0.0012268646792049814 0 -0.022632482621499153 -0.0010215006253993675 0 -0.022632482621499153 -0.0010215006253993675 0 -0.022727782713453944 -0.00078248401997566713 0 -0.022955302500453051 -0.0010394495104988693 0 -0.022899420777850933 -0.0014209099387162969 0 -0.022632482621499153 -0.0010215006253993675 0 -0.022955302500453051 -0.0010394495104988693 0 -0.022765021196336221 -0.00062315070815159015 0 -0.022727782713453944 -0.00078248401997566713 0 -0.022977707553538295 -0.00076759199697533419 0 -0.022727782713453944 -0.00078248401997566713 0 -0.022977707553538295 -0.00076759199697533419 0 -0.022955302500453051 -0.0010394495104988693 0 -0.022755959537412229 -0.00064249468649936676 0 -0.022383437403269393 -0.0008762330513274318 0 -0.022727782713453944 -0.00078248401997566713 0 -0.022383437403269393 -0.0008762330513274318 0 -0.022632482621499153 -0.0010215006253993675 0 -0.022727782713453944 -0.00078248401997566713 0 -0.023324079817596433 -0.00072207123921348346 0 -0.023157132355722077 -0.00099500821488446105 0 -0.023363405433411269 -0.0010103120126002507 0 -0.023324079817596433 -0.00072207123921348346 0 -0.022977707553538295 -0.00076759199697533419 0 -0.023157132355722077 -0.00099500821488446105 0 -0.022977707553538295 -0.00076759199697533419 0 -0.022955302500453051 -0.0010394495104988693 0 -0.023157132355722077 -0.00099500821488446105 0 -0.022955302500453051 -0.0010394495104988693 0 -0.023157132355722077 -0.00099500821488446105 0 -0.023185357231530944 -0.0012588381005406068 0 -0.023157132355722077 -0.00099500821488446105 0 -0.023185357231530944 -0.0012588381005406068 0 -0.023363405433411269 -0.0010103120126002507 0 -0.012828772633286361 -0.0023659700092382853 0 -0.012732669485614486 -0.0025551471449289328 0 -0.01302366821180902 -0.0024762522177545704 0 -0.012763215128347631 -0.0026832718189695416 0 -0.012828772633286361 -0.0023659700092382853 0 -0.012732669485614486 -0.0025551471449289328 0 -0.017806806054428005 -0.0020600780075039769 0 -0.018226946072841147 -0.0018609653596880237 0 -0.022899420777850933 -0.0014209099387162969 0 -0.022955302500453051 -0.0010394495104988693 0 -0.023185357231530944 -0.0012588381005406068 0 -0.012697081580519293 -0.0025008367934712663 0 -0.012763215128347631 -0.0026832718189695416 0 -0.012732669485614486 -0.0025551471449289328 0 -0.012713424778401362 -0.0025457910498795028 0 -0.012697081580519293 -0.0025008367934712663 0 -0.012732669485614486 -0.0025551471449289328 0 -0.012713424778401362 -0.0025457910498795028 0 -0.012732669485614486 -0.0025551471449289328 0 -0.01302366821180902 -0.0024762522177545704 0 -0.012604216168863602 -0.001784008678291161 0 -0.012881797175412822 -0.0016767094764130294 0 -0.012775998042360313 -0.001316942213475499 0 -0.012744575387198484 -0.002052666839507868 0 -0.01243070767016391 -0.0021917845912665006 0 -0.012828772633286361 -0.0023659700092382853 0 -0.01302366821180902 -0.0024762522177545704 0 -0.013352983871844267 -0.0020849582414103553 0 -0.01243070767016391 -0.0021917845912665006 0 -0.017457942913741961 -0.0010810520290174467 0 -0.012775998042360313 -0.001316942213475499 0 -0.013256370186181496 -0.0014798756243600386 0 -0.013041818775832978 -0.00084282273972678332 0 -0.013256370186181496 -0.0014798756243600386 0 -0.01367650724955693 -0.001058403928428362 0 -0.013041818775832978 -0.00084282273972678332 0 -0.012881797175412822 -0.0016767094764130294 0 -0.012775998042360313 -0.001316942213475499 0 -0.013256370186181496 -0.0014798756243600386 0 -0.013118315127869609 -0.0018194813201214762 0 -0.012881797175412822 -0.0016767094764130294 0 -0.013256370186181496 -0.0014798756243600386 0 -0.013404616875690653 -0.0018724156824506428 0 -0.013256370186181496 -0.0014798756243600386 0 -0.013825551270204579 -0.0016968983218649612 0 -0.013256370186181496 -0.0014798756243600386 0 -0.013825551270204579 -0.0016968983218649612 0 -0.01367650724955693 -0.001058403928428362 0 -0.013264967010322879 -0.0012004009917320818 0 -0.012927849699233808 -0.00064113989682397878 0 -0.013825551270204579 -0.0016968983218649612 0 -0.01367650724955693 -0.001058403928428362 0 -0.014166580589730707 -0.001068931301454122 0 -0.016257062390163484 -0.00063920420899111065 0 -0.017457942913741961 -0.0010810520290174467 0 -0.01367650724955693 -0.001058403928428362 0 -0.013689045608323163 -0.00055634174428214375 0 -0.013041818775832978 -0.00084282273972678332 0 -0.01367650724955693 -0.001058403928428362 0 -0.0141155160699075 -0.00064056993258518964 0 -0.014166580589730707 -0.001068931301454122 0 -0.01367650724955693 -0.001058403928428362 0 -0.0141155160699075 -0.00064056993258518964 0 -0.013689045608323163 -0.00055634174428214375 0 -0.016257062390163484 -0.00063920420899111065 0 -0.01843777333055752 -3.7958251027810956e-05 0 -0.0141155160699075 -0.00064056993258518964 0 -0.013689045608323163 -0.00055634174428214375 0 -0.014414182039441796 -0.00026413977268006282 0 -0.01983579134572612 -0.00057777358177303975 0 -0.019906699979088074 -0.00050143204798707179 0 -0.019864400076674803 -0.00047877750010118388 0 -0.01983579134572612 -0.00057777358177303975 0 -0.019716985029263685 -0.00051790785608283273 0 -0.019864400076674803 -0.00047877750010118388 0 -0.023912852756059949 -0.00079008718135193778 0 -0.023587959872839952 -0.0008427926505943504 0 -0.023751497170202373 -0.00052187094676337464 0 -0.022403325243629941 -0.00033824621360609164 0 -0.017457942913741961 -0.0010810520290174467 0 -0.01983579134572612 -0.00057777358177303975 0 -0.019716985029263685 -0.00051790785608283273 0 -0.019580040876022303 -0.00070303652488776431 0 -0.023912852756059949 -0.00079008718135193778 0 -0.023587959872839952 -0.0008427926505943504 0 -0.023611712925727998 -0.0011454085913236473 0 -0.023324079817596433 -0.00072207123921348346 0 -0.023587959872839952 -0.0008427926505943504 0 -0.023363405433411269 -0.0010103120126002507 0 -0.023587959872839952 -0.0008427926505943504 0 -0.023363405433411269 -0.0010103120126002507 0 -0.023611712925727998 -0.0011454085913236473 0 -0.023185357231530944 -0.0012588381005406068 0 -0.023363405433411269 -0.0010103120126002507 0 -0.023611712925727998 -0.0011454085913236473 0 -0.018226946072841147 -0.0018609653596880237 0 -0.017457942913741961 -0.0010810520290174467 0 -0.014080684619761722 3.8359815522382003e-06 0 -0.013647317389011027 -8.2286737957124246e-05 0 -0.013622485245555375 0.00026604860955578666 0 -0.014080684619761722 3.8359815522382003e-06 0 -0.013647317389011027 -8.2286737957124246e-05 0 -0.01382515256612948 -0.00033667787739496735 0 -0.013647317389011027 -8.2286737957124246e-05 0 -0.013266829434811249 -6.8533997790909672e-05 0 -0.013622485245555375 0.00026604860955578666 0 -0.013647317389011027 -8.2286737957124246e-05 0 -0.01382515256612948 -0.00033667787739496735 0 -0.013438955393478363 -0.00027230851325270566 0 -0.01367192864043241 -0.0007445822694117719 0 -0.01382515256612948 -0.00033667787739496735 0 -0.013438955393478363 -0.00027230851325270566 0 -0.013227566384540597 -0.00052044737590339451 0 -0.013273764363911726 -8.8564529786917611e-05 0 -0.012937960876066801 -0.00042145298335265414 0 -0.013191496298537617 -0.00090101338662023636 0 -0.013227566384540597 -0.00052044737590339451 0 -0.012879876669664654 -0.00068291094022356915 0 -0.01367192864043241 -0.0007445822694117719 0 -0.013227566384540597 -0.00052044737590339451 0 -0.013438955393478363 -0.00027230851325270566 0 -0.013227566384540597 -0.00052044737590339451 0 -0.013438955393478363 -0.00027230851325270566 0 -0.013273764363911726 -8.8564529786917611e-05 0 -0.014324227341408863 0.00014499994133333491 0 -0.012855858538328924 -0.00053113229103347599 0 -0.013647317389011027 -8.2286737957124246e-05 0 -0.013438955393478363 -0.00027230851325270566 0 -0.013266829434811249 -6.8533997790909672e-05 0 -0.013629693703611121 5.9789039648338228e-05 0 -0.014324227341408863 0.00014499994133333491 0 -0.014324227341408863 0.00014499994133333491 0 -0.014903472469953605 0.00075274197518756462 0 -0.012931111500734012 -0.00013192006218597596 0 -0.012461601528640938 -3.0288209040672459e-05 0 -0.013076440072744616 0.00028243807680055776 0 -0.013411432446077572 -9.4198154334709653e-05 0 -0.012931111500734012 -0.00013192006218597596 0 -0.013042046180121881 -0.00042683925807438406 0 -0.013411432446077572 -9.4198154334709653e-05 0 -0.012931111500734012 -0.00013192006218597596 0 -0.013076440072744616 0.00028243807680055776 0 -0.012931111500734012 -0.00013192006218597596 0 -0.013042046180121881 -0.00042683925807438406 0 -0.012670283857302985 -0.00039736515574281551 0 -0.013227566384540597 -0.00052044737590339451 0 -0.012937960876066801 -0.00042145298335265414 0 -0.012879876669664654 -0.00068291094022356915 0 -0.012732359197756803 -0.00066622870495374581 0 -0.012855858538328924 -0.00053113229103347599 0 -0.012649820925282534 -0.00074249705620857442 0 -0.012937960876066801 -0.00042145298335265414 0 -0.012879876669664654 -0.00068291094022356915 0 -0.012649820925282534 -0.00074249705620857442 0 -0.013042046180121881 -0.00042683925807438406 0 -0.012670283857302985 -0.00039736515574281551 0 -0.012649820925282534 -0.00074249705620857442 0 -0.012171717238466323 -0.00071177777184039783 0 -0.012670283857302985 -0.00039736515574281551 0 -0.012171717238466323 -0.00071177777184039783 0 -0.012670283857302985 -0.00039736515574281551 0 -0.012461601528640938 -3.0288209040672459e-05 0 -0.012931111500734012 -0.00013192006218597596 0 -0.012670283857302985 -0.00039736515574281551 0 -0.012461601528640938 -3.0288209040672459e-05 0 -0.0141155160699075 -0.00064056993258518964 0 -0.014166580589730707 -0.001068931301454122 0 -0.014501336465943194 -0.00036567601963562884 0 -0.012461601528640938 -3.0288209040672459e-05 0 -0.012761749725937657 0.00065334943053384513 0 -0.013076440072744616 0.00028243807680055776 0 -0.012927849699233808 -0.00064113989682397878 0 -0.015996504149388902 0.00025440637781143284 0 -0.0141155160699075 -0.00064056993258518964 0 -0.014414182039441796 -0.00026413977268006282 0 -0.014501336465943194 -0.00036567601963562884 0 -0.01968747662505296 0.0011458283696416018 0 -0.01843777333055752 -3.7958251027810956e-05 0 -0.01843777333055752 -3.7958251027810956e-05 0 -0.015996504149388902 0.00025440637781143284 0 -0.01968747662505296 0.0011458283696416018 0 -0.015996504149388902 0.00025440637781143284 0 -0.017943668465701338 0.00051507743554793589 0 -0.01740578322390161 0.00030915807615794423 0 -0.017724352393583269 -5.1847482699390082e-05 0 -0.016990690803100755 0.00055848406126740406 0 -0.016711235141143397 0.00071289942743548058 0 -0.016465685424190118 0.00036004216090743644 0 -0.017038015970884116 0.00069720717497758053 0 -0.016711235141143397 0.00071289942743548058 0 -0.016698333249111703 0.001050943485952985 0 -0.016990690803100755 0.00055848406126740406 0 -0.017038015970884116 0.00069720717497758053 0 -0.016711235141143397 0.00071289942743548058 0 -0.016711235141143397 0.00071289942743548058 0 -0.016698333249111703 0.001050943485952985 0 -0.016365608015557843 0.00089602923181077284 0 -0.015996504149388902 0.00025440637781143284 0 -0.014767852926774903 0.00081656138019598997 0 -0.016367328309501002 0.0013959830412912367 0 -0.016365608015557843 0.00089602923181077284 0 -0.016051714683019233 0.0010968355105311308 0 -0.016367328309501002 0.0013959830412912367 0 -0.016698333249111703 0.001050943485952985 0 -0.016365608015557843 0.00089602923181077284 0 -0.014324227341408863 0.00014499994133333491 0 -0.014767852926774903 0.00081656138019598997 0 -0.016365608015557843 0.00089602923181077284 0 -0.016059092571406013 0.00060173426926265236 0 -0.016465685424190118 0.00036004216090743644 0 -0.016711235141143397 0.00071289942743548058 0 -0.016365608015557843 0.00089602923181077284 0 -0.016465685424190118 0.00036004216090743644 0 -0.015727010087013982 0.00079252043099079059 0 -0.016059092571406013 0.00060173426926265236 0 -0.015827842527824446 0.0003074322262341743 0 -0.016365608015557843 0.00089602923181077284 0 -0.016059092571406013 0.00060173426926265236 0 -0.016051714683019233 0.0010968355105311308 0 -0.015727010087013982 0.00079252043099079059 0 -0.016059092571406013 0.00060173426926265236 0 -0.016051714683019233 0.0010968355105311308 0 -0.015155548883547459 0.00061311668324859196 0 -0.014903472469953605 0.00075274197518756462 0 -0.021896265548847878 0.0014341430132398306 0 -0.022260211306961774 0.0010248874667746983 0 -0.022404511115749065 0.0013333087516880949 0 -0.02177909772362404 0.0010294470601780628 0 -0.021896265548847878 0.0014341430132398306 0 -0.022260211306961774 0.0010248874667746983 0 -0.018910268988255138 0.00081049525323857719 0 -0.019536511841029326 0.0010348638422925983 0 -0.016059092571406013 0.00060173426926265236 0 -0.015827842527824446 0.0003074322262341743 0 -0.015914745032932255 0.00017501242721441838 0 -0.016059092571406013 0.00060173426926265236 0 -0.015914745032932255 0.00017501242721441838 0 -0.016465685424190118 0.00036004216090743644 0 -0.021896265548847878 0.0014341430132398306 0 -0.022480466400339419 0.0016696246817961685 0 -0.022404511115749065 0.0013333087516880949 0 -0.022480466400339419 0.0016696246817961685 0 -0.022404511115749065 0.0013333087516880949 0 -0.022735100507775698 0.0014464231233870886 0 -0.022260211306961774 0.0010248874667746983 0 -0.022815800078873644 0.0011670714810091446 0 -0.022787378420739808 0.00080281905660199108 0 -0.022260211306961774 0.0010248874667746983 0 -0.022404511115749065 0.0013333087516880949 0 -0.022815800078873644 0.0011670714810091446 0 -0.022815800078873644 0.0011670714810091446 0 -0.022992049735168722 0.0014119935868196507 0 -0.023210679633623742 0.0012327769454820784 0 -0.022404511115749065 0.0013333087516880949 0 -0.022815800078873644 0.0011670714810091446 0 -0.022735100507775698 0.0014464231233870886 0 -0.022815800078873644 0.0011670714810091446 0 -0.022992049735168722 0.0014119935868196507 0 -0.022735100507775698 0.0014464231233870886 0 -0.022480466400339419 0.0016696246817961685 0 -0.022735100507775698 0.0014464231233870886 0 -0.022969850893499011 0.0016621610410946597 0 -0.02304178832319994 0.0018835726244422276 0 -0.022480466400339419 0.0016696246817961685 0 -0.022969850893499011 0.0016621610410946597 0 -0.01968747662505296 0.0011458283696416018 0 -0.019536511841029326 0.0010348638422925983 0 -0.01968747662505296 0.0011458283696416018 0 -0.021809926624640333 0.002275205829616639 0 -0.022992049735168722 0.0014119935868196507 0 -0.022735100507775698 0.0014464231233870886 0 -0.022969850893499011 0.0016621610410946597 0 -0.022992049735168722 0.0014119935868196507 0 -0.022969850893499011 0.0016621610410946597 0 -0.023234093858088507 0.0015504651429814778 0 -0.023049655689729189 0.0019044681144414135 0 -0.023198185434691033 0.0019620192924337324 0 -0.023234093858088507 0.0015504651429814778 0 -0.023049655689729189 0.0019044681144414135 0 -0.022969850893499011 0.0016621610410946597 0 -0.023234093858088507 0.0015504651429814778 0 -0.01843777333055752 -3.7958251027810956e-05 0 -0.022092452801554693 0.0003930875042805028 0 -0.023198185434691033 0.0019620192924337324 0 -0.023234093858088507 0.0015504651429814778 0 -0.02361990601743889 0.0015426760001765825 0 -0.023234093858088507 0.0015504651429814778 0 -0.02361990601743889 0.0015426760001765825 0 -0.023591237045042204 0.0011648885198576998 0 -0.023234093858088507 0.0015504651429814778 0 -0.023210679633623742 0.0012327769454820784 0 -0.023591237045042204 0.0011648885198576998 0 -0.022992049735168722 0.0014119935868196507 0 -0.023234093858088507 0.0015504651429814778 0 -0.023210679633623742 0.0012327769454820784 0 -0.022815800078873644 0.0011670714810091446 0 -0.023210679633623742 0.0012327769454820784 0 -0.023233504101317026 0.000943215375491766 0 -0.023210679633623742 0.0012327769454820784 0 -0.023233504101317026 0.000943215375491766 0 -0.023591237045042204 0.0011648885198576998 0 -0.023233504101317026 0.000943215375491766 0 -0.023591237045042204 0.0011648885198576998 0 -0.02363679675595437 0.00074556973194987741 0 -0.023233504101317026 0.000943215375491766 0 -0.023150509695843313 0.00062332321738078292 0 -0.02363679675595437 0.00074556973194987741 0 -0.023150509695843313 0.00062332321738078292 0 -0.023438172845922194 0.00037722699002075107 0 -0.023114484471557454 0.00016876217937657499 0 -0.023150509695843313 0.00062332321738078292 0 -0.023438172845922194 0.00037722699002075107 0 -0.02363679675595437 0.00074556973194987741 0 -0.023438172845922194 0.00037722699002075107 0 -0.023114484471557454 0.00016876217937657499 0 -0.023536574713665818 7.6724670670376107e-05 0 -0.022836202430700666 0.00048346415315212723 0 -0.022651515240423494 0.00021873358999162476 0 -0.023114484471557454 0.00016876217937657499 0 -0.023150509695843313 0.00062332321738078292 0 -0.022836202430700666 0.00048346415315212723 0 -0.023114484471557454 0.00016876217937657499 0 -0.023233504101317026 0.000943215375491766 0 -0.023150509695843313 0.00062332321738078292 0 -0.022787378420739808 0.00080281905660199108 0 -0.022836202430700666 0.00048346415315212723 0 -0.022787378420739808 0.00080281905660199108 0 -0.022469986117140624 0.00060358788315746864 0 -0.022815800078873644 0.0011670714810091446 0 -0.023233504101317026 0.000943215375491766 0 -0.022787378420739808 0.00080281905660199108 0 -0.023150509695843313 0.00062332321738078292 0 -0.022836202430700666 0.00048346415315212723 0 -0.022787378420739808 0.00080281905660199108 0 -0.022260211306961774 0.0010248874667746983 0 -0.022787378420739808 0.00080281905660199108 0 -0.022469986117140624 0.00060358788315746864 0 -0.022836202430700666 0.00048346415315212723 0 -0.022469986117140624 0.00060358788315746864 0 -0.022651515240423494 0.00021873358999162476 0 -0.022651515240423494 0.00021873358999162476 0 -0.022211566245232312 0.00034385729514150177 0 -0.022282914567269097 1.3586314979427703e-05 0 -0.022469986117140624 0.00060358788315746864 0 -0.022651515240423494 0.00021873358999162476 0 -0.022211566245232312 0.00034385729514150177 0 -0.021781913640428707 0.0001532262785471013 0 -0.021895829101547127 0.00063317009246589828 0 -0.021816135524410502 0.00012696412676586639 0 -0.022211566245232312 0.00034385729514150177 0 -0.021901552624524208 0.0006692557633247129 0 -0.022469986117140624 0.00060358788315746864 0 -0.022211566245232312 0.00034385729514150177 0 -0.021901552624524208 0.0006692557633247129 0 -0.021816135524410502 0.00012696412676586639 0 -0.022211566245232312 0.00034385729514150177 0 -0.022282914567269097 1.3586314979427703e-05 0 -0.022260211306961774 0.0010248874667746983 0 -0.022469986117140624 0.00060358788315746864 0 -0.021901552624524208 0.0006692557633247129 0 -0.02177909772362404 0.0010294470601780628 0 -0.022260211306961774 0.0010248874667746983 0 -0.021901552624524208 0.0006692557633247129 0 -0.024023286913681129 -0.00018120426109905508 0 -0.023751497170202373 -0.00052187094676337464 0 -0.024157227158944326 -0.00036390347926834029 0 -0.024023286913681129 -0.00018120426109905508 0 -0.02345708670264993 -0.00030632397327752813 0 -0.023751497170202373 -0.00052187094676337464 0 -0.024012778154385402 -0.00017712603540725736 0 -0.023830591665394158 -0.00021433273012040415 0 -0.024023286913681129 -0.00018120426109905508 0 -0.024195883723430199 -0.00010195309050914561 0 -0.02415109180620181 -0.00011287011573817524 0 -0.023324079817596433 -0.00072207123921348346 0 -0.02345708670264993 -0.00030632397327752813 0 -0.023751497170202373 -0.00052187094676337464 0 -0.023324079817596433 -0.00072207123921348346 0 -0.023587959872839952 -0.0008427926505943504 0 -0.023751497170202373 -0.00052187094676337464 0 -0.023912852756059949 -0.00079008718135193778 0 -0.023751497170202373 -0.00052187094676337464 0 -0.024157227158944326 -0.00036390347926834029 0 -0.019716985029263685 -0.00051790785608283273 0 -0.019864400076674803 -0.00047877750010118388 0 -0.019834781594493121 -0.00037508426696035066 0 -0.022403325243629941 -0.00033824621360609164 0 -0.020912621755738249 -0.00046411171751539824 0 -0.020033363058073694 -0.00032536334201009842 0 -0.020912621755738249 -0.00046411171751539824 0 -0.020912621755738249 -0.00046411171751539824 0 -0.020721726061510806 -0.00059368817942550992 0 -0.019950078301679563 -0.00050458895335760742 0 -0.019877959327993029 -0.00047702327928692256 0 -0.019959432025959276 -0.00051675566518007967 0 -0.019906699979088074 -0.00050143204798707179 0 -0.019864400076674803 -0.00047877750010118388 0 -0.019877959327993029 -0.00047702327928692256 0 -0.019864400076674803 -0.00047877750010118388 0 -0.019950078301679563 -0.00050458895335760742 0 -0.019877959327993029 -0.00047702327928692256 0 -0.02361990601743889 0.0015426760001765825 0 -0.023591237045042204 0.0011648885198576998 0 -0.024033674124480094 0.0011225612725754498 0 -0.023591237045042204 0.0011648885198576998 0 -0.024033674124480094 0.0011225612725754498 0 -0.02363679675595437 0.00074556973194987741 0 -0.019877959327993029 -0.00047702327928692256 0 -0.019959432025959276 -0.00051675566518007967 0 -0.01996432850949852 -0.00060729583301177197 0 -0.022092452801554693 0.0003930875042805028 0 -0.021828068942215235 0.00038958655820559485 0 -0.019975559039994373 -0.00048216828892171408 0 -0.01996432850949852 -0.00060729583301177197 0 -0.020193087576893292 -0.00077155839536875682 0 -0.020912621755738249 -0.00046411171751539824 0 -0.023288901585363252 -0.00023657188794310864 0 -0.024023286913681129 -0.00018120426109905508 0 -0.024157227158944326 -0.00036390347926834029 0 -0.024064866947555118 -8.894285017754752e-05 0 -0.019975559039994373 -0.00048216828892171408 0 -0.019959432025959276 -0.00051675566518007967 0 -0.01996432850949852 -0.00060729583301177197 0 -0.024033674124480094 0.0011225612725754498 0 -0.0240385967159483 0.00064582009063521566 0 -0.024430924365340757 0.00068599785743869018 0 -0.021828068942215235 0.00038958655820559485 0 -0.023288901585363252 -0.00023657188794310864 0 -0.024033674124480094 0.0011225612725754498 0 -0.0240385967159483 0.00064582009063521566 0 -0.02363679675595437 0.00074556973194987741 0 -0.0240385967159483 0.00064582009063521566 0 -0.02363679675595437 0.00074556973194987741 0 -0.023832186795083001 0.00028599410559371056 0 -0.023438172845922194 0.00037722699002075107 0 -0.02363679675595437 0.00074556973194987741 0 -0.023832186795083001 0.00028599410559371056 0 -0.023438172845922194 0.00037722699002075107 0 -0.023832186795083001 0.00028599410559371056 0 -0.023536574713665818 7.6724670670376107e-05 0 -0.0240385967159483 0.00064582009063521566 0 -0.024249139374898383 0.00033816504638638369 0 -0.024430924365340757 0.00068599785743869018 0 -0.0240385967159483 0.00064582009063521566 0 -0.023832186795083001 0.00028599410559371056 0 -0.024249139374898383 0.00033816504638638369 0 -0.023832186795083001 0.00028599410559371056 0 -0.024249139374898383 0.00033816504638638369 0 -0.024105460600867816 0.00013133426852135078 0 -0.024249139374898383 0.00033816504638638369 0 -0.02457644561838469 0.00018282413929419006 0 -0.024395232136791446 4.640258948896788e-05 0 -0.024064866947555118 -8.894285017754752e-05 0 -0.02415109180620181 -0.00011287011573817524 0 -0.024167745055177828 -0.00013456465799341707 0 -0.024593464474214302 -0.00031484755360288558 0 -0.02461450488871697 -0.00041008659928026733 0 -0.024535297740861418 -0.00032412420359757794 0 -0.024249139374898383 0.00033816504638638369 0 -0.02457644561838469 0.00018282413929419006 0 -0.024430924365340757 0.00068599785743869018 0 -0.024635142603974414 -5.0770979502715438e-05 0 -0.023288901585363252 -0.00023657188794310864 0 -0.023288901585363252 -0.00023657188794310864 0 -0.024509473502056643 -0.00028822982779959502 0 -0.024023286913681129 -0.00018120426109905508 0 -0.024064866947555118 -8.894285017754752e-05 0 -0.02415109180620181 -0.00011287011573817524 0 -0.024214485950501324 -8.6375646266225416e-05 0 -0.024195883723430199 -0.00010195309050914561 0 -0.02415109180620181 -0.00011287011573817524 0 -0.024214485950501324 -8.6375646266225416e-05 0 -0.02415109180620181 -0.00011287011573817524 0 -0.024194683245472547 -0.00011010885044172791 0 -0.024248724183242046 -0.0001167619990907313 0 -0.024194683245472547 -0.00011010885044172791 0 -0.024167745055177828 -0.00013456465799341707 0 -0.02415109180620181 -0.00011287011573817524 0 -0.024194683245472547 -0.00011010885044172791 0 -0.024167745055177828 -0.00013456465799341707 0 -0.024509473502056643 -0.00028822982779959502 0 -0.024282122765758429 -0.000109866567524201 0 -0.024248724183242046 -0.0001167619990907313 0 -0.024167745055177828 -0.00013456465799341707 0 -0.024346399173282518 -0.00014305220683335379 0 -0.024535297740861418 -0.00032412420359757794 0 -0.024568501406242761 -0.00013927629847661444 0 -0.024346399173282518 -0.00014305220683335379 0 -0.024532560135172462 -6.711376950659609e-05 0 -0.024397190332364576 -4.2778063996886379e-05 0 -0.024346399173282518 -0.00014305220683335379 0 -0.024568501406242761 -0.00013927629847661444 0 -0.024532560135172462 -6.711376950659609e-05 0 -0.024346399173282518 -0.00014305220683335379 0 -0.024568501406242761 -0.00013927629847661444 0 -0.024555004527457801 -0.00012261042837854525 0 -0.024451629104617907 -0.00018902355362557593 0 -0.024568501406242761 -0.00013927629847661444 0 -0.024555004527457801 -0.00012261042837854525 0 -0.024532560135172462 -6.711376950659609e-05 0 -0.02457644561838469 0.00018282413929419006 0 -0.024568501406242761 -0.00013927629847661444 0 -0.024395232136791446 4.640258948896788e-05 0 -0.024635142603974414 -5.0770979502715438e-05 0 -0.024567644943348479 -0.00011787923753855353 0 -0.024593464474214302 -0.00031484755360288558 0 -0.024535297740861418 -0.00032412420359757794 0 -0.024568501406242761 -0.00013927629847661444 0 -0.024568501406242761 -0.00013927629847661444 0 -0.024395232136791446 4.640258948896788e-05 0 -0.024451629104617907 -0.00018902355362557593 0 -0.024395232136791446 4.640258948896788e-05 0 -0.024105460600867816 0.00013133426852135078 0 -0.024451629104617907 -0.00018902355362557593 0 -0.024249139374898383 0.00033816504638638369 0 -0.024395232136791446 4.640258948896788e-05 0 -0.024105460600867816 0.00013133426852135078 0 -0.024105460600867816 0.00013133426852135078 0 -0.023862560736618289 -0.00011432190237561435 0 -0.024451629104617907 -0.00018902355362557593 0 -0.023862560736618289 -0.00011432190237561435 0 -0.023536574713665818 7.6724670670376107e-05 0 -0.023380104158561232 -0.00028758670695083657 0 -0.023832186795083001 0.00028599410559371056 0 -0.023862560736618289 -0.00011432190237561435 0 -0.023536574713665818 7.6724670670376107e-05 0 -0.023832186795083001 0.00028599410559371056 0 -0.024105460600867816 0.00013133426852135078 0 -0.023862560736618289 -0.00011432190237561435 0 -0.023862560736618289 -0.00011432190237561435 0 -0.023807365908244036 -0.00068099695477561275 0 -0.023380104158561232 -0.00028758670695083657 0 -0.023862560736618289 -0.00011432190237561435 0 -0.023807365908244036 -0.00068099695477561275 0 -0.024451629104617907 -0.00018902355362557593 0 -0.024732396655117873 -0.00011009493550906977 0 -0.024451629104617907 -0.00018902355362557593 0 -0.024595978192730423 -9.5211328250568552e-05 0 -0.024555004527457801 -0.00012261042837854525 0 -0.024451629104617907 -0.00018902355362557593 0 -0.024595978192730423 -9.5211328250568552e-05 0 -0.024278976106819814 -0.00037234372527181951 0 -0.024443743458724031 -0.00021483554204645012 0 -0.024732396655117873 -0.00011009493550906977 0 -0.024689463221868102 -2.882201031058564e-05 0 -0.024595978192730423 -9.5211328250568552e-05 0 -0.024689463221868102 -2.882201031058564e-05 0 -0.024595978192730423 -9.5211328250568552e-05 0 -0.024624216042601559 -4.0895148276009479e-05 0 -0.024732396655117873 -0.00011009493550906977 0 -0.024689463221868102 -2.882201031058564e-05 0 -0.024764375501872153 -2.4659728217882746e-05 0 -0.024755472114668216 1.0789416579860669e-05 0 -0.024764375501872153 -2.4659728217882746e-05 0 -0.024789530363928083 2.5017784031527641e-06 0 -0.024689463221868102 -2.882201031058564e-05 0 -0.024755472114668216 1.0789416579860669e-05 0 -0.024764375501872153 -2.4659728217882746e-05 0 -0.024689463221868102 -2.882201031058564e-05 0 -0.024755472114668216 1.0789416579860669e-05 0 -0.024712800723680615 2.0214200984672745e-05 0 -0.024689463221868102 -2.882201031058564e-05 0 -0.024712800723680615 2.0214200984672745e-05 0 -0.024624216042601559 -4.0895148276009479e-05 0 -0.024712800723680615 2.0214200984672745e-05 0 -0.024630412391614426 5.0054221191725118e-05 0 -0.024624216042601559 -4.0895148276009479e-05 0 -0.024630412391614426 5.0054221191725118e-05 0 -0.024532560135172462 -6.711376950659609e-05 0 -0.024397190332364576 -4.2778063996886379e-05 0 -0.024630412391614426 5.0054221191725118e-05 0 -0.024532560135172462 -6.711376950659609e-05 0 -0.024624216042601559 -4.0895148276009479e-05 0 -0.024555004527457801 -0.00012261042837854525 0 -0.024532560135172462 -6.711376950659609e-05 0 -0.024624216042601559 -4.0895148276009479e-05 0 -0.024555004527457801 -0.00012261042837854525 0 -0.024595978192730423 -9.5211328250568552e-05 0 -0.024624216042601559 -4.0895148276009479e-05 0 -0.021804538767861245 -0.00047445689561355516 0 -0.022195299107171801 -0.00045720416039288301 0 -0.022273813833806493 -0.0006966637597004945 0 -0.021757175539267135 -0.00047643729186547343 0 -0.022195299107171801 -0.00045720416039288301 0 -0.021960580111697391 -0.00022109897969342483 0 -0.022044228551695338 -0.00042561510409395368 0 -0.022060475291697867 -0.00046079606761893988 0 -0.022195299107171801 -0.00045720416039288301 0 -0.021960580111697391 -0.00022109897969342483 0 -0.022294716561322852 -0.00025040075365757674 0 -0.021816135524410502 0.00012696412676586639 0 -0.021960580111697391 -0.00022109897969342483 0 -0.022282914567269097 1.3586314979427703e-05 0 -0.021960580111697391 -0.00022109897969342483 0 -0.022294716561322852 -0.00025040075365757674 0 -0.022282914567269097 1.3586314979427703e-05 0 -0.022294716561322852 -0.00025040075365757674 0 -0.022282914567269097 1.3586314979427703e-05 0 -0.022803530343636452 -0.00029485543863078898 0 -0.022651515240423494 0.00021873358999162476 0 -0.022282914567269097 1.3586314979427703e-05 0 -0.022803530343636452 -0.00029485543863078898 0 -0.022364355599232149 -0.00046189549868344445 0 -0.022803530343636452 -0.00029485543863078898 0 -0.02235668061268015 -0.00099734289794933578 0 -0.022803530343636452 -0.00029485543863078898 0 -0.022821028907246136 -0.00068909647449120234 0 -0.022399620013443314 -0.00096210037993114017 0 -0.022294716561322852 -0.00025040075365757674 0 -0.022364355599232149 -0.00046189549868344445 0 -0.022803530343636452 -0.00029485543863078898 0 -0.022647762436906034 -0.0004090977356599901 0 -0.022775680698575225 -0.00083319688313487146 0 -0.022195299107171801 -0.00045720416039288301 0 -0.022294716561322852 -0.00025040075365757674 0 -0.022364355599232149 -0.00046189549868344445 0 -0.022195299107171801 -0.00045720416039288301 0 -0.022364355599232149 -0.00046189549868344445 0 -0.022273813833806493 -0.0006966637597004945 0 -0.023104203483080787 -0.00055356802913027582 0 -0.022803530343636452 -0.00029485543863078898 0 -0.023380104158561232 -0.00028758670695083657 0 -0.023104203483080787 -0.00055356802913027582 0 -0.022803530343636452 -0.00029485543863078898 0 -0.022821028907246136 -0.00068909647449120234 0 -0.023104203483080787 -0.00055356802913027582 0 -0.023006291017419543 -0.00073588730083255359 0 -0.022821028907246136 -0.00068909647449120234 0 -0.022803530343636452 -0.00029485543863078898 0 -0.023114484471557454 0.00016876217937657499 0 -0.023380104158561232 -0.00028758670695083657 0 -0.022651515240423494 0.00021873358999162476 0 -0.022803530343636452 -0.00029485543863078898 0 -0.023114484471557454 0.00016876217937657499 0 -0.023114484471557454 0.00016876217937657499 0 -0.023536574713665818 7.6724670670376107e-05 0 -0.023380104158561232 -0.00028758670695083657 0 -0.023104203483080787 -0.00055356802913027582 0 -0.023387093712631996 -0.00058131374240691575 0 -0.023254575090598362 -0.00082653709544870386 0 -0.023104203483080787 -0.00055356802913027582 0 -0.023380104158561232 -0.00028758670695083657 0 -0.023387093712631996 -0.00058131374240691575 0 -0.023807365908244036 -0.00068099695477561275 0 -0.023380104158561232 -0.00028758670695083657 0 -0.023387093712631996 -0.00058131374240691575 0 -0.023807365908244036 -0.00068099695477561275 0 -0.023387093712631996 -0.00058131374240691575 0 -0.023254575090598362 -0.00082653709544870386 0 -0.023807365908244036 -0.00068099695477561275 0 -0.023254575090598362 -0.00082653709544870386 0 -0.023275132238334304 -0.00097798546147107707 0 -0.024732396655117873 -0.00011009493550906977 0 -0.024764375501872153 -2.4659728217882746e-05 0 -0.024804722824369407 -4.1272715677357743e-05 0 -0.024278976106819814 -0.00037234372527181951 0 -0.023998447735690927 -0.00055596863662747014 0 -0.024764375501872153 -2.4659728217882746e-05 0 -0.024804722824369407 -4.1272715677357743e-05 0 -0.024792847354088932 -1.6870336934522477e-05 0 -0.024764375501872153 -2.4659728217882746e-05 0 -0.024792847354088932 -1.6870336934522477e-05 0 -0.024789530363928083 2.5017784031527641e-06 0 -0.024792847354088932 -1.6870336934522477e-05 0 -0.024789530363928083 2.5017784031527641e-06 0 -0.024807471968386591 -8.6617525019977771e-06 0 -0.024804722824369407 -4.1272715677357743e-05 0 -0.024792847354088932 -1.6870336934522477e-05 0 -0.024807471968386591 -8.6617525019977771e-06 0 -0.024804722824369407 -4.1272715677357743e-05 0 -0.024807471968386591 -8.6617525019977771e-06 0 -0.024828689099705981 -8.6587227206927375e-06 0 -0.023275132238334304 -0.00097798546147107707 0 -0.023008399071694295 -0.001134475266196521 0 -0.023036617518193712 -0.00088968285212200071 0 -0.023998447735690927 -0.00055596863662747014 0 -0.02409952738868219 -0.00029232906741056462 0 -0.023254575090598362 -0.00082653709544870386 0 -0.023275132238334304 -0.00097798546147107707 0 -0.023036617518193712 -0.00088968285212200071 0 -0.023104203483080787 -0.00055356802913027582 0 -0.023254575090598362 -0.00082653709544870386 0 -0.023006291017419543 -0.00073588730083255359 0 -0.023254575090598362 -0.00082653709544870386 0 -0.022807555996627576 -0.00089885662957237997 0 -0.023006291017419543 -0.00073588730083255359 0 -0.023218647080117248 -0.00083762224499365448 0 -0.022904709899925515 -0.00089126216582000723 0 -0.022807555996627576 -0.00089885662957237997 0 -0.023006291017419543 -0.00073588730083255359 0 -0.022821028907246136 -0.00068909647449120234 0 -0.022807555996627576 -0.00089885662957237997 0 -0.022821028907246136 -0.00068909647449120234 0 -0.022399620013443314 -0.00096210037993114017 0 -0.022338370495905112 -0.00055956982183777155 0 -0.022775680698575225 -0.00083319688313487146 0 -0.022364355599232149 -0.00046189549868344445 0 -0.022273813833806493 -0.0006966637597004945 0 -0.02235194116602348 -0.00093667685825462145 0 -0.023036617518193712 -0.00088968285212200071 0 -0.022837958485665333 -0.00092084669404022255 0 -0.022821469333362748 -0.0009469454008046677 0 -0.022273813833806493 -0.0006966637597004945 0 -0.02235194116602348 -0.00093667685825462145 0 -0.022280862564938116 -0.00094759273194990545 0 -0.022775680698575225 -0.00083319688313487146 0 -0.023351202993230933 -0.00057243842667925441 0 -0.02331521689098142 -0.00057700212833054819 0 -0.023147984366682941 -0.00060278578580178789 0 -0.023240397032506688 -0.00069464210425923285 0 -0.022775680698575225 -0.00083319688313487146 0 -0.023021728143825256 -0.00058426750567379827 0 -0.023021728143825256 -0.00058426750567379827 0 -0.023351202993230933 -0.00057243842667925441 0 -0.022904709899925515 -0.00089126216582000723 0 -0.022775680698575225 -0.00083319688313487146 0 -0.02409952738868219 -0.00029232906741056462 0 -0.023351202993230933 -0.00057243842667925441 0 -0.023835406618346669 -0.00029193122430087702 0 -0.023952252592171732 -0.00041265330706416925 0 -0.023965205528804021 -0.00020209225514670635 0 -0.023008399071694295 -0.001134475266196521 0 -0.023036617518193712 -0.00088968285212200071 0 -0.022821469333362748 -0.0009469454008046677 0 -0.023351202993230933 -0.00057243842667925441 0 -0.024328201584443113 -8.1486784203973201e-05 0 -0.023351202993230933 -0.00057243842667925441 0 -0.02396353733928918 -0.00015012089517936508 0 -0.024137897037845298 -0.0005284943321457855 0 -0.024330501401105199 -0.00024027708064584192 0 -0.024161309152047956 -0.00023015987573219918 0 -0.023360599486512239 -0.00042499140671893289 0 -0.023542415603078889 -0.0003133826704835128 0 -0.023569270041210493 -0.00010955331522822457 0 -0.021804538767861245 -0.00047445689561355516 0 -0.022273813833806493 -0.0006966637597004945 0 -0.022280862564938116 -0.00094759273194990545 0 -0.022044228551695338 -0.00042561510409395368 0 -0.023021728143825256 -0.00058426750567379827 0 -0.02373143001081254 -0.00038964412663282627 0 -0.02338204028607219 -0.00044644782370469532 0 -0.023542415603078889 -0.0003133826704835128 0 -0.022719650692445737 -0.0003484926384153913 0 -0.022683073534652223 -0.00048565498281019528 0 -0.0228379914851706 -0.00046272821493590678 0 -0.02314658744852266 -0.00033789221010389068 0 -0.023021728143825256 -0.00058426750567379827 0 -0.02338204028607219 -0.00044644782370469532 0 -0.023360599486512239 -0.00042499140671893289 0 -0.023542415603078889 -0.0003133826704835128 0 -0.024476754044681009 -2.3361246382893988e-05 0 -0.024749247469645914 -2.5713438541189934e-05 0 -0.02428658420167799 3.8346023670423682e-05 0 -0.024187433398258077 -4.6569933082700997e-05 0 -0.024202746783622213 0.00013285809353184879 0 -0.024262541007664298 -9.9292107745082181e-05 0 -0.024227036878739835 -0.00018812574321290122 0 -0.024187433398258077 -4.6569933082700997e-05 0 -0.02428658420167799 3.8346023670423682e-05 0 -0.024262541007664298 -9.9292107745082181e-05 0 -0.024187433398258077 -4.6569933082700997e-05 0 -0.02428658420167799 3.8346023670423682e-05 0 -0.024262541007664298 -9.9292107745082181e-05 0 -0.02434417937213805 -6.9486261876627661e-05 0 -0.024227036878739835 -0.00018812574321290122 0 -0.024171550719988198 -0.00022643300291290113 0 -0.024187433398258077 -4.6569933082700997e-05 0 -0.024262541007664298 -9.9292107745082181e-05 0 -0.024330501401105199 -0.00024027708064584192 0 -0.024227036878739835 -0.00018812574321290122 0 -0.024262541007664298 -9.9292107745082181e-05 0 -0.02434417937213805 -6.9486261876627661e-05 0 -0.024330501401105199 -0.00024027708064584192 0 -0.024330501401105199 -0.00024027708064584192 0 -0.024227036878739835 -0.00018812574321290122 0 -0.024161309152047956 -0.00023015987573219918 0 -0.024227536963246518 -0.00016231269274859109 0 -0.024328201584443113 -8.1486784203973201e-05 0 -0.024328201584443113 -8.1486784203973201e-05 0 -0.024476754044681009 -2.3361246382893988e-05 0 -0.024763520904877569 6.8997672576099446e-05 0 -0.024760948725948344 -1.1724861542544981e-05 0 -0.024840282066774411 2.4183436305030799e-05 0 -0.024837237084361453 0.0001199040464848933 0 -0.024763520904877569 6.8997672576099446e-05 0 -0.024840282066774411 2.4183436305030799e-05 0 -0.02409952738868219 -0.00029232906741056462 0 -0.024328201584443113 -8.1486784203973201e-05 0 -0.024760948725948344 -1.1724861542544981e-05 0 -0.02485900350379177 -6.7352580659283773e-05 0 -0.024756735010794458 -9.4047362076860481e-05 0 -0.024760948725948344 -1.1724861542544981e-05 0 -0.024840282066774411 2.4183436305030799e-05 0 -0.02485900350379177 -6.7352580659283773e-05 0 -0.024949518246599005 -3.3842058822247297e-05 0 -0.024951103720680365 -3.7829553527222979e-05 0 -0.024898669265028112 -9.4554536502392882e-06 0 -0.024962237898432896 -3.0163571371724008e-05 0 -0.02485900350379177 -6.7352580659283773e-05 0 -0.024898669265028112 -9.4554536502392882e-06 0 -0.024840282066774411 2.4183436305030799e-05 0 -0.02485900350379177 -6.7352580659283773e-05 0 -0.024898669265028112 -9.4554536502392882e-06 0 -0.024840282066774411 2.4183436305030799e-05 0 -0.024919390133056985 4.4915251045254185e-05 0 -0.024837237084361453 0.0001199040464848933 0 -0.024840282066774411 2.4183436305030799e-05 0 -0.024919390133056985 4.4915251045254185e-05 0 -0.02409952738868219 -0.00029232906741056462 0 -0.024932698709821264 2.3413982263453922e-05 0 -0.024807471968386591 -8.6617525019977771e-06 0 -0.024828689099705981 -8.6587227206927375e-06 0 -0.024806384695366758 1.7513592220338934e-05 0 -0.024789530363928083 2.5017784031527641e-06 0 -0.024806384695366758 1.7513592220338934e-05 0 -0.024792659773784424 2.3603422997289113e-05 0 -0.024806384695366758 1.7513592220338934e-05 0 -0.024798985791017303 2.2909388318060836e-05 0 -0.024792659773784424 2.3603422997289113e-05 0 -0.024789530363928083 2.5017784031527641e-06 0 -0.024807471968386591 -8.6617525019977771e-06 0 -0.024806384695366758 1.7513592220338934e-05 0 -0.024919390133056985 4.4915251045254185e-05 0 -0.024962237898432896 -3.0163571371724008e-05 0 -0.024971384347742376 -2.7462615838528616e-05 0 -0.024898669265028112 -9.4554536502392882e-06 0 -0.024919390133056985 4.4915251045254185e-05 0 -0.024962237898432896 -3.0163571371724008e-05 0 -0.024932698709821264 2.3413982263453922e-05 0 -0.024875176596349247 9.207269405175682e-06 0 -0.024962237898432896 -3.0163571371724008e-05 0 -0.024971384347742376 -2.7462615838528616e-05 0 -0.024960704330415508 -7.4876555570323557e-06 0 -0.024962237898432896 -3.0163571371724008e-05 0 -0.024985325799335704 -2.8830440891004512e-06 0 -0.024960704330415508 -7.4876555570323557e-06 0 -0.024985325799335704 -2.8830440891004512e-06 0 -0.024999998817194672 -3.6553014347068276e-09 0 -0.024999924943436863 2.2069290819277293e-08 0 -0.024985325799335704 -2.8830440891004512e-06 0 -0.024960704330415508 -7.4876555570323557e-06 0 -0.024999924943436863 2.2069290819277293e-08 0 -0.024985325799335704 -2.8830440891004512e-06 0 -0.024999998817194672 -3.6553014347068276e-09 0 -0.024998486338224265 -4.1032708634182912e-06 0 -0.024962237898432896 -3.0163571371724008e-05 0 -0.024985325799335704 -2.8830440891004512e-06 0 -0.02499631270152964 -1.57013999099229e-05 0 -0.024985325799335704 -2.8830440891004512e-06 0 -0.02499631270152964 -1.57013999099229e-05 0 -0.024998486338224265 -4.1032708634182912e-06 0 -0.024951103720680365 -3.7829553527222979e-05 0 -0.024749247469645914 -2.5713438541189934e-05 0 -0.024998486338224265 -4.1032708634182912e-06 0 -0.025000179630375263 -4.9851732475225856e-07 0 -0.025002512557995432 -7.6340581344326334e-06 0 -0.02499631270152964 -1.57013999099229e-05 0 -0.024998486338224265 -4.1032708634182912e-06 0 -0.025002512557995432 -7.6340581344326334e-06 0 -0.024999998817194672 -3.6553014347068276e-09 0 -0.025000000464194608 -4.0546070484066841e-09 0 -0.025000179630375263 -4.9851732475225856e-07 0 -0.024999998817194672 -3.6553014347068276e-09 0 -0.024998486338224265 -4.1032708634182912e-06 0 -0.025000179630375263 -4.9851732475225856e-07 0 -0.024994573908265868 1.9323664281213172e-06 0 -0.025000000464194608 -4.0546070484066841e-09 0 -0.025000179630375263 -4.9851732475225856e-07 0 -0.02484037147028547 5.3472572612994028e-05 0 -0.025000117271633041 -1.1367295701470466e-07 0 -0.024994573908265868 1.9323664281213172e-06 0 -0.025000179630375263 -4.9851732475225856e-07 0 -0.024998361846967427 2.9340393934126209e-06 0 -0.02439722174565952 0.00018273940850585635 0 -0.02428658420167799 3.8346023670423682e-05 0 -0.024202746783622213 0.00013285809353184879 0 -0.02484037147028547 5.3472572612994028e-05 0 -0.024749247469645914 -2.5713438541189934e-05 0 -0.024982663913740051 1.1047004194894265e-05 0 -0.024749247469645914 -2.5713438541189934e-05 0 -0.024785223210282765 3.3006389385204556e-05 0 -0.024849345796382392 2.1400841112707026e-05 0 -0.024895140177847563 1.6928989502971444e-05 0 -0.024785223210282765 3.3006389385204556e-05 0 -0.024895140177847563 1.6928989502971444e-05 0 -0.024836644591012112 3.0288373812727536e-05 0 -0.024785223210282765 3.3006389385204556e-05 0 -0.024836644591012112 3.0288373812727536e-05 0 -0.024720176900631656 4.9554900844935418e-05 0 -0.024630412391614426 5.0054221191725118e-05 0 -0.024785223210282765 3.3006389385204556e-05 0 -0.024720176900631656 4.9554900844935418e-05 0 -0.024712800723680615 2.0214200984672745e-05 0 -0.024630412391614426 5.0054221191725118e-05 0 -0.024785223210282765 3.3006389385204556e-05 0 -0.024755472114668216 1.0789416579860669e-05 0 -0.024712800723680615 2.0214200984672745e-05 0 -0.0248061313737944 2.7984109911262215e-05 0 -0.024712800723680615 2.0214200984672745e-05 0 -0.024785223210282765 3.3006389385204556e-05 0 -0.0248061313737944 2.7984109911262215e-05 0 -0.024755472114668216 1.0789416579860669e-05 0 -0.024789530363928083 2.5017784031527641e-06 0 -0.024792659773784424 2.3603422997289113e-05 0 -0.024755472114668216 1.0789416579860669e-05 0 -0.024792659773784424 2.3603422997289113e-05 0 -0.0248061313737944 2.7984109911262215e-05 0 -0.024798985791017303 2.2909388318060836e-05 0 -0.024792659773784424 2.3603422997289113e-05 0 -0.024811862047515867 2.6605590220065557e-05 0 -0.024811862047515867 2.6605590220065557e-05 0 -0.024842710194840117 2.1041917296717907e-05 0 -0.0248061313737944 2.7984109911262215e-05 0 -0.024792659773784424 2.3603422997289113e-05 0 -0.024811862047515867 2.6605590220065557e-05 0 -0.0248061313737944 2.7984109911262215e-05 0 -0.024798985791017303 2.2909388318060836e-05 0 -0.024842710194840117 2.1041917296717907e-05 0 -0.024907562206404332 1.7368297897464959e-06 0 -0.024798985791017303 2.2909388318060836e-05 0 -0.024811862047515867 2.6605590220065557e-05 0 -0.024842710194840117 2.1041917296717907e-05 0 -0.024785223210282765 3.3006389385204556e-05 0 -0.0248061313737944 2.7984109911262215e-05 0 -0.024849345796382392 2.1400841112707026e-05 0 -0.024842710194840117 2.1041917296717907e-05 0 -0.0248061313737944 2.7984109911262215e-05 0 -0.024849345796382392 2.1400841112707026e-05 0 -0.024849345796382392 2.1400841112707026e-05 0 -0.024907562206404332 1.7368297897464959e-06 0 -0.024895140177847563 1.6928989502971444e-05 0 -0.024842710194840117 2.1041917296717907e-05 0 -0.024849345796382392 2.1400841112707026e-05 0 -0.024907562206404332 1.7368297897464959e-06 0 -0.024875176596349247 9.207269405175682e-06 0 -0.024902511196279401 -1.0310968059593291e-07 0 -0.024971384347742376 -2.7462615838528616e-05 0 -0.024960704330415508 -7.4876555570323557e-06 0 -0.024907562206404332 1.7368297897464959e-06 0 -0.024960704330415508 -7.4876555570323557e-06 0 -0.024907562206404332 1.7368297897464959e-06 0 -0.024999924943436863 2.2069290819277293e-08 0 -0.024907562206404332 1.7368297897464959e-06 0 -0.024999924943436863 2.2069290819277293e-08 0 -0.024999850365634867 1.0197575942842392e-08 0 -0.024907562206404332 1.7368297897464959e-06 0 -0.024999850365634867 1.0197575942842392e-08 0 -0.024895140177847563 1.6928989502971444e-05 0 -0.024999850365634867 1.0197575942842392e-08 0 -0.024895140177847563 1.6928989502971444e-05 0 -0.024999843911466289 1.9925931488683999e-08 0 -0.024895140177847563 1.6928989502971444e-05 0 -0.024999843911466289 1.9925931488683999e-08 0 -0.024836644591012112 3.0288373812727536e-05 0 -0.024999843911466289 1.9925931488683999e-08 0 -0.024999837432171414 1.6154027090872377e-08 0 -0.024893897510090017 2.0999439599327883e-05 0 -0.024999837432171414 1.6154027090872377e-08 0 -0.024893897510090017 2.0999439599327883e-05 0 -0.024893281464386127 2.1065664111020661e-05 0 -0.024893897510090017 2.0999439599327883e-05 0 -0.024836644591012112 3.0288373812727536e-05 0 -0.024763869970099696 5.1014419756230523e-05 0 -0.024893897510090017 2.0999439599327883e-05 0 -0.024893281464386127 2.1065664111020661e-05 0 -0.024763869970099696 5.1014419756230523e-05 0 -0.024999843911466289 1.9925931488683999e-08 0 -0.024893897510090017 2.0999439599327883e-05 0 -0.024836644591012112 3.0288373812727536e-05 0 -0.02499984009679929 1.1029682913880711e-08 0 -0.024893281464386127 2.1065664111020661e-05 0 -0.024812610699295048 3.5823602887005536e-05 0 -0.024999837432171414 1.6154027090872377e-08 0 -0.02499984009679929 1.1029682913880711e-08 0 -0.024893281464386127 2.1065664111020661e-05 0 -0.024763869970099696 5.1014419756230523e-05 0 -0.024695273972747261 7.1070349970499611e-05 0 -0.024812610699295048 3.5823602887005536e-05 0 -0.024893281464386127 2.1065664111020661e-05 0 -0.024763869970099696 5.1014419756230523e-05 0 -0.024812610699295048 3.5823602887005536e-05 0 -0.024763869970099696 5.1014419756230523e-05 0 -0.024695273972747261 7.1070349970499611e-05 0 -0.024637757855658311 9.1987632260539726e-05 0 -0.024763869970099696 5.1014419756230523e-05 0 -0.024625547103817039 9.5413843991846791e-05 0 -0.024637757855658311 9.1987632260539726e-05 0 -0.024836644591012112 3.0288373812727536e-05 0 -0.024763869970099696 5.1014419756230523e-05 0 -0.024720176900631656 4.9554900844935418e-05 0 -0.024763869970099696 5.1014419756230523e-05 0 -0.024720176900631656 4.9554900844935418e-05 0 -0.024625547103817039 9.5413843991846791e-05 0 -0.024630412391614426 5.0054221191725118e-05 0 -0.024720176900631656 4.9554900844935418e-05 0 -0.024625547103817039 9.5413843991846791e-05 0 -0.024602647488323734 5.5848913927149689e-05 0 -0.024483873345885188 3.9791280986192578e-05 0 -0.024630412391614426 5.0054221191725118e-05 0 -0.024560391159654721 0.00012772887805765834 0 -0.024625547103817039 9.5413843991846791e-05 0 -0.024502870800945389 0.00014963329575392171 0 -0.024625547103817039 9.5413843991846791e-05 0 -0.024525075735998221 0.00013534611666025828 0 -0.024560391159654721 0.00012772887805765834 0 -0.024502870800945389 0.00014963329575392171 0 -0.024625547103817039 9.5413843991846791e-05 0 -0.024625547103817039 9.5413843991846791e-05 0 -0.024637757855658311 9.1987632260539726e-05 0 -0.024525075735998221 0.00013534611666025828 0 -0.024637757855658311 9.1987632260539726e-05 0 -0.024576767657439002 0.00011165111840179513 0 -0.024525075735998221 0.00013534611666025828 0 -0.024695273972747261 7.1070349970499611e-05 0 -0.024637757855658311 9.1987632260539726e-05 0 -0.024576767657439002 0.00011165111840179513 0 -0.024576767657439002 0.00011165111840179513 0 -0.024525075735998221 0.00013534611666025828 0 -0.024414681952655035 0.00016700346435399743 0 -0.024502870800945389 0.00014963329575392171 0 -0.024525075735998221 0.00013534611666025828 0 -0.024346360961961327 0.00019614576462309233 0 -0.024525075735998221 0.00013534611666025828 0 -0.024346360961961327 0.00019614576462309233 0 -0.024414681952655035 0.00016700346435399743 0 -0.024346360961961327 0.00019614576462309233 0 -0.024414681952655035 0.00016700346435399743 0 -0.024174625218658295 0.00022387896345770877 0 -0.024113519891567375 0.00023022965102799899 0 -0.024346360961961327 0.00019614576462309233 0 -0.024174625218658295 0.00022387896345770877 0 -0.024286533344599619 0.00019690243027897013 0 -0.024113519891567375 0.00023022965102799899 0 -0.024346360961961327 0.00019614576462309233 0 -0.024203910978796275 -4.4742604811274264e-05 0 -0.024246134635653921 -0.00010199082578956945 0 -0.024267446191441704 -0.00011470497816977314 0 -0.024233861131492413 7.5779303620709135e-05 0 -0.024356910489378748 3.2266354379336666e-05 0 -0.024286533344599619 0.00019690243027897013 0 -0.024346360961961327 0.00019614576462309233 0 -0.024442560497457817 0.00016530255524543989 0 -0.024248724183242046 -0.0001167619990907313 0 -0.024246134635653921 -0.00010199082578956945 0 -0.024346399173282518 -0.00014305220683335379 0 -0.024246134635653921 -0.00010199082578956945 0 -0.024346399173282518 -0.00014305220683335379 0 -0.024267446191441704 -0.00011470497816977314 0 -0.024397190332364576 -4.2778063996886379e-05 0 -0.024346399173282518 -0.00014305220683335379 0 -0.024267446191441704 -0.00011470497816977314 0 -0.024483873345885188 3.9791280986192578e-05 0 -0.024356910489378748 3.2266354379336666e-05 0 -0.024560391159654721 0.00012772887805765834 0 -0.024502870800945389 0.00014963329575392171 0 -0.024442560497457817 0.00016530255524543989 0 -0.024502870800945389 0.00014963329575392171 0 -0.024346360961961327 0.00019614576462309233 0 -0.024442560497457817 0.00016530255524543989 0 -0.024495435654574554 0.0001831626399041269 0 -0.024491696951070015 0.00023908792364686805 0 -0.024369270522562388 0.00026160446911251616 0 -0.024491696951070015 0.00023908792364686805 0 -0.024610131050908327 0.00010988168453621183 0 -0.024579806325426619 0.00025946523127375368 0 -0.024495435654574554 0.0001831626399041269 0 -0.024491696951070015 0.00023908792364686805 0 -0.024705788927452677 0.00014253727058641816 0 -0.024515873979855177 0.00023240163754979405 0 -0.024654970409953913 0.00012582341428672974 0 -0.024418203817713445 0.00032482327420462387 0 -0.024491696951070015 0.00023908792364686805 0 -0.024369270522562388 0.00026160446911251616 0 -0.024418203817713445 0.00032482327420462387 0 -0.024491696951070015 0.00023908792364686805 0 -0.024579806325426619 0.00025946523127375368 0 -0.024198922945989836 0.00028746193836226151 0 -0.024369270522562388 0.00026160446911251616 0 -0.024348623809173905 0.00019595839376643215 0 -0.024198922945989836 0.00028746193836226151 0 -0.024174625218658295 0.00022387896345770877 0 -0.024348623809173905 0.00019595839376643215 0 -0.024414681952655035 0.00016700346435399743 0 -0.024348623809173905 0.00019595839376643215 0 -0.024508416902076238 0.00014082303072482518 0 -0.024414681952655035 0.00016700346435399743 0 -0.024174625218658295 0.00022387896345770877 0 -0.024348623809173905 0.00019595839376643215 0 -0.024495435654574554 0.0001831626399041269 0 -0.024369270522562388 0.00026160446911251616 0 -0.024348623809173905 0.00019595839376643215 0 -0.024495435654574554 0.0001831626399041269 0 -0.024348623809173905 0.00019595839376643215 0 -0.024508416902076238 0.00014082303072482518 0 -0.024495435654574554 0.0001831626399041269 0 -0.024508416902076238 0.00014082303072482518 0 -0.024613109049283183 0.00011870861524059613 0 -0.024576767657439002 0.00011165111840179513 0 -0.024414681952655035 0.00016700346435399743 0 -0.024508416902076238 0.00014082303072482518 0 -0.024576767657439002 0.00011165111840179513 0 -0.024508416902076238 0.00014082303072482518 0 -0.024673237180949815 7.7504052703797539e-05 0 -0.024508416902076238 0.00014082303072482518 0 -0.024613109049283183 0.00011870861524059613 0 -0.024673237180949815 7.7504052703797539e-05 0 -0.024613109049283183 0.00011870861524059613 0 -0.024739066736568456 7.0169303125989992e-05 0 -0.024673237180949815 7.7504052703797539e-05 0 -0.024495435654574554 0.0001831626399041269 0 -0.024613109049283183 0.00011870861524059613 0 -0.024705788927452677 0.00014253727058641816 0 -0.024613109049283183 0.00011870861524059613 0 -0.024705788927452677 0.00014253727058641816 0 -0.024739066736568456 7.0169303125989992e-05 0 -0.024705788927452677 0.00014253727058641816 0 -0.024739066736568456 7.0169303125989992e-05 0 -0.024838423339829 6.421024591172578e-05 0 -0.024739066736568456 7.0169303125989992e-05 0 -0.024839031713587725 3.3183652557129105e-05 0 -0.024838423339829 6.421024591172578e-05 0 -0.024739066736568456 7.0169303125989992e-05 0 -0.024814581781268923 3.2011131796731707e-05 0 -0.024839031713587725 3.3183652557129105e-05 0 -0.024739066736568456 7.0169303125989992e-05 0 -0.024814581781268923 3.2011131796731707e-05 0 -0.024673237180949815 7.7504052703797539e-05 0 -0.024814581781268923 3.2011131796731707e-05 0 -0.024839031713587725 3.3183652557129105e-05 0 -0.024909248597631346 1.1382064709964042e-05 0 -0.024814581781268923 3.2011131796731707e-05 0 -0.024673237180949815 7.7504052703797539e-05 0 -0.024812610699295048 3.5823602887005536e-05 0 -0.024695273972747261 7.1070349970499611e-05 0 -0.024576767657439002 0.00011165111840179513 0 -0.024673237180949815 7.7504052703797539e-05 0 -0.024695273972747261 7.1070349970499611e-05 0 -0.024673237180949815 7.7504052703797539e-05 0 -0.024812610699295048 3.5823602887005536e-05 0 -0.02499984009679929 1.1029682913880711e-08 0 -0.024812610699295048 3.5823602887005536e-05 0 -0.024898698332273723 1.4506183071361235e-05 0 -0.024814581781268923 3.2011131796731707e-05 0 -0.024812610699295048 3.5823602887005536e-05 0 -0.024898698332273723 1.4506183071361235e-05 0 -0.024814581781268923 3.2011131796731707e-05 0 -0.024898698332273723 1.4506183071361235e-05 0 -0.024929516738154911 7.0938772411968317e-06 0 -0.024898698332273723 1.4506183071361235e-05 0 -0.024999860891463246 6.1099272782531129e-09 0 -0.024929516738154911 7.0938772411968317e-06 0 -0.02499984009679929 1.1029682913880711e-08 0 -0.024898698332273723 1.4506183071361235e-05 0 -0.024999860891463246 6.1099272782531129e-09 0 -0.024814581781268923 3.2011131796731707e-05 0 -0.024909248597631346 1.1382064709964042e-05 0 -0.024929516738154911 7.0938772411968317e-06 0 -0.024999860891463246 6.1099272782531129e-09 0 -0.024929516738154911 7.0938772411968317e-06 0 -0.024999885901251236 1.4955176561984098e-09 0 -0.024909248597631346 1.1382064709964042e-05 0 -0.024929516738154911 7.0938772411968317e-06 0 -0.024999885901251236 1.4955176561984098e-09 0 -0.024909248597631346 1.1382064709964042e-05 0 -0.024999911515567293 6.5851815123422758e-09 0 -0.024894080034404537 1.8770098894433961e-05 0 -0.024999911515567293 6.5851815123422758e-09 0 -0.024937467971565399 1.4898274235706252e-05 0 -0.024894080034404537 1.8770098894433961e-05 0 -0.024909248597631346 1.1382064709964042e-05 0 -0.024999885901251236 1.4955176561984098e-09 0 -0.024999911515567293 6.5851815123422758e-09 0 -0.024999907291914897 1.0076810882661873e-08 0 -0.024917230653915587 2.4194676782317423e-05 0 -0.024937467971565399 1.4898274235706252e-05 0 -0.024999911515567293 6.5851815123422758e-09 0 -0.024999907291914897 1.0076810882661873e-08 0 -0.024937467971565399 1.4898274235706252e-05 0 -0.024999907291914897 1.0076810882661873e-08 0 -0.024917230653915587 2.4194676782317423e-05 0 -0.02494310409669253 1.2694391809133078e-05 0 -0.024917230653915587 2.4194676782317423e-05 0 -0.02494310409669253 1.2694391809133078e-05 0 -0.024887957460857299 4.1437250468808654e-05 0 -0.024917230653915587 2.4194676782317423e-05 0 -0.024937467971565399 1.4898274235706252e-05 0 -0.024881344952021298 3.5269782653207641e-05 0 -0.024937467971565399 1.4898274235706252e-05 0 -0.024881344952021298 3.5269782653207641e-05 0 -0.024894080034404537 1.8770098894433961e-05 0 -0.024917230653915587 2.4194676782317423e-05 0 -0.024881344952021298 3.5269782653207641e-05 0 -0.024855783847463064 5.5148458809648058e-05 0 -0.024917230653915587 2.4194676782317423e-05 0 -0.024855783847463064 5.5148458809648058e-05 0 -0.024887957460857299 4.1437250468808654e-05 0 -0.024881344952021298 3.5269782653207641e-05 0 -0.024855783847463064 5.5148458809648058e-05 0 -0.024828650453365738 6.8836367423155462e-05 0 -0.024855783847463064 5.5148458809648058e-05 0 -0.024800790630090334 7.3593544340541715e-05 0 -0.024815781408298793 6.7253315413891323e-05 0 -0.024855783847463064 5.5148458809648058e-05 0 -0.024828650453365738 6.8836367423155462e-05 0 -0.024800790630090334 7.3593544340541715e-05 0 -0.024881344952021298 3.5269782653207641e-05 0 -0.024828650453365738 6.8836367423155462e-05 0 -0.02483807877323806 4.1569830950634792e-05 0 -0.02483807877323806 4.1569830950634792e-05 0 -0.024770912882365957 2.3246683219649174e-05 0 -0.024894080034404537 1.8770098894433961e-05 0 -0.024839031713587725 3.3183652557129105e-05 0 -0.024909248597631346 1.1382064709964042e-05 0 -0.024894080034404537 1.8770098894433961e-05 0 -0.024839031713587725 3.3183652557129105e-05 0 -0.024838423339829 6.421024591172578e-05 0 -0.024894080034404537 1.8770098894433961e-05 0 -0.024802512065309 4.6803997191819786e-05 0 -0.024880194255649531 2.0077446288417566e-05 0 -0.024881344952021298 3.5269782653207641e-05 0 -0.02483807877323806 4.1569830950634792e-05 0 -0.024894080034404537 1.8770098894433961e-05 0 -0.02491839018512924 -1.5673717359585234e-05 0 -0.024964725168191194 5.5721920132601394e-06 0 -0.024899139560325436 9.3968426514807456e-06 0 -0.024999779851082239 2.5438870429827164e-07 0 -0.024964725168191194 5.5721920132601394e-06 0 -0.024899139560325436 9.3968426514807456e-06 0 -0.024999779851082239 2.5438870429827164e-07 0 -0.024964725168191194 5.5721920132601394e-06 0 -0.02500001635385414 -5.574797080746305e-08 0 -0.024964725168191194 5.5721920132601394e-06 0 -0.02500001635385414 -5.574797080746305e-08 0 -0.024981651395834602 3.2365249904893484e-06 0 -0.024981651395834602 3.2365249904893484e-06 0 -0.024965841651684272 -1.0326205847290748e-05 0 -0.024973149297700972 1.1355164268282248e-06 0 -0.024964725168191194 5.5721920132601394e-06 0 -0.024981651395834602 3.2365249904893484e-06 0 -0.024965841651684272 -1.0326205847290748e-05 0 -0.02491839018512924 -1.5673717359585234e-05 0 -0.024964725168191194 5.5721920132601394e-06 0 -0.024965841651684272 -1.0326205847290748e-05 0 -0.024965841651684272 -1.0326205847290748e-05 0 -0.024973149297700972 1.1355164268282248e-06 0 -0.024974659441690694 -9.785611642697494e-06 0 -0.024952253979045966 1.3008921994415226e-05 0 -0.024973149297700972 1.1355164268282248e-06 0 -0.024974659441690694 -9.785611642697494e-06 0 -0.024952253979045966 1.3008921994415226e-05 0 -0.024973149297700972 1.1355164268282248e-06 0 -0.024975665811818079 4.0384931141899672e-06 0 -0.024952253979045966 1.3008921994415226e-05 0 -0.024975665811818079 4.0384931141899672e-06 0 -0.02494310409669253 1.2694391809133078e-05 0 -0.024981651395834602 3.2365249904893484e-06 0 -0.024973149297700972 1.1355164268282248e-06 0 -0.024975665811818079 4.0384931141899672e-06 0 -0.02500001635385414 -5.574797080746305e-08 0 -0.024981651395834602 3.2365249904893484e-06 0 -0.02499992530622374 9.8633283644757236e-09 0 -0.024981651395834602 3.2365249904893484e-06 0 -0.024975665811818079 4.0384931141899672e-06 0 -0.02499992530622374 9.8633283644757236e-09 0 -0.024975665811818079 4.0384931141899672e-06 0 -0.02499992530622374 9.8633283644757236e-09 0 -0.02494310409669253 1.2694391809133078e-05 0 -0.024999907291914897 1.0076810882661873e-08 0 -0.02499992530622374 9.8633283644757236e-09 0 -0.02494310409669253 1.2694391809133078e-05 0 -0.02494310409669253 1.2694391809133078e-05 0 -0.024887957460857299 4.1437250468808654e-05 0 -0.024888143441377054 4.4623672192293394e-05 0 -0.024952253979045966 1.3008921994415226e-05 0 -0.02494310409669253 1.2694391809133078e-05 0 -0.024888143441377054 4.4623672192293394e-05 0 -0.024887957460857299 4.1437250468808654e-05 0 -0.024888143441377054 4.4623672192293394e-05 0 -0.02485250408785367 5.6363521974072881e-05 0 -0.024888143441377054 4.4623672192293394e-05 0 -0.02485250408785367 5.6363521974072881e-05 0 -0.024855200788146486 5.7241571472456585e-05 0 -0.02485250408785367 5.6363521974072881e-05 0 -0.024826940200781637 6.3077081923024143e-05 0 -0.024855200788146486 5.7241571472456585e-05 0 -0.024855783847463064 5.5148458809648058e-05 0 -0.024887957460857299 4.1437250468808654e-05 0 -0.02485250408785367 5.6363521974072881e-05 0 -0.024855783847463064 5.5148458809648058e-05 0 -0.02485250408785367 5.6363521974072881e-05 0 -0.024815781408298793 6.7253315413891323e-05 0 -0.024800790630090334 7.3593544340541715e-05 0 -0.024815781408298793 6.7253315413891323e-05 0 -0.024771006031044148 7.8895312563720792e-05 0 -0.024815781408298793 6.7253315413891323e-05 0 -0.024792651757323616 6.8630629706771792e-05 0 -0.024771006031044148 7.8895312563720792e-05 0 -0.024815781408298793 6.7253315413891323e-05 0 -0.024792651757323616 6.8630629706771792e-05 0 -0.024826940200781637 6.3077081923024143e-05 0 -0.02485250408785367 5.6363521974072881e-05 0 -0.024815781408298793 6.7253315413891323e-05 0 -0.024826940200781637 6.3077081923024143e-05 0 -0.024832471529770611 6.0247188083573233e-05 0 -0.02481835653327976 6.2752293124491502e-05 0 -0.024749212837349349 6.3678597656189318e-05 0 -0.024826940200781637 6.3077081923024143e-05 0 -0.02481835653327976 6.2752293124491502e-05 0 -0.024855200788146486 5.7241571472456585e-05 0 -0.024832471529770611 6.0247188083573233e-05 0 -0.024868622893407629 5.7630438003508086e-05 0 -0.024749212837349349 6.3678597656189318e-05 0 -0.024497789059216044 0.00056616972263690728 0 -0.024357995148486303 0.00054415411636450888 0 -0.024832471529770611 6.0247188083573233e-05 0 -0.02481835653327976 6.2752293124491502e-05 0 -0.024855200788146486 5.7241571472456585e-05 0 -0.024792651757323616 6.8630629706771792e-05 0 -0.024826940200781637 6.3077081923024143e-05 0 -0.02481835653327976 6.2752293124491502e-05 0 -0.024792651757323616 6.8630629706771792e-05 0 -0.02481835653327976 6.2752293124491502e-05 0 -0.024749212837349349 6.3678597656189318e-05 0 -0.024832471529770611 6.0247188083573233e-05 0 -0.024868622893407629 5.7630438003508086e-05 0 -0.024863567094395588 5.6484040417435705e-05 0 -0.024832471529770611 6.0247188083573233e-05 0 -0.024855200788146486 5.7241571472456585e-05 0 -0.024863567094395588 5.6484040417435705e-05 0 -0.024888143441377054 4.4623672192293394e-05 0 -0.024855200788146486 5.7241571472456585e-05 0 -0.024879107004627806 5.1288226115368963e-05 0 -0.024855200788146486 5.7241571472456585e-05 0 -0.024863567094395588 5.6484040417435705e-05 0 -0.024879107004627806 5.1288226115368963e-05 0 -0.024868622893407629 5.7630438003508086e-05 0 -0.024863567094395588 5.6484040417435705e-05 0 -0.024879107004627806 5.1288226115368963e-05 0 -0.024821354911474264 -8.7189038863864975e-05 0 -0.024497789059216044 0.00056616972263690728 0 -0.024952253979045966 1.3008921994415226e-05 0 -0.024888143441377054 4.4623672192293394e-05 0 -0.024879107004627806 5.1288226115368963e-05 0 -0.024952253979045966 1.3008921994415226e-05 0 -0.024868622893407629 5.7630438003508086e-05 0 -0.024879107004627806 5.1288226115368963e-05 0 -0.024952253979045966 1.3008921994415226e-05 0 -0.024998541352159752 -3.531613303404063e-05 0 -0.024974659441690694 -9.785611642697494e-06 0 -0.024998541352159752 -3.531613303404063e-05 0 -0.024974659441690694 -9.785611642697494e-06 0 -0.024975717661354688 -3.2877682562602004e-05 0 -0.02491839018512924 -1.5673717359585234e-05 0 -0.0249647576989411 -6.9341259521855055e-05 0 -0.024942137465513575 -0.00013738616691847592 0 -0.024998541352159752 -3.531613303404063e-05 0 -0.0249647576989411 -6.9341259521855055e-05 0 -0.024942137465513575 -0.00013738616691847592 0 -0.024497789059216044 0.00056616972263690728 0 -0.024260234514207349 0.00056769496581268893 0 -0.02491839018512924 -1.5673717359585234e-05 0 -0.024965841651684272 -1.0326205847290748e-05 0 -0.0249647576989411 -6.9341259521855055e-05 0 -0.024965841651684272 -1.0326205847290748e-05 0 -0.024974659441690694 -9.785611642697494e-06 0 -0.024975717661354688 -3.2877682562602004e-05 0 -0.024965841651684272 -1.0326205847290748e-05 0 -0.024975717661354688 -3.2877682562602004e-05 0 -0.0249647576989411 -6.9341259521855055e-05 0 -0.024998541352159752 -3.531613303404063e-05 0 -0.024975717661354688 -3.2877682562602004e-05 0 -0.0249647576989411 -6.9341259521855055e-05 0 -0.024034791028553298 0.0015194847076227334 0 -0.023560637012126198 0.0012339622057285827 0 -0.023898531573332254 0.00093431994944473678 0 -0.024942137465513575 -0.00013738616691847592 0 -0.024805160894903786 -0.00012775149964913183 0 -0.024755478679894506 -0.00033264265564639239 0 -0.024260234514207349 0.00056769496581268893 0 -0.023883248269134152 0.00030020262287185496 0 -0.02491839018512924 -1.5673717359585234e-05 0 -0.024942137465513575 -0.00013738616691847592 0 -0.024805160894903786 -0.00012775149964913183 0 -0.023470263012619584 0.00074400054472094791 0 -0.023764370157548929 0.00031470552306655315 0 -0.023028206716686556 0.00034411765248996284 0 -0.023988633793051738 0.0002386001603936694 0 -0.022889460101568639 0.00042195433568100436 0 -0.023560637012126198 0.0012339622057285827 0 -0.023470263012619584 0.00074400054472094791 0 -0.023058911844738062 0.00094446607966616541 0 -0.023470263012619584 0.00074400054472094791 0 -0.023058911844738062 0.00094446607966616541 0 -0.023028206716686556 0.00034411765248996284 0 -0.023560637012126198 0.0012339622057285827 0 -0.023470263012619584 0.00074400054472094791 0 -0.023898531573332254 0.00093431994944473678 0 -0.023470263012619584 0.00074400054472094791 0 -0.023764370157548929 0.00031470552306655315 0 -0.023898531573332254 0.00093431994944473678 0 -0.023988633793051738 0.0002386001603936694 0 -0.024357995148486303 0.00054415411636450888 0 -0.024748098763119269 0.00015957445294948269 0 -0.024690397719942803 0.00010456397094975688 0 -0.024548255353732232 0.00014294862905910873 0 -0.024748098763119269 0.00015957445294948269 0 -0.024690397719942803 0.00010456397094975688 0 -0.024749212837349349 6.3678597656189318e-05 0 -0.023988633793051738 0.0002386001603936694 0 -0.024628198386330156 0.00016906038661731904 0 -0.024690397719942803 0.00010456397094975688 0 -0.024723622163870456 8.213826604556819e-05 0 -0.024548255353732232 0.00014294862905910873 0 -0.024690397719942803 0.00010456397094975688 0 -0.024749212837349349 6.3678597656189318e-05 0 -0.024723622163870456 8.213826604556819e-05 0 -0.024792651757323616 6.8630629706771792e-05 0 -0.024749212837349349 6.3678597656189318e-05 0 -0.024723622163870456 8.213826604556819e-05 0 -0.024792651757323616 6.8630629706771792e-05 0 -0.024723622163870456 8.213826604556819e-05 0 -0.024771006031044148 7.8895312563720792e-05 0 -0.024723622163870456 8.213826604556819e-05 0 -0.024771006031044148 7.8895312563720792e-05 0 -0.024735190030950434 9.7879568396016265e-05 0 -0.024800790630090334 7.3593544340541715e-05 0 -0.024771006031044148 7.8895312563720792e-05 0 -0.024735190030950434 9.7879568396016265e-05 0 -0.024723622163870456 8.213826604556819e-05 0 -0.024735190030950434 9.7879568396016265e-05 0 -0.024548255353732232 0.00014294862905910873 0 -0.024735190030950434 9.7879568396016265e-05 0 -0.024548255353732232 0.00014294862905910873 0 -0.024684061819538968 2.0650149647838545e-05 0 -0.024684061819538968 2.0650149647838545e-05 0 -0.024448086619924064 -6.7864070180949606e-05 0 -0.024587501805330467 -0.00027042968833431759 0 -0.024548255353732232 0.00014294862905910873 0 -0.024684061819538968 2.0650149647838545e-05 0 -0.024448086619924064 -6.7864070180949606e-05 0 -0.024448086619924064 -6.7864070180949606e-05 0 -0.024587501805330467 -0.00027042968833431759 0 -0.024137338815884441 -0.00031213394616553852 0 -0.024587501805330467 -0.00027042968833431759 0 -0.024137338815884441 -0.00031213394616553852 0 -0.024279119215150947 -0.00063635594113840431 0 -0.024587501805330467 -0.00027042968833431759 0 -0.02474743870916209 -0.0004078212748085894 0 -0.024583928167209976 -0.0005648657058419938 0 -0.024587501805330467 -0.00027042968833431759 0 -0.024583928167209976 -0.0005648657058419938 0 -0.024279119215150947 -0.00063635594113840431 0 -0.024137338815884441 -0.00031213394616553852 0 -0.024279119215150947 -0.00063635594113840431 0 -0.023778074137352567 -0.00072870321344690298 0 -0.024137338815884441 -0.00031213394616553852 0 -0.024132911482694412 1.1747601215336309e-05 0 -0.023693181513843455 2.7895552331557603e-05 0 -0.023807016834726857 0.00035452895155597096 0 -0.024548255353732232 0.00014294862905910873 0 -0.024132911482694412 1.1747601215336309e-05 0 -0.024448086619924064 -6.7864070180949606e-05 0 -0.024137338815884441 -0.00031213394616553852 0 -0.024132911482694412 1.1747601215336309e-05 0 -0.024548255353732232 0.00014294862905910873 0 -0.024448086619924064 -6.7864070180949606e-05 0 -0.024132911482694412 1.1747601215336309e-05 0 -0.02376439299030161 0.00044334201327063063 0 -0.023693181513843455 2.7895552331557603e-05 0 -0.023150220240770725 5.5424888724949945e-05 0 -0.023988633793051738 0.0002386001603936694 0 -0.023763272033027652 0.00010205851174790629 0 -0.023807016834726857 0.00035452895155597096 0 -0.024132911482694412 1.1747601215336309e-05 0 -0.023693181513843455 2.7895552331557603e-05 0 -0.023693223514198562 -0.00036058162257997082 0 -0.023262913784446847 -0.00043605893254740097 0 -0.023778074137352567 -0.00072870321344690298 0 -0.024137338815884441 -0.00031213394616553852 0 -0.023693223514198562 -0.00036058162257997082 0 -0.023778074137352567 -0.00072870321344690298 0 -0.024137338815884441 -0.00031213394616553852 0 -0.023693181513843455 2.7895552331557603e-05 0 -0.023693223514198562 -0.00036058162257997082 0 -0.023693223514198562 -0.00036058162257997082 0 -0.023438853132816222 -0.00016682995838673896 0 -0.023262913784446847 -0.00043605893254740097 0 -0.023693181513843455 2.7895552331557603e-05 0 -0.023693223514198562 -0.00036058162257997082 0 -0.023438853132816222 -0.00016682995838673896 0 -0.023438853132816222 -0.00016682995838673896 0 -0.023262913784446847 -0.00043605893254740097 0 -0.023150220240770725 5.5424888724949945e-05 0 -0.023262913784446847 -0.00043605893254740097 0 -0.022736431443107996 -0.00080279466175962595 0 -0.022839186237665326 -0.00037366806851869925 0 -0.023262913784446847 -0.00043605893254740097 0 -0.023150220240770725 5.5424888724949945e-05 0 -0.022839186237665326 -0.00037366806851869925 0 -0.023693181513843455 2.7895552331557603e-05 0 -0.023438853132816222 -0.00016682995838673896 0 -0.023150220240770725 5.5424888724949945e-05 0 -0.02376439299030161 0.00044334201327063063 0 -0.023150220240770725 5.5424888724949945e-05 0 -0.022861330723832986 0.00046013337413274707 0 -0.024805214167723737 7.5531643814383755e-05 0 -0.024793989456585782 0.00020666886971928983 0 -0.024696523518254281 0.00016277189199090253 0 -0.024812527257250309 6.1180420760073356e-05 0 -0.024851326349879167 5.2876474029423014e-05 0 -0.024610131050908327 0.00010988168453621183 0 -0.024805214167723737 7.5531643814383755e-05 0 -0.024696523518254281 0.00016277189199090253 0 -0.024654970409953913 0.00012582341428672974 0 -0.024802512065309 4.6803997191819786e-05 0 -0.024610131050908327 0.00010988168453621183 0 -0.024770912882365957 2.3246683219649174e-05 0 -0.024805214167723737 7.5531643814383755e-05 0 -0.02483807877323806 4.1569830950634792e-05 0 -0.024770912882365957 2.3246683219649174e-05 0 -0.024805214167723737 7.5531643814383755e-05 0 -0.02483807877323806 4.1569830950634792e-05 0 -0.024805214167723737 7.5531643814383755e-05 0 -0.024825368947105783 6.2259014359166906e-05 0 -0.024828650453365738 6.8836367423155462e-05 0 -0.024825368947105783 6.2259014359166906e-05 0 -0.024817440847687246 6.3418408731090391e-05 0 -0.024828650453365738 6.8836367423155462e-05 0 -0.02483807877323806 4.1569830950634792e-05 0 -0.024825368947105783 6.2259014359166906e-05 0 -0.024828650453365738 6.8836367423155462e-05 0 -0.024800790630090334 7.3593544340541715e-05 0 -0.024735190030950434 9.7879568396016265e-05 0 -0.024828650453365738 6.8836367423155462e-05 0 -0.024735190030950434 9.7879568396016265e-05 0 -0.024817440847687246 6.3418408731090391e-05 0 -0.024735190030950434 9.7879568396016265e-05 0 -0.024684061819538968 2.0650149647838545e-05 0 -0.024817440847687246 6.3418408731090391e-05 0 -0.024805214167723737 7.5531643814383755e-05 0 -0.024817440847687246 6.3418408731090391e-05 0 -0.024931953447154178 -7.51795407180748e-05 0 -0.024805214167723737 7.5531643814383755e-05 0 -0.024825368947105783 6.2259014359166906e-05 0 -0.024817440847687246 6.3418408731090391e-05 0 -0.024817440847687246 6.3418408731090391e-05 0 -0.024931953447154178 -7.51795407180748e-05 0 -0.024815718155486607 -0.00016458277450406015 0 -0.024684061819538968 2.0650149647838545e-05 0 -0.024817440847687246 6.3418408731090391e-05 0 -0.024815718155486607 -0.00016458277450406015 0 -0.024684061819538968 2.0650149647838545e-05 0 -0.024587501805330467 -0.00027042968833431759 0 -0.024815718155486607 -0.00016458277450406015 0 -0.024815718155486607 -0.00016458277450406015 0 -0.02474743870916209 -0.0004078212748085894 0 -0.024958376038065441 -0.00046784992839637009 0 -0.024587501805330467 -0.00027042968833431759 0 -0.024815718155486607 -0.00016458277450406015 0 -0.02474743870916209 -0.0004078212748085894 0 -0.024851326349879167 5.2876474029423014e-05 0 -0.024949241904279038 -9.5071536942525474e-05 0 -0.024931953447154178 -7.51795407180748e-05 0 -0.024815718155486607 -0.00016458277450406015 0 -0.024958376038065441 -0.00046784992839637009 0 -0.024793989456585782 0.00020666886971928983 0 -0.024826848485942812 0.00034739119663484915 0 -0.024760042469683802 0.00037731104326034465 0 -0.024513814465789003 0.0002179238500853232 0 -0.024796610801494839 0.00045692937247506806 0 -0.024579806325426619 0.00025946523127375368 0 -0.024513235760341801 0.00034032832182525301 0 -0.02454124500059169 0.0003435730549261048 0 -0.024793989456585782 0.00020666886971928983 0 -0.024579806325426619 0.00025946523127375368 0 -0.024760042469683802 0.00037731104326034465 0 -0.024793989456585782 0.00020666886971928983 0 -0.024696523518254281 0.00016277189199090253 0 -0.024579806325426619 0.00025946523127375368 0 -0.024610131050908327 0.00010988168453621183 0 -0.024696523518254281 0.00016277189199090253 0 -0.024579806325426619 0.00025946523127375368 0 -0.024418203817713445 0.00032482327420462387 0 -0.024579806325426619 0.00025946523127375368 0 -0.024440884012060893 0.00036733674701247532 0 -0.024579806325426619 0.00025946523127375368 0 -0.024440884012060893 0.00036733674701247532 0 -0.024513235760341801 0.00034032832182525301 0 -0.024440884012060893 0.00036733674701247532 0 -0.024513235760341801 0.00034032832182525301 0 -0.024494545510999843 0.00040838261150741913 0 -0.024513235760341801 0.00034032832182525301 0 -0.024494545510999843 0.00040838261150741913 0 -0.02454124500059169 0.0003435730549261048 0 -0.024494545510999843 0.00040838261150741913 0 -0.024569714873544941 0.00042624338558047004 0 -0.02454124500059169 0.0003435730549261048 0 -0.024440884012060893 0.00036733674701247532 0 -0.024419863869161996 0.00048622860111467622 0 -0.024494545510999843 0.00040838261150741913 0 -0.024419863869161996 0.00048622860111467622 0 -0.024494545510999843 0.00040838261150741913 0 -0.024574105304176034 0.00051786665028000515 0 -0.024440884012060893 0.00036733674701247532 0 -0.024419863869161996 0.00048622860111467622 0 -0.024209666041129854 0.00052959790603321344 0 -0.024319570905665937 0.00044256239340008608 0 -0.024440884012060893 0.00036733674701247532 0 -0.024209666041129854 0.00052959790603321344 0 -0.023927518854895337 0.00058406393994063369 0 -0.024209666041129854 0.00052959790603321344 0 -0.024175757045645067 0.00055778359899634629 0 -0.024419863869161996 0.00048622860111467622 0 -0.024209666041129854 0.00052959790603321344 0 -0.024428924685393726 0.00063892655307292031 0 -0.024370331924391447 0.0006171910071533504 0 -0.023747316723932797 0.00054810165663821695 0 -0.023747316723932797 0.00054810165663821695 0 -0.023709638555981485 0.00057833375876921943 0 -0.02362867442491836 0.00013355914537992536 0 -0.023009385710084568 -0.00023418029345528363 0 -0.023027520613748464 0.00049073525565420089 0 -0.024419863869161996 0.00048622860111467622 0 -0.024428924685393726 0.00063892655307292031 0 -0.024574105304176034 0.00051786665028000515 0 -0.022893344375931667 0.0013438316225633975 0 -0.023099439065095172 0.00057454081236068763 0 -0.02195602510650168 0.00081193359044154649 0 -0.023099439065095172 0.00057454081236068763 0 -0.02195602510650168 0.00081193359044154649 0 -0.022747757856435902 7.3186711016747202e-06 0 -0.023747316723932797 0.00054810165663821695 0 -0.02239739792590199 0.0002665481288148908 0 -0.023927518854895337 0.00058406393994063369 0 -0.023099439065095172 0.00057454081236068763 0 -0.023708065102824857 2.2398217957874633e-05 0 -0.023793537901913676 0.0007331600603507569 0 -0.023747316723932797 0.00054810165663821695 0 -0.023927518854895337 0.00058406393994063369 0 -0.022893344375931667 0.0013438316225633975 0 -0.023099439065095172 0.00057454081236068763 0 -0.022524602445637087 0.00020842513000800421 0 -0.021946673907805331 -4.4898399699840753e-05 0 -0.022381667890882962 -0.00060560059630155097 0 -0.023009385710084568 -0.00023418029345528363 0 -0.022524602445637087 0.00020842513000800421 0 -0.022381667890882962 -0.00060560059630155097 0 -0.02239739792590199 0.0002665481288148908 0 -0.021898783395854125 -0.00010124986457346982 0 -0.023027520613748464 0.00049073525565420089 0 -0.022524602445637087 0.00020842513000800421 0 -0.022393776898155339 0.00086924197436307881 0 -0.023009385710084568 -0.00023418029345528363 0 -0.023027520613748464 0.00049073525565420089 0 -0.022524602445637087 0.00020842513000800421 0 -0.02345849764409054 3.2675086510000364e-05 0 -0.02219524384203591 -0.00020448694762836774 0 -0.022524602445637087 0.00020842513000800421 0 -0.022350127047000609 0.0007778712468074566 0 -0.021946673907805331 -4.4898399699840753e-05 0 -0.022524602445637087 0.00020842513000800421 0 -0.022350127047000609 0.0007778712468074566 0 -0.022393776898155339 0.00086924197436307881 0 -0.024904526588387245 -0.0011846965858874278 0 -0.024940930006077382 -0.0011032097802457746 0 -0.024535494010245944 -0.00085332933669757477 0 -0.024163365797939658 2.2674101118980665e-05 0 -0.024897383317526639 -0.0010305654137571858 0 -0.02345849764409054 3.2675086510000364e-05 0 -0.024163365797939658 2.2674101118980665e-05 0 -0.024574105304176034 0.00051786665028000515 0 -0.024676777130231992 0.00043783019746331707 0 -0.024569714873544941 0.00042624338558047004 0 -0.023709638555981485 0.00057833375876921943 0 -0.024163365797939658 2.2674101118980665e-05 0 -0.024494545510999843 0.00040838261150741913 0 -0.024574105304176034 0.00051786665028000515 0 -0.024569714873544941 0.00042624338558047004 0 -0.024676777130231992 0.00043783019746331707 0 -0.024569714873544941 0.00042624338558047004 0 -0.02454124500059169 0.0003435730549261048 0 -0.024163365797939658 2.2674101118980665e-05 0 -0.024796610801494839 0.00045692937247506806 0 -0.024826848485942812 0.00034739119663484915 0 -0.024859294217002718 0.00043392266408984274 0 -0.024760042469683802 0.00037731104326034465 0 -0.024958376038065441 -0.00046784992839637009 0 -0.024805508779046841 -0.00097216917655157701 0 -0.024732348401105983 -0.00065217185980499446 0 -0.024949241904279038 -9.5071536942525474e-05 0 -0.024163365797939658 2.2674101118980665e-05 0 -0.024805508779046841 -0.00097216917655157701 0 -0.024732348401105983 -0.00065217185980499446 0 -0.024535494010245944 -0.00085332933669757477 0 -0.02474743870916209 -0.0004078212748085894 0 -0.024958376038065441 -0.00046784992839637009 0 -0.024732348401105983 -0.00065217185980499446 0 -0.02474743870916209 -0.0004078212748085894 0 -0.024732348401105983 -0.00065217185980499446 0 -0.024583928167209976 -0.0005648657058419938 0 -0.024732348401105983 -0.00065217185980499446 0 -0.024583928167209976 -0.0005648657058419938 0 -0.024535494010245944 -0.00085332933669757477 0 -0.024535494010245944 -0.00085332933669757477 0 -0.024279119215150947 -0.00063635594113840431 0 -0.024112002797757479 -0.0011325864523811559 0 -0.024583928167209976 -0.0005648657058419938 0 -0.024535494010245944 -0.00085332933669757477 0 -0.024279119215150947 -0.00063635594113840431 0 -0.024279119215150947 -0.00063635594113840431 0 -0.024112002797757479 -0.0011325864523811559 0 -0.023778074137352567 -0.00072870321344690298 0 -0.024904526588387245 -0.0011846965858874278 0 -0.024112002797757479 -0.0011325864523811559 0 -0.024250987536995158 -0.0017777879319336774 0 -0.024904526588387245 -0.0011846965858874278 0 -0.024535494010245944 -0.00085332933669757477 0 -0.024112002797757479 -0.0011325864523811559 0 -0.023262913784446847 -0.00043605893254740097 0 -0.023298501575062032 -0.00088057366474766745 0 -0.022736431443107996 -0.00080279466175962595 0 -0.023298501575062032 -0.00088057366474766745 0 -0.023123048993554551 -0.0013349362799834575 0 -0.022736431443107996 -0.00080279466175962595 0 -0.023262913784446847 -0.00043605893254740097 0 -0.023298501575062032 -0.00088057366474766745 0 -0.023778074137352567 -0.00072870321344690298 0 -0.023298501575062032 -0.00088057366474766745 0 -0.023778074137352567 -0.00072870321344690298 0 -0.023594037166965693 -0.0011460702435938206 0 -0.024112002797757479 -0.0011325864523811559 0 -0.023594037166965693 -0.0011460702435938206 0 -0.023488868882929146 -0.0016654590196718089 0 -0.024112002797757479 -0.0011325864523811559 0 -0.023778074137352567 -0.00072870321344690298 0 -0.023594037166965693 -0.0011460702435938206 0 -0.023594037166965693 -0.0011460702435938206 0 -0.023123048993554551 -0.0013349362799834575 0 -0.023488868882929146 -0.0016654590196718089 0 -0.023298501575062032 -0.00088057366474766745 0 -0.023594037166965693 -0.0011460702435938206 0 -0.023123048993554551 -0.0013349362799834575 0 -0.022876823435573266 -0.0016919894870333044 0 -0.023488868882929146 -0.0016654590196718089 0 -0.022971771070064113 -0.0021320867241596954 0 -0.023123048993554551 -0.0013349362799834575 0 -0.022876823435573266 -0.0016919894870333044 0 -0.023488868882929146 -0.0016654590196718089 0 -0.023488868882929146 -0.0016654590196718089 0 -0.023550688910080338 -0.0023688436109706459 0 -0.022971771070064113 -0.0021320867241596954 0 -0.023488868882929146 -0.0016654590196718089 0 -0.023550688910080338 -0.0023688436109706459 0 -0.024250987536995158 -0.0017777879319336774 0 -0.017913422980283023 -0.0011167799613223282 0 -0.01790164365352347 -0.0010818803836146228 0 -0.017901006941273001 -0.0010862929710717696 0 -0.017901359698372345 -0.0010677371984313911 0 -0.017913422980283023 -0.0011167799613223282 0 -0.01790164365352347 -0.0010818803836146228 0 -0.020393785799978043 -0.0011736779961472399 0 -0.020556655425024713 -0.0016985307817423592 0 -0.02345849764409054 3.2675086510000364e-05 0 -0.023393225896192929 -0.0010876963662250084 0 -0.022751424607397465 0.00050882248122366056 0 -0.021798033069911554 -0.00025726934002485871 0 -0.02228037316643695 -0.0004722592524152302 0 -0.024112002797757479 -0.0011325864523811559 0 -0.023488868882929146 -0.0016654590196718089 0 -0.024250987536995158 -0.0017777879319336774 0 -0.020849208293988428 -0.001027796160035262 0 -0.021798033069911554 -0.00025726934002485871 0 -0.02181164474404405 -0.0014552969800107024 0 -0.020393785799978043 -0.0011736779961472399 0 -0.023393225896192929 -0.0010876963662250084 0 -0.021946673907805331 -4.4898399699840753e-05 0 -0.02173622492650025 -0.00097998589552081013 0 -0.022381667890882962 -0.00060560059630155097 0 -0.021798033069911554 -0.00025726934002485871 0 -0.02228037316643695 -0.0004722592524152302 0 -0.02181164474404405 -0.0014552969800107024 0 -0.02219524384203591 -0.00020448694762836774 0 -0.020200778482996878 -0.00073959314957229051 0 -0.021946673907805331 -4.4898399699840753e-05 0 -0.02173622492650025 -0.00097998589552081013 0 -0.02153446911945462 -0.00089077394201506185 0 -0.020191193240966392 -0.00028173426741117801 0 -0.021898783395854125 -0.00010124986457346982 0 -0.020191193240966392 -0.00028173426741117801 0 -0.01858134810555544 -0.00081464694665519968 0 -0.020008740324162031 -0.00040322699998725199 0 -0.019540439121108349 -0.00019488531617234289 0 -0.019233667082510553 -0.00086053931980927629 0 -0.020191193240966392 -0.00028173426741117801 0 -0.020200778482996878 -0.00073959314957229051 0 -0.017947657472208341 -0.0010153997513566418 0 -0.018063226534778445 -0.0010426285734573342 0 -0.017961354464511164 -0.0010736869976311529 0 -0.020393785799978043 -0.0011736779961472399 0 -0.020200778482996878 -0.00073959314957229051 0 -0.018063226534778445 -0.0010426285734573342 0 -0.018041076016436088 -0.001078898638617049 0 -0.017961354464511164 -0.0010736869976311529 0 -0.020200778482996878 -0.00073959314957229051 0 -0.01858134810555544 -0.00081464694665519968 0 -0.018281906023251498 -5.0441152152367718e-05 0 -0.018046249023363412 -0.00084848107037053221 0 -0.018809930305937052 -0.00033000245565095786 0 -0.01858134810555544 -0.00081464694665519968 0 -0.018215094454218456 -0.00071760970882891193 0 -0.018153659187856847 -0.00054480169635416577 0 -0.018046249023363412 -0.00084848107037053221 0 -0.017671673999298008 -0.0010619127267984783 0 -0.01858134810555544 -0.00081464694665519968 0 -0.017710454125477153 -0.0011171664608455251 0 -0.018046249023363412 -0.00084848107037053221 0 -0.018809930305937052 -0.00033000245565095786 0 -0.018957101977965289 -0.00099745347848138725 0 -0.018847490347496818 0.00035688117749033252 0 -0.018809930305937052 -0.00033000245565095786 0 -0.020155221249277575 -6.294417315336884e-05 0 -0.018809930305937052 -0.00033000245565095786 0 -0.018957101977965289 -0.00099745347848138725 0 -0.020155221249277575 -6.294417315336884e-05 0 -0.020191193240966392 -0.00028173426741117801 0 -0.020574377316559759 -0.00022791197246059487 0 -0.018847490347496818 0.00035688117749033252 0 -0.018281906023251498 -5.0441152152367718e-05 0 -0.018809930305937052 -0.00033000245565095786 0 -0.017881843735131436 -0.0010692336894791215 0 -0.017860180386994991 -0.0010742446259484433 0 -0.017901006941273001 -0.0010862929710717696 0 -0.01790164365352347 -0.0010818803836146228 0 -0.017881843735131436 -0.0010692336894791215 0 -0.017901006941273001 -0.0010862929710717696 0 -0.01790164365352347 -0.0010818803836146228 0 -0.017881843735131436 -0.0010692336894791215 0 -0.017903225850336029 -0.0010541528363419189 0 -0.017881843735131436 -0.0010692336894791215 0 -0.017909291456485576 -0.0010630286420637068 0 -0.017903225850336029 -0.0010541528363419189 0 -0.017881843735131436 -0.0010692336894791215 0 -0.017909291456485576 -0.0010630286420637068 0 -0.017861708374893877 -0.0010705785808295531 0 -0.017881843735131436 -0.0010692336894791215 0 -0.017861708374893877 -0.0010705785808295531 0 -0.017860180386994991 -0.0010742446259484433 0 -0.017947657472208341 -0.0010153997513566418 0 -0.017909291456485576 -0.0010630286420637068 0 -0.017961354464511164 -0.0010736869976311529 0 -0.017901359698372345 -0.0010677371984313911 0 -0.01790164365352347 -0.0010818803836146228 0 -0.017903225850336029 -0.0010541528363419189 0 -0.017947657472208341 -0.0010153997513566418 0 -0.017909291456485576 -0.0010630286420637068 0 -0.017903225850336029 -0.0010541528363419189 0 -0.020393785799978043 -0.0011736779961472399 0 -0.0184416014305805 -0.0016953400230163426 0 -0.018041076016436088 -0.001078898638617049 0 -0.017961354464511164 -0.0010736869976311529 0 -0.017944599533039597 -0.0011368119215035921 0 -0.017944599533039597 -0.0011368119215035921 0 -0.017907080329252336 -0.0010806439685797351 0 -0.017771586852948024 -0.001088943213665044 0 -0.017909291456485576 -0.0010630286420637068 0 -0.017961354464511164 -0.0010736869976311529 0 -0.017907080329252336 -0.0010806439685797351 0 -0.017909291456485576 -0.0010630286420637068 0 -0.017907080329252336 -0.0010806439685797351 0 -0.017861708374893877 -0.0010705785808295531 0 -0.017961354464511164 -0.0010736869976311529 0 -0.017944599533039597 -0.0011368119215035921 0 -0.017907080329252336 -0.0010806439685797351 0 -0.017907080329252336 -0.0010806439685797351 0 -0.017861708374893877 -0.0010705785808295531 0 -0.017771586852948024 -0.001088943213665044 0 -0.017861708374893877 -0.0010705785808295531 0 -0.017771586852948024 -0.001088943213665044 0 -0.017860180386994991 -0.0010742446259484433 0 -0.017944599533039597 -0.0011368119215035921 0 -0.017771586852948024 -0.001088943213665044 0 -0.0174214027674096 -0.0013817620945040146 0 -0.017710454125477153 -0.0011171664608455251 0 -0.017487800080213792 -0.0013426720332704257 0 -0.017671673999298008 -0.0010619127267984783 0 -0.017612723309371421 -0.0013878735766589153 0 -0.0174214027674096 -0.0013817620945040146 0 -0.018046249023363412 -0.00084848107037053221 0 -0.017671673999298008 -0.0010619127267984783 0 -0.017890420503482989 -0.001251215875915149 0 -0.017671673999298008 -0.0010619127267984783 0 -0.017612723309371421 -0.0013878735766589153 0 -0.017751200511128811 -0.0013065577446594401 0 -0.017612723309371421 -0.0013878735766589153 0 -0.017751200511128811 -0.0013065577446594401 0 -0.01783892481791553 -0.0015268957613292684 0 -0.017671673999298008 -0.0010619127267984783 0 -0.017751200511128811 -0.0013065577446594401 0 -0.017890420503482989 -0.001251215875915149 0 -0.017751200511128811 -0.0013065577446594401 0 -0.017890420503482989 -0.001251215875915149 0 -0.01783892481791553 -0.0015268957613292684 0 -0.01783892481791553 -0.0015268957613292684 0 -0.017693437710923937 -0.0016153155483603643 0 -0.017867761167659896 -0.0017487412507107458 0 -0.017612723309371421 -0.0013878735766589153 0 -0.01783892481791553 -0.0015268957613292684 0 -0.017693437710923937 -0.0016153155483603643 0 -0.017612723309371421 -0.0013878735766589153 0 -0.017507010046871403 -0.0016339776589165615 0 -0.0174214027674096 -0.0013817620945040146 0 -0.017612723309371421 -0.0013878735766589153 0 -0.017693437710923937 -0.0016153155483603643 0 -0.017507010046871403 -0.0016339776589165615 0 -0.018957101977965289 -0.00099745347848138725 0 -0.01824159326974642 -0.0013213459309973483 0 -0.018455426779561471 -0.0017397552745446185 0 -0.018957101977965289 -0.00099745347848138725 0 -0.018455426779561471 -0.0017397552745446185 0 -0.019490740100945356 -0.0014519895137463951 0 -0.018046249023363412 -0.00084848107037053221 0 -0.018957101977965289 -0.00099745347848138725 0 -0.01824159326974642 -0.0013213459309973483 0 -0.018046249023363412 -0.00084848107037053221 0 -0.017890420503482989 -0.001251215875915149 0 -0.01824159326974642 -0.0013213459309973483 0 -0.017890420503482989 -0.001251215875915149 0 -0.01824159326974642 -0.0013213459309973483 0 -0.018140401842834018 -0.0016077438250524522 0 -0.01824159326974642 -0.0013213459309973483 0 -0.018140401842834018 -0.0016077438250524522 0 -0.018455426779561471 -0.0017397552745446185 0 -0.01783892481791553 -0.0015268957613292684 0 -0.018140401842834018 -0.0016077438250524522 0 -0.018061221534827528 -0.0017297810542756537 0 -0.017890420503482989 -0.001251215875915149 0 -0.01783892481791553 -0.0015268957613292684 0 -0.018140401842834018 -0.0016077438250524522 0 -0.01783892481791553 -0.0015268957613292684 0 -0.018061221534827528 -0.0017297810542756537 0 -0.017867761167659896 -0.0017487412507107458 0 -0.018140401842834018 -0.0016077438250524522 0 -0.018061221534827528 -0.0017297810542756537 0 -0.018277996927499807 -0.0017869133251618434 0 -0.018277996927499807 -0.0017869133251618434 0 -0.018455426779561471 -0.0017397552745446185 0 -0.018383197470379895 -0.0017626063308435239 0 -0.018140401842834018 -0.0016077438250524522 0 -0.018277996927499807 -0.0017869133251618434 0 -0.018455426779561471 -0.0017397552745446185 0 -0.018455426779561471 -0.0017397552745446185 0 -0.018383197470379895 -0.0017626063308435239 0 -0.018432241569558541 -0.0017479946138593604 0 -0.018277996927499807 -0.0017869133251618434 0 -0.018383197470379895 -0.0017626063308435239 0 -0.018360906678766612 -0.0018103805293140302 0 -0.018383197470379895 -0.0017626063308435239 0 -0.018432241569558541 -0.0017479946138593604 0 -0.018360906678766612 -0.0018103805293140302 0 -0.018432241569558541 -0.0017479946138593604 0 -0.018404281311438557 -0.001815049576012628 0 -0.018360906678766612 -0.0018103805293140302 0 -0.01843095554582256 -0.001768263178179014 0 -0.018678796811531086 -0.001886333129351765 0 -0.018455426779561471 -0.0017397552745446185 0 -0.018432241569558541 -0.0017479946138593604 0 -0.018512695566921929 -0.0016715555903453112 0 -0.018432241569558541 -0.0017479946138593604 0 -0.018483786485948527 -0.0017815258960638335 0 -0.018404281311438557 -0.001815049576012628 0 -0.018565611188317312 -0.0017843681867148232 0 -0.019458038860001466 -0.0018199404719140028 0 -0.018432241569558541 -0.0017479946138593604 0 -0.018512695566921929 -0.0016715555903453112 0 -0.018725641683044237 -0.0019560161249290269 0 -0.018957101977965289 -0.00099745347848138725 0 -0.019490740100945356 -0.0014519895137463951 0 -0.020233019862135441 -0.0010290057353902475 0 -0.019490740100945356 -0.0014519895137463951 0 -0.020394262854771306 -0.0020492734277264258 0 -0.020233019862135441 -0.0010290057353902475 0 -0.018455426779561471 -0.0017397552745446185 0 -0.019490740100945356 -0.0014519895137463951 0 -0.020394262854771306 -0.0020492734277264258 0 -0.020394262854771306 -0.0020492734277264258 0 -0.020233019862135441 -0.0010290057353902475 0 -0.021197741208455946 -0.001431881969498006 0 -0.020233019862135441 -0.0010290057353902475 0 -0.021197741208455946 -0.001431881969498006 0 -0.021850424839199082 -0.00080192658898402345 0 -0.020394262854771306 -0.0020492734277264258 0 -0.021197741208455946 -0.001431881969498006 0 -0.022229937076200374 -0.0018036412813553643 0 -0.019458038860001466 -0.0018199404719140028 0 -0.020720361398178372 -0.0016943296030620958 0 -0.021197741208455946 -0.001431881969498006 0 -0.022229937076200374 -0.0018036412813553643 0 -0.021850424839199082 -0.00080192658898402345 0 -0.018678796811531086 -0.001886333129351765 0 -0.018479701817277039 -0.0021565471805704501 0 -0.018512695566921929 -0.0016715555903453112 0 -0.018967679176245731 -0.0018191366188037611 0 -0.018725641683044237 -0.0019560161249290269 0 -0.018512695566921929 -0.0016715555903453112 0 -0.018967679176245731 -0.0018191366188037611 0 -0.019182891991015982 -0.0015220389491230953 0 -0.018967679176245731 -0.0018191366188037611 0 -0.018725641683044237 -0.0019560161249290269 0 -0.019240322327585675 -0.0021681078143854235 0 -0.019240118762114733 -0.0018427144658156448 0 -0.019962459151784091 -0.0014337875546791214 0 -0.019431505934059873 -0.0021145211930774662 0 -0.019240118762114733 -0.0018427144658156448 0 -0.019962459151784091 -0.0014337875546791214 0 -0.019182891991015982 -0.0015220389491230953 0 -0.019240118762114733 -0.0018427144658156448 0 -0.019240322327585675 -0.0021681078143854235 0 -0.019431505934059873 -0.0021145211930774662 0 -0.018967679176245731 -0.0018191366188037611 0 -0.019240118762114733 -0.0018427144658156448 0 -0.019240322327585675 -0.0021681078143854235 0 -0.018967679176245731 -0.0018191366188037611 0 -0.019240118762114733 -0.0018427144658156448 0 -0.019182891991015982 -0.0015220389491230953 0 -0.021039492406931676 -0.0015488983664319745 0 -0.020827332962297246 -0.0011446491396478766 0 -0.020298283325820166 -0.0017986289734414791 0 -0.019161657190552739 -0.0018600768535180249 0 -0.018433136927218468 -0.00213088667066137 0 -0.017334639550217763 -0.0021852327165293381 0 -0.016236916414515034 -0.002605784804918217 0 -0.017206459621374074 -0.0025921512279676487 0 -0.021540837135775003 -0.0011732311649038983 0 -0.018433136927218468 -0.00213088667066137 0 -0.021540837135775003 -0.0011732311649038983 0 -0.020720361398178372 -0.0016943296030620958 0 -0.023431768169700204 -0.0015695889124370372 0 -0.022229937076200374 -0.0018036412813553643 0 -0.022946459352749807 -0.00074574480001406097 0 -0.022229937076200374 -0.0018036412813553643 0 -0.022946459352749807 -0.00074574480001406097 0 -0.021850424839199082 -0.00080192658898402345 0 -0.02234317905306523 -0.00039389839001547895 0 -0.022946459352749807 -0.00074574480001406097 0 -0.022747757856435902 7.3186711016747202e-06 0 -0.02234317905306523 -0.00039389839001547895 0 -0.022946459352749807 -0.00074574480001406097 0 -0.021850424839199082 -0.00080192658898402345 0 -0.02411830714996635 -0.00042028538283350465 0 -0.022946459352749807 -0.00074574480001406097 0 -0.023708065102824857 2.2398217957874633e-05 0 -0.02411830714996635 -0.00042028538283350465 0 -0.023431768169700204 -0.0015695889124370372 0 -0.022946459352749807 -0.00074574480001406097 0 -0.023099439065095172 0.00057454081236068763 0 -0.023708065102824857 2.2398217957874633e-05 0 -0.022747757856435902 7.3186711016747202e-06 0 -0.022946459352749807 -0.00074574480001406097 0 -0.023708065102824857 2.2398217957874633e-05 0 -0.022747757856435902 7.3186711016747202e-06 0 -0.02195602510650168 0.00081193359044154649 0 -0.022747757856435902 7.3186711016747202e-06 0 -0.021866347988763916 -6.789958987333542e-05 0 -0.02234317905306523 -0.00039389839001547895 0 -0.022747757856435902 7.3186711016747202e-06 0 -0.021866347988763916 -6.789958987333542e-05 0 -0.02195602510650168 0.00081193359044154649 0 -0.021866347988763916 -6.789958987333542e-05 0 -0.021146217081244863 0.0003337843684301043 0 -0.021866347988763916 -6.789958987333542e-05 0 -0.021146217081244863 0.0003337843684301043 0 -0.021184335940142678 -0.00046954255492269914 0 -0.020386693249856397 -0.00011567816674451125 0 -0.021146217081244863 0.0003337843684301043 0 -0.021184335940142678 -0.00046954255492269914 0 -0.018957101977965289 -0.00099745347848138725 0 -0.020233019862135441 -0.0010290057353902475 0 -0.020155221249277575 -6.294417315336884e-05 0 -0.02234317905306523 -0.00039389839001547895 0 -0.021866347988763916 -6.789958987333542e-05 0 -0.021850424839199082 -0.00080192658898402345 0 -0.021866347988763916 -6.789958987333542e-05 0 -0.021184335940142678 -0.00046954255492269914 0 -0.021850424839199082 -0.00080192658898402345 0 -0.020233019862135441 -0.0010290057353902475 0 -0.020155221249277575 -6.294417315336884e-05 0 -0.021850424839199082 -0.00080192658898402345 0 -0.020574377316559759 -0.00022791197246059487 0 -0.021794163139249603 -0.00077422837773074844 0 -0.015807055614386136 -0.0008696565272848872 0 -0.0166821180501576 -0.0014378144491631151 0 -0.01615168903405478 -0.0010551055728126551 0 -0.015800118463528745 -0.0009035113707205728 0 -0.015910725066002891 -0.0010956602487559148 0 -0.016152093851130443 -0.00095995821639757338 0 -0.01615168903405478 -0.0010551055728126551 0 -0.015980083743848621 -0.00095896952530443737 0 -0.016152093851130443 -0.00095995821639757338 0 -0.01615168903405478 -0.0010551055728126551 0 -0.016252542892878849 -0.00096671175418710468 0 -0.016152093851130443 -0.00095995821639757338 0 -0.016252542892878849 -0.00096671175418710468 0 -0.01624369582547313 -0.00089926978495167024 0 -0.016301854465524283 -0.001071954493396674 0 -0.016426447064897324 -0.001214528874955602 0 -0.016478299241816343 -0.00096783439176810818 0 -0.01615168903405478 -0.0010551055728126551 0 -0.016301854465524283 -0.001071954493396674 0 -0.016239121095599558 -0.0012353244392122426 0 -0.01615168903405478 -0.0010551055728126551 0 -0.016301854465524283 -0.001071954493396674 0 -0.016252542892878849 -0.00096671175418710468 0 -0.016342055808872311 -0.00094828046317964136 0 -0.016320300557229574 -0.00080461816539105404 0 -0.016478299241816343 -0.00096783439176810818 0 -0.016301854465524283 -0.001071954493396674 0 -0.016342055808872311 -0.00094828046317964136 0 -0.016478299241816343 -0.00096783439176810818 0 -0.016301854465524283 -0.001071954493396674 0 -0.016342055808872311 -0.00094828046317964136 0 -0.016252542892878849 -0.00096671175418710468 0 -0.016342055808872311 -0.00094828046317964136 0 -0.016252542892878849 -0.00096671175418710468 0 -0.016320300557229574 -0.00080461816539105404 0 -0.016252542892878849 -0.00096671175418710468 0 -0.01624369582547313 -0.00089926978495167024 0 -0.016343450899243054 -0.00087627657561689415 0 -0.01624369582547313 -0.00089926978495167024 0 -0.016311868915759593 -0.000868293521279229 0 -0.016343450899243054 -0.00087627657561689415 0 -0.016417710123048247 -0.0010172350033681762 0 -0.016873676739588377 -0.0010371062930123944 0 -0.016686732932788433 -0.00098675682343578384 0 -0.016873676739588377 -0.0010371062930123944 0 -0.016873676739588377 -0.0010371062930123944 0 -0.017325386472695839 -0.00090090792532111373 0 -0.016368494833553061 -0.0008851671521617492 0 -0.016524543970106789 -0.00067198321663358295 0 -0.01638726935863475 -0.00073186763258818765 0 -0.0163260085217398 -0.00079414250535884642 0 -0.016235510723217907 -0.00081003493038779573 0 -0.016309250158633083 -0.00069435470331948349 0 -0.01624369582547313 -0.00089926978495167024 0 -0.016311868915759593 -0.000868293521279229 0 -0.016235510723217907 -0.00081003493038779573 0 -0.016368494833553061 -0.0008851671521617492 0 -0.0163260085217398 -0.00079414250535884642 0 -0.01638726935863475 -0.00073186763258818765 0 -0.016311868915759593 -0.000868293521279229 0 -0.0163260085217398 -0.00079414250535884642 0 -0.016235510723217907 -0.00081003493038779573 0 -0.016311868915759593 -0.000868293521279229 0 -0.016368494833553061 -0.0008851671521617492 0 -0.0163260085217398 -0.00079414250535884642 0 -0.016152093851130443 -0.00095995821639757338 0 -0.016141160939344239 -0.00088425654370936349 0 -0.015980083743848621 -0.00095896952530443737 0 -0.016141160939344239 -0.00088425654370936349 0 -0.015980083743848621 -0.00095896952530443737 0 -0.016125405447624849 -0.00076082951262452191 0 -0.016235510723217907 -0.00081003493038779573 0 -0.016141160939344239 -0.00088425654370936349 0 -0.016125405447624849 -0.00076082951262452191 0 -0.01624369582547313 -0.00089926978495167024 0 -0.016235510723217907 -0.00081003493038779573 0 -0.016141160939344239 -0.00088425654370936349 0 -0.016152093851130443 -0.00095995821639757338 0 -0.01624369582547313 -0.00089926978495167024 0 -0.016141160939344239 -0.00088425654370936349 0 -0.018851563048045788 -0.0030038107252415196 0 -0.018844739940302186 -0.0036164757348841796 0 -0.019459888525960863 -0.0029006119283081239 0 -0.0166821180501576 -0.0014378144491631151 0 -0.017811673228429491 -0.0018984551318179403 0 -0.018851563048045788 -0.0030038107252415196 0 -0.018054513439190581 -0.0032622662444428707 0 -0.018844739940302186 -0.0036164757348841796 0 -0.018851563048045788 -0.0030038107252415196 0 -0.018054513439190581 -0.0032622662444428707 0 -0.018405563327790239 -0.0026940265093988885 0 -0.017041232228311821 -0.002260940852930477 0 -0.0166821180501576 -0.0014378144491631151 0 -0.015571491510880851 -0.00096553969169865198 0 -0.015602723078846055 -0.0010388209768659269 0 -0.0157256736065291 -0.0010234582740536271 0 -0.015571491510880851 -0.00096553969169865198 0 -0.015602723078846055 -0.0010388209768659269 0 -0.015490978896021333 -0.0010119865600086676 0 -0.015602723078846055 -0.0010388209768659269 0 -0.01563641057169134 -0.0011306039441285397 0 -0.0157256736065291 -0.0010234582740536271 0 -0.015602723078846055 -0.0010388209768659269 0 -0.01563641057169134 -0.0011306039441285397 0 -0.01551200915288291 -0.0010857266666916075 0 -0.015800118463528745 -0.0009035113707205728 0 -0.015910725066002891 -0.0010956602487559148 0 -0.01576686750009228 -0.0011592139405901386 0 -0.01563641057169134 -0.0011306039441285397 0 -0.015800118463528745 -0.0009035113707205728 0 -0.01576686750009228 -0.0011592139405901386 0 -0.015585661192852212 -0.0011569831329367841 0 -0.0166821180501576 -0.0014378144491631151 0 -0.015910725066002891 -0.0010956602487559148 0 -0.01576686750009228 -0.0011592139405901386 0 -0.015813103493910702 -0.0012825933087406822 0 -0.015910725066002891 -0.0010956602487559148 0 -0.015813103493910702 -0.0012825933087406822 0 -0.0160367007582 -0.0012631541950551594 0 -0.01576686750009228 -0.0011592139405901386 0 -0.015813103493910702 -0.0012825933087406822 0 -0.015643081337007602 -0.0013258790404845787 0 -0.016017912416011058 -0.00090434175462536721 0 -0.013618568530187962 -0.00082627322550390991 0 -0.015813103493910702 -0.0012825933087406822 0 -0.015934751027299372 -0.0014458239021910061 0 -0.0160367007582 -0.0012631541950551594 0 -0.013618568530187962 -0.00082627322550390991 0 -0.016097409176582003 -0.0014348293276983165 0 -0.01563641057169134 -0.0011306039441285397 0 -0.015643081337007602 -0.0013258790404845787 0 -0.01551200915288291 -0.0010857266666916075 0 -0.015538796554068068 -0.0011751694256113216 0 -0.01551200915288291 -0.0010857266666916075 0 -0.015490941802523635 -0.0011578967049202481 0 -0.01563641057169134 -0.0011306039441285397 0 -0.01576686750009228 -0.0011592139405901386 0 -0.015643081337007602 -0.0013258790404845787 0 -0.009612597882020589 7.4107010916943877e-05 0 -0.009433494002478825 -0.00038005360241508634 0 -0.00991293963990739 -0.000463974344301981 0 -0.013618568530187962 -0.00082627322550390991 0 -0.012063004121593602 -0.00066898342351858885 0 -0.009612597882020589 7.4107010916943877e-05 0 -0.0090763606582990718 -8.9060742469990496e-05 0 -0.009433494002478825 -0.00038005360241508634 0 -0.015611379675774997 -0.0013506422767659604 0 -0.015934751027299372 -0.0014458239021910061 0 -0.015874470705863578 -0.0017103516505344067 0 -0.015813103493910702 -0.0012825933087406822 0 -0.015611379675774997 -0.0013506422767659604 0 -0.015934751027299372 -0.0014458239021910061 0 -0.013618568530187962 -0.00082627322550390991 0 -0.012718003532884686 -0.0010013269274510427 0 -0.015934751027299372 -0.0014458239021910061 0 -0.016079700872804983 -0.0016041816907202298 0 -0.015874470705863578 -0.0017103516505344067 0 -0.016159465255434002 -0.0014393223558533243 0 -0.015934751027299372 -0.0014458239021910061 0 -0.016079700872804983 -0.0016041816907202298 0 -0.016159465255434002 -0.0014393223558533243 0 -0.015934751027299372 -0.0014458239021910061 0 -0.0160367007582 -0.0012631541950551594 0 -0.016159465255434002 -0.0014393223558533243 0 -0.0160367007582 -0.0012631541950551594 0 -0.016239121095599558 -0.0012353244392122426 0 -0.01615168903405478 -0.0010551055728126551 0 -0.0160367007582 -0.0012631541950551594 0 -0.016239121095599558 -0.0012353244392122426 0 -0.01615168903405478 -0.0010551055728126551 0 -0.015910725066002891 -0.0010956602487559148 0 -0.0160367007582 -0.0012631541950551594 0 -0.016301854465524283 -0.001071954493396674 0 -0.016239121095599558 -0.0012353244392122426 0 -0.016426447064897324 -0.001214528874955602 0 -0.016159465255434002 -0.0014393223558533243 0 -0.016239121095599558 -0.0012353244392122426 0 -0.016340440614360598 -0.0013888454248470277 0 -0.016239121095599558 -0.0012353244392122426 0 -0.016340440614360598 -0.0013888454248470277 0 -0.016426447064897324 -0.001214528874955602 0 -0.016340440614360598 -0.0013888454248470277 0 -0.016557004927440624 -0.0014442078402730051 0 -0.016292544239081597 -0.0016298378970167719 0 -0.016159465255434002 -0.0014393223558533243 0 -0.016340440614360598 -0.0013888454248470277 0 -0.016292544239081597 -0.0016298378970167719 0 -0.016159465255434002 -0.0014393223558533243 0 -0.016292544239081597 -0.0016298378970167719 0 -0.016079700872804983 -0.0016041816907202298 0 -0.016557004927440624 -0.0014442078402730051 0 -0.016746186516164711 -0.0016029074389992527 0 -0.016554476161919549 -0.0017372420243988065 0 -0.016746186516164711 -0.0016029074389992527 0 -0.016960835796421533 -0.0014343777003671678 0 -0.016914187703605945 -0.0018020185620962179 0 -0.016557004927440624 -0.0014442078402730051 0 -0.016746186516164711 -0.0016029074389992527 0 -0.016960835796421533 -0.0014343777003671678 0 -0.016557004927440624 -0.0014442078402730051 0 -0.016710844543339431 -0.0011500359559601906 0 -0.016960835796421533 -0.0014343777003671678 0 -0.016557004927440624 -0.0014442078402730051 0 -0.016710844543339431 -0.0011500359559601906 0 -0.016426447064897324 -0.001214528874955602 0 -0.016340440614360598 -0.0013888454248470277 0 -0.016557004927440624 -0.0014442078402730051 0 -0.016426447064897324 -0.001214528874955602 0 -0.017507010046871403 -0.0016339776589165615 0 -0.0174214027674096 -0.0013817620945040146 0 -0.017248822902101658 -0.0016985246543498118 0 -0.016960835796421533 -0.0014343777003671678 0 -0.0174214027674096 -0.0013817620945040146 0 -0.017248822902101658 -0.0016985246543498118 0 -0.016710844543339431 -0.0011500359559601906 0 -0.016960835796421533 -0.0014343777003671678 0 -0.017165628839955142 -0.00096331512394625687 0 -0.016960835796421533 -0.0014343777003671678 0 -0.0174214027674096 -0.0013817620945040146 0 -0.017165628839955142 -0.00096331512394625687 0 -0.017771586852948024 -0.001088943213665044 0 -0.0174214027674096 -0.0013817620945040146 0 -0.017165628839955142 -0.00096331512394625687 0 -0.017774760654429584 -0.0010820715230891284 0 -0.017548098442393124 -0.0010051574390180704 0 -0.017771586852948024 -0.001088943213665044 0 -0.017860180386994991 -0.0010742446259484433 0 -0.017952317130065603 -0.001036591773880403 0 -0.017548098442393124 -0.0010051574390180704 0 -0.017460484080554069 -0.00096570146405163036 0 -0.017952317130065603 -0.001036591773880403 0 -0.018026952330453139 -0.0011115425527782532 0 -0.01796131275193533 -0.0011144425161008875 0 -0.017952317130065603 -0.001036591773880403 0 -0.018050220834150425 -0.0010616321881643449 0 -0.018026952330453139 -0.0011115425527782532 0 -0.017860180386994991 -0.0010742446259484433 0 -0.017952317130065603 -0.001036591773880403 0 -0.017901006941273001 -0.0010862929710717696 0 -0.017952317130065603 -0.001036591773880403 0 -0.017901006941273001 -0.0010862929710717696 0 -0.01796131275193533 -0.0011144425161008875 0 -0.016710844543339431 -0.0011500359559601906 0 -0.016426447064897324 -0.001214528874955602 0 -0.016478299241816343 -0.00096783439176810818 0 -0.016710844543339431 -0.0011500359559601906 0 -0.016478299241816343 -0.00096783439176810818 0 -0.016723442355839599 -0.00087913536022818123 0 -0.016710844543339431 -0.0011500359559601906 0 -0.017165628839955142 -0.00096331512394625687 0 -0.016723442355839599 -0.00087913536022818123 0 -0.018050220834150425 -0.0010616321881643449 0 -0.018075171374032264 -0.0011031119444544165 0 -0.018026952330453139 -0.0011115425527782532 0 -0.018113047872315845 -0.0010868491252592433 0 -0.018050220834150425 -0.0010616321881643449 0 -0.018075171374032264 -0.0011031119444544165 0 -0.016320300557229574 -0.00080461816539105404 0 -0.016478299241816343 -0.00096783439176810818 0 -0.016723442355839599 -0.00087913536022818123 0 -0.018113047872315845 -0.0010868491252592433 0 -0.018075171374032264 -0.0011031119444544165 0 -0.018103253699947187 -0.001125406350054789 0 -0.016873676739588377 -0.0010371062930123944 0 -0.017460484080554069 -0.00096570146405163036 0 -0.018070894483378817 -0.0011321410897467815 0 -0.018051903342928017 -0.0011524368774359147 0 -0.018096875709018752 -0.0011689334746029254 0 -0.018103253699947187 -0.001125406350054789 0 -0.018070894483378817 -0.0011321410897467815 0 -0.018096875709018752 -0.0011689334746029254 0 -0.016524543970106789 -0.00067198321663358295 0 -0.016676028341106916 -0.00042530431121518534 0 -0.016409407149944495 -0.00060861786388398907 0 -0.017325386472695839 -0.00090090792532111373 0 -0.019037870808228743 -0.0013744549703344309 0 -0.018075171374032264 -0.0011031119444544165 0 -0.018103253699947187 -0.001125406350054789 0 -0.018070894483378817 -0.0011321410897467815 0 -0.018075171374032264 -0.0011031119444544165 0 -0.018070894483378817 -0.0011321410897467815 0 -0.018026952330453139 -0.0011115425527782532 0 -0.018026952330453139 -0.0011115425527782532 0 -0.018051903342928017 -0.0011524368774359147 0 -0.01801327500880406 -0.0011479581404382727 0 -0.018070894483378817 -0.0011321410897467815 0 -0.018026952330453139 -0.0011115425527782532 0 -0.018051903342928017 -0.0011524368774359147 0 -0.021715363733676874 -0.0017444827975384982 0 -0.020971065483219493 -0.0019150345009449272 0 -0.021298057145746972 -0.0015579524792175229 0 -0.018051903342928017 -0.0011524368774359147 0 -0.018046598264987741 -0.0011900378627783465 0 -0.018096875709018752 -0.0011689334746029254 0 -0.020638929275054979 -0.0015178302751546612 0 -0.019037870808228743 -0.0013744549703344309 0 -0.018051903342928017 -0.0011524368774359147 0 -0.018046598264987741 -0.0011900378627783465 0 -0.01801327500880406 -0.0011479581404382727 0 -0.020638929275054979 -0.0015178302751546612 0 -0.021604892884876915 -0.0017360999496392325 0 -0.020780563745966041 -0.0021850742379111747 0 -0.020663777573425596 -0.0015807352298726242 0 -0.020025217699864453 -0.0023501352364430493 0 -0.017913422980283023 -0.0011167799613223282 0 -0.017901006941273001 -0.0010862929710717696 0 -0.01796131275193533 -0.0011144425161008875 0 -0.020556655425024713 -0.0016985307817423592 0 -0.019980785575583714 -0.0014616112358348541 0 -0.017913422980283023 -0.0011167799613223282 0 -0.01796131275193533 -0.0011144425161008875 0 -0.017976658754226237 -0.0011645296927950955 0 -0.018026952330453139 -0.0011115425527782532 0 -0.01796131275193533 -0.0011144425161008875 0 -0.01801327500880406 -0.0011479581404382727 0 -0.01796131275193533 -0.0011144425161008875 0 -0.01801327500880406 -0.0011479581404382727 0 -0.017976658754226237 -0.0011645296927950955 0 -0.021601777667264389 -0.0015866267988380272 0 -0.022323206905190088 -0.0018924151424580713 0 -0.022388936334756422 -0.0014243707545879541 0 -0.020638929275054979 -0.0015178302751546612 0 -0.019980785575583714 -0.0014616112358348541 0 -0.020638929275054979 -0.0015178302751546612 0 -0.022639116874280336 -0.0014703164166933683 0 -0.018046598264987741 -0.0011900378627783465 0 -0.01801327500880406 -0.0011479581404382727 0 -0.017976658754226237 -0.0011645296927950955 0 -0.022876823435573266 -0.0016919894870333044 0 -0.022971771070064113 -0.0021320867241596954 0 -0.022323206905190088 -0.0018924151424580713 0 -0.023123048993554551 -0.0013349362799834575 0 -0.022876823435573266 -0.0016919894870333044 0 -0.022388936334756422 -0.0014243707545879541 0 -0.022876823435573266 -0.0016919894870333044 0 -0.022323206905190088 -0.0018924151424580713 0 -0.022388936334756422 -0.0014243707545879541 0 -0.023123048993554551 -0.0013349362799834575 0 -0.022475589813916667 -0.0015572131487838383 0 -0.022491057111064559 -0.001150797105207009 0 -0.022980360394281574 -0.0013637851245633494 0 -0.022639116874280336 -0.0014703164166933683 0 -0.023123048993554551 -0.0013349362799834575 0 -0.022491057111064559 -0.001150797105207009 0 -0.022736431443107996 -0.00080279466175962595 0 -0.021750703870650239 -0.0017540739856435226 0 -0.022475589813916667 -0.0015572131487838383 0 -0.022106244527464371 -0.0013733025387169964 0 -0.022491057111064559 -0.001150797105207009 0 -0.022106244527464371 -0.0013733025387169964 0 -0.022074019770584201 -0.0010387888956734531 0 -0.022475589813916667 -0.0015572131487838383 0 -0.022491057111064559 -0.001150797105207009 0 -0.022106244527464371 -0.0013733025387169964 0 -0.021750703870650239 -0.0017540739856435226 0 -0.022106244527464371 -0.0013733025387169964 0 -0.021730366119648341 -0.0013788482752496156 0 -0.022106244527464371 -0.0013733025387169964 0 -0.022074019770584201 -0.0010387888956734531 0 -0.021730366119648341 -0.0013788482752496156 0 -0.022074019770584201 -0.0010387888956734531 0 -0.022352574519314911 -0.00041133364071490518 0 -0.021764303016765418 -0.00038080048074064286 0 -0.022491057111064559 -0.001150797105207009 0 -0.022074019770584201 -0.0010387888956734531 0 -0.022736431443107996 -0.00080279466175962595 0 -0.022074019770584201 -0.0010387888956734531 0 -0.022736431443107996 -0.00080279466175962595 0 -0.022352574519314911 -0.00041133364071490518 0 -0.019037870808228743 -0.0013744549703344309 0 -0.021549714094477809 -0.001244458364517702 0 -0.020780563745966041 -0.0021850742379111747 0 -0.020663777573425596 -0.0015807352298726242 0 -0.021264816070060592 -0.0012679010999685999 0 -0.020971065483219493 -0.0019150345009449272 0 -0.021298057145746972 -0.0015579524792175229 0 -0.021389591847035861 -0.0011323973813213649 0 -0.020663777573425596 -0.0015807352298726242 0 -0.021264816070060592 -0.0012679010999685999 0 -0.020733209666906553 -0.00098610830112860759 0 -0.020663777573425596 -0.0015807352298726242 0 -0.020733209666906553 -0.00098610830112860759 0 -0.02030275614989635 -0.0012368734351636951 0 -0.021298057145746972 -0.0015579524792175229 0 -0.021730366119648341 -0.0013788482752496156 0 -0.021389591847035861 -0.0011323973813213649 0 -0.022074019770584201 -0.0010387888956734531 0 -0.021730366119648341 -0.0013788482752496156 0 -0.021389591847035861 -0.0011323973813213649 0 -0.021750703870650239 -0.0017540739856435226 0 -0.021298057145746972 -0.0015579524792175229 0 -0.021730366119648341 -0.0013788482752496156 0 -0.022074019770584201 -0.0010387888956734531 0 -0.021389591847035861 -0.0011323973813213649 0 -0.021764303016765418 -0.00038080048074064286 0 -0.021264816070060592 -0.0012679010999685999 0 -0.021077752133995258 -0.00059934654894614543 0 -0.021764303016765418 -0.00038080048074064286 0 -0.021549714094477809 -0.001244458364517702 0 -0.02168447128464604 -0.00042102191530055051 0 -0.021077752133995258 -0.00059934654894614543 0 -0.020733209666906553 -0.00098610830112860759 0 -0.020616614802180064 -0.00035438007429963627 0 -0.020733209666906553 -0.00098610830112860759 0 -0.020240841527674462 -0.00069244994101109081 0 -0.020616614802180064 -0.00035438007429963627 0 -0.021264816070060592 -0.0012679010999685999 0 -0.021077752133995258 -0.00059934654894614543 0 -0.020733209666906553 -0.00098610830112860759 0 -0.020240841527674462 -0.00069244994101109081 0 -0.019627437158824073 -0.00098948680166677325 0 -0.02030275614989635 -0.0012368734351636951 0 -0.020733209666906553 -0.00098610830112860759 0 -0.020240841527674462 -0.00069244994101109081 0 -0.02030275614989635 -0.0012368734351636951 0 -0.019627437158824073 -0.00098948680166677325 0 -0.019377234007880002 -0.0017349373745323125 0 -0.019955194724582608 -0.0015814189402817028 0 -0.020663777573425596 -0.0015807352298726242 0 -0.02030275614989635 -0.0012368734351636951 0 -0.019955194724582608 -0.0015814189402817028 0 -0.019627437158824073 -0.00098948680166677325 0 -0.02030275614989635 -0.0012368734351636951 0 -0.019955194724582608 -0.0015814189402817028 0 -0.020663777573425596 -0.0015807352298726242 0 -0.019955194724582608 -0.0015814189402817028 0 -0.020055141500509365 -0.0018962338689029151 0 -0.016676028341106916 -0.00042530431121518534 0 -0.016358587132660165 -0.00049392743009634614 0 -0.016409407149944495 -0.00060861786388398907 0 -0.020663777573425596 -0.0015807352298726242 0 -0.020056636005986585 -0.0022717078059960763 0 -0.020055141500509365 -0.0018962338689029151 0 -0.020914571979133212 -0.0016305735063559764 0 -0.018783272601368077 -0.0018670134433822359 0 -0.019037870808228743 -0.0013744549703344309 0 -0.018783272601368077 -0.0018670134433822359 0 -0.01987927980714712 -0.0020961611477525129 0 -0.020056636005986585 -0.0022717078059960763 0 -0.019688638562512066 -0.0022825899133693257 0 -0.01987927980714712 -0.0020961611477525129 0 -0.020056636005986585 -0.0022717078059960763 0 -0.020055141500509365 -0.0018962338689029151 0 -0.019955194724582608 -0.0015814189402817028 0 -0.020055141500509365 -0.0018962338689029151 0 -0.019722147946440255 -0.001972073914539357 0 -0.01987927980714712 -0.0020961611477525129 0 -0.020055141500509365 -0.0018962338689029151 0 -0.019722147946440255 -0.001972073914539357 0 -0.019377234007880002 -0.0017349373745323125 0 -0.019955194724582608 -0.0015814189402817028 0 -0.019722147946440255 -0.001972073914539357 0 -0.019377234007880002 -0.0017349373745323125 0 -0.019722147946440255 -0.001972073914539357 0 -0.019322400558843877 -0.0022010071017312138 0 -0.01987927980714712 -0.0020961611477525129 0 -0.019722147946440255 -0.001972073914539357 0 -0.019688638562512066 -0.0022825899133693257 0 -0.019722147946440255 -0.001972073914539357 0 -0.019322400558843877 -0.0022010071017312138 0 -0.019688638562512066 -0.0022825899133693257 0 -0.016358587132660165 -0.00049392743009634614 0 -0.016125405447624849 -0.00076082951262452191 0 -0.016309250158633083 -0.00069435470331948349 0 -0.018783272601368077 -0.0018670134433822359 0 -0.017811673228429491 -0.0018984551318179403 0 -0.020056636005986585 -0.0022717078059960763 0 -0.019688638562512066 -0.0022825899133693257 0 -0.019459888525960863 -0.0029006119283081239 0 -0.019322400558843877 -0.0022010071017312138 0 -0.019688638562512066 -0.0022825899133693257 0 -0.019459888525960863 -0.0029006119283081239 0 -0.016235510723217907 -0.00081003493038779573 0 -0.016125405447624849 -0.00076082951262452191 0 -0.016309250158633083 -0.00069435470331948349 0 -0.016309250158633083 -0.00069435470331948349 0 -0.01638726935863475 -0.00073186763258818765 0 -0.016409407149944495 -0.00060861786388398907 0 -0.0163260085217398 -0.00079414250535884642 0 -0.016309250158633083 -0.00069435470331948349 0 -0.01638726935863475 -0.00073186763258818765 0 -0.016524543970106789 -0.00067198321663358295 0 -0.01638726935863475 -0.00073186763258818765 0 -0.016409407149944495 -0.00060861786388398907 0 -0.016358587132660165 -0.00049392743009634614 0 -0.016309250158633083 -0.00069435470331948349 0 -0.016409407149944495 -0.00060861786388398907 0 -0.018054513439190581 -0.0032622662444428707 0 -0.018405563327790239 -0.0026940265093988885 0 -0.017908947134293713 -0.002514324467053746 0 -0.018405563327790239 -0.0026940265093988885 0 -0.018851290885879491 -0.0023920120101386133 0 -0.018229449115142449 -0.0020231645912957455 0 -0.018405563327790239 -0.0026940265093988885 0 -0.018229449115142449 -0.0020231645912957455 0 -0.017908947134293713 -0.002514324467053746 0 -0.019322400558843877 -0.0022010071017312138 0 -0.019459888525960863 -0.0029006119283081239 0 -0.018851290885879491 -0.0023920120101386133 0 -0.018851563048045788 -0.0030038107252415196 0 -0.018405563327790239 -0.0026940265093988885 0 -0.018851290885879491 -0.0023920120101386133 0 -0.018851563048045788 -0.0030038107252415196 0 -0.019459888525960863 -0.0029006119283081239 0 -0.018851290885879491 -0.0023920120101386133 0 -0.018851290885879491 -0.0023920120101386133 0 -0.018809127403101027 -0.0019140356776980922 0 -0.01834933538840236 -0.0021090456797285989 0 -0.019322400558843877 -0.0022010071017312138 0 -0.018851290885879491 -0.0023920120101386133 0 -0.018809127403101027 -0.0019140356776980922 0 -0.019377234007880002 -0.0017349373745323125 0 -0.019322400558843877 -0.0022010071017312138 0 -0.018809127403101027 -0.0019140356776980922 0 -0.018229449115142449 -0.0020231645912957455 0 -0.017908947134293713 -0.002514324467053746 0 -0.017616375854493233 -0.001680653756728606 0 -0.018809127403101027 -0.0019140356776980922 0 -0.01834933538840236 -0.0021090456797285989 0 -0.018329762675572625 -0.0016570864752477768 0 -0.0187514399277556 -0.0023314842730922467 0 -0.018382922254649121 -0.0021195809461413313 0 -0.01834933538840236 -0.0021090456797285989 0 -0.018329762675572625 -0.0016570864752477768 0 -0.017817959613935844 -0.0018169735927530256 0 -0.018382922254649121 -0.0021195809461413313 0 -0.017223612535482345 -0.0014378209224756449 0 -0.018329762675572625 -0.0016570864752477768 0 -0.018771382608812819 -0.0013303801305386909 0 -0.018040258551220809 -0.0011187511857220203 0 -0.018809127403101027 -0.0019140356776980922 0 -0.018329762675572625 -0.0016570864752477768 0 -0.018771382608812819 -0.0013303801305386909 0 -0.019377234007880002 -0.0017349373745323125 0 -0.018809127403101027 -0.0019140356776980922 0 -0.018771382608812819 -0.0013303801305386909 0 -0.019627437158824073 -0.00098948680166677325 0 -0.019377234007880002 -0.0017349373745323125 0 -0.018771382608812819 -0.0013303801305386909 0 -0.019627437158824073 -0.00098948680166677325 0 -0.018771382608812819 -0.0013303801305386909 0 -0.018927071184361793 -0.00057271007505028428 0 -0.018771382608812819 -0.0013303801305386909 0 -0.018927071184361793 -0.00057271007505028428 0 -0.018500001606054018 -0.00085840026580437639 0 -0.018500001606054018 -0.00085840026580437639 0 -0.018262845178738111 -0.00040777516286357709 0 -0.018040258551220809 -0.0011187511857220203 0 -0.018771382608812819 -0.0013303801305386909 0 -0.018500001606054018 -0.00085840026580437639 0 -0.018040258551220809 -0.0011187511857220203 0 -0.018241604473320402 -0.00046067552482083833 0 -0.018050314948471872 -0.0011382684618462095 0 -0.018927071184361793 -0.00057271007505028428 0 -0.018500001606054018 -0.00085840026580437639 0 -0.018262845178738111 -0.00040777516286357709 0 -0.018927071184361793 -0.00057271007505028428 0 -0.018262845178738111 -0.00040777516286357709 0 -0.018649344417103725 0.00015284430157363644 0 -0.018262845178738111 -0.00040777516286357709 0 -0.018649344417103725 0.00015284430157363644 0 -0.018027569072673322 0.00026046423725279376 0 -0.018649344417103725 0.00015284430157363644 0 -0.01832715429964548 0.00049587356957709456 0 -0.018027569072673322 0.00026046423725279376 0 -0.018649344417103725 0.00015284430157363644 0 -0.01832715429964548 0.00049587356957709456 0 -0.018652081172473894 0.00062590851775432845 0 -0.018649344417103725 0.00015284430157363644 0 -0.019167343990661875 0.00059026708189266973 0 -0.019249487508090503 -9.9465237525017406e-05 0 -0.018649344417103725 0.00015284430157363644 0 -0.019167343990661875 0.00059026708189266973 0 -0.018652081172473894 0.00062590851775432845 0 -0.019627437158824073 -0.00098948680166677325 0 -0.018927071184361793 -0.00057271007505028428 0 -0.019249487508090503 -9.9465237525017406e-05 0 -0.018927071184361793 -0.00057271007505028428 0 -0.018649344417103725 0.00015284430157363644 0 -0.019249487508090503 -9.9465237525017406e-05 0 -0.019627437158824073 -0.00098948680166677325 0 -0.019249487508090503 -9.9465237525017406e-05 0 -0.019852345981083656 8.201014906499564e-05 0 -0.019654945122017528 -0.00097604035940414009 0 -0.019828700053842473 0.00016073000141274724 0 -0.020240841527674462 -0.00069244994101109081 0 -0.019927812908995843 9.8324866192717097e-05 0 -0.020616614802180064 -0.00035438007429963627 0 -0.019927812908995843 9.8324866192717097e-05 0 -0.020616614802180064 -0.00035438007429963627 0 -0.020627917670370057 0.00021086513959641111 0 -0.020240841527674462 -0.00069244994101109081 0 -0.019627437158824073 -0.00098948680166677325 0 -0.019927812908995843 9.8324866192717097e-05 0 -0.019828700053842473 0.00016073000141274724 0 -0.020598196517560289 0.00076199048668452866 0 -0.019927812908995843 9.8324866192717097e-05 0 -0.020572078879423247 0.00080960097772183638 0 -0.020627917670370057 0.00021086513959641111 0 -0.019167343990661875 0.00059026708189266973 0 -0.019249487508090503 -9.9465237525017406e-05 0 -0.019852345981083656 8.201014906499564e-05 0 -0.019167343990661875 0.00059026708189266973 0 -0.019852345981083656 8.201014906499564e-05 0 -0.020090263037410374 0.0011355929739874382 0 -0.019359253490938654 0.0010399338721674665 0 -0.020033121433614642 0.0010978699205542806 0 -0.019744716674288586 0.001262483523514284 0 -0.019167343990661875 0.00059026708189266973 0 -0.019359253490938654 0.0010399338721674665 0 -0.020033121433614642 0.0010978699205542806 0 -0.019024642032222514 0.00068332056794355857 0 -0.020598196517560289 0.00076199048668452866 0 -0.019927812908995843 9.8324866192717097e-05 0 -0.020572078879423247 0.00080960097772183638 0 -0.020434619110237893 0.0010427102555380444 0 -0.019927812908995843 9.8324866192717097e-05 0 -0.020202597376150447 0.0011821107621446066 0 -0.020434619110237893 0.0010427102555380444 0 -0.020572078879423247 0.00080960097772183638 0 -0.020434619110237893 0.0010427102555380444 0 -0.020424996496372538 0.0013135975989063704 0 -0.020202597376150447 0.0011821107621446066 0 -0.020434619110237893 0.0010427102555380444 0 -0.020424996496372538 0.0013135975989063704 0 -0.021108649622754508 0.00061219384267205087 0 -0.022391735160932985 0.00085746653674448998 0 -0.024189978998929197 -0.00047169712128745895 0 -0.024290573030427316 -0.00037829274084954714 0 -0.024263817603225837 -0.00025619989210077707 0 -0.020221254972846138 0.0011959979364917653 0 -0.020389758896906408 0.0020095166961708309 0 -0.019928724659604487 0.0016972968123519221 0 -0.024242310374245107 -0.00050112030095361487 0 -0.024189978998929197 -0.00047169712128745895 0 -0.024290573030427316 -0.00037829274084954714 0 -0.022403431466976112 0.00023857427203158221 0 -0.021108649622754508 0.00061219384267205087 0 -0.02119176536269193 0.00052350627957784739 0 -0.02120698465854064 0.00052976055419955181 0 -0.021195752766986604 0.00053533699463335872 0 -0.020598196517560289 0.00076199048668452866 0 -0.022403431466976112 0.00023857427203158221 0 -0.020033121433614642 0.0010978699205542806 0 -0.020072649180556169 0.0012980141847944539 0 -0.019744716674288586 0.001262483523514284 0 -0.020598196517560289 0.00076199048668452866 0 -0.021108649622754508 0.00061219384267205087 0 -0.020221254972846138 0.0011959979364917653 0 -0.019351744729364323 0.0016957265839903253 0 -0.019928724659604487 0.0016972968123519221 0 -0.020072649180556169 0.0012980141847944539 0 -0.019744716674288586 0.001262483523514284 0 -0.019351744729364323 0.0016957265839903253 0 -0.021108649622754508 0.00061219384267205087 0 -0.018994872299357857 0.0019103964132785294 0 -0.019359253490938654 0.0010399338721674665 0 -0.019498199633213177 0.0013141911248200034 0 -0.019268756788261728 0.0013489393992256902 0 -0.019359253490938654 0.0010399338721674665 0 -0.019498199633213177 0.0013141911248200034 0 -0.019744716674288586 0.001262483523514284 0 -0.019498199633213177 0.0013141911248200034 0 -0.019268756788261728 0.0013489393992256902 0 -0.019351744729364323 0.0016957265839903253 0 -0.019498199633213177 0.0013141911248200034 0 -0.019744716674288586 0.001262483523514284 0 -0.019351744729364323 0.0016957265839903253 0 -0.018544283524987801 0.0013084334983893321 0 -0.018867121112045134 0.0020439242515482773 0 -0.019164507751694104 0.001938519742413099 0 -0.018889441033611822 0.0013954065839731624 0 -0.018471163612113848 0.0012229898717540436 0 -0.019059140640344679 0.0018353757889904173 0 -0.018495551056963992 0.0012555906644981581 0 -0.01911165455353829 0.0018893618829857917 0 -0.019125501596983431 0.0015128088586383764 0 -0.019059140640344679 0.0018353757889904173 0 -0.019351744729364323 0.0016957265839903253 0 -0.019125501596983431 0.0015128088586383764 0 -0.018889441033611822 0.0013954065839731624 0 -0.019059140640344679 0.0018353757889904173 0 -0.019125501596983431 0.0015128088586383764 0 -0.019268756788261728 0.0013489393992256902 0 -0.019351744729364323 0.0016957265839903253 0 -0.019359253490938654 0.0010399338721674665 0 -0.019268756788261728 0.0013489393992256902 0 -0.019036674448167736 0.0012487784994693225 0 -0.019125501596983431 0.0015128088586383764 0 -0.019268756788261728 0.0013489393992256902 0 -0.019036674448167736 0.0012487784994693225 0 -0.019125501596983431 0.0015128088586383764 0 -0.019036674448167736 0.0012487784994693225 0 -0.018889441033611822 0.0013954065839731624 0 -0.019036674448167736 0.0012487784994693225 0 -0.018889441033611822 0.0013954065839731624 0 -0.018754548701991003 0.001157947417640284 0 -0.018341538776348386 0.0014669984334382093 0 -0.018549255747123485 0.0020571134031812364 0 -0.018309221302865667 0.0014080993469875252 0 -0.018544283524987801 0.0013084334983893321 0 -0.018570009906539568 0.0019836476148829794 0 -0.018309221302865667 0.0014080993469875252 0 -0.018536426004023047 0.0021174391489772564 0 -0.018140359322819294 0.001847553675986404 0 -0.018544283524987801 0.0013084334983893321 0 -0.018570009906539568 0.0019836476148829794 0 -0.018867121112045134 0.0020439242515482773 0 -0.018309221302865667 0.0014080993469875252 0 -0.018544283524987801 0.0013084334983893321 0 -0.017924610231347636 0.0011511523127162296 0 -0.018889441033611822 0.0013954065839731624 0 -0.018471163612113848 0.0012229898717540436 0 -0.018754548701991003 0.001157947417640284 0 -0.01832715429964548 0.00049587356957709456 0 -0.018465600454096856 0.00084560853439571418 0 -0.017837236145008494 0.00058835780110045883 0 -0.018471163612113848 0.0012229898717540436 0 -0.018465600454096856 0.00084560853439571418 0 -0.017837236145008494 0.00058835780110045883 0 -0.018495551056963992 0.0012555906644981581 0 -0.01789001929477977 0.0006276254527291977 0 -0.018471163612113848 0.0012229898717540436 0 -0.018465600454096856 0.00084560853439571418 0 -0.018754548701991003 0.001157947417640284 0 -0.018652081172473894 0.00062590851775432845 0 -0.018465600454096856 0.00084560853439571418 0 -0.018908956680319118 0.00093260633019120011 0 -0.01832715429964548 0.00049587356957709456 0 -0.018652081172473894 0.00062590851775432845 0 -0.018465600454096856 0.00084560853439571418 0 -0.019167343990661875 0.00059026708189266973 0 -0.018652081172473894 0.00062590851775432845 0 -0.018908956680319118 0.00093260633019120011 0 -0.019167343990661875 0.00059026708189266973 0 -0.019359253490938654 0.0010399338721674665 0 -0.018908956680319118 0.00093260633019120011 0 -0.019359253490938654 0.0010399338721674665 0 -0.019036674448167736 0.0012487784994693225 0 -0.018908956680319118 0.00093260633019120011 0 -0.018465600454096856 0.00084560853439571418 0 -0.018908956680319118 0.00093260633019120011 0 -0.018754548701991003 0.001157947417640284 0 -0.019036674448167736 0.0012487784994693225 0 -0.018908956680319118 0.00093260633019120011 0 -0.018754548701991003 0.001157947417640284 0 -0.022675089174459664 -1.1815279945503219e-06 0 -0.022547609260413281 0.00027019388710784249 0 -0.022861330723832986 0.00046013337413274707 0 -0.023150220240770725 5.5424888724949945e-05 0 -0.022675089174459664 -1.1815279945503219e-06 0 -0.022861330723832986 0.00046013337413274707 0 -0.023150220240770725 5.5424888724949945e-05 0 -0.022675089174459664 -1.1815279945503219e-06 0 -0.022839186237665326 -0.00037366806851869925 0 -0.022736431443107996 -0.00080279466175962595 0 -0.022839186237665326 -0.00037366806851869925 0 -0.022352574519314911 -0.00041133364071490518 0 -0.022675089174459664 -1.1815279945503219e-06 0 -0.022839186237665326 -0.00037366806851869925 0 -0.022352574519314911 -0.00041133364071490518 0 -0.022352574519314911 -0.00041133364071490518 0 -0.022061355332708532 0.00039498429887286095 0 -0.021764303016765418 -0.00038080048074064286 0 -0.022675089174459664 -1.1815279945503219e-06 0 -0.022547609260413281 0.00027019388710784249 0 -0.022393111158166942 0.00020001653795079891 0 -0.022675089174459664 -1.1815279945503219e-06 0 -0.022352574519314911 -0.00041133364071490518 0 -0.022061355332708532 0.00039498429887286095 0 -0.022669550814262879 1.8603898671311196e-05 0 -0.022119086647310823 0.00034548805012948685 0 -0.022547609260413281 0.00027019388710784249 0 -0.022393111158166942 0.00020001653795079891 0 -0.022266738978124919 0.00041364330604573573 0 -0.022061355332708532 0.00039498429887286095 0 -0.021519016756133439 0.00017992145102805311 0 -0.021764303016765418 -0.00038080048074064286 0 -0.022119086647310823 0.00034548805012948685 0 -0.022367152722235755 0.00031611791091982789 0 -0.022061355332708532 0.00039498429887286095 0 -0.021519016756133439 0.00017992145102805311 0 -0.021435110337447952 0.00076493723069935267 0 -0.021107504962009541 0.0003185872594965891 0 -0.022367152722235755 0.00031611791091982789 0 -0.021519016756133439 0.00017992145102805311 0 -0.021010261240888981 0.0005065827459322861 0 -0.021435110337447952 0.00076493723069935267 0 -0.021519016756133439 0.00017992145102805311 0 -0.021100389663129805 -7.2150720703887877e-05 0 -0.021010261240888981 0.0005065827459322861 0 -0.021077752133995258 -0.00059934654894614543 0 -0.021764303016765418 -0.00038080048074064286 0 -0.021100389663129805 -7.2150720703887877e-05 0 -0.021519016756133439 0.00017992145102805311 0 -0.021764303016765418 -0.00038080048074064286 0 -0.021100389663129805 -7.2150720703887877e-05 0 -0.021077752133995258 -0.00059934654894614543 0 -0.021100389663129805 -7.2150720703887877e-05 0 -0.020616614802180064 -0.00035438007429963627 0 -0.021100389663129805 -7.2150720703887877e-05 0 -0.020616614802180064 -0.00035438007429963627 0 -0.020627917670370057 0.00021086513959641111 0 -0.021100389663129805 -7.2150720703887877e-05 0 -0.020627917670370057 0.00021086513959641111 0 -0.021010261240888981 0.0005065827459322861 0 -0.020572078879423247 0.00080960097772183638 0 -0.020627917670370057 0.00021086513959641111 0 -0.021010261240888981 0.0005065827459322861 0 -0.022403431466976112 0.00023857427203158221 0 -0.022367152722235755 0.00031611791091982789 0 -0.020572078879423247 0.00080960097772183638 0 -0.021010261240888981 0.0005065827459322861 0 -0.021428255961460571 0.00076745502937004318 0 -0.020572078879423247 0.00080960097772183638 0 -0.020424996496372538 0.0013135975989063704 0 -0.021428255961460571 0.00076745502937004318 0 -0.023535709858263521 -0.00052972412974093747 0 -0.023879820453360089 -0.0005311252029097538 0 -0.024050158894467672 -0.00080925195809821468 0 -0.022403431466976112 0.00023857427203158221 0 -0.024576003726430221 -0.00036717798118510468 0 -0.023535709858263521 -0.00052972412974093747 0 -0.023879820453360089 -0.0005311252029097538 0 -0.024058534799391268 -0.00025588708292835786 0 -0.024242310374245107 -0.00050112030095361487 0 -0.024290573030427316 -0.00037829274084954714 0 -0.024541895378157614 -0.00034363293766802143 0 -0.024150109357860834 -0.00049898086853425558 0 -0.024400357771875335 -0.00034022530579032578 0 -0.024058534799391268 -0.00025588708292835786 0 -0.023879820453360089 -0.0005311252029097538 0 -0.024150109357860834 -0.00049898086853425558 0 -0.024058534799391268 -0.00025588708292835786 0 -0.024150109357860834 -0.00049898086853425558 0 -0.024050158894467672 -0.00080925195809821468 0 -0.024430826670077187 -0.00056307502890869511 0 -0.023879820453360089 -0.0005311252029097538 0 -0.024150109357860834 -0.00049898086853425558 0 -0.024050158894467672 -0.00080925195809821468 0 -0.022393111158166942 0.00020001653795079891 0 -0.022040850280278988 0.00035180733530609023 0 -0.022266738978124919 0.00041364330604573573 0 -0.022040850280278988 0.00035180733530609023 0 -0.022266738978124919 0.00041364330604573573 0 -0.022528917313968271 0.00064409010136407311 0 -0.022547609260413281 0.00027019388710784249 0 -0.022266738978124919 0.00041364330604573573 0 -0.022861330723832986 0.00046013337413274707 0 -0.022367152722235755 0.00031611791091982789 0 -0.02356757062593829 1.0205582117498146e-05 0 -0.022327089124887387 0.00040875444571356843 0 -0.022889460101568639 0.00042195433568100436 0 -0.022266738978124919 0.00041364330604573573 0 -0.022528917313968271 0.00064409010136407311 0 -0.023028206716686556 0.00034411765248996284 0 -0.024150109357860834 -0.00049898086853425558 0 -0.024400357771875335 -0.00034022530579032578 0 -0.024430826670077187 -0.00056307502890869511 0 -0.02356757062593829 1.0205582117498146e-05 0 -0.023883248269134152 0.00030020262287185496 0 -0.022528917313968271 0.00064409010136407311 0 -0.023058911844738062 0.00094446607966616541 0 -0.023028206716686556 0.00034411765248996284 0 -0.024400357771875335 -0.00034022530579032578 0 -0.024430826670077187 -0.00056307502890869511 0 -0.024755478679894506 -0.00033264265564639239 0 -0.02491839018512924 -1.5673717359585234e-05 0 -0.024796959927118337 -0.00017927768414990213 0 -0.024814171297470454 -3.7419905544555426e-05 0 -0.02491839018512924 -1.5673717359585234e-05 0 -0.024805160894903786 -0.00012775149964913183 0 -0.024549257404705666 -5.9657194024856235e-05 0 -0.024919347276995643 -1.766097352010578e-05 0 -0.024609757936561585 -0.00012491308236418626 0 -0.024805160894903786 -0.00012775149964913183 0 -0.024755478679894506 -0.00033264265564639239 0 -0.024549257404705666 -5.9657194024856235e-05 0 -0.024400357771875335 -0.00034022530579032578 0 -0.024755478679894506 -0.00033264265564639239 0 -0.024549257404705666 -5.9657194024856235e-05 0 -0.024609757936561585 -0.00012491308236418626 0 -0.024576003726430221 -0.00036717798118510468 0 -0.024400357771875335 -0.00034022530579032578 0 -0.024549257404705666 -5.9657194024856235e-05 0 -0.024058534799391268 -0.00025588708292835786 0 -0.024796959927118337 -0.00017927768414990213 0 -0.024639607654890587 -9.4038309938331154e-05 0 -0.024541895378157614 -0.00034363293766802143 0 -0.024796959927118337 -0.00017927768414990213 0 -0.024639607654890587 -9.4038309938331154e-05 0 -0.024814171297470454 -3.7419905544555426e-05 0 -0.024639607654890587 -9.4038309938331154e-05 0 -0.024465674381526716 -0.00016012887611602082 0 -0.024496230723745949 -1.3584104016734105e-05 0 -0.024639607654890587 -9.4038309938331154e-05 0 -0.024541895378157614 -0.00034363293766802143 0 -0.024465674381526716 -0.00016012887611602082 0 -0.024541895378157614 -0.00034363293766802143 0 -0.024465674381526716 -0.00016012887611602082 0 -0.024263817603225837 -0.00025619989210077707 0 -0.024290573030427316 -0.00037829274084954714 0 -0.024541895378157614 -0.00034363293766802143 0 -0.024263817603225837 -0.00025619989210077707 0 -0.024333965764248879 -6.0226490371471587e-05 0 -0.024465674381526716 -0.00016012887611602082 0 -0.024263817603225837 -0.00025619989210077707 0 -0.024333965764248879 -6.0226490371471587e-05 0 -0.024465674381526716 -0.00016012887611602082 0 -0.024496230723745949 -1.3584104016734105e-05 0 -0.022437077701187087 0.0013528560969997044 0 -0.022644010899331293 0.0018105448534219506 0 -0.024333965764248879 -6.0226490371471587e-05 0 -0.024496230723745949 -1.3584104016734105e-05 0 -0.024388775005482064 0.00013051582666257039 0 -0.024496230723745949 -1.3584104016734105e-05 0 -0.024388775005482064 0.00013051582666257039 0 -0.024518086550258687 8.0127930221965984e-05 0 -0.024455824793122492 0.00058272110162034226 0 -0.023997048275929619 0.00054038297184821036 0 -0.024388775005482064 0.00013051582666257039 0 -0.024580266652500821 0.00015023099550215456 0 -0.024518086550258687 8.0127930221965984e-05 0 -0.023587742233564538 0.00089897562922341696 0 -0.023896220388488761 0.0011110105661484744 0 -0.022958109152498324 0.0010297214659729015 0 -0.02499867195821422 1.343029407860031e-06 0 -0.024999993956861456 3.7066768980277195e-09 0 -0.024999993438734488 2.6754007998168361e-09 0 -0.023587742233564538 0.00089897562922341696 0 -0.023896220388488761 0.0011110105661484744 0 -0.024218602904260974 0.0010360551958899654 0 -0.022644010899331293 0.0018105448534219506 0 -0.024571793804680091 0.00061284645137686861 0 -0.024580266652500821 0.00015023099550215456 0 -0.024607744551361468 3.657819288238758e-05 0 -0.024518086550258687 8.0127930221965984e-05 0 -0.024455824793122492 0.00058272110162034226 0 -0.024868570801942123 0.0003346601344284332 0 -0.02499867195821422 1.343029407860031e-06 0 -0.024999993956861456 3.7066768980277195e-09 0 -0.024999783015527466 4.6753407836754621e-07 0 -0.023896220388488761 0.0011110105661484744 0 -0.024218602904260974 0.0010360551958899654 0 -0.024851534020445046 0.0011704387058284903 0 -0.024580266652500821 0.00015023099550215456 0 -0.024607744551361468 3.657819288238758e-05 0 -0.02469605411206963 7.6025450510612801e-05 0 -0.024496230723745949 -1.3584104016734105e-05 0 -0.024607744551361468 3.657819288238758e-05 0 -0.024518086550258687 8.0127930221965984e-05 0 -0.024639607654890587 -9.4038309938331154e-05 0 -0.024607744551361468 3.657819288238758e-05 0 -0.024714150038169548 6.5909708608039002e-06 0 -0.024639607654890587 -9.4038309938331154e-05 0 -0.024496230723745949 -1.3584104016734105e-05 0 -0.024607744551361468 3.657819288238758e-05 0 -0.024639607654890587 -9.4038309938331154e-05 0 -0.024714150038169548 6.5909708608039002e-06 0 -0.024814171297470454 -3.7419905544555426e-05 0 -0.024780923096019637 3.7072108860707368e-05 0 -0.024714150038169548 6.5909708608039002e-06 0 -0.024814171297470454 -3.7419905544555426e-05 0 -0.024780923096019637 3.7072108860707368e-05 0 -0.024714150038169548 6.5909708608039002e-06 0 -0.02469605411206963 7.6025450510612801e-05 0 -0.024607744551361468 3.657819288238758e-05 0 -0.024714150038169548 6.5909708608039002e-06 0 -0.02469605411206963 7.6025450510612801e-05 0 -0.024580266652500821 0.00015023099550215456 0 -0.02469605411206963 7.6025450510612801e-05 0 -0.024766848151443917 0.00013580080161146633 0 -0.024571793804680091 0.00061284645137686861 0 -0.024868570801942123 0.0003346601344284332 0 -0.024999993956861456 3.7066768980277195e-09 0 -0.024999783015527466 4.6753407836754621e-07 0 -0.025000000776891344 4.2701660510870158e-10 0 -0.024868570801942123 0.0003346601344284332 0 -0.024999990055347174 1.1929633916364422e-07 0 -0.024780923096019637 3.7072108860707368e-05 0 -0.02469605411206963 7.6025450510612801e-05 0 -0.024766848151443917 0.00013580080161146633 0 -0.025000002111923256 -5.2830325240221758e-09 0 -0.024999727261626456 7.6108541567931506e-07 0 -0.024999996003301109 7.6404159308464943e-09 0 -0.024983685365411842 -5.6671340523175331e-05 0 -0.024868570801942123 0.0003346601344284332 0 -0.024999779851082239 2.5438870429827164e-07 0 -0.024766848151443917 0.00013580080161146633 0 -0.024899139560325436 9.3968426514807456e-06 0 -0.024780923096019637 3.7072108860707368e-05 0 -0.024766848151443917 0.00013580080161146633 0 -0.024899139560325436 9.3968426514807456e-06 0 -0.02491839018512924 -1.5673717359585234e-05 0 -0.024899139560325436 9.3968426514807456e-06 0 -0.024814171297470454 -3.7419905544555426e-05 0 -0.024780923096019637 3.7072108860707368e-05 0 -0.024899139560325436 9.3968426514807456e-06 0 -0.024814171297470454 -3.7419905544555426e-05 0 -0.019088058723880166 0.0026496440877029695 0 -0.018827215789236441 0.0025437793215476426 0 -0.018993904588128017 0.0030629123545952257 0 -0.019528564995559411 0.0023123630410397684 0 -0.021020063563676493 0.0010103191613472066 0 -0.019133074359149516 0.0023488789830865657 0 -0.019088058723880166 0.0026496440877029695 0 -0.019733821460235404 0.0025517304097902762 0 -0.019079291791797494 0.0023928329266403306 0 -0.019528564995559411 0.0023123630410397684 0 -0.019133074359149516 0.0023488789830865657 0 -0.019088058723880166 0.0026496440877029695 0 -0.018793507901873438 0.0025505029839627577 0 -0.021747162342740413 0.00076148682770759357 0 -0.021631220153939472 0.00034252667220002763 0 -0.02202694842434445 0.00044796081425204449 0 -0.021747162342740413 0.00076148682770759357 0 -0.02202694842434445 0.00044796081425204449 0 -0.022354122307943432 0.00096934402153880787 0 -0.019528564995559411 0.0023123630410397684 0 -0.020226643472605488 0.0016873253992105975 0 -0.019528564995559411 0.0023123630410397684 0 -0.018549255747123485 0.0020571134031812364 0 -0.018793507901873438 0.0025505029839627577 0 -0.018570009906539568 0.0019836476148829794 0 -0.018867121112045134 0.0020439242515482773 0 -0.018768128142817208 0.002816800655349865 0 -0.018536426004023047 0.0021174391489772564 0 -0.017862671481758734 0.0024675412952149165 0 -0.018536426004023047 0.0021174391489772564 0 -0.017862671481758734 0.0024675412952149165 0 -0.018140359322819294 0.001847553675986404 0 -0.019133074359149516 0.0023488789830865657 0 -0.019164507751694104 0.001938519742413099 0 -0.019733821460235404 0.0025517304097902762 0 -0.019133074359149516 0.0023488789830865657 0 -0.018867121112045134 0.0020439242515482773 0 -0.019164507751694104 0.001938519742413099 0 -0.019133074359149516 0.0023488789830865657 0 -0.018793507901873438 0.0025505029839627577 0 -0.018867121112045134 0.0020439242515482773 0 -0.019059140640344679 0.0018353757889904173 0 -0.019351744729364323 0.0016957265839903253 0 -0.019702359187460605 0.0020502565773830778 0 -0.01911165455353829 0.0018893618829857917 0 -0.01972040550415748 0.0025398059107597979 0 -0.019059140640344679 0.0018353757889904173 0 -0.019702359187460605 0.0020502565773830778 0 -0.01969149469779052 0.0025127071786366383 0 -0.019351744729364323 0.0016957265839903253 0 -0.019702359187460605 0.0020502565773830778 0 -0.019928724659604487 0.0016972968123519221 0 -0.019702359187460605 0.0020502565773830778 0 -0.020389758896906408 0.0020095166961708309 0 -0.02018892374159207 0.0024566055418199723 0 -0.019702359187460605 0.0020502565773830778 0 -0.020389758896906408 0.0020095166961708309 0 -0.019928724659604487 0.0016972968123519221 0 -0.022437077701187087 0.0013528560969997044 0 -0.022391735160932985 0.00085746653674448998 0 -0.02018892374159207 0.0024566055418199723 0 -0.01969149469779052 0.0025127071786366383 0 -0.020308856711706208 0.0031714321531322964 0 -0.020559456352846346 0.0027682054361969064 0 -0.02018892374159207 0.0024566055418199723 0 -0.020308856711706208 0.0031714321531322964 0 -0.020559456352846346 0.0027682054361969064 0 -0.020389758896906408 0.0020095166961708309 0 -0.02018892374159207 0.0024566055418199723 0 -0.019088058723880166 0.0026496440877029695 0 -0.019733821460235404 0.0025517304097902762 0 -0.019417596728293809 0.0028863821073334384 0 -0.019702359187460605 0.0020502565773830778 0 -0.02018892374159207 0.0024566055418199723 0 -0.01969149469779052 0.0025127071786366383 0 -0.019733821460235404 0.0025517304097902762 0 -0.019849302783181783 0.0032835882441932776 0 -0.020308856711706208 0.0031714321531322964 0 -0.019733821460235404 0.0025517304097902762 0 -0.019417596728293809 0.0028863821073334384 0 -0.019849302783181783 0.0032835882441932776 0 -0.022644010899331293 0.0018105448534219506 0 -0.021111521042100609 0.0020982323419829279 0 -0.020559456352846346 0.0027682054361969064 0 -0.020732532958199934 0.0035020551845264228 0 -0.020308856711706208 0.0031714321531322964 0 -0.020732532958199934 0.0035020551845264228 0 -0.019849302783181783 0.0032835882441932776 0 -0.020308856711706208 0.0031714321531322964 0 -0.01972040550415748 0.0025398059107597979 0 -0.020265263019781748 0.0031324040749898694 0 -0.023587742233564538 0.00089897562922341696 0 -0.022738766333858271 0.00069711280206255987 0 -0.022958109152498324 0.0010297214659729015 0 -0.02499867195821422 1.343029407860031e-06 0 -0.0249964194756001 1.4356182411467538e-06 0 -0.024999993438734488 2.6754007998168361e-09 0 -0.022738766333858271 0.00069711280206255987 0 -0.022958109152498324 0.0010297214659729015 0 -0.022052502631843787 0.00093206413118919256 0 -0.0249964194756001 1.4356182411467538e-06 0 -0.024999993438734488 2.6754007998168361e-09 0 -0.024999970751546925 2.9576072259704012e-09 0 -0.023997048275929619 0.00054038297184821036 0 -0.023428530342134699 0.00023456745756125481 0 -0.0249964194756001 1.4356182411467538e-06 0 -0.024999970751546925 2.9576072259704012e-09 0 -0.024991083042418417 3.9228104684583064e-07 0 -0.024999448665493914 2.819240527015524e-07 0 -0.023428530342134699 0.00023456745756125481 0 -0.021111521042100609 0.0020982323419829279 0 -0.021020063563676493 0.0010103191613472066 0 -0.019417596728293809 0.0028863821073334384 0 -0.019849302783181783 0.0032835882441932776 0 -0.018993904588128017 0.0030629123545952257 0 -0.022738766333858271 0.00069711280206255987 0 -0.022052502631843787 0.00093206413118919256 0 -0.021906051938078302 0.00049039927821298681 0 -0.023428530342134699 0.00023456745756125481 0 -0.021020063563676493 0.0010103191613472066 0 -0.019088058723880166 0.0026496440877029695 0 -0.019417596728293809 0.0028863821073334384 0 -0.018993904588128017 0.0030629123545952257 0 -0.021531816745911245 -5.8861499513863553e-06 0 -0.021631220153939472 0.00034252667220002763 0 -0.02202694842434445 0.00044796081425204449 0 -0.021531816745911245 -5.8861499513863553e-06 0 -0.02202694842434445 0.00044796081425204449 0 -0.022129924634135548 4.7266689595517609e-05 0 -0.024999983032594743 2.4735718018895427e-09 0 -0.024992862669296356 -4.2198800299016726e-07 0 -0.024999982549572652 -6.1331228405973318e-09 0 -0.023428530342134699 0.00023456745756125481 0 -0.023525506364344584 -3.9345726608451423e-06 0 -0.024992862669296356 -4.2198800299016726e-07 0 -0.024999982549572652 -6.1331228405973318e-09 0 -0.024992006715556268 -1.2080028924391822e-06 0 -0.024999982549572652 -6.1331228405973318e-09 0 -0.024992006715556268 -1.2080028924391822e-06 0 -0.024992796068218238 -4.7171120667632525e-06 0 -0.024999982549572652 -6.1331228405973318e-09 0 -0.024992796068218238 -4.7171120667632525e-06 0 -0.02499999710537381 8.0158746900199288e-09 0 -0.022766162786807681 3.4030686490453341e-05 0 -0.022802605699527401 0.00084690602225849726 0 -0.023304578239856988 0.00044969816455170956 0 -0.022766162786807681 3.4030686490453341e-05 0 -0.022397759912924052 0.0004766725532354706 0 -0.022802605699527401 0.00084690602225849726 0 -0.022129924634135548 4.7266689595517609e-05 0 -0.022766162786807681 3.4030686490453341e-05 0 -0.022397759912924052 0.0004766725532354706 0 -0.023525506364344584 -3.9345726608451423e-06 0 -0.023896867175012746 1.350435002794656e-05 0 -0.02202694842434445 0.00044796081425204449 0 -0.022129924634135548 4.7266689595517609e-05 0 -0.022397759912924052 0.0004766725532354706 0 -0.022397759912924052 0.0004766725532354706 0 -0.022802605699527401 0.00084690602225849726 0 -0.022354122307943432 0.00096934402153880787 0 -0.02202694842434445 0.00044796081425204449 0 -0.022397759912924052 0.0004766725532354706 0 -0.022354122307943432 0.00096934402153880787 0 -0.022802605699527401 0.00084690602225849726 0 -0.022754523398445737 0.00094960705675910793 0 -0.022354122307943432 0.00096934402153880787 0 -0.01980291736674963 0.0015120715829890184 0 -0.020226643472605488 0.0016873253992105975 0 -0.016970716911633599 0.002107418256289057 0 -0.017862671481758734 0.0024675412952149165 0 -0.01770179100529231 0.0018295623971597789 0 -0.017862671481758734 0.0024675412952149165 0 -0.01770179100529231 0.0018295623971597789 0 -0.018140359322819294 0.001847553675986404 0 -0.022613157044860839 0.00089849652543564772 0 -0.022720891444309853 0.00090073986592524872 0 -0.022649417275299014 0.00080238641127568461 0 -0.022613157044860839 0.00089849652543564772 0 -0.022473693628648903 0.00085485980788866007 0 -0.022649417275299014 0.00080238641127568461 0 -0.022802605699527401 0.00084690602225849726 0 -0.022754523398445737 0.00094960705675910793 0 -0.022720891444309853 0.00090073986592524872 0 -0.022754523398445737 0.00094960705675910793 0 -0.022720891444309853 0.00090073986592524872 0 -0.022649417275299014 0.00080238641127568461 0 -0.01980291736674963 0.0015120715829890184 0 -0.019486570208325744 0.0013533062254715317 0 -0.022802605699527401 0.00084690602225849726 0 -0.023979974420906928 0.00080179030800983349 0 -0.023304578239856988 0.00044969816455170956 0 -0.022802605699527401 0.00084690602225849726 0 -0.022720891444309853 0.00090073986592524872 0 -0.022665254766100939 0.00098032918396826559 0 -0.022859380749140637 0.0008612464864433103 0 -0.023275825294005469 0.00091166178643938217 0 -0.022613157044860839 0.00089849652543564772 0 -0.022720891444309853 0.00090073986592524872 0 -0.022665254766100939 0.00098032918396826559 0 -0.022613157044860839 0.00089849652543564772 0 -0.022665254766100939 0.00098032918396826559 0 -0.022552401789678517 0.00094976078360962414 0 -0.024365791196211038 1.1392427262492605e-05 0 -0.024907997265911412 0.00011078273342507925 0 -0.024463799327295629 0.00037470393686169786 0 -0.02372857492626796 -1.2065224684117375e-05 0 -0.024942571986561669 0.00013516768448391952 0 -0.024969410700188117 -6.2842180107634204e-06 0 -0.024967725932753784 -1.0041361224245259e-06 0 -0.024942571986561669 0.00013516768448391952 0 -0.023979974420906928 0.00080179030800983349 0 -0.024463799327295629 0.00037470393686169786 0 -0.02372857492626796 -1.2065224684117375e-05 0 -0.022766162786807681 3.4030686490453341e-05 0 -0.023304578239856988 0.00044969816455170956 0 -0.02372857492626796 -1.2065224684117375e-05 0 -0.023979974420906928 0.00080179030800983349 0 -0.023304578239856988 0.00044969816455170956 0 -0.02372857492626796 -1.2065224684117375e-05 0 -0.023896867175012746 1.350435002794656e-05 0 -0.024365791196211038 1.1392427262492605e-05 0 -0.024992796068218238 -4.7171120667632525e-06 0 -0.024969410700188117 -6.2842180107634204e-06 0 -0.02499999710537381 8.0158746900199288e-09 0 -0.024969410700188117 -6.2842180107634204e-06 0 -0.02499999710537381 8.0158746900199288e-09 0 -0.024967725932753784 -1.0041361224245259e-06 0 -0.02499999710537381 8.0158746900199288e-09 0 -0.024967725932753784 -1.0041361224245259e-06 0 -0.02499984743618117 -3.011708979409035e-09 0 -0.024999930737326041 3.3055622201883474e-08 0 -0.024937601302168811 6.8409488800115931e-05 0 -0.024958889016547098 5.3169977489931186e-05 0 -0.024967725932753784 -1.0041361224245259e-06 0 -0.02499984743618117 -3.011708979409035e-09 0 -0.024952100006326288 -9.2093716433018156e-06 0 -0.024999957444242153 -3.0999803566302571e-08 0 -0.024980720712168357 7.3844609733298539e-05 0 -0.024999930737326041 3.3055622201883474e-08 0 -0.024999859338233114 8.3187297602032222e-08 0 -0.024937601302168811 6.8409488800115931e-05 0 -0.024999859338233114 8.3187297602032222e-08 0 -0.024937601302168811 6.8409488800115931e-05 0 -0.024746690819165452 0.00018033449973807599 0 -0.024937601302168811 6.8409488800115931e-05 0 -0.024903502346860423 7.710762182538569e-05 0 -0.024746690819165452 0.00018033449973807599 0 -0.024903502346860423 7.710762182538569e-05 0 -0.024746690819165452 0.00018033449973807599 0 -0.024946086605104334 1.1949964765791985e-05 0 -0.024970486002161046 0.00014001526790158734 0 -0.0242773361060423 0.00015067024171543558 0 -0.024937601302168811 6.8409488800115931e-05 0 -0.024938368946887175 5.8847494610120887e-05 0 -0.024903502346860423 7.710762182538569e-05 0 -0.024938368946887175 5.8847494610120887e-05 0 -0.024903502346860423 7.710762182538569e-05 0 -0.024942266944180492 3.4475382477756746e-05 0 -0.024903502346860423 7.710762182538569e-05 0 -0.024942266944180492 3.4475382477756746e-05 0 -0.024946086605104334 1.1949964765791985e-05 0 -0.024942266944180492 3.4475382477756746e-05 0 -0.024948589460036572 3.3820237464234167e-05 0 -0.024942490833361499 3.2643721670990456e-05 0 -0.024306725820733947 0.0001222296867670432 0 -0.0242773361060423 0.00015067024171543558 0 -0.024938368946887175 5.8847494610120887e-05 0 -0.024958889016547098 5.3169977489931186e-05 0 -0.024948589460036572 3.3820237464234167e-05 0 -0.024938368946887175 5.8847494610120887e-05 0 -0.024942266944180492 3.4475382477756746e-05 0 -0.024948589460036572 3.3820237464234167e-05 0 -0.024937601302168811 6.8409488800115931e-05 0 -0.024938368946887175 5.8847494610120887e-05 0 -0.024958889016547098 5.3169977489931186e-05 0 -0.024980720712168357 7.3844609733298539e-05 0 -0.023924184413658227 0.00041086197479877652 0 -0.024952100006326288 -9.2093716433018156e-06 0 -0.024942571986561669 0.00013516768448391952 0 -0.025121561673695003 0.00049957740126331366 0 -0.024463799327295629 0.00037470393686169786 0 -0.024942571986561669 0.00013516768448391952 0 -0.025121561673695003 0.00049957740126331366 0 -0.024967725932753784 -1.0041361224245259e-06 0 -0.024952100006326288 -9.2093716433018156e-06 0 -0.024942571986561669 0.00013516768448391952 0 -0.024999859338233114 8.3187297602032222e-08 0 -0.024999611559540932 1.6912332899162801e-07 0 -0.024746690819165452 0.00018033449973807599 0 -0.024999611559540932 1.6912332899162801e-07 0 -0.024746690819165452 0.00018033449973807599 0 -0.024609800119197105 0.00026412826884170858 0 -0.024746690819165452 0.00018033449973807599 0 -0.024539082303807299 0.00028676784074264537 0 -0.024609800119197105 0.00026412826884170858 0 -0.024746690819165452 0.00018033449973807599 0 -0.024539082303807299 0.00028676784074264537 0 -0.024587613303826816 0.00024249188667271217 0 -0.024746690819165452 0.00018033449973807599 0 -0.024587613303826816 0.00024249188667271217 0 -0.02466764193662269 0.00023088463748560428 0 -0.024587613303826816 0.00024249188667271217 0 -0.02466764193662269 0.00023088463748560428 0 -0.024697015707559687 0.00016937802724925274 0 -0.024587613303826816 0.00024249188667271217 0 -0.024697015707559687 0.00016937802724925274 0 -0.024479751020302341 3.1708122968706461e-05 0 -0.024587613303826816 0.00024249188667271217 0 -0.024345708022152902 0.00023152063643816246 0 -0.024479751020302341 3.1708122968706461e-05 0 -0.024539082303807299 0.00028676784074264537 0 -0.024587613303826816 0.00024249188667271217 0 -0.024345708022152902 0.00023152063643816246 0 -0.023979974420906928 0.00080179030800983349 0 -0.024463799327295629 0.00037470393686169786 0 -0.025121561673695003 0.00049957740126331366 0 -0.022665254766100939 0.00098032918396826559 0 -0.022552401789678517 0.00094976078360962414 0 -0.02249043611642202 0.00101755742996359 0 -0.023275825294005469 0.00091166178643938217 0 -0.023924184413658227 0.00041086197479877652 0 -0.022552401789678517 0.00094976078360962414 0 -0.022470535195996452 0.00097231986875313684 0 -0.022473693628648903 0.00085485980788866007 0 -0.022552401789678517 0.00094976078360962414 0 -0.022470535195996452 0.00097231986875313684 0 -0.02249043611642202 0.00101755742996359 0 -0.02297330134533861 0.00060643534480050467 0 -0.023924184413658227 0.00041086197479877652 0 -0.023569815185580611 0.00045710324542018156 0 -0.023567834463104339 0.00044525496533065218 0 -0.023574852240890242 0.00044381552406848839 0 -0.023924184413658227 0.00041086197479877652 0 -0.0242773361060423 0.00015067024171543558 0 -0.02297330134533861 0.00060643534480050467 0 -0.0242773361060423 0.00015067024171543558 0 -0.024657590556180494 0.00022538494086338356 0 -0.024642923038089123 0.00021083144515791975 0 -0.02466764193662269 0.00023088463748560428 0 -0.024657590556180494 0.00022538494086338356 0 -0.02466764193662269 0.00023088463748560428 0 -0.024697015707559687 0.00016937802724925274 0 -0.024746690819165452 0.00018033449973807599 0 -0.024642923038089123 0.00021083144515791975 0 -0.02466764193662269 0.00023088463748560428 0 -0.021024985125024865 0.00094033231231933261 0 -0.020787345630486429 0.00040630962314410418 0 -0.021076866453099918 0.00051670755537635356 0 -0.02297330134533861 0.00060643534480050467 0 -0.02308085001804068 0.00041926087035438109 0 -0.022613157044860839 0.00089849652543564772 0 -0.022552401789678517 0.00094976078360962414 0 -0.022473693628648903 0.00085485980788866007 0 -0.02297330134533861 0.00060643534480050467 0 -0.021807036827058094 0.00066108102068010877 0 -0.020787345630486429 0.00040630962314410418 0 -0.021076866453099918 0.00051670755537635356 0 -0.021137081680612849 8.5575203206613543e-05 0 -0.021807036827058094 0.00066108102068010877 0 -0.018462610133643097 0.00054094113430625229 0 -0.022473693628648903 0.00085485980788866007 0 -0.022468544871943521 0.00072369928189200947 0 -0.022649417275299014 0.00080238641127568461 0 -0.020787345630486429 0.00040630962314410418 0 -0.021137081680612849 8.5575203206613543e-05 0 -0.020555753632510432 -0.00014374075786090565 0 -0.02308085001804068 0.00041926087035438109 0 -0.019335612951233028 -0.00027260783556147967 0 -0.018462610133643097 0.00054094113430625229 0 -0.019335612951233028 -0.00027260783556147967 0 -0.015524564429435258 0.00035634251006847704 0 -0.01546255101409931 0.00022913457483809523 0 -0.015295616506150295 0.00026068493163773973 0 -0.01546255101409931 0.00022913457483809523 0 -0.015295616506150295 0.00026068493163773973 0 -0.015336587428083026 9.6400495520693378e-05 0 -0.015524564429435258 0.00035634251006847704 0 -0.01546255101409931 0.00022913457483809523 0 -0.015533401940602931 0.00016783372632454493 0 -0.015285400165319292 0.0014089012644482668 0 -0.015393313570872685 0.00068518951968194071 0 -0.015682274804095179 0.0010903188464707807 0 -0.018462610133643097 0.00054094113430625229 0 -0.015359882411301689 0.00056868623584096698 0 -0.024345708022152902 0.00023152063643816246 0 -0.024479751020302341 3.1708122968706461e-05 0 -0.023919242868662174 3.3997113916807648e-05 0 -0.024697015707559687 0.00016937802724925274 0 -0.024479751020302341 3.1708122968706461e-05 0 -0.024639540682253939 -9.0986693389010691e-05 0 -0.024479751020302341 3.1708122968706461e-05 0 -0.024639540682253939 -9.0986693389010691e-05 0 -0.024340286664697924 -0.000309674418436009 0 -0.019335612951233028 -0.00027260783556147967 0 -0.021233151162406511 -0.00070707994322438054 0 -0.024479751020302341 3.1708122968706461e-05 0 -0.024340286664697924 -0.000309674418436009 0 -0.023919242868662174 3.3997113916807648e-05 0 -0.017520501518567457 -0.0011269349278905645 0 -0.017314624121549254 -0.00085425924258543309 0 -0.017610255746160573 -0.00076432280850403543 0 -0.019335612951233028 -0.00027260783556147967 0 -0.015751886525523829 -0.00060017626383195781 0 -0.01723105823476178 -0.0012220609716734855 0 -0.017520501518567457 -0.0011269349278905645 0 -0.017314624121549254 -0.00085425924258543309 0 -0.015295616506150295 0.00026068493163773973 0 -0.015139463067213482 -7.7390652148485566e-05 0 -0.015336587428083026 9.6400495520693378e-05 0 -0.017314624121549254 -0.00085425924258543309 0 -0.017610255746160573 -0.00076432280850403543 0 -0.017443866720018901 -0.00037753128653955539 0 -0.015751886525523829 -0.00060017626383195781 0 -0.016311894460892269 -0.00036885397112281822 0 -0.01546255101409931 0.00022913457483809523 0 -0.015533401940602931 0.00016783372632454493 0 -0.015245710690258573 -6.6122490824261891e-05 0 -0.015533401940602931 0.00016783372632454493 0 -0.015245710690258573 -6.6122490824261891e-05 0 -0.015540704072750039 -6.9644525263492762e-05 0 -0.015359882411301689 0.00056868623584096698 0 -0.015549267289786691 -7.2326909723295255e-05 0 -0.015393313570872685 0.00068518951968194071 0 -0.015540704072750039 -6.9644525263492762e-05 0 -0.015864974681788671 0.00053957273340701187 0 -0.015139463067213482 -7.7390652148485566e-05 0 -0.015420154009958493 -4.4759528847251672e-05 0 -0.015336587428083026 9.6400495520693378e-05 0 -0.01546255101409931 0.00022913457483809523 0 -0.015420154009958493 -4.4759528847251672e-05 0 -0.015336587428083026 9.6400495520693378e-05 0 -0.015444585549087611 0.00020162119309171999 0 -0.015337789300943747 -5.965346388912402e-05 0 -0.015139463067213482 -7.7390652148485566e-05 0 -0.015420154009958493 -4.4759528847251672e-05 0 -0.015323820845370123 -0.00034405308624962868 0 -0.015245710690258573 -6.6122490824261891e-05 0 -0.015480088699315818 -0.00043779979169207063 0 -0.015130515941105378 -0.00049092288770197061 0 -0.015337789300943747 -5.965346388912402e-05 0 -0.015229130193347949 -0.00041073676130747602 0 -0.015245710690258573 -6.6122490824261891e-05 0 -0.015540704072750039 -6.9644525263492762e-05 0 -0.015480088699315818 -0.00043779979169207063 0 -0.015540704072750039 -6.9644525263492762e-05 0 -0.015901376542763229 -0.00031271039444467804 0 -0.015480088699315818 -0.00043779979169207063 0 -0.015540704072750039 -6.9644525263492762e-05 0 -0.015901376542763229 -0.00031271039444467804 0 -0.016181451673395054 0.00017085005197125069 0 -0.015540704072750039 -6.9644525263492762e-05 0 -0.015864974681788671 0.00053957273340701187 0 -0.016181451673395054 0.00017085005197125069 0 -0.015864974681788671 0.00053957273340701187 0 -0.016181451673395054 0.00017085005197125069 0 -0.016226002524353297 0.00065933443555715222 0 -0.01654951278848862 0.00051510432600808745 0 -0.016717401136915295 0.00014039880309790469 0 -0.017013847199518713 0.00048093337741852781 0 -0.01654951278848862 0.00051510432600808745 0 -0.016181451673395054 0.00017085005197125069 0 -0.016226002524353297 0.00065933443555715222 0 -0.01654951278848862 0.00051510432600808745 0 -0.016181451673395054 0.00017085005197125069 0 -0.016717401136915295 0.00014039880309790469 0 -0.016717401136915295 0.00014039880309790469 0 -0.016512807288459525 -0.00025765008900779517 0 -0.016943111228851705 -0.00025103418664432599 0 -0.016181451673395054 0.00017085005197125069 0 -0.016717401136915295 0.00014039880309790469 0 -0.016512807288459525 -0.00025765008900779517 0 -0.015901376542763229 -0.00031271039444467804 0 -0.016181451673395054 0.00017085005197125069 0 -0.016512807288459525 -0.00025765008900779517 0 -0.015901376542763229 -0.00031271039444467804 0 -0.016512807288459525 -0.00025765008900779517 0 -0.016252539724193552 -0.00058360719323885351 0 -0.016512807288459525 -0.00025765008900779517 0 -0.016943111228851705 -0.00025103418664432599 0 -0.016786923797576202 -0.00069825693476458384 0 -0.016943111228851705 -0.00025103418664432599 0 -0.017475146899068719 -0.00054650718127397283 0 -0.016786923797576202 -0.00069825693476458384 0 -0.016943111228851705 -0.00025103418664432599 0 -0.017215500333383611 9.5095591761092395e-05 0 -0.017475146899068719 -0.00054650718127397283 0 -0.016717401136915295 0.00014039880309790469 0 -0.016943111228851705 -0.00025103418664432599 0 -0.017215500333383611 9.5095591761092395e-05 0 -0.018262845178738111 -0.00040777516286357709 0 -0.018027569072673322 0.00026046423725279376 0 -0.017554157970602561 -0.00058398894534953511 0 -0.017972280275835563 0.00022353091241335174 0 -0.017615525343997688 -0.00058941640194174892 0 -0.017605350378306666 0.00025625929038157301 0 -0.017215500333383611 9.5095591761092395e-05 0 -0.017475146899068719 -0.00054650718127397283 0 -0.018027569072673322 0.00026046423725279376 0 -0.017605350378306666 0.00025625929038157301 0 -0.017475146899068719 -0.00054650718127397283 0 -0.017605350378306666 0.00025625929038157301 0 -0.017837236145008494 0.00058835780110045883 0 -0.017415542093112482 0.00051098108065581783 0 -0.018027569072673322 0.00026046423725279376 0 -0.017605350378306666 0.00025625929038157301 0 -0.017837236145008494 0.00058835780110045883 0 -0.01832715429964548 0.00049587356957709456 0 -0.018027569072673322 0.00026046423725279376 0 -0.017837236145008494 0.00058835780110045883 0 -0.016717401136915295 0.00014039880309790469 0 -0.017215500333383611 9.5095591761092395e-05 0 -0.017013847199518713 0.00048093337741852781 0 -0.017605350378306666 0.00025625929038157301 0 -0.017215500333383611 9.5095591761092395e-05 0 -0.017415542093112482 0.00051098108065581783 0 -0.017415542093112482 0.00051098108065581783 0 -0.017013847199518713 0.00048093337741852781 0 -0.017249836500194841 0.00078784918812831867 0 -0.017215500333383611 9.5095591761092395e-05 0 -0.017415542093112482 0.00051098108065581783 0 -0.017013847199518713 0.00048093337741852781 0 -0.01654951278848862 0.00051510432600808745 0 -0.017013847199518713 0.00048093337741852781 0 -0.016892522593954514 0.0008681780412146601 0 -0.017013847199518713 0.00048093337741852781 0 -0.016892522593954514 0.0008681780412146601 0 -0.017249836500194841 0.00078784918812831867 0 -0.016892522593954514 0.0008681780412146601 0 -0.017366316480451862 0.0012932393817732348 0 -0.016671495548410856 0.001259666617258055 0 -0.017415542093112482 0.00051098108065581783 0 -0.017249836500194841 0.00078784918812831867 0 -0.017576832669039196 0.00087106730666209123 0 -0.017249836500194841 0.00078784918812831867 0 -0.017576832669039196 0.00087106730666209123 0 -0.017366316480451862 0.0012932393817732348 0 -0.016892522593954514 0.0008681780412146601 0 -0.017249836500194841 0.00078784918812831867 0 -0.017366316480451862 0.0012932393817732348 0 -0.018544283524987801 0.0013084334983893321 0 -0.017837236145008494 0.00058835780110045883 0 -0.017924610231347636 0.0011511523127162296 0 -0.017837236145008494 0.00058835780110045883 0 -0.017415542093112482 0.00051098108065581783 0 -0.017576832669039196 0.00087106730666209123 0 -0.017837236145008494 0.00058835780110045883 0 -0.017576832669039196 0.00087106730666209123 0 -0.017924610231347636 0.0011511523127162296 0 -0.017576832669039196 0.00087106730666209123 0 -0.017924610231347636 0.0011511523127162296 0 -0.017366316480451862 0.0012932393817732348 0 -0.018309221302865667 0.0014080993469875252 0 -0.017924610231347636 0.0011511523127162296 0 -0.017901868679711039 0.0015011561948263276 0 -0.017901868679711039 0.0015011561948263276 0 -0.01770179100529231 0.0018295623971597789 0 -0.017366316480451862 0.0012932393817732348 0 -0.017924610231347636 0.0011511523127162296 0 -0.017901868679711039 0.0015011561948263276 0 -0.017366316480451862 0.0012932393817732348 0 -0.018309221302865667 0.0014080993469875252 0 -0.017901868679711039 0.0015011561948263276 0 -0.018140359322819294 0.001847553675986404 0 -0.017901868679711039 0.0015011561948263276 0 -0.01770179100529231 0.0018295623971597789 0 -0.018140359322819294 0.001847553675986404 0 -0.016970716911633599 0.002107418256289057 0 -0.01770179100529231 0.0018295623971597789 0 -0.017366316480451862 0.0012932393817732348 0 -0.016970716911633599 0.002107418256289057 0 -0.017366316480451862 0.0012932393817732348 0 -0.016671495548410856 0.001259666617258055 0 -0.016114936888516538 0.0017519689915827313 0 -0.01613067928122176 0.0010207392318525696 0 -0.016671495548410856 0.001259666617258055 0 -0.016970716911633599 0.002107418256289057 0 -0.016114936888516538 0.0017519689915827313 0 -0.016671495548410856 0.001259666617258055 0 -0.015285400165319292 0.0014089012644482668 0 -0.016114936888516538 0.0017519689915827313 0 -0.015682274804095179 0.0010903188464707807 0 -0.016114936888516538 0.0017519689915827313 0 -0.01613067928122176 0.0010207392318525696 0 -0.015682274804095179 0.0010903188464707807 0 -0.018462610133643097 0.00054094113430625229 0 -0.019486570208325744 0.0013533062254715317 0 -0.015393313570872685 0.00068518951968194071 0 -0.015864974681788671 0.00053957273340701187 0 -0.015682274804095179 0.0010903188464707807 0 -0.015864974681788671 0.00053957273340701187 0 -0.01613067928122176 0.0010207392318525696 0 -0.015682274804095179 0.0010903188464707807 0 -0.015864974681788671 0.00053957273340701187 0 -0.01613067928122176 0.0010207392318525696 0 -0.016226002524353297 0.00065933443555715222 0 -0.01654951278848862 0.00051510432600808745 0 -0.016226002524353297 0.00065933443555715222 0 -0.016501089709630899 0.00087450809805937775 0 -0.01613067928122176 0.0010207392318525696 0 -0.016226002524353297 0.00065933443555715222 0 -0.016501089709630899 0.00087450809805937775 0 -0.01654951278848862 0.00051510432600808745 0 -0.016892522593954514 0.0008681780412146601 0 -0.016501089709630899 0.00087450809805937775 0 -0.016892522593954514 0.0008681780412146601 0 -0.016501089709630899 0.00087450809805937775 0 -0.016671495548410856 0.001259666617258055 0 -0.01613067928122176 0.0010207392318525696 0 -0.016501089709630899 0.00087450809805937775 0 -0.016671495548410856 0.001259666617258055 0 -0.022166323502805233 6.0842209635536352e-05 0 -0.022902706715451721 3.5618968632029454e-07 0 -0.021438347071479239 1.4757250567715683e-08 0 -0.019479930328739639 0.0015259618203167695 0 -0.020796525674543095 0.0023095993217480443 0 -0.020463134045119628 0.00042766492237256636 0 -0.023103910270385938 0.00061043066421600384 0 -0.022387385293235838 0.0016643479534129112 0 -0.0205897498969034 0.0010609545439410693 0 -0.023103910270385938 0.00061043066421600384 0 -0.019479930328739639 0.0015259618203167695 0 -0.019597481436486257 0.003255454121491818 0 -0.020796525674543095 0.0023095993217480443 0 -0.022166323502805233 6.0842209635536352e-05 0 -0.022902706715451721 3.5618968632029454e-07 0 -0.023013760338525042 -6.8552797946034582e-05 0 -0.022902706715451721 3.5618968632029454e-07 0 -0.024364944833427379 -7.0250178564555257e-07 0 -0.023013760338525042 -6.8552797946034582e-05 0 -0.02436761219125539 -1.0401444891351017e-06 0 -0.023103910270385938 0.00061043066421600384 0 -0.02436915682069081 -3.9036705749128831e-07 0 -0.02500039081967893 4.2683992476500735e-07 0 -0.024822501660706767 -0.00040463071751008125 0 -0.024998579492402584 -8.4415154601810339e-09 0 -0.02436915682069081 -3.9036705749128831e-07 0 -0.02500039081967893 4.2683992476500735e-07 0 -0.025000965231186889 -9.9071764772850536e-07 0 -0.023103910270385938 0.00061043066421600384 0 -0.025000205487178691 -9.0336103886345813e-09 0 -0.02499430129271463 0.00032549339384683356 0 -0.024796288591032136 0.00013096054752592491 0 -0.02499430129271463 0.00032549339384683356 0 -0.024796288591032136 0.00013096054752592491 0 -0.024413444614455965 0.00066457909381410058 0 -0.024796288591032136 0.00013096054752592491 0 -0.024315593244848627 0.00025387721365051911 0 -0.024413444614455965 0.00066457909381410058 0 -0.025000205487178691 -9.0336103886345813e-09 0 -0.024796288591032136 0.00013096054752592491 0 -0.024999289200664684 2.3272390568839207e-08 0 -0.024796288591032136 0.00013096054752592491 0 -0.024999289200664684 2.3272390568839207e-08 0 -0.024315593244848627 0.00025387721365051911 0 -0.024999289200664684 2.3272390568839207e-08 0 -0.024315593244848627 0.00025387721365051911 0 -0.02499916555568588 2.1708316656189173e-07 0 -0.024315593244848627 0.00025387721365051911 0 -0.023559532738282037 0.00061053600792413808 0 -0.024413444614455965 0.00066457909381410058 0 -0.020796525674543095 0.0023095993217480443 0 -0.022603553171291708 0.0010032580799654136 0 -0.020463134045119628 0.00042766492237256636 0 -0.023559532738282037 0.00061053600792413808 0 -0.024413444614455965 0.00066457909381410058 0 -0.022603553171291708 0.0010032580799654136 0 -0.022387385293235838 0.0016643479534129112 0 -0.022783125251921204 0.0009531382510846912 0 -0.023559532738282037 0.00061053600792413808 0 -0.022603553171291708 0.0010032580799654136 0 -0.02341890635945534 0.00059566052915268329 0 -0.02341890635945534 0.00059566052915268329 0 -0.0240325933127324 0.00045630305516450233 0 -0.022900282024382362 0.00029260626762048566 0 -0.023984292188108186 0.00045845112153462364 0 -0.024508844818514661 0.00028831303917836926 0 -0.0240325933127324 0.00045630305516450233 0 -0.02341890635945534 0.00059566052915268329 0 -0.023984292188108186 0.00045845112153462364 0 -0.0240325933127324 0.00045630305516450233 0 -0.023559532738282037 0.00061053600792413808 0 -0.02341890635945534 0.00059566052915268329 0 -0.023984292188108186 0.00045845112153462364 0 -0.024315593244848627 0.00025387721365051911 0 -0.023559532738282037 0.00061053600792413808 0 -0.023984292188108186 0.00045845112153462364 0 -0.024315593244848627 0.00025387721365051911 0 -0.023984292188108186 0.00045845112153462364 0 -0.02499916555568588 2.1708316656189173e-07 0 -0.023984292188108186 0.00045845112153462364 0 -0.02499916555568588 2.1708316656189173e-07 0 -0.024508844818514661 0.00028831303917836926 0 -0.02499916555568588 2.1708316656189173e-07 0 -0.024508844818514661 0.00028831303917836926 0 -0.024999402045838778 2.4875581096033573e-07 0 -0.024508844818514661 0.00028831303917836926 0 -0.024999402045838778 2.4875581096033573e-07 0 -0.024609800119197105 0.00026412826884170858 0 -0.024999611559540932 1.6912332899162801e-07 0 -0.024999402045838778 2.4875581096033573e-07 0 -0.024609800119197105 0.00026412826884170858 0 -0.024539082303807299 0.00028676784074264537 0 -0.024609800119197105 0.00026412826884170858 0 -0.0240325933127324 0.00045630305516450233 0 -0.024508844818514661 0.00028831303917836926 0 -0.024609800119197105 0.00026412826884170858 0 -0.0240325933127324 0.00045630305516450233 0 -0.024539082303807299 0.00028676784074264537 0 -0.024345708022152902 0.00023152063643816246 0 -0.0240325933127324 0.00045630305516450233 0 -0.024345708022152902 0.00023152063643816246 0 -0.0240325933127324 0.00045630305516450233 0 -0.023919242868662174 3.3997113916807648e-05 0 -0.0240325933127324 0.00045630305516450233 0 -0.023919242868662174 3.3997113916807648e-05 0 -0.022900282024382362 0.00029260626762048566 0 -0.023919242868662174 3.3997113916807648e-05 0 -0.023003025932002128 -0.00029233088082246096 0 -0.022900282024382362 0.00029260626762048566 0 -0.023919242868662174 3.3997113916807648e-05 0 -0.023720147888219006 -0.00064307638369948594 0 -0.023003025932002128 -0.00029233088082246096 0 -0.024340286664697924 -0.000309674418436009 0 -0.023919242868662174 3.3997113916807648e-05 0 -0.023720147888219006 -0.00064307638369948594 0 -0.021233151162406511 -0.00070707994322438054 0 -0.020730091244955107 -0.00087276304180996308 0 -0.017520501518567457 -0.0011269349278905645 0 -0.017610255746160573 -0.00076432280850403543 0 -0.017875990561562218 -0.0010702715938872244 0 -0.017610255746160573 -0.00076432280850403543 0 -0.017875990561562218 -0.0010702715938872244 0 -0.017891082690283867 -0.00053486399179831156 0 -0.017875990561562218 -0.0010702715938872244 0 -0.018342631963147737 -0.0010711720235775856 0 -0.017891082690283867 -0.00053486399179831156 0 -0.023720147888219006 -0.00064307638369948594 0 -0.02236475662243791 -0.0010556788868861832 0 -0.023003025932002128 -0.00029233088082246096 0 -0.020730091244955107 -0.00087276304180996308 0 -0.020382094586836937 -0.00099605093320930134 0 -0.02236475662243791 -0.0010556788868861832 0 -0.02117126919991482 -0.00030868820813253816 0 -0.023003025932002128 -0.00029233088082246096 0 -0.018342631963147737 -0.0010711720235775856 0 -0.018411896896045596 -0.00042487476247719098 0 -0.017891082690283867 -0.00053486399179831156 0 -0.020382094586836937 -0.00099605093320930134 0 -0.019838221594367642 -0.0009177724087367548 0 -0.018342631963147737 -0.0010711720235775856 0 -0.019698866855410543 -0.00087275600617043713 0 -0.018411896896045596 -0.00042487476247719098 0 -0.02236475662243791 -0.0010556788868861832 0 -0.019698866855410543 -0.00087275600617043713 0 -0.02117126919991482 -0.00030868820813253816 0 -0.02117126919991482 -0.00030868820813253816 0 -0.022900282024382362 0.00029260626762048566 0 -0.021558365804551574 0.000197654383302707 0 -0.02117126919991482 -0.00030868820813253816 0 -0.023003025932002128 -0.00029233088082246096 0 -0.022900282024382362 0.00029260626762048566 0 -0.022603553171291708 0.0010032580799654136 0 -0.02341890635945534 0.00059566052915268329 0 -0.022900282024382362 0.00029260626762048566 0 -0.022603553171291708 0.0010032580799654136 0 -0.022900282024382362 0.00029260626762048566 0 -0.021558365804551574 0.000197654383302707 0 -0.022603553171291708 0.0010032580799654136 0 -0.020463134045119628 0.00042766492237256636 0 -0.021558365804551574 0.000197654383302707 0 -0.020463134045119628 0.00042766492237256636 0 -0.020248496955697311 -0.00022848197285907918 0 -0.019558489935259202 -0.00027356518635591071 0 -0.020463134045119628 0.00042766492237256636 0 -0.020248496955697311 -0.00022848197285907918 0 -0.021558365804551574 0.000197654383302707 0 -0.02117126919991482 -0.00030868820813253816 0 -0.020248496955697311 -0.00022848197285907918 0 -0.021558365804551574 0.000197654383302707 0 -0.02117126919991482 -0.00030868820813253816 0 -0.020248496955697311 -0.00022848197285907918 0 -0.019590642218953777 -0.00060332952776499446 0 -0.019698866855410543 -0.00087275600617043713 0 -0.019590642218953777 -0.00060332952776499446 0 -0.018854365194111922 -0.00039338595810174161 0 -0.019698866855410543 -0.00087275600617043713 0 -0.02117126919991482 -0.00030868820813253816 0 -0.019590642218953777 -0.00060332952776499446 0 -0.019590642218953777 -0.00060332952776499446 0 -0.019443295079073844 -0.00046019342202172113 0 -0.018919453682601159 -0.00038282181607194845 0 -0.019590642218953777 -0.00060332952776499446 0 -0.018919453682601159 -0.00038282181607194845 0 -0.018854365194111922 -0.00039338595810174161 0 -0.020248496955697311 -0.00022848197285907918 0 -0.019443295079073844 -0.00046019342202172113 0 -0.019558489935259202 -0.00027356518635591071 0 -0.020248496955697311 -0.00022848197285907918 0 -0.019590642218953777 -0.00060332952776499446 0 -0.019443295079073844 -0.00046019342202172113 0 -0.019443295079073844 -0.00046019342202172113 0 -0.019181436808010259 -0.00047115220742562514 0 -0.019558489935259202 -0.00027356518635591071 0 -0.01935731363877035 -0.0001716308038390121 0 -0.020197387117775835 5.8120536195305712e-05 0 -0.019181436808010259 -0.00047115220742562514 0 -0.019558489935259202 -0.00027356518635591071 0 -0.019408545536579249 6.559862427271675e-05 0 -0.019181436808010259 -0.00047115220742562514 0 -0.018919453682601159 -0.00038282181607194845 0 -0.018383588532948327 -9.8516121612609336e-05 0 -0.019443295079073844 -0.00046019342202172113 0 -0.019181436808010259 -0.00047115220742562514 0 -0.018919453682601159 -0.00038282181607194845 0 -0.01935731363877035 -0.0001716308038390121 0 -0.018569250387134171 -0.00010422962688662672 0 -0.019625981430216956 1.3730286023329969e-05 0 -0.019974361399764093 8.6545615225729336e-08 0 -0.018510252274208692 -1.5266980916107575e-07 0 -0.019625981430216956 1.3730286023329969e-05 0 -0.018510252274208692 -1.5266980916107575e-07 0 -0.018383588532948327 -9.8516121612609336e-05 0 -0.019625981430216956 1.3730286023329969e-05 0 -0.019974361399764093 8.6545615225729336e-08 0 -0.02093680345083937 1.2168792515932419e-05 0 -0.019974361399764093 8.6545615225729336e-08 0 -0.02093680345083937 1.2168792515932419e-05 0 -0.021438347071479239 1.4757250567715683e-08 0 -0.020463134045119628 0.00042766492237256636 0 -0.019558489935259202 -0.00027356518635591071 0 -0.019408545536579249 6.559862427271675e-05 0 -0.0205897498969034 0.0010609545439410693 0 -0.020197387117775835 5.8120536195305712e-05 0 -0.019479930328739639 0.0015259618203167695 0 -0.020463134045119628 0.00042766492237256636 0 -0.019408545536579249 6.559862427271675e-05 0 -0.022166323502805233 6.0842209635536352e-05 0 -0.02093680345083937 1.2168792515932419e-05 0 -0.021438347071479239 1.4757250567715683e-08 0 -0.016758260379822087 4.9071861407238411e-05 0 -0.01704631823274437 4.2881461120962919e-08 0 -0.015582147429743251 1.4476270979101618e-07 0 -0.016758260379822087 4.9071861407238411e-05 0 -0.015634778167407503 -1.1902166168366155e-06 0 -0.015582147429743251 1.4476270979101618e-07 0 -0.016758260379822087 4.9071861407238411e-05 0 -0.016403494492349447 3.8873991014568861e-05 0 -0.015634778167407503 -1.1902166168366155e-06 0 -0.016758260379822087 4.9071861407238411e-05 0 -0.017312277333572757 6.8714768716475613e-05 0 -0.016403494492349447 3.8873991014568861e-05 0 -0.016758260379822087 4.9071861407238411e-05 0 -0.017588456394721275 1.1096509872829721e-05 0 -0.017312277333572757 6.8714768716475613e-05 0 -0.016758260379822087 4.9071861407238411e-05 0 -0.017588456394721275 1.1096509872829721e-05 0 -0.017766369372875457 -2.4132207501698104e-05 0 -0.016758260379822087 4.9071861407238411e-05 0 -0.01704631823274437 4.2881461120962919e-08 0 -0.017766369372875457 -2.4132207501698104e-05 0 -0.01704631823274437 4.2881461120962919e-08 0 -0.017766369372875457 -2.4132207501698104e-05 0 -0.018510252274208692 -1.5266980916107575e-07 0 -0.017766369372875457 -2.4132207501698104e-05 0 -0.018510252274208692 -1.5266980916107575e-07 0 -0.018383588532948327 -9.8516121612609336e-05 0 -0.018919453682601159 -0.00038282181607194845 0 -0.018383588532948327 -9.8516121612609336e-05 0 -0.018260942302581025 -0.00013593629883427237 0 -0.017588456394721275 1.1096509872829721e-05 0 -0.017766369372875457 -2.4132207501698104e-05 0 -0.018260942302581025 -0.00013593629883427237 0 -0.017766369372875457 -2.4132207501698104e-05 0 -0.018383588532948327 -9.8516121612609336e-05 0 -0.018260942302581025 -0.00013593629883427237 0 -0.017588456394721275 1.1096509872829721e-05 0 -0.018260942302581025 -0.00013593629883427237 0 -0.018098689061891514 -5.0545518647778294e-05 0 -0.018260942302581025 -0.00013593629883427237 0 -0.018098689061891514 -5.0545518647778294e-05 0 -0.018854365194111922 -0.00039338595810174161 0 -0.018919453682601159 -0.00038282181607194845 0 -0.018260942302581025 -0.00013593629883427237 0 -0.018854365194111922 -0.00039338595810174161 0 -0.019698866855410543 -0.00087275600617043713 0 -0.018854365194111922 -0.00039338595810174161 0 -0.018466174749852692 -0.00012091371393601657 0 -0.018098689061891514 -5.0545518647778294e-05 0 -0.018854365194111922 -0.00039338595810174161 0 -0.018466174749852692 -0.00012091371393601657 0 -0.018098689061891514 -5.0545518647778294e-05 0 -0.017874807908490782 5.0129208392907281e-05 0 -0.018466174749852692 -0.00012091371393601657 0 -0.017874807908490782 5.0129208392907281e-05 0 -0.017235339990722336 8.748462146046606e-05 0 -0.017817317658731877 8.205175192396987e-05 0 -0.017874807908490782 5.0129208392907281e-05 0 -0.017312277333572757 6.8714768716475613e-05 0 -0.017235339990722336 8.748462146046606e-05 0 -0.018098689061891514 -5.0545518647778294e-05 0 -0.017874807908490782 5.0129208392907281e-05 0 -0.017312277333572757 6.8714768716475613e-05 0 -0.017588456394721275 1.1096509872829721e-05 0 -0.018098689061891514 -5.0545518647778294e-05 0 -0.017312277333572757 6.8714768716475613e-05 0 -0.017312277333572757 6.8714768716475613e-05 0 -0.017235339990722336 8.748462146046606e-05 0 -0.016403494492349447 3.8873991014568861e-05 0 -0.017235339990722336 8.748462146046606e-05 0 -0.0173607713568051 4.5866023502306246e-05 0 -0.016673629177400017 1.6694498327969261e-06 0 -0.017235339990722336 8.748462146046606e-05 0 -0.0173607713568051 4.5866023502306246e-05 0 -0.017817317658731877 8.205175192396987e-05 0 -0.017683391953481301 4.9875952895567607e-05 0 -0.017879369572005626 6.9608551004490788e-05 0 -0.017817317658731877 8.205175192396987e-05 0 -0.0173607713568051 4.5866023502306246e-05 0 -0.017683391953481301 4.9875952895567607e-05 0 -0.017817317658731877 8.205175192396987e-05 0 -0.017683391953481301 4.9875952895567607e-05 0 -0.017879369572005626 6.9608551004490788e-05 0 -0.017835255346897859 -7.0888647658134239e-05 0 -0.017879369572005626 6.9608551004490788e-05 0 -0.018059011760708715 -6.2205754544318375e-05 0 -0.017833931835710783 9.9276266044275568e-06 0 -0.017879369572005626 6.9608551004490788e-05 0 -0.018078140565056799 2.8200346960804398e-05 0 -0.018059011760708715 -6.2205754544318375e-05 0 -0.017879369572005626 6.9608551004490788e-05 0 -0.017817317658731877 8.205175192396987e-05 0 -0.018078140565056799 2.8200346960804398e-05 0 -0.017874807908490782 5.0129208392907281e-05 0 -0.017817317658731877 8.205175192396987e-05 0 -0.018078140565056799 2.8200346960804398e-05 0 -0.017874807908490782 5.0129208392907281e-05 0 -0.018078140565056799 2.8200346960804398e-05 0 -0.018466174749852692 -0.00012091371393601657 0 -0.018078140565056799 2.8200346960804398e-05 0 -0.018466174749852692 -0.00012091371393601657 0 -0.018059011760708715 -6.2205754544318375e-05 0 -0.019698866855410543 -0.00087275600617043713 0 -0.018466174749852692 -0.00012091371393601657 0 -0.018411896896045596 -0.00042487476247719098 0 -0.018411896896045596 -0.00042487476247719098 0 -0.018059011760708715 -6.2205754544318375e-05 0 -0.017891082690283867 -0.00053486399179831156 0 -0.018466174749852692 -0.00012091371393601657 0 -0.018411896896045596 -0.00042487476247719098 0 -0.018059011760708715 -6.2205754544318375e-05 0 -0.018059011760708715 -6.2205754544318375e-05 0 -0.017891082690283867 -0.00053486399179831156 0 -0.017786265465357588 -0.00016819247473263098 0 -0.018059011760708715 -6.2205754544318375e-05 0 -0.017786265465357588 -0.00016819247473263098 0 -0.017833931835710783 9.9276266044275568e-06 0 -0.017891082690283867 -0.00053486399179831156 0 -0.017786265465357588 -0.00016819247473263098 0 -0.017443866720018901 -0.00037753128653955539 0 -0.017610255746160573 -0.00076432280850403543 0 -0.017891082690283867 -0.00053486399179831156 0 -0.017443866720018901 -0.00037753128653955539 0 -0.017786265465357588 -0.00016819247473263098 0 -0.017671365174305564 2.9605979621921189e-05 0 -0.017443866720018901 -0.00037753128653955539 0 -0.017671365174305564 2.9605979621921189e-05 0 -0.017833931835710783 9.9276266044275568e-06 0 -0.017783333409610143 3.8233360166899883e-05 0 -0.017786265465357588 -0.00016819247473263098 0 -0.017671365174305564 2.9605979621921189e-05 0 -0.017833931835710783 9.9276266044275568e-06 0 -0.017879369572005626 6.9608551004490788e-05 0 -0.017783333409610143 3.8233360166899883e-05 0 -0.017835255346897859 -7.0888647658134239e-05 0 -0.017879369572005626 6.9608551004490788e-05 0 -0.017833931835710783 9.9276266044275568e-06 0 -0.017783333409610143 3.8233360166899883e-05 0 -0.014918038943451072 -0.00077236808758462179 0 -0.014912460304053771 -0.00093919223146578799 0 -0.014984309774432146 -0.00089621394192330474 0 -0.016249565247219721 -0.00039601332910394003 0 -0.016572801388650131 -0.00048832320002524033 0 -0.017671365174305564 2.9605979621921189e-05 0 -0.017783333409610143 3.8233360166899883e-05 0 -0.017803639225977629 -2.9416933161166009e-05 0 -0.014912460304053771 -0.00093919223146578799 0 -0.014878091490174678 -0.0010340193078795113 0 -0.0149665041363594 -0.0010550292244955401 0 -0.017688050838278759 -3.4507114329429331e-07 0 -0.017754023189966564 -6.7774738210386583e-05 0 -0.017783333409610143 3.8233360166899883e-05 0 -0.017803639225977629 -2.9416933161166009e-05 0 -0.017304967073990058 -0.00012161646696195634 0 -0.016572801388650131 -0.00048832320002524033 0 -0.014730617569009848 -0.00058622749800960278 0 -0.017803639225977629 -2.9416933161166009e-05 0 -0.0175789089921146 -0.00057772076058313444 0 -0.017304967073990058 -0.00012161646696195634 0 -0.012935313835769088 -0.00099497508217380004 0 -0.012685577997268684 -0.00055253323008476528 0 -0.013328469518701052 -0.00066153663837722966 0 -0.014730617569009848 -0.00058622749800960278 0 -0.013952678491646121 -0.00085739786688101768 0 -0.012935313835769088 -0.00099497508217380004 0 -0.01328061174836888 -0.0011623428028585188 0 -0.012995088192157413 -0.0014373179027838418 0 -0.012935313835769088 -0.00099497508217380004 0 -0.013328469518701052 -0.00066153663837722966 0 -0.01328061174836888 -0.0011623428028585188 0 -0.012935313835769088 -0.00099497508217380004 0 -0.012445585270059385 -0.0011821778919665217 0 -0.012995088192157413 -0.0014373179027838418 0 -0.014730617569009848 -0.00058622749800960278 0 -0.012807373455080776 -0.00079180944068894484 0 -0.012935313835769088 -0.00099497508217380004 0 -0.012685577997268684 -0.00055253323008476528 0 -0.012445585270059385 -0.0011821778919665217 0 -0.013492586258806427 -0.00047178472932411856 0 -0.013630093185156653 -0.000384476939428539 0 -0.013629076886755291 -0.00050972727202861629 0 -0.013492586258806427 -0.00047178472932411856 0 -0.013630093185156653 -0.000384476939428539 0 -0.013559588096568478 -0.00029202034911616993 0 -0.013559588096568478 -0.00029202034911616993 0 -0.013695398570287336 -0.00025568316886318346 0 -0.01364433104923848 -0.00023669108819946973 0 -0.013630093185156653 -0.000384476939428539 0 -0.013559588096568478 -0.00029202034911616993 0 -0.013695398570287336 -0.00025568316886318346 0 -0.013695398570287336 -0.00025568316886318346 0 -0.013763518328587351 -0.00040820122289671553 0 -0.013850717132207735 -0.00020541269714781637 0 -0.013630093185156653 -0.000384476939428539 0 -0.013695398570287336 -0.00025568316886318346 0 -0.013763518328587351 -0.00040820122289671553 0 -0.013630093185156653 -0.000384476939428539 0 -0.013763518328587351 -0.00040820122289671553 0 -0.013629076886755291 -0.00050972727202861629 0 -0.013763518328587351 -0.00040820122289671553 0 -0.013789341718005402 -0.00058153588807337926 0 -0.013629076886755291 -0.00050972727202861629 0 -0.017189051135124638 -0.00055431251656316025 0 -0.017434204597126208 -8.1432744516518127e-05 0 -0.017019804789769027 -0.00012319759738097899 0 -0.016000468933833077 -0.00043665507853897484 0 -0.017754023189966564 -6.7774738210386583e-05 0 -0.016000468933833077 -0.00043665507853897484 0 -0.015431936436158067 -0.00051548935048626929 0 -0.0175789089921146 -0.00057772076058313444 0 -0.017200937209098821 -0.00051148115538214101 0 -0.017304967073990058 -0.00012161646696195634 0 -0.016777813114092221 -0.00043390611631347108 0 -0.017200937209098821 -0.00051148115538214101 0 -0.017304967073990058 -0.00012161646696195634 0 -0.014730617569009848 -0.00058622749800960278 0 -0.015431936436158067 -0.00051548935048626929 0 -0.017683391953481301 4.9875952895567607e-05 0 -0.017835255346897859 -7.0888647658134239e-05 0 -0.017434204597126208 -8.1432744516518127e-05 0 -0.017189051135124638 -0.00055431251656316025 0 -0.017835255346897859 -7.0888647658134239e-05 0 -0.017434204597126208 -8.1432744516518127e-05 0 -0.0173607713568051 4.5866023502306246e-05 0 -0.017683391953481301 4.9875952895567607e-05 0 -0.017434204597126208 -8.1432744516518127e-05 0 -0.0173607713568051 4.5866023502306246e-05 0 -0.017434204597126208 -8.1432744516518127e-05 0 -0.017019804789769027 -0.00012319759738097899 0 -0.017019804789769027 -0.00012319759738097899 0 -0.016673629177400017 1.6694498327969261e-06 0 -0.016347378034723452 -0.00030127566537926963 0 -0.0173607713568051 4.5866023502306246e-05 0 -0.017019804789769027 -0.00012319759738097899 0 -0.016673629177400017 1.6694498327969261e-06 0 -0.017235339990722336 8.748462146046606e-05 0 -0.016673629177400017 1.6694498327969261e-06 0 -0.016403494492349447 3.8873991014568861e-05 0 -0.016673629177400017 1.6694498327969261e-06 0 -0.016054969660672821 -0.00011330776736451364 0 -0.016347378034723452 -0.00030127566537926963 0 -0.016403494492349447 3.8873991014568861e-05 0 -0.016054969660672821 -0.00011330776736451364 0 -0.01521276246265049 -0.00012193119907368798 0 -0.016673629177400017 1.6694498327969261e-06 0 -0.016403494492349447 3.8873991014568861e-05 0 -0.016054969660672821 -0.00011330776736451364 0 -0.016054969660672821 -0.00011330776736451364 0 -0.01559946795924734 -0.00025614946927325757 0 -0.016347378034723452 -0.00030127566537926963 0 -0.016054969660672821 -0.00011330776736451364 0 -0.01559946795924734 -0.00025614946927325757 0 -0.01521276246265049 -0.00012193119907368798 0 -0.01559946795924734 -0.00025614946927325757 0 -0.016347378034723452 -0.00030127566537926963 0 -0.016097221546256184 -0.00053186675954289536 0 -0.017189051135124638 -0.00055431251656316025 0 -0.017019804789769027 -0.00012319759738097899 0 -0.016347378034723452 -0.00030127566537926963 0 -0.016575682608091433 -0.00035204004707299754 0 -0.016347378034723452 -0.00030127566537926963 0 -0.016097221546256184 -0.00053186675954289536 0 -0.016000468933833077 -0.00043665507853897484 0 -0.016647130260711289 -0.00040920588584284401 0 -0.016000468933833077 -0.00043665507853897484 0 -0.014920024394442764 -0.00054423922628525265 0 -0.013763518328587351 -0.00040820122289671553 0 -0.013789341718005402 -0.00058153588807337926 0 -0.013944938099568451 -0.0005569086863927952 0 -0.013763518328587351 -0.00040820122289671553 0 -0.013944938099568451 -0.0005569086863927952 0 -0.013993310433594551 -0.00033166264041019426 0 -0.013695398570287336 -0.00025568316886318346 0 -0.013850717132207735 -0.00020541269714781637 0 -0.01377957693878808 -0.00017596100732294992 0 -0.013763518328587351 -0.00040820122289671553 0 -0.013993310433594551 -0.00033166264041019426 0 -0.013850717132207735 -0.00020541269714781637 0 -0.013993310433594551 -0.00033166264041019426 0 -0.013850717132207735 -0.00020541269714781637 0 -0.013981661636548477 -0.00016954321339860795 0 -0.013981661636548477 -0.00016954321339860795 0 -0.0137583971547425 -0.00012794069316317884 0 -0.013661232169550987 -0.00014309372318036448 0 -0.013850717132207735 -0.00020541269714781637 0 -0.013981661636548477 -0.00016954321339860795 0 -0.013661232169550987 -0.00014309372318036448 0 -0.013993310433594551 -0.00033166264041019426 0 -0.013981661636548477 -0.00016954321339860795 0 -0.014536866910485146 -0.00040553442685528483 0 -0.013981661636548477 -0.00016954321339860795 0 -0.014536866910485146 -0.00040553442685528483 0 -0.0137583971547425 -0.00012794069316317884 0 -0.01559946795924734 -0.00025614946927325757 0 -0.014536866910485146 -0.00040553442685528483 0 -0.01521276246265049 -0.00012193119907368798 0 -0.013944938099568451 -0.0005569086863927952 0 -0.013993310433594551 -0.00033166264041019426 0 -0.014536866910485146 -0.00040553442685528483 0 -0.014920024394442764 -0.00054423922628525265 0 -0.014761121919995365 -0.00041631952404869009 0 -0.01559946795924734 -0.00025614946927325757 0 -0.016097221546256184 -0.00053186675954289536 0 -0.014536866910485146 -0.00040553442685528483 0 -0.014536866910485146 -0.00040553442685528483 0 -0.014202138815596841 -0.00012649163676490551 0 -0.01521276246265049 -0.00012193119907368798 0 -0.014536866910485146 -0.00040553442685528483 0 -0.014202138815596841 -0.00012649163676490551 0 -0.0137583971547425 -0.00012794069316317884 0 -0.014202138815596841 -0.00012649163676490551 0 -0.0137583971547425 -0.00012794069316317884 0 -0.012653639950439529 5.5266648770927246e-07 0 -0.014202138815596841 -0.00012649163676490551 0 -0.012653639950439529 5.5266648770927246e-07 0 -0.014118250030955678 -3.4998224026968982e-07 0 -0.014202138815596841 -0.00012649163676490551 0 -0.014118250030955678 -3.4998224026968982e-07 0 -0.01521276246265049 -0.00012193119907368798 0 -0.014118250030955678 -3.4998224026968982e-07 0 -0.01521276246265049 -0.00012193119907368798 0 -0.015634778167407503 -1.1902166168366155e-06 0 -0.016403494492349447 3.8873991014568861e-05 0 -0.01521276246265049 -0.00012193119907368798 0 -0.015634778167407503 -1.1902166168366155e-06 0 -0.014118250030955678 -3.4998224026968982e-07 0 -0.015634778167407503 -1.1902166168366155e-06 0 -0.015582147429743251 1.4476270979101618e-07 0 -0.01541329319252248 -0.00084327431286865067 0 -0.016233188848003063 -0.0010428006658087074 0 -0.015579869115763064 -0.00083987579911960547 0 -0.015694616512786398 -0.00071759473838600805 0 -0.015612096771548555 -0.00074646219999163245 0 -0.015579869115763064 -0.00083987579911960547 0 -0.015612096771548555 -0.00074646219999163245 0 -0.01553253012221568 -0.00075757606259188224 0 -0.015387837144779194 -0.0008740199326709321 0 -0.01553253012221568 -0.00075757606259188224 0 -0.015371339857966022 -0.0007910790034886732 0 -0.015579869115763064 -0.00083987579911960547 0 -0.015387837144779194 -0.0008740199326709321 0 -0.01553253012221568 -0.00075757606259188224 0 -0.015387837144779194 -0.0008740199326709321 0 -0.015248923477590725 -0.00096371553027603367 0 -0.015353139063358631 -0.00096076289949175711 0 -0.015579869115763064 -0.00083987579911960547 0 -0.015387837144779194 -0.0008740199326709321 0 -0.015353139063358631 -0.00096076289949175711 0 -0.015383210987972266 -0.00090399691998923281 0 -0.015403289801488853 -0.00095018233075067733 0 -0.015353139063358631 -0.00096076289949175711 0 -0.015403289801488853 -0.00095018233075067733 0 -0.01537392018653851 -0.00097510192992820847 0 -0.015353139063358631 -0.00096076289949175711 0 -0.01541329319252248 -0.00084327431286865067 0 -0.015388606004810188 -0.0009547598983062612 0 -0.015403289801488853 -0.00095018233075067733 0 -0.015425439335074046 -0.00096416843117546811 0 -0.01540604494086492 -0.00096766709564382876 0 -0.015403289801488853 -0.00095018233075067733 0 -0.015526131002911689 -0.0010224834936053773 0 -0.015497892610539441 -0.00092288261974985113 0 -0.01520519659112125 -0.00085936557436121599 0 -0.015922849166497884 -0.0016489390940023119 0 -0.015403289801488853 -0.00095018233075067733 0 -0.01537392018653851 -0.00097510192992820847 0 -0.01540604494086492 -0.00096766709564382876 0 -0.015403289801488853 -0.00095018233075067733 0 -0.015497892610539441 -0.00092288261974985113 0 -0.015466318643402682 -0.00088377848312932343 0 -0.017229719769591513 -0.0028794783090596936 0 -0.017908947134293713 -0.002514324467053746 0 -0.017616375854493233 -0.001680653756728606 0 -0.018054513439190581 -0.0032622662444428707 0 -0.017229719769591513 -0.0028794783090596936 0 -0.017908947134293713 -0.002514324467053746 0 -0.015922849166497884 -0.0016489390940023119 0 -0.017223612535482345 -0.0014378209224756449 0 -0.015526131002911689 -0.0010224834936053773 0 -0.015497892610539441 -0.00092288261974985113 0 -0.01559709970403967 -0.000831720675524582 0 -0.015497892610539441 -0.00092288261974985113 0 -0.01559709970403967 -0.000831720675524582 0 -0.015466318643402682 -0.00088377848312932343 0 -0.01559709970403967 -0.000831720675524582 0 -0.015466318643402682 -0.00088377848312932343 0 -0.015465442560158861 -0.00076332489097610823 0 -0.015383210987972266 -0.00090399691998923281 0 -0.015466318643402682 -0.00088377848312932343 0 -0.015465442560158861 -0.00076332489097610823 0 -0.015383210987972266 -0.00090399691998923281 0 -0.015403289801488853 -0.00095018233075067733 0 -0.015466318643402682 -0.00088377848312932343 0 -0.017223612535482345 -0.0014378209224756449 0 -0.016233188848003063 -0.0010428006658087074 0 -0.017791051303527542 -0.0017935383849505353 0 -0.017087406108538698 -0.001404773732833203 0 -0.017613658306418971 -0.0012223524424130874 0 -0.017223612535482345 -0.0014378209224756449 0 -0.018050314948471872 -0.0011382684618462095 0 -0.018329762675572625 -0.0016570864752477768 0 -0.017817959613935844 -0.0018169735927530256 0 -0.018040258551220809 -0.0011187511857220203 0 -0.017791051303527542 -0.0017935383849505353 0 -0.017613658306418971 -0.0012223524424130874 0 -0.018021483532546251 -0.0011044632011049669 0 -0.017613658306418971 -0.0012223524424130874 0 -0.018021483532546251 -0.0011044632011049669 0 -0.017554157970602561 -0.00058398894534953511 0 -0.018262845178738111 -0.00040777516286357709 0 -0.018021483532546251 -0.0011044632011049669 0 -0.017554157970602561 -0.00058398894534953511 0 -0.016233188848003063 -0.0010428006658087074 0 -0.017615525343997688 -0.00058941640194174892 0 -0.016955962703540682 -0.0014246785278648995 0 -0.017475146899068719 -0.00054650718127397283 0 -0.016786923797576202 -0.00069825693476458384 0 -0.017087406108538698 -0.001404773732833203 0 -0.017613658306418971 -0.0012223524424130874 0 -0.017554157970602561 -0.00058398894534953511 0 -0.016512807288459525 -0.00025765008900779517 0 -0.016786923797576202 -0.00069825693476458384 0 -0.016252539724193552 -0.00058360719323885351 0 -0.016955962703540682 -0.0014246785278648995 0 -0.016786923797576202 -0.00069825693476458384 0 -0.016379213123704623 -0.0011109062380586464 0 -0.01602109209583788 -0.00088609859284943056 0 -0.015747051407480617 -0.00069324542802041858 0 -0.016252539724193552 -0.00058360719323885351 0 -0.016379213123704623 -0.0011109062380586464 0 -0.015716639784495053 -0.00064430009605125906 0 -0.016786923797576202 -0.00069825693476458384 0 -0.016252539724193552 -0.00058360719323885351 0 -0.016379213123704623 -0.0011109062380586464 0 -0.016233188848003063 -0.0010428006658087074 0 -0.01602109209583788 -0.00088609859284943056 0 -0.015694616512786398 -0.00071759473838600805 0 -0.015640496996399494 -0.0006773410017537994 0 -0.015612096771548555 -0.00074646219999163245 0 -0.015640496996399494 -0.0006773410017537994 0 -0.015612096771548555 -0.00074646219999163245 0 -0.01553253012221568 -0.00075757606259188224 0 -0.015640496996399494 -0.0006773410017537994 0 -0.015544136859282749 -0.00070615168046610981 0 -0.01553253012221568 -0.00075757606259188224 0 -0.015544136859282749 -0.00070615168046610981 0 -0.01553253012221568 -0.00075757606259188224 0 -0.015371339857966022 -0.0007910790034886732 0 -0.015640496996399494 -0.0006773410017537994 0 -0.015544136859282749 -0.00070615168046610981 0 -0.015716639784495053 -0.00064430009605125906 0 -0.015544136859282749 -0.00070615168046610981 0 -0.015716639784495053 -0.00064430009605125906 0 -0.015480088699315818 -0.00043779979169207063 0 -0.015901376542763229 -0.00031271039444467804 0 -0.016252539724193552 -0.00058360719323885351 0 -0.015716639784495053 -0.00064430009605125906 0 -0.015901376542763229 -0.00031271039444467804 0 -0.015716639784495053 -0.00064430009605125906 0 -0.015480088699315818 -0.00043779979169207063 0 -0.01537483688822552 -0.00062677435424358604 0 -0.015480088699315818 -0.00043779979169207063 0 -0.015130515941105378 -0.00049092288770197061 0 -0.015544136859282749 -0.00070615168046610981 0 -0.01537483688822552 -0.00062677435424358604 0 -0.015480088699315818 -0.00043779979169207063 0 -0.01537483688822552 -0.00062677435424358604 0 -0.015130515941105378 -0.00049092288770197061 0 -0.015238986627160809 -0.00071037965755455944 0 -0.015238986627160809 -0.00071037965755455944 0 -0.01510402794392368 -0.00073393032102907544 0 -0.015193559121796782 -0.0008254167417250833 0 -0.015130515941105378 -0.00049092288770197061 0 -0.015238986627160809 -0.00071037965755455944 0 -0.01510402794392368 -0.00073393032102907544 0 -0.015544136859282749 -0.00070615168046610981 0 -0.01537483688822552 -0.00062677435424358604 0 -0.015371339857966022 -0.0007910790034886732 0 -0.01537483688822552 -0.00062677435424358604 0 -0.015238986627160809 -0.00071037965755455944 0 -0.015371339857966022 -0.0007910790034886732 0 -0.015323820845370123 -0.00034405308624962868 0 -0.015005851912914746 -0.00045264448511544818 0 -0.015204983595064862 -0.00062395385719503284 0 -0.015139463067213482 -7.7390652148485566e-05 0 -0.015323820845370123 -0.00034405308624962868 0 -0.015005851912914746 -0.00045264448511544818 0 -0.015229130193347949 -0.00041073676130747602 0 -0.015152635332142953 -0.00067459036661886957 0 -0.014918038943451072 -0.00077236808758462179 0 -0.015005851912914746 -0.00045264448511544818 0 -0.015204983595064862 -0.00062395385719503284 0 -0.016249565247219721 -0.00039601332910394003 0 -0.016311894460892269 -0.00036885397112281822 0 -0.014918038943451072 -0.00077236808758462179 0 -0.015204983595064862 -0.00062395385719503284 0 -0.015083994924711037 -0.00085113962390832507 0 -0.015152635332142953 -0.00067459036661886957 0 -0.015092063762534578 -0.0008374072303782348 0 -0.01510402794392368 -0.00073393032102907544 0 -0.015083994924711037 -0.00085113962390832507 0 -0.015193559121796782 -0.0008254167417250833 0 -0.015083994924711037 -0.00085113962390832507 0 -0.015193559121796782 -0.0008254167417250833 0 -0.015127862327510112 -0.00091467729365182153 0 -0.015083994924711037 -0.00085113962390832507 0 -0.015127862327510112 -0.00091467729365182153 0 -0.015026270734439278 -0.00097473006032434506 0 -0.015083994924711037 -0.00085113962390832507 0 -0.014984309774432146 -0.00089621394192330474 0 -0.015026270734439278 -0.00097473006032434506 0 -0.014918038943451072 -0.00077236808758462179 0 -0.015083994924711037 -0.00085113962390832507 0 -0.014984309774432146 -0.00089621394192330474 0 -0.015387837144779194 -0.0008740199326709321 0 -0.015371339857966022 -0.0007910790034886732 0 -0.015236818274195782 -0.00090053482857371911 0 -0.015371339857966022 -0.0007910790034886732 0 -0.015193559121796782 -0.0008254167417250833 0 -0.015236818274195782 -0.00090053482857371911 0 -0.015238986627160809 -0.00071037965755455944 0 -0.015371339857966022 -0.0007910790034886732 0 -0.015193559121796782 -0.0008254167417250833 0 -0.015193559121796782 -0.0008254167417250833 0 -0.015127862327510112 -0.00091467729365182153 0 -0.015236818274195782 -0.00090053482857371911 0 -0.015387837144779194 -0.0008740199326709321 0 -0.015236818274195782 -0.00090053482857371911 0 -0.015248923477590725 -0.00096371553027603367 0 -0.015236818274195782 -0.00090053482857371911 0 -0.015248923477590725 -0.00096371553027603367 0 -0.015117791633557972 -0.00098656548858538982 0 -0.015248923477590725 -0.00096371553027603367 0 -0.015117791633557972 -0.00098656548858538982 0 -0.015197650720443767 -0.001012047108341735 0 -0.015127862327510112 -0.00091467729365182153 0 -0.015236818274195782 -0.00090053482857371911 0 -0.015117791633557972 -0.00098656548858538982 0 -0.015117791633557972 -0.00098656548858538982 0 -0.015038630347202155 -0.0010465618997111468 0 -0.015042880708661161 -0.0010272437852378458 0 -0.015038630347202155 -0.0010465618997111468 0 -0.015109034713802552 -0.0010629019300939996 0 -0.015197650720443767 -0.001012047108341735 0 -0.015117791633557972 -0.00098656548858538982 0 -0.015038630347202155 -0.0010465618997111468 0 -0.015197650720443767 -0.001012047108341735 0 -0.014912460304053771 -0.00093919223146578799 0 -0.015026270734439278 -0.00097473006032434506 0 -0.0149665041363594 -0.0010550292244955401 0 -0.014912460304053771 -0.00093919223146578799 0 -0.014984309774432146 -0.00089621394192330474 0 -0.015026270734439278 -0.00097473006032434506 0 -0.015127862327510112 -0.00091467729365182153 0 -0.015117791633557972 -0.00098656548858538982 0 -0.015026270734439278 -0.00097473006032434506 0 -0.015117791633557972 -0.00098656548858538982 0 -0.015026270734439278 -0.00097473006032434506 0 -0.015042880708661161 -0.0010272437852378458 0 -0.015026270734439278 -0.00097473006032434506 0 -0.015042880708661161 -0.0010272437852378458 0 -0.0149665041363594 -0.0010550292244955401 0 -0.013952678491646121 -0.00085739786688101768 0 -0.014589392206504993 -0.00093121325205631502 0 -0.013328469518701052 -0.00066153663837722966 0 -0.014053993468420407 -0.00078186534690949394 0 -0.01366886844576636 -0.001119332375109774 0 -0.015042880708661161 -0.0010272437852378458 0 -0.0149665041363594 -0.0010550292244955401 0 -0.015036355849490226 -0.0010498269652666962 0 -0.014132695685712038 -0.0013670447095766815 0 -0.01366886844576636 -0.001119332375109774 0 -0.013484518840157451 -0.0015847467317306326 0 -0.014053993468420407 -0.00078186534690949394 0 -0.014132695685712038 -0.0013670447095766815 0 -0.01366886844576636 -0.001119332375109774 0 -0.01366886844576636 -0.001119332375109774 0 -0.01328061174836888 -0.0011623428028585188 0 -0.013484518840157451 -0.0015847467317306326 0 -0.013328469518701052 -0.00066153663837722966 0 -0.01366886844576636 -0.001119332375109774 0 -0.01328061174836888 -0.0011623428028585188 0 -0.015038630347202155 -0.0010465618997111468 0 -0.014920688976168807 -0.0010582377084108682 0 -0.015109034713802552 -0.0010629019300939996 0 -0.014920688976168807 -0.0010582377084108682 0 -0.015109034713802552 -0.0010629019300939996 0 -0.01517268330087587 -0.0012133012555199233 0 -0.015038630347202155 -0.0010465618997111468 0 -0.015042880708661161 -0.0010272437852378458 0 -0.015036355849490226 -0.0010498269652666962 0 -0.014589392206504993 -0.00093121325205631502 0 -0.014876404044046262 -0.0010342814910092096 0 -0.015038630347202155 -0.0010465618997111468 0 -0.015036355849490226 -0.0010498269652666962 0 -0.014920688976168807 -0.0010582377084108682 0 -0.014132695685712038 -0.0013670447095766815 0 -0.014920688976168807 -0.0010582377084108682 0 -0.014759156209655792 -0.0014182103242672424 0 -0.014053993468420407 -0.00078186534690949394 0 -0.014132695685712038 -0.0013670447095766815 0 -0.014920688976168807 -0.0010582377084108682 0 -0.014920688976168807 -0.0010582377084108682 0 -0.01517268330087587 -0.0012133012555199233 0 -0.014759156209655792 -0.0014182103242672424 0 -0.01517268330087587 -0.0012133012555199233 0 -0.015354993335823165 -0.0011861034443432432 0 -0.015334570266164518 -0.0013373663117745489 0 -0.01517268330087587 -0.0012133012555199233 0 -0.015287505795293314 -0.0010817395359739369 0 -0.015354993335823165 -0.0011861034443432432 0 -0.015109034713802552 -0.0010629019300939996 0 -0.01517268330087587 -0.0012133012555199233 0 -0.015287505795293314 -0.0010817395359739369 0 -0.015109034713802552 -0.0010629019300939996 0 -0.015287505795293314 -0.0010817395359739369 0 -0.015197650720443767 -0.001012047108341735 0 -0.015287505795293314 -0.0010817395359739369 0 -0.015197650720443767 -0.001012047108341735 0 -0.015306797975080876 -0.0010065821039481214 0 -0.015287505795293314 -0.0010817395359739369 0 -0.015306797975080876 -0.0010065821039481214 0 -0.015372653070395105 -0.0010310548172978195 0 -0.015306797975080876 -0.0010065821039481214 0 -0.01537392018653851 -0.00097510192992820847 0 -0.015353139063358631 -0.00096076289949175711 0 -0.015306797975080876 -0.0010065821039481214 0 -0.01537392018653851 -0.00097510192992820847 0 -0.015372653070395105 -0.0010310548172978195 0 -0.015248923477590725 -0.00096371553027603367 0 -0.015306797975080876 -0.0010065821039481214 0 -0.015353139063358631 -0.00096076289949175711 0 -0.015248923477590725 -0.00096371553027603367 0 -0.015197650720443767 -0.001012047108341735 0 -0.015306797975080876 -0.0010065821039481214 0 -0.015571491510880851 -0.00096553969169865198 0 -0.015445562964071471 -0.00092140169381864649 0 -0.015490978896021333 -0.0010119865600086676 0 -0.015445562964071471 -0.00092140169381864649 0 -0.015490978896021333 -0.0010119865600086676 0 -0.015421304925209416 -0.00099073547859906161 0 -0.017041232228311821 -0.002260940852930477 0 -0.015922849166497884 -0.0016489390940023119 0 -0.015922849166497884 -0.0016489390940023119 0 -0.01560704150020965 -0.00092402880712078592 0 -0.015425439335074046 -0.00096416843117546811 0 -0.01540604494086492 -0.00096766709564382876 0 -0.015421304925209416 -0.00099073547859906161 0 -0.01537392018653851 -0.00097510192992820847 0 -0.01540604494086492 -0.00096766709564382876 0 -0.015421304925209416 -0.00099073547859906161 0 -0.01537392018653851 -0.00097510192992820847 0 -0.015421304925209416 -0.00099073547859906161 0 -0.015372653070395105 -0.0010310548172978195 0 -0.015421304925209416 -0.00099073547859906161 0 -0.015440767480632795 -0.0010476313358539838 0 -0.015372653070395105 -0.0010310548172978195 0 -0.015287505795293314 -0.0010817395359739369 0 -0.015372653070395105 -0.0010310548172978195 0 -0.015419867629072203 -0.0011183642192828856 0 -0.015440767480632795 -0.0010476313358539838 0 -0.015372653070395105 -0.0010310548172978195 0 -0.015419867629072203 -0.0011183642192828856 0 -0.015440767480632795 -0.0010476313358539838 0 -0.01551200915288291 -0.0010857266666916075 0 -0.015419867629072203 -0.0011183642192828856 0 -0.015490978896021333 -0.0010119865600086676 0 -0.015421304925209416 -0.00099073547859906161 0 -0.015440767480632795 -0.0010476313358539838 0 -0.015490978896021333 -0.0010119865600086676 0 -0.015440767480632795 -0.0010476313358539838 0 -0.01551200915288291 -0.0010857266666916075 0 -0.015602723078846055 -0.0010388209768659269 0 -0.015490978896021333 -0.0010119865600086676 0 -0.01551200915288291 -0.0010857266666916075 0 -0.01551200915288291 -0.0010857266666916075 0 -0.015490941802523635 -0.0011578967049202481 0 -0.015419867629072203 -0.0011183642192828856 0 -0.015490941802523635 -0.0011578967049202481 0 -0.015419867629072203 -0.0011183642192828856 0 -0.015449512163804234 -0.0012311741816949174 0 -0.015419867629072203 -0.0011183642192828856 0 -0.015354993335823165 -0.0011861034443432432 0 -0.015449512163804234 -0.0012311741816949174 0 -0.015287505795293314 -0.0010817395359739369 0 -0.015419867629072203 -0.0011183642192828856 0 -0.015354993335823165 -0.0011861034443432432 0 -0.015354993335823165 -0.0011861034443432432 0 -0.015449512163804234 -0.0012311741816949174 0 -0.015334570266164518 -0.0013373663117745489 0 -0.012063004121593602 -0.00066898342351858885 0 -0.011937244102380571 -0.00079908406384836847 0 -0.015538796554068068 -0.0011751694256113216 0 -0.015490941802523635 -0.0011578967049202481 0 -0.015449512163804234 -0.0012311741816949174 0 -0.0090763606582990718 -8.9060742469990496e-05 0 -0.0087948211047146462 -0.00067910341669168237 0 -0.009433494002478825 -0.00038005360241508634 0 -0.0090763606582990718 -8.9060742469990496e-05 0 -0.0087948211047146462 -0.00067910341669168237 0 -0.0085143314370107002 -0.00025723035622469243 0 -0.0087948211047146462 -0.00067910341669168237 0 -0.0085354833234940492 -0.001185360669088498 0 -0.0083104014266924542 -0.00079996724759793581 0 -0.0087948211047146462 -0.00067910341669168237 0 -0.0089898594537251783 -0.0011373113515437364 0 -0.0094458583950554568 -0.0008140309271235924 0 -0.0087948211047146462 -0.00067910341669168237 0 -0.009433494002478825 -0.00038005360241508634 0 -0.0094458583950554568 -0.0008140309271235924 0 -0.0089898594537251783 -0.0011373113515437364 0 -0.0094458583950554568 -0.0008140309271235924 0 -0.0093740486830331191 -0.0011452828336840025 0 -0.0089898594537251783 -0.0011373113515437364 0 -0.0092416394447351474 -0.001472363697419869 0 -0.0093740486830331191 -0.0011452828336840025 0 -0.0087948211047146462 -0.00067910341669168237 0 -0.0089898594537251783 -0.0011373113515437364 0 -0.0085354833234940492 -0.001185360669088498 0 -0.0089898594537251783 -0.0011373113515437364 0 -0.0085966428204225197 -0.0016642888040202439 0 -0.0088434795778420203 -0.0019223777784877652 0 -0.0089898594537251783 -0.0011373113515437364 0 -0.0085354833234940492 -0.001185360669088498 0 -0.0085966428204225197 -0.0016642888040202439 0 -0.0090775270712943178 -0.0012174567836494806 0 -0.0085084507252014361 -0.0016572118017251117 0 -0.0085966428204225197 -0.0016642888040202439 0 -0.0082520926692582087 -0.001509534571522297 0 -0.0086445064692953297 -0.0020459802363858898 0 -0.0089898594537251783 -0.0011373113515437364 0 -0.0092416394447351474 -0.001472363697419869 0 -0.0088965978873855878 -0.0016808723632903179 0 -0.0065116476715420023 -0.00067503923233360873 0 -0.0082552244270306732 -0.0020658083650086576 0 -0.006655366908303032 -0.00068347495720270371 0 -0.0080102001020297981 -0.0019270353953859715 0 -0.0068538913026253952 -0.0017629938688034864 0 -0.0080807274662214636 -0.0011953643828212317 0 -0.0077627645882225168 -0.001193114016732585 0 -0.0080102001020297981 -0.0019270353953859715 0 -0.0082520926692582087 -0.001509534571522297 0 -0.0080807274662214636 -0.0011953643828212317 0 -0.0080102001020297981 -0.0019270353953859715 0 -0.0085354833234940492 -0.001185360669088498 0 -0.0085966428204225197 -0.0016642888040202439 0 -0.0082520926692582087 -0.001509534571522297 0 -0.0085354833234940492 -0.001185360669088498 0 -0.0080807274662214636 -0.0011953643828212317 0 -0.0083104014266924542 -0.00079996724759793581 0 -0.0085354833234940492 -0.001185360669088498 0 -0.0082520926692582087 -0.001509534571522297 0 -0.0080807274662214636 -0.0011953643828212317 0 -0.0080807274662214636 -0.0011953643828212317 0 -0.0078957913422608491 -0.00086796069755451456 0 -0.0083104014266924542 -0.00079996724759793581 0 -0.0080807274662214636 -0.0011953643828212317 0 -0.0077627645882225168 -0.001193114016732585 0 -0.0078957913422608491 -0.00086796069755451456 0 -0.0078957913422608491 -0.00086796069755451456 0 -0.0083104014266924542 -0.00079996724759793581 0 -0.0079348253291501927 -0.00047171384324956161 0 -0.0087948211047146462 -0.00067910341669168237 0 -0.0083104014266924542 -0.00079996724759793581 0 -0.0085143314370107002 -0.00025723035622469243 0 -0.0083104014266924542 -0.00079996724759793581 0 -0.0085143314370107002 -0.00025723035622469243 0 -0.0079348253291501927 -0.00047171384324956161 0 -0.011937244102380571 -0.00079908406384836847 0 -0.01161558091348253 -0.0010227030111014559 0 -0.01517268330087587 -0.0012133012555199233 0 -0.015334570266164518 -0.0013373663117745489 0 -0.015105775173533363 -0.0015466642843571055 0 -0.01161558091348253 -0.0010227030111014559 0 -0.010454280931478712 -0.0010086452845482438 0 -0.01517268330087587 -0.0012133012555199233 0 -0.015105775173533363 -0.0015466642843571055 0 -0.014759156209655792 -0.0014182103242672424 0 -0.015105775173533363 -0.0015466642843571055 0 -0.014759156209655792 -0.0014182103242672424 0 -0.014662286203494676 -0.0018414641370014658 0 -0.014132695685712038 -0.0013670447095766815 0 -0.014759156209655792 -0.0014182103242672424 0 -0.014662286203494676 -0.0018414641370014658 0 -0.015499259450737187 -0.0020519831810344325 0 -0.010454280931478712 -0.0010086452845482438 0 -0.014132695685712038 -0.0013670447095766815 0 -0.014429057933742063 -0.0018871247802625187 0 -0.013942774427591158 -0.0017510203210711153 0 -0.0058953322307256075 -0.00012662804642863085 0 -0.0056719794688505892 -0.00044351458304365686 0 -0.0058076014433172665 -0.00044737933357366953 0 -0.010454280931478712 -0.0010086452845482438 0 -0.0094325138796318431 -0.00126345972634704 0 -0.0058953322307256075 -0.00012662804642863085 0 -0.006006037492816761 -0.00061451219922092394 0 -0.0058076014433172665 -0.00044737933357366953 0 -0.0078957913422608491 -0.00086796069755451456 0 -0.0079348253291501927 -0.00047171384324956161 0 -0.007440524226363255 -0.00068221587496338377 0 -0.0077627645882225168 -0.001193114016732585 0 -0.0078957913422608491 -0.00086796069755451456 0 -0.007440524226363255 -0.00068221587496338377 0 -0.013484518840157451 -0.0015847467317306326 0 -0.013942774427591158 -0.0017510203210711153 0 -0.013633193654470644 -0.0018731339425514264 0 -0.014132695685712038 -0.0013670447095766815 0 -0.013484518840157451 -0.0015847467317306326 0 -0.013942774427591158 -0.0017510203210711153 0 -0.014429057933742063 -0.0018871247802625187 0 -0.013942774427591158 -0.0017510203210711153 0 -0.013866409831042521 -0.0021304839576339728 0 -0.013942774427591158 -0.0017510203210711153 0 -0.013866409831042521 -0.0021304839576339728 0 -0.013633193654470644 -0.0018731339425514264 0 -0.013484518840157451 -0.0015847467317306326 0 -0.013238410162094701 -0.0020304894172482593 0 -0.013066704236547679 -0.0017640791853816911 0 -0.013866409831042521 -0.0021304839576339728 0 -0.013238410162094701 -0.0020304894172482593 0 -0.013158054292736681 -0.0023895982699093476 0 -0.013866409831042521 -0.0021304839576339728 0 -0.013633193654470644 -0.0018731339425514264 0 -0.013238410162094701 -0.0020304894172482593 0 -0.013484518840157451 -0.0015847467317306326 0 -0.013633193654470644 -0.0018731339425514264 0 -0.013238410162094701 -0.0020304894172482593 0 -0.0056719794688505892 -0.00044351458304365686 0 -0.0056467835753348551 -0.00059298783087252324 0 -0.0056088143699419037 -0.00055233799093454522 0 -0.0094325138796318431 -0.00126345972634704 0 -0.011015179551982423 -0.0021753402410234005 0 -0.012633827336806422 -0.0019396542180579865 0 -0.011015179551982423 -0.0021753402410234005 0 -0.0056719794688505892 -0.00044351458304365686 0 -0.0056467835753348551 -0.00059298783087252324 0 -0.0057490142085019008 -0.00059303984621666603 0 -0.0056719794688505892 -0.00044351458304365686 0 -0.0057490142085019008 -0.00059303984621666603 0 -0.0058076014433172665 -0.00044737933357366953 0 -0.0056467835753348551 -0.00059298783087252324 0 -0.0057490142085019008 -0.00059303984621666603 0 -0.0056800693288453054 -0.00067488027687756763 0 -0.0056467835753348551 -0.00059298783087252324 0 -0.0056325586185027327 -0.00065254013610094959 0 -0.0056800693288453054 -0.00067488027687756763 0 -0.0056467835753348551 -0.00059298783087252324 0 -0.0056088143699419037 -0.00055233799093454522 0 -0.0055932595228967517 -0.0006451978964359769 0 -0.0056467835753348551 -0.00059298783087252324 0 -0.0056325586185027327 -0.00065254013610094959 0 -0.0055932595228967517 -0.0006451978964359769 0 -0.0065116476715420023 -0.00067503923233360873 0 -0.010454280931478712 -0.0010086452845482438 0 -0.006655366908303032 -0.00068347495720270371 0 -0.0058953322307256075 -0.00012662804642863085 0 -0.006006037492816761 -0.00061451219922092394 0 -0.006006037492816761 -0.00061451219922092394 0 -0.0057490142085019008 -0.00059303984621666603 0 -0.0058076014433172665 -0.00044737933357366953 0 -0.0057490142085019008 -0.00059303984621666603 0 -0.0057892081235295613 -0.00068076196921999755 0 -0.0056800693288453054 -0.00067488027687756763 0 -0.006006037492816761 -0.00061451219922092394 0 -0.0057490142085019008 -0.00059303984621666603 0 -0.0057892081235295613 -0.00068076196921999755 0 -0.006006037492816761 -0.00061451219922092394 0 -0.0057892081235295613 -0.00068076196921999755 0 -0.0057360800917115179 -0.00068332801029701809 0 -0.0059567848895582531 -0.00058258055987568051 0 -0.0064082552478746226 -0.0013263792842380419 0 -0.006655366908303032 -0.00068347495720270371 0 -0.006006037492816761 -0.00061451219922092394 0 -0.0068538913026253952 -0.0017629938688034864 0 -0.0057892081235295613 -0.00068076196921999755 0 -0.0056270304953452794 -0.00071198604352686338 0 -0.0057360800917115179 -0.00068332801029701809 0 -0.0057892081235295613 -0.00068076196921999755 0 -0.0056887351754478285 -0.00070535818300442737 0 -0.0056270304953452794 -0.00071198604352686338 0 -0.0057892081235295613 -0.00068076196921999755 0 -0.0056887351754478285 -0.00070535818300442737 0 -0.0056800693288453054 -0.00067488027687756763 0 -0.0056887351754478285 -0.00070535818300442737 0 -0.0056270304953452794 -0.00071198604352686338 0 -0.0056525931404656851 -0.0007102429548739305 0 -0.0056270304953452794 -0.00071198604352686338 0 -0.0056525931404656851 -0.0007102429548739305 0 -0.0056650209731665341 -0.00074565924805209305 0 -0.0056270304953452794 -0.00071198604352686338 0 -0.0054936203868311551 -0.00079241700530021926 0 -0.0057201247960886169 -0.00073768007776188807 0 -0.0056325586185027327 -0.00065254013610094959 0 -0.0056137978737907501 -0.00068828817323118624 0 -0.0055932595228967517 -0.0006451978964359769 0 -0.0056137978737907501 -0.00068828817323118624 0 -0.0056800693288453054 -0.00067488027687756763 0 -0.0056525931404656851 -0.0007102429548739305 0 -0.0056887351754478285 -0.00070535818300442737 0 -0.0056800693288453054 -0.00067488027687756763 0 -0.0056525931404656851 -0.0007102429548739305 0 -0.0056325586185027327 -0.00065254013610094959 0 -0.0056137978737907501 -0.00068828817323118624 0 -0.0056800693288453054 -0.00067488027687756763 0 -0.0056137978737907501 -0.00068828817323118624 0 -0.0056525931404656851 -0.0007102429548739305 0 -0.0055640017687230391 -0.00072129838929597685 0 -0.0056137978737907501 -0.00068828817323118624 0 -0.0055640017687230391 -0.00072129838929597685 0 -0.0055822683063702387 -0.00069736180930275574 0 -0.0055640017687230391 -0.00072129838929597685 0 -0.0055906568108275859 -0.00075308729756808047 0 -0.005473172576726958 -0.00078806340069413822 0 -0.0055640017687230391 -0.00072129838929597685 0 -0.005473172576726958 -0.00078806340069413822 0 -0.0055224685932187042 -0.00072636927127508783 0 -0.0056525931404656851 -0.0007102429548739305 0 -0.0055640017687230391 -0.00072129838929597685 0 -0.0055906568108275859 -0.00075308729756808047 0 -0.0056525931404656851 -0.0007102429548739305 0 -0.0055906568108275859 -0.00075308729756808047 0 -0.0056650209731665341 -0.00074565924805209305 0 -0.0055906568108275859 -0.00075308729756808047 0 -0.005473172576726958 -0.00078806340069413822 0 -0.0056200040664559359 -0.00091442562284190377 0 -0.0055906568108275859 -0.00075308729756808047 0 -0.0056650209731665341 -0.00074565924805209305 0 -0.0056200040664559359 -0.00091442562284190377 0 -0.0056270304953452794 -0.00071198604352686338 0 -0.0054936203868311551 -0.00079241700530021926 0 -0.0053392150446762553 -0.00079508537830272916 0 -0.0054936203868311551 -0.00079241700530021926 0 -0.0053392150446762553 -0.00079508537830272916 0 -0.0053537283288435907 -0.00081650736887650612 0 -0.005640103368739287 -0.00069161326991464738 0 -0.0053962362586722898 -0.00083672122637845831 0 -0.0053962362586722898 -0.00083672122637845831 0 -0.0060739957419651174 -0.00074742661196350747 0 -0.0053392150446762553 -0.00079508537830272916 0 -0.0052676061903752028 -0.00083424944568363563 0 -0.0052073651146070715 -0.00082180698283182755 0 -0.0053392150446762553 -0.00079508537830272916 0 -0.0053537283288435907 -0.00081650736887650612 0 -0.0052676061903752028 -0.00083424944568363563 0 -0.0054936203868311551 -0.00079241700530021926 0 -0.0053537283288435907 -0.00081650736887650612 0 -0.0053685504158956952 -0.00080514943934799322 0 -0.0053537283288435907 -0.00081650736887650612 0 -0.0053685504158956952 -0.00080514943934799322 0 -0.00528658745139094 -0.0008380440399973259 0 -0.0053685504158956952 -0.00080514943934799322 0 -0.0053687381975975603 -0.00081021475592721857 0 -0.0053231888198682388 -0.00082388258459475895 0 -0.0053685504158956952 -0.00080514943934799322 0 -0.005389767816251779 -0.00080601367179884329 0 -0.0053687381975975603 -0.00081021475592721857 0 -0.0054936203868311551 -0.00079241700530021926 0 -0.005389767816251779 -0.00080601367179884329 0 -0.0053856084810892137 -0.00085857813622666269 0 -0.0054936203868311551 -0.00079241700530021926 0 -0.0053685504158956952 -0.00080514943934799322 0 -0.005389767816251779 -0.00080601367179884329 0 -0.005389767816251779 -0.00080601367179884329 0 -0.0053824388207464663 -0.00081483677534228461 0 -0.0053856084810892137 -0.00085857813622666269 0 -0.0053824388207464663 -0.00081483677534228461 0 -0.0056321958093123918 -0.0011254392230938422 0 -0.005435650571352057 -0.0011068891367677445 0 -0.0051376201168417419 -0.0006241125798607032 0 -0.0062138557794058245 -0.0013750055647314403 0 -0.0053452407861442862 -0.00078840588124281803 0 -0.0055793684754465158 -0.0012625912512627734 0 -0.005389767816251779 -0.00080601367179884329 0 -0.0053687381975975603 -0.00081021475592721857 0 -0.0053824388207464663 -0.00081483677534228461 0 -0.0053687381975975603 -0.00081021475592721857 0 -0.0053839014732205417 -0.0008138180401640868 0 -0.0053806397607237483 -0.00082936912972074363 0 -0.0053687381975975603 -0.00081021475592721857 0 -0.0053824388207464663 -0.00081483677534228461 0 -0.0053639490810286237 -0.00079762338227936183 0 -0.005121947074680235 -0.0015923749916825841 0 -0.0051243689850711963 -0.0015771664468256755 0 -0.0051101645849277559 -0.0016292770588056348 0 -0.0055793684754465158 -0.0012625912512627734 0 -0.0046847767894557931 -0.0013855759961349625 0 -0.005121947074680235 -0.0015923749916825841 0 -0.0051547467066389565 -0.0015944685113379463 0 -0.0051101645849277559 -0.0016292770588056348 0 -0.0042269161040958377 -0.0019083272042633292 0 -0.0046847767894557931 -0.0013855759961349625 0 -0.005121947074680235 -0.0015923749916825841 0 -0.0051547467066389565 -0.0015944685113379463 0 -0.0051348507387564005 -0.0015749375511246221 0 -0.0056573318244190094 -0.0015245592858093653 0 -0.0055793684754465158 -0.0012625912512627734 0 -0.005121947074680235 -0.0015923749916825841 0 -0.0051392977912557043 -0.0015722096720362888 0 -0.0051243689850711963 -0.0015771664468256755 0 -0.0053493957904407466 -0.0016899689121888236 0 -0.0056573318244190094 -0.0015245592858093653 0 -0.0051547467066389565 -0.0015944685113379463 0 -0.0051348507387564005 -0.0015749375511246221 0 -0.0051977383938834358 -0.001553219117252363 0 -0.0036097604823291498 -0.0019680149506638976 0 -0.0032292260860299991 -0.0022961682933457903 0 -0.0032308703612442739 -0.0017427626358116116 0 -0.0042269161040958377 -0.0019083272042633292 0 -0.0051671755570879933 -0.0016624364355491902 0 -0.0056573318244190094 -0.0015245592858093653 0 -0.0057202388246314273 -0.0016317485822579612 0 -0.006079392135718246 -0.0017049182376643269 0 -0.0063366035714546645 -0.0016126016021978109 0 -0.0062405814330990222 -0.0014735290333953287 0 -0.0051547467066389565 -0.0015944685113379463 0 -0.0051977383938834358 -0.001553219117252363 0 -0.005200984179815472 -0.0015582448151172615 0 -0.0053552790225922121 -0.0015281931803070642 0 -0.0055114182484173862 -0.0017466596911516062 0 -0.0060794816326817346 -0.0012647197595914731 0 -0.0057202388246314273 -0.0016317485822579612 0 -0.0064365963809771363 -0.0013510812042852062 0 -0.0057202388246314273 -0.0016317485822579612 0 -0.0051671755570879933 -0.0016624364355491902 0 -0.0068302900907891923 -0.0014726833613929995 0 -0.0068775766902536709 -0.0012869399229349114 0 -0.0065978428571834072 -0.0011430554695384036 0 -0.0057202388246314273 -0.0016317485822579612 0 -0.0072703179342022859 -0.0015934457477790359 0 -0.0068775766902536709 -0.0012869399229349114 0 -0.0065978428571834072 -0.0011430554695384036 0 -0.0069312178754750179 -0.0011453713130346892 0 -0.0068302900907891923 -0.0014726833613929995 0 -0.0068775766902536709 -0.0012869399229349114 0 -0.00699048915566908 -0.0014144233458233187 0 -0.0053824388207464663 -0.00081483677534228461 0 -0.0053206638476354382 -0.00098014779332048873 0 -0.005435650571352057 -0.0011068891367677445 0 -0.0056573318244190094 -0.0015245592858093653 0 -0.0072703179342022859 -0.0015934457477790359 0 -0.0053824388207464663 -0.00081483677534228461 0 -0.0053639490810286237 -0.00079762338227936183 0 -0.0053206638476354382 -0.00098014779332048873 0 -0.0055793684754465158 -0.0012625912512627734 0 -0.0058870102335753854 -0.0012102999587895625 0 -0.006418659644950731 -0.0016065796510583595 0 -0.0064187400518554713 -0.0014940350193669684 0 -0.0065181630896279227 -0.0014747144893567116 0 -0.006418659644950731 -0.0016065796510583595 0 -0.0063881041092793403 -0.0016165033367480854 0 -0.0064187400518554713 -0.0014940350193669684 0 -0.0058870102335753854 -0.0012102999587895625 0 -0.0072047391913121301 -0.0016157999710024215 0 -0.0053206638476354382 -0.00098014779332048873 0 -0.0052963120649898287 -0.0012037440080588406 0 -0.005435650571352057 -0.0011068891367677445 0 -0.0064187400518554713 -0.0014940350193669684 0 -0.0064483945756169522 -0.0013746199805702399 0 -0.0065181630896279227 -0.0014747144893567116 0 -0.0087626102996885124 -0.0019647615586135072 0 -0.0089185055898868253 -0.0020072851933183918 0 -0.008905231454085831 -0.0018685123306201809 0 -0.0052963120649898287 -0.0012037440080588406 0 -0.0053644872378183703 -0.0012964007676382269 0 -0.005435650571352057 -0.0011068891367677445 0 -0.0065978428571834072 -0.0011430554695384036 0 -0.0070391482320806172 -0.00049109195935903929 0 -0.0070532722708694859 -0.00073637402922545564 0 -0.0072703179342022859 -0.0015934457477790359 0 -0.0084157063371684184 -0.0012523304529269328 0 -0.008983656214399411 -0.0022817933870674747 0 -0.0091589739029870991 -0.0018372938686635389 0 -0.0090222968678545616 -0.001913282862588597 0 -0.008983656214399411 -0.0022817933870674747 0 -0.0089185055898868253 -0.0020072851933183918 0 -0.0090222968678545616 -0.001913282862588597 0 -0.008983656214399411 -0.0022817933870674747 0 -0.0091589739029870991 -0.0018372938686635389 0 -0.0093368803874670694 -0.0018024126548135211 0 -0.0065978428571834072 -0.0011430554695384036 0 -0.0070463913523245098 -0.00096316050565366457 0 -0.0070532722708694859 -0.00073637402922545564 0 -0.0065978428571834072 -0.0011430554695384036 0 -0.0070463913523245098 -0.00096316050565366457 0 -0.0069312178754750179 -0.0011453713130346892 0 -0.0072047391913121301 -0.0016157999710024215 0 -0.0072703179342022859 -0.0015934457477790359 0 -0.0087626102996885124 -0.0019647615586135072 0 -0.008983656214399411 -0.0022817933870674747 0 -0.0089185055898868253 -0.0020072851933183918 0 -0.0093047370593189668 -0.0014530629177093913 0 -0.0085084507252014361 -0.0016572118017251117 0 -0.0092416394447351474 -0.001472363697419869 0 -0.0090395614664269004 -0.0017416506835555422 0 -0.0088128266375697602 -0.0017028650431692605 0 -0.0091589739029870991 -0.0018372938686635389 0 -0.0093368803874670694 -0.0018024126548135211 0 -0.0092603378740284108 -0.0017275599097859012 0 -0.0091589739029870991 -0.0018372938686635389 0 -0.0090222968678545616 -0.001913282862588597 0 -0.0090395614664269004 -0.0017416506835555422 0 -0.008905231454085831 -0.0018685123306201809 0 -0.0090395614664269004 -0.0017416506835555422 0 -0.0088128266375697602 -0.0017028650431692605 0 -0.0090222968678545616 -0.001913282862588597 0 -0.008905231454085831 -0.0018685123306201809 0 -0.0090395614664269004 -0.0017416506835555422 0 -0.0089185055898868253 -0.0020072851933183918 0 -0.0090222968678545616 -0.001913282862588597 0 -0.008905231454085831 -0.0018685123306201809 0 -0.0092416394447351474 -0.001472363697419869 0 -0.0090395614664269004 -0.0017416506835555422 0 -0.0092013680364475235 -0.0016737808099822609 0 -0.0092416394447351474 -0.001472363697419869 0 -0.0092013680364475235 -0.0016737808099822609 0 -0.0093443412867261922 -0.0015962111979149563 0 -0.0091589739029870991 -0.0018372938686635389 0 -0.0090395614664269004 -0.0017416506835555422 0 -0.0092013680364475235 -0.0016737808099822609 0 -0.0091589739029870991 -0.0018372938686635389 0 -0.0092013680364475235 -0.0016737808099822609 0 -0.0092603378740284108 -0.0017275599097859012 0 -0.0077731044417069396 -0.001795201921712512 0 -0.0077425846143936248 -0.0017509635063674739 0 -0.0077900801664266203 -0.001723123112772094 0 -0.0072047391913121301 -0.0016157999710024215 0 -0.0075452856967269527 -0.0019035663838550946 0 -0.0087626102996885124 -0.0019647615586135072 0 -0.008905231454085831 -0.0018685123306201809 0 -0.0088128266375697602 -0.0017028650431692605 0 -0.0072047391913121301 -0.0016157999710024215 0 -0.0085084507252014361 -0.0016572118017251117 0 -0.0075452856967269527 -0.0019035663838550946 0 -0.0085084507252014361 -0.0016572118017251117 0 -0.0085966428204225197 -0.0016642888040202439 0 -0.0086445064692953297 -0.0020459802363858898 0 -0.0088434795778420203 -0.0019223777784877652 0 -0.0086174413171032048 -0.0017608929183637713 0 -0.0075452856967269527 -0.0019035663838550946 0 -0.0082520926692582087 -0.001509534571522297 0 -0.0088466245794339322 -0.002250752587529669 0 -0.0080102001020297981 -0.0019270353953859715 0 -0.0088466245794339322 -0.002250752587529669 0 -0.0080102001020297981 -0.0019270353953859715 0 -0.0078253869286907442 -0.0029945571776444908 0 -0.0064082552478746226 -0.0013263792842380419 0 -0.0062138557794058245 -0.0013750055647314403 0 -0.0080102001020297981 -0.0019270353953859715 0 -0.0068538913026253952 -0.0017629938688034864 0 -0.0078253869286907442 -0.0029945571776444908 0 -0.0056270304953452794 -0.00071198604352686338 0 -0.0057360800917115179 -0.00068332801029701809 0 -0.0057201247960886169 -0.00073768007776188807 0 -0.0052939483130561233 -0.00067057354755876443 0 -0.0062138557794058245 -0.0013750055647314403 0 -0.0053644872378183703 -0.0012964007676382269 0 -0.0056321958093123918 -0.0011254392230938422 0 -0.005435650571352057 -0.0011068891367677445 0 -0.0075452856967269527 -0.0019035663838550946 0 -0.0062138557794058245 -0.0013750055647314403 0 -0.010324991533144716 -0.00013271837399214808 0 -0.0094160811811104875 -1.5296458548659769e-06 0 -0.011000427646848016 -0.00074624851474513641 0 -0.010324991533144716 -0.00013271837399214808 0 -0.0094160811811104875 -1.5296458548659769e-06 0 -0.010302803966759928 4.761488811584733e-07 0 -0.0094150200998704484 -1.9709664380226361e-07 0 -0.0098142456578992621 -0.00037703869140465321 0 -0.010324991533144716 -0.00013271837399214808 0 -0.011000427646848016 -0.00074624851474513641 0 -0.011147337606876162 0.00043294213353017879 0 -0.011000427646848016 -0.00074624851474513641 0 -0.011147337606876162 0.00043294213353017879 0 -0.0124097122957013 -0.00093204758649672345 0 -0.011147337606876162 0.00043294213353017879 0 -0.010302803966759928 4.761488811584733e-07 0 -0.011187191205463114 2.5760317207108861e-07 0 -0.010324991533144716 -0.00013271837399214808 0 -0.011147337606876162 0.00043294213353017879 0 -0.010302803966759928 4.761488811584733e-07 0 -0.013174149691636876 -0.00054279931228811524 0 -0.011192647303400013 -1.9503341436053898e-06 0 -0.013020228725180973 -6.0265295159333694e-05 0 -0.012173911136106328 -5.8236192476746384e-05 0 -0.011189670923676611 2.4502246976876064e-09 0 -0.0137583971547425 -0.00012794069316317884 0 -0.012653639950439529 5.5266648770927246e-07 0 -0.013020228725180973 -6.0265295159333694e-05 0 -0.012653639950439529 5.5266648770927246e-07 0 -0.011192647303400013 -1.9503341436053898e-06 0 -0.013020228725180973 -6.0265295159333694e-05 0 -0.0137583971547425 -0.00012794069316317884 0 -0.013020228725180973 -6.0265295159333694e-05 0 -0.013661232169550987 -0.00014309372318036448 0 -0.013174149691636876 -0.00054279931228811524 0 -0.013020228725180973 -6.0265295159333694e-05 0 -0.013345285144225961 -0.00028154863533654619 0 -0.013345285144225961 -0.00028154863533654619 0 -0.013661232169550987 -0.00014309372318036448 0 -0.013253314727093761 -0.00022993936219041774 0 -0.013020228725180973 -6.0265295159333694e-05 0 -0.013345285144225961 -0.00028154863533654619 0 -0.013661232169550987 -0.00014309372318036448 0 -0.013661232169550987 -0.00014309372318036448 0 -0.01377957693878808 -0.00017596100732294992 0 -0.013754402567935416 -0.00019343972657929266 0 -0.013850717132207735 -0.00020541269714781637 0 -0.013661232169550987 -0.00014309372318036448 0 -0.01377957693878808 -0.00017596100732294992 0 -0.013592359252953361 -0.00014635721040595081 0 -0.013551115501308329 -0.00019006479558423097 0 -0.01377957693878808 -0.00017596100732294992 0 -0.013754402567935416 -0.00019343972657929266 0 -0.013745417927717263 -0.00017374617670254982 0 -0.013345285144225961 -0.00028154863533654619 0 -0.013253314727093761 -0.00022993936219041774 0 -0.013181690767431498 -0.00014330321259257064 0 -0.013253314727093761 -0.00022993936219041774 0 -0.013181690767431498 -0.00014330321259257064 0 -0.013276848138699962 -7.7467877538820454e-05 0 -0.013551115501308329 -0.00019006479558423097 0 -0.013008348829400067 -0.00047601288279128435 0 -0.013345285144225961 -0.00028154863533654619 0 -0.013181690767431498 -0.00014330321259257064 0 -0.013027764413680023 -0.00011889871344541073 0 -0.013027764413680023 -0.00011889871344541073 0 -0.01337597641302472 -0.00071514193309581771 0 -0.013276848138699962 -7.7467877538820454e-05 0 -0.013181690767431498 -0.00014330321259257064 0 -0.013027764413680023 -0.00011889871344541073 0 -0.013276848138699962 -7.7467877538820454e-05 0 -0.011147337606876162 0.00043294213353017879 0 -0.013027764413680023 -0.00011889871344541073 0 -0.0124097122957013 -0.00093204758649672345 0 -0.012173911136106328 -5.8236192476746384e-05 0 -0.012948827047892049 -0.00012645168683507766 0 -0.013174149691636876 -0.00054279931228811524 0 -0.013345285144225961 -0.00028154863533654619 0 -0.013027764413680023 -0.00011889871344541073 0 -0.0098142456578992621 -0.00037703869140465321 0 -0.010529916230168222 -0.00044995107145986491 0 -0.013027764413680023 -0.00011889871344541073 0 -0.0124097122957013 -0.00093204758649672345 0 -0.01337597641302472 -0.00071514193309581771 0 -0.010529916230168222 -0.00044995107145986491 0 -0.01064401345006807 -0.00043316154623229154 0 -0.011536316709609638 -0.001396624877706161 0 -0.01141033596367589 -0.0012501867093761445 0 -0.011489381059275555 -0.0015258775526527438 0 -0.0091150481875595761 -0.00071555660196051269 0 -0.0091613015907169859 -0.00071506238318236402 0 -0.0091739230822597898 -0.00073466205850804375 0 -0.011600330158992273 -0.0012759198754431972 0 -0.010244438149059083 -0.0011244085094343076 0 -0.01147569708005463 -0.00081735108872427913 0 -0.011579355211047561 -0.00066353227471429774 0 -0.011349638258333987 -0.00067798797642961491 0 -0.01147569708005463 -0.00081735108872427913 0 -0.011579355211047561 -0.00066353227471429774 0 -0.011507520588763842 -0.00085140674609091038 0 -0.01064401345006807 -0.00043316154623229154 0 -0.010244438149059083 -0.0011244085094343076 0 -0.011299516881759401 -0.0017423629571408255 0 -0.012406740267747027 -0.0013046204397143249 0 -0.01141033596367589 -0.0012501867093761445 0 -0.011213731478047587 -0.0012643217940868517 0 -0.011489381059275555 -0.0015258775526527438 0 -0.010244438149059083 -0.0011244085094343076 0 -0.0083889550859442986 -0.0011820362901946626 0 -0.0092085412055035541 -0.0021300661062749315 0 -0.0090327032953562772 -0.0015507958900423835 0 -0.0095949071169105591 -0.0017636603825084696 0 -0.009573375885930803 -0.0012828586169473667 0 -0.010329658214353778 -0.0012337502642545053 0 -0.0098769443885753788 -0.0016498344098605411 0 -0.010244438149059083 -0.0011244085094343076 0 -0.011299516881759401 -0.0017423629571408255 0 -0.011299516881759401 -0.0017423629571408255 0 -0.0083889550859442986 -0.0011820362901946626 0 -0.012420860306180309 -0.0026379035840555548 0 -0.012397256883774946 -0.0022103497766771995 0 -0.012061291741590036 -0.0022848311384825876 0 -0.011579355211047561 -0.00066353227471429774 0 -0.011507520588763842 -0.00085140674609091038 0 -0.011558641582339995 -0.0010501557775772663 0 -0.01064401345006807 -0.00043316154623229154 0 -0.013008348829400067 -0.00047601288279128435 0 -0.01362720167575999 -0.00026357588725830735 0 -0.013613827035444049 -0.00024553046707883464 0 -0.013628115630533993 -0.00023393139928036864 0 -0.012406740267747027 -0.0013046204397143249 0 -0.013008348829400067 -0.00047601288279128435 0 -0.01143904007294019 -0.00093841015951817144 0 -0.011507520588763842 -0.00085140674609091038 0 -0.011558641582339995 -0.0010501557775772663 0 -0.011481037436835519 -0.00081910057462145059 0 -0.01143904007294019 -0.00093841015951817144 0 -0.011507520588763842 -0.00085140674609091038 0 -0.011600330158992273 -0.0012759198754431972 0 -0.012406740267747027 -0.0013046204397143249 0 -0.011600330158992273 -0.0012759198754431972 0 -0.011543943256668181 -0.0011828592716777134 0 -0.013754402567935416 -0.00019343972657929266 0 -0.013743921445327135 -0.00018393979281726265 0 -0.013745417927717263 -0.00017374617670254982 0 -0.013008348829400067 -0.00047601288279128435 0 -0.013714896898346226 -0.00014691981453084424 0 -0.013613827035444049 -0.00024553046707883464 0 -0.013628115630533993 -0.00023393139928036864 0 -0.013642665060606749 -0.00022157417800723064 0 -0.013628115630533993 -0.00023393139928036864 0 -0.013642665060606749 -0.00022157417800723064 0 -0.013633622645223935 -0.00021536368835285431 0 -0.01369035980932585 -0.00027724845771291142 0 -0.013714896898346226 -0.00014691981453084424 0 -0.013695398570287336 -0.00025568316886318346 0 -0.01377957693878808 -0.00017596100732294992 0 -0.013745417927717263 -0.00017374617670254982 0 -0.013695398570287336 -0.00025568316886318346 0 -0.013642665060606749 -0.00022157417800723064 0 -0.01364433104923848 -0.00023669108819946973 0 -0.013559588096568478 -0.00029202034911616993 0 -0.01364433104923848 -0.00023669108819946973 0 -0.013633622645223935 -0.00021536368835285431 0 -0.012807373455080776 -0.00079180944068894484 0 -0.013013718367180568 -0.00095420601966021517 0 -0.013642665060606749 -0.00022157417800723064 0 -0.01364433104923848 -0.00023669108819946973 0 -0.013633622645223935 -0.00021536368835285431 0 -0.012397256883774946 -0.0022103497766771995 0 -0.012246084932196966 -0.0017681748845944944 0 -0.012661377697028802 -0.0020811990885535358 0 -0.012406740267747027 -0.0013046204397143249 0 -0.013013718367180568 -0.00095420601966021517 0 -0.01362720167575999 -0.00026357588725830735 0 -0.013628115630533993 -0.00023393139928036864 0 -0.013633622645223935 -0.00021536368835285431 0 -0.012397256883774946 -0.0022103497766771995 0 -0.012061291741590036 -0.0022848311384825876 0 -0.012246084932196966 -0.0017681748845944944 0 -0.012246084932196966 -0.0017681748845944944 0 -0.012661377697028802 -0.0020811990885535358 0 -0.012720065324310146 -0.0017225815881951262 0 -0.012661377697028802 -0.0020811990885535358 0 -0.012720065324310146 -0.0017225815881951262 0 -0.012931966932144183 -0.0020289570439413897 0 -0.012445585270059385 -0.0011821778919665217 0 -0.012720065324310146 -0.0017225815881951262 0 -0.012995088192157413 -0.0014373179027838418 0 -0.012445585270059385 -0.0011821778919665217 0 -0.012246084932196966 -0.0017681748845944944 0 -0.012720065324310146 -0.0017225815881951262 0 -0.013484518840157451 -0.0015847467317306326 0 -0.012995088192157413 -0.0014373179027838418 0 -0.013066704236547679 -0.0017640791853816911 0 -0.01328061174836888 -0.0011623428028585188 0 -0.013484518840157451 -0.0015847467317306326 0 -0.012995088192157413 -0.0014373179027838418 0 -0.012720065324310146 -0.0017225815881951262 0 -0.012995088192157413 -0.0014373179027838418 0 -0.013066704236547679 -0.0017640791853816911 0 -0.013238410162094701 -0.0020304894172482593 0 -0.013066704236547679 -0.0017640791853816911 0 -0.012931966932144183 -0.0020289570439413897 0 -0.012720065324310146 -0.0017225815881951262 0 -0.013066704236547679 -0.0017640791853816911 0 -0.012931966932144183 -0.0020289570439413897 0 -0.012661377697028802 -0.0020811990885535358 0 -0.012931966932144183 -0.0020289570439413897 0 -0.012855147040533088 -0.0021997226928765121 0 -0.013238410162094701 -0.0020304894172482593 0 -0.012931966932144183 -0.0020289570439413897 0 -0.013117955721381188 -0.0022686740931809461 0 -0.013117955721381188 -0.0022686740931809461 0 -0.012823658816248557 -0.0023078934693399177 0 -0.012855147040533088 -0.0021997226928765121 0 -0.012931966932144183 -0.0020289570439413897 0 -0.013117955721381188 -0.0022686740931809461 0 -0.012855147040533088 -0.0021997226928765121 0 -0.012673111483885755 -0.0023608645374347172 0 -0.012823658816248557 -0.0023078934693399177 0 -0.012657342872516561 -0.0020838842197949178 0 -0.011015179551982423 -0.0021753402410234005 0 -0.012911023740365195 -0.001964126935249963 0 -0.012823658816248557 -0.0023078934693399177 0 -0.012805443939872294 -0.0022946770621953163 0 -0.012811213928785524 -0.0021919819578226272 0 -0.012823658816248557 -0.0023078934693399177 0 -0.012855147040533088 -0.0021997226928765121 0 -0.012805443939872294 -0.0022946770621953163 0 -0.012661377697028802 -0.0020811990885535358 0 -0.012571782912654721 -0.0023037411225471328 0 -0.012805443939872294 -0.0022946770621953163 0 -0.012420860306180309 -0.0026379035840555548 0 -0.012571782912654721 -0.0023037411225471328 0 -0.012805443939872294 -0.0022946770621953163 0 -0.012420860306180309 -0.0026379035840555548 0 -0.012397256883774946 -0.0022103497766771995 0 -0.012571782912654721 -0.0023037411225471328 0 -0.012661377697028802 -0.0020811990885535358 0 -0.012855147040533088 -0.0021997226928765121 0 -0.012805443939872294 -0.0022946770621953163 0 -0.012397256883774946 -0.0022103497766771995 0 -0.012661377697028802 -0.0020811990885535358 0 -0.012571782912654721 -0.0023037411225471328 0 -0.012976254677071279 -0.0021203785441524735 0 -0.012805443939872294 -0.0022946770621953163 0 -0.01294654332616868 -0.0021228656418286161 0 -0.011299516881759401 -0.0017423629571408255 0 -0.013132732825625819 -0.0023142308788150594 0 -0.012805443939872294 -0.0022946770621953163 0 -0.01294654332616868 -0.0021228656418286161 0 -0.012811213928785524 -0.0021919819578226272 0 -0.01294654332616868 -0.0021228656418286161 0 -0.012817091874829697 -0.00210438335716922 0 -0.012811213928785524 -0.0021919819578226272 0 -0.012979426385023835 -0.0021218826963944094 0 -0.01294654332616868 -0.0021228656418286161 0 -0.012842641243007442 -0.0019664227902858626 0 -0.011299516881759401 -0.0017423629571408255 0 -0.010911600233911222 -0.0019574596905703617 0 -0.011299516881759401 -0.0017423629571408255 0 -0.011766178169246426 -0.0017564348257289469 0 -0.01294654332616868 -0.0021228656418286161 0 -0.012817091874829697 -0.00210438335716922 0 -0.012842641243007442 -0.0019664227902858626 0 -0.012817091874829697 -0.00210438335716922 0 -0.012657342872516561 -0.0020838842197949178 0 -0.012842641243007442 -0.0019664227902858626 0 -0.012817091874829697 -0.00210438335716922 0 -0.012657342872516561 -0.0020838842197949178 0 -0.012811213928785524 -0.0021919819578226272 0 -0.012823658816248557 -0.0023078934693399177 0 -0.012657342872516561 -0.0020838842197949178 0 -0.012811213928785524 -0.0021919819578226272 0 -0.011015179551982423 -0.0021753402410234005 0 -0.0090761791653419244 -0.0013206102516068567 0 -0.0056137978737907501 -0.00068828817323118624 0 -0.0055932595228967517 -0.0006451978964359769 0 -0.0055822683063702387 -0.00069736180930275574 0 -0.012657342872516561 -0.0020838842197949178 0 -0.012842641243007442 -0.0019664227902858626 0 -0.012651006345371809 -0.0017948805785547863 0 -0.0090761791653419244 -0.0013206102516068567 0 -0.0080760787172520724 -0.00082773773594126175 0 -0.010911600233911222 -0.0019574596905703617 0 -0.0080760787172520724 -0.00082773773594126175 0 -0.0085283336327462624 -0.001485138730427429 0 -0.0088039216494328106 -0.00082419240207813062 0 -0.0078460603725998106 -0.00083588291806545745 0 -0.0092085412055035541 -0.0021300661062749315 0 -0.0085283336327462624 -0.001485138730427429 0 -0.0090327032953562772 -0.0015507958900423835 0 -0.0085283336327462624 -0.001485138730427429 0 -0.0090327032953562772 -0.0015507958900423835 0 -0.0088039216494328106 -0.00082419240207813062 0 -0.0058448702301788736 -0.00046687876883797213 0 -0.0057367974695280511 -0.00028168137968658788 0 -0.0058151105480800588 -0.00028524014570175776 0 -0.0058448702301788736 -0.00046687876883797213 0 -0.0058151105480800588 -0.00028524014570175776 0 -0.0059680795540807616 -0.00042198383372885008 0 -0.0073261753216926732 -0.0006153482995553207 0 -0.0061828149867135564 -0.00039491049319898951 0 -0.0080760787172520724 -0.00082773773594126175 0 -0.0061828149867135564 -0.00039491049319898951 0 -0.0055640017687230391 -0.00072129838929597685 0 -0.0055458035140381976 -0.00068934243814865919 0 -0.0055224685932187042 -0.00072636927127508783 0 -0.0088039216494328106 -0.00082419240207813062 0 -0.0078460603725998106 -0.00083588291806545745 0 -0.0080030355435171553 0.00011658893085905209 0 -0.0048864697843256063 -0.00036381362061174938 0 -0.0080760787172520724 -0.00082773773594126175 0 -0.0052513696110173206 -0.00077659358904035415 0 -0.0061828149867135564 -0.00039491049319898951 0 -0.005473172576726958 -0.00078806340069413822 0 -0.0052463760791500473 -0.00049595232878907195 0 -0.0051676099363511556 -0.00085289013536828226 0 -0.0061828149867135564 -0.00039491049319898951 0 -0.0055452131559152115 -0.00054245338623128657 0 -0.0057367974695280511 -0.00028168137968658788 0 -0.0057667049014149315 -0.00023130770701897192 0 -0.0057702394086191653 -0.00025352085618918034 0 -0.0057543503117934844 -0.00023017241107540517 0 -0.0057667049014149315 -0.00023130770701897192 0 -0.0057702394086191653 -0.00025352085618918034 0 -0.0059106955696480593 -4.9113850551780661e-05 0 -0.0057858894449330676 -0.00030046880062933721 0 -0.0058501183040573917 4.2557501426625881e-05 0 -0.0058151105480800588 -0.00028524014570175776 0 -0.0059497884702224601 -0.00012689842083478186 0 -0.0057543503117934844 -0.00023017241107540517 0 -0.0057702394086191653 -0.00025352085618918034 0 -0.0058151105480800588 -0.00028524014570175776 0 -0.0057367974695280511 -0.00028168137968658788 0 -0.0057702394086191653 -0.00025352085618918034 0 -0.0058151105480800588 -0.00028524014570175776 0 -0.0058151105480800588 -0.00028524014570175776 0 -0.0059724977593278725 -0.00028182982479954039 0 -0.0059497884702224601 -0.00012689842083478186 0 -0.0059724977593278725 -0.00028182982479954039 0 -0.0059497884702224601 -0.00012689842083478186 0 -0.0061193203672336082 -0.00022308051384635914 0 -0.0059497884702224601 -0.00012689842083478186 0 -0.0060555656165769559 -9.8285121966935207e-05 0 -0.0061193203672336082 -0.00022308051384635914 0 -0.0058501183040573917 4.2557501426625881e-05 0 -0.0059497884702224601 -0.00012689842083478186 0 -0.005961146806381757 -2.9322295662868837e-05 0 -0.0059497884702224601 -0.00012689842083478186 0 -0.0060555656165769559 -9.8285121966935207e-05 0 -0.005961146806381757 -2.9322295662868837e-05 0 -0.0060555656165769559 -9.8285121966935207e-05 0 -0.005961146806381757 -2.9322295662868837e-05 0 -0.0060517246829195383 -1.1414531183652668e-05 0 -0.005961146806381757 -2.9322295662868837e-05 0 -0.0060517246829195383 -1.1414531183652668e-05 0 -0.0059224100774010668 4.1671929192969382e-05 0 -0.0058501183040573917 4.2557501426625881e-05 0 -0.005961146806381757 -2.9322295662868837e-05 0 -0.0059224100774010668 4.1671929192969382e-05 0 -0.0060517246829195383 -1.1414531183652668e-05 0 -0.0062317539398697381 -4.8280682353529288e-07 0 -0.006123457939063822 5.797385347482158e-05 0 -0.0060517246829195383 -1.1414531183652668e-05 0 -0.0061929349898598276 -0.00010573165376409373 0 -0.0062317539398697381 -4.8280682353529288e-07 0 -0.0060555656165769559 -9.8285121966935207e-05 0 -0.0060517246829195383 -1.1414531183652668e-05 0 -0.0061929349898598276 -0.00010573165376409373 0 -0.0061193203672336082 -0.00022308051384635914 0 -0.0062347212952798331 -0.00033029570123436949 0 -0.0065737157202301532 -0.00020187328869032721 0 -0.0061929349898598276 -0.00010573165376409373 0 -0.0061193203672336082 -0.00022308051384635914 0 -0.0063777262996296538 -0.00018312016926112911 0 -0.0060555656165769559 -9.8285121966935207e-05 0 -0.0061929349898598276 -0.00010573165376409373 0 -0.0061193203672336082 -0.00022308051384635914 0 -0.0062347212952798331 -0.00033029570123436949 0 -0.0063068415732500643 -0.00043974459412449152 0 -0.0061167573544024037 -0.00040155269794144754 0 -0.0062347212952798331 -0.00033029570123436949 0 -0.0063103217952120939 -0.00041232947694313967 0 -0.0063068415732500643 -0.00043974459412449152 0 -0.0076648247733890774 -0.00042701973183036524 0 -0.0077298596656641327 -0.00040849514847394222 0 -0.0061193203672336082 -0.00022308051384635914 0 -0.0062347212952798331 -0.00033029570123436949 0 -0.0061167573544024037 -0.00040155269794144754 0 -0.0059724977593278725 -0.00028182982479954039 0 -0.0061193203672336082 -0.00022308051384635914 0 -0.0061167573544024037 -0.00040155269794144754 0 -0.0059724977593278725 -0.00028182982479954039 0 -0.0061167573544024037 -0.00040155269794144754 0 -0.0059680795540807616 -0.00042198383372885008 0 -0.0058151105480800588 -0.00028524014570175776 0 -0.0059724977593278725 -0.00028182982479954039 0 -0.0059680795540807616 -0.00042198383372885008 0 -0.0090327032953562772 -0.0015507958900423835 0 -0.0088039216494328106 -0.00082419240207813062 0 -0.0095949071169105591 -0.0017636603825084696 0 -0.0058448702301788736 -0.00046687876883797213 0 -0.0059680795540807616 -0.00042198383372885008 0 -0.0060348399924605653 -0.00069654369794634535 0 -0.0073261753216926732 -0.0006153482995553207 0 -0.0083889550859442986 -0.0011820362901946626 0 -0.0061167573544024037 -0.00040155269794144754 0 -0.0059680795540807616 -0.00042198383372885008 0 -0.0060348399924605653 -0.00069654369794634535 0 -0.0091150481875595761 -0.00071555660196051269 0 -0.0090913680303043292 -0.00079662991484870437 0 -0.0091739230822597898 -0.00073466205850804375 0 -0.01064401345006807 -0.00043316154623229154 0 -0.0077298596656641327 -0.00040849514847394222 0 -0.0063068415732500643 -0.00043974459412449152 0 -0.0061167573544024037 -0.00040155269794144754 0 -0.0060348399924605653 -0.00069654369794634535 0 -0.0077298596656641327 -0.00040849514847394222 0 -0.0083889550859442986 -0.0011820362901946626 0 -0.0085644217823153141 -5.9259457710396517e-06 0 -0.008555576085233425 -1.7587043059246167e-05 0 -0.0085414756212773574 -2.6170540154415837e-06 0 -0.008541066669038996 -2.1224393847315535e-05 0 -0.0085644217823153141 -5.9259457710396517e-06 0 -0.0085414756212773574 -2.6170540154415837e-06 0 -0.008541066669038996 -2.1224393847315535e-05 0 -0.0085414756212773574 -2.6170540154415837e-06 0 -0.0085256820861204612 2.2079323446254951e-05 0 -0.00853755987341882 -8.9264520562262178e-05 0 -0.008541066669038996 -2.1224393847315535e-05 0 -0.0085256820861204612 2.2079323446254951e-05 0 -0.0085414756212773574 -2.6170540154415837e-06 0 -0.0085256820861204612 2.2079323446254951e-05 0 -0.0085431303549064284 -4.5943136919572479e-05 0 -0.0085256820861204612 2.2079323446254951e-05 0 -0.0085431303549064284 -4.5943136919572479e-05 0 -0.0085010963016841322 -8.7798401428649424e-05 0 -0.0077298596656641327 -0.00040849514847394222 0 -0.0069587122274188395 -9.1966970747793964e-05 0 -0.0063103217952120939 -0.00041232947694313967 0 -0.0063076356967997705 -0.00044502246626330064 0 -0.0065737157202301532 -0.00020187328869032721 0 -0.008555576085233425 -1.7587043059246167e-05 0 -0.0085414756212773574 -2.6170540154415837e-06 0 -0.0085431303549064284 -4.5943136919572479e-05 0 -0.0062347212952798331 -0.00033029570123436949 0 -0.0063103217952120939 -0.00041232947694313967 0 -0.0065737157202301532 -0.00020187328869032721 0 -0.0059228692487640205 -0.00024595131617046861 0 -0.0069587122274188395 -9.1966970747793964e-05 0 -0.0061929349898598276 -0.00010573165376409373 0 -0.0063311829666458895 -7.4153252022574813e-05 0 -0.0063777262996296538 -0.00018312016926112911 0 -0.0061929349898598276 -0.00010573165376409373 0 -0.0063311829666458895 -7.4153252022574813e-05 0 -0.0062317539398697381 -4.8280682353529288e-07 0 -0.0063311829666458895 -7.4153252022574813e-05 0 -0.0062317539398697381 -4.8280682353529288e-07 0 -0.0064077837096722214 1.6682257664836577e-05 0 -0.0064077837096722214 1.6682257664836577e-05 0 -0.0064886288588537977 5.5122722835220795e-05 0 -0.006483773600194395 3.7978098109962091e-05 0 -0.0063311829666458895 -7.4153252022574813e-05 0 -0.0063777262996296538 -0.00018312016926112911 0 -0.0064886288588537977 5.5122722835220795e-05 0 -0.0063311829666458895 -7.4153252022574813e-05 0 -0.0064077837096722214 1.6682257664836577e-05 0 -0.0064886288588537977 5.5122722835220795e-05 0 -0.0069587122274188395 -9.1966970747793964e-05 0 -0.0062580057036842138 -5.0646733661563667e-05 0 -0.0062693137975235293 -0.00016491110503458355 0 -0.0065268083244477935 -0.00017055470101620898 0 -0.0064886288588537977 5.5122722835220795e-05 0 -0.0069587122274188395 -9.1966970747793964e-05 0 -0.007597303329095844 -0.00011377624839871729 0 -0.0065268083244477935 -0.00017055470101620898 0 -0.0064886288588537977 5.5122722835220795e-05 0 -0.0065864749879091349 0.0001160651633446595 0 -0.0064886288588537977 5.5122722835220795e-05 0 -0.0065864749879091349 0.0001160651633446595 0 -0.0063297396960592554 9.0353012616711394e-05 0 -0.0064886288588537977 5.5122722835220795e-05 0 -0.0064781796166079268 5.7107062075163776e-05 0 -0.0063297396960592554 9.0353012616711394e-05 0 -0.0064886288588537977 5.5122722835220795e-05 0 -0.0064781796166079268 5.7107062075163776e-05 0 -0.006483773600194395 3.7978098109962091e-05 0 -0.0062514974441651768 6.3584980268129246e-07 0 -0.0065864749879091349 0.0001160651633446595 0 -0.007550755105776576 -7.2263992047793743e-07 0 -0.0062514974441651768 6.3584980268129246e-07 0 -0.0065864749879091349 0.0001160651633446595 0 -0.0062130184394449429 6.3698235714182804e-05 0 -0.0065864749879091349 0.0001160651633446595 0 -0.0062130184394449429 6.3698235714182804e-05 0 -0.0063297396960592554 9.0353012616711394e-05 0 -0.0065268083244477935 -0.00017055470101620898 0 -0.0065864749879091349 0.0001160651633446595 0 -0.007550755105776576 -7.2263992047793743e-07 0 -0.007597303329095844 -0.00011377624839871729 0 -0.0075524700500787982 -6.198428629039921e-08 0 -0.0085010963016841322 -8.7798401428649424e-05 0 -0.0075540729175010996 -6.8370024340841488e-07 0 -0.008216465474006231 7.2322403668264657e-05 0 -0.0084839183827028972 6.1668966430776725e-07 0 -0.008216465474006231 7.2322403668264657e-05 0 -0.008507119151084536 0.00011598831172301519 0 -0.0075540729175010996 -6.8370024340841488e-07 0 -0.0084839183827028972 6.1668966430776725e-07 0 -0.008216465474006231 7.2322403668264657e-05 0 -0.0085256820861204612 2.2079323446254951e-05 0 -0.0085010963016841322 -8.7798401428649424e-05 0 -0.008507119151084536 0.00011598831172301519 0 -0.0085010963016841322 -8.7798401428649424e-05 0 -0.008216465474006231 7.2322403668264657e-05 0 -0.008507119151084536 0.00011598831172301519 0 -0.00853755987341882 -8.9264520562262178e-05 0 -0.0085256820861204612 2.2079323446254951e-05 0 -0.008507119151084536 0.00011598831172301519 0 -0.0094129229953325878 -5.7532539483010629e-07 0 -0.00853755987341882 -8.9264520562262178e-05 0 -0.008507119151084536 0.00011598831172301519 0 -0.0094129229953325878 -5.7532539483010629e-07 0 -0.0084839183827028972 6.1668966430776725e-07 0 -0.008507119151084536 0.00011598831172301519 0 -0.003650806921601058 -6.0771115515867515e-07 0 -0.004388051094199979 -0.00014736570634088763 0 -0.0042891239376995913 -0.0006709393196781396 0 -0.003650806921601058 -6.0771115515867515e-07 0 -0.004388051094199979 -0.00014736570634088763 0 -0.0046042312472674629 0.00015556098577311484 0 -0.0045455968353538502 -8.0232795978141865e-05 0 -0.0047166359959888498 -0.00060742190752532033 0 -0.004388051094199979 -0.00014736570634088763 0 -0.0046235440462645654 9.3039159037041553e-05 0 -0.0046974569898672741 -0.00058201121165940854 0 -0.004388051094199979 -0.00014736570634088763 0 -0.0046235440462645654 9.3039159037041553e-05 0 -0.0046042312472674629 0.00015556098577311484 0 -0.0045455968353538502 -8.0232795978141865e-05 0 -0.0045717567371500569 -2.4286249191805724e-05 0 -0.0046235440462645654 9.3039159037041553e-05 0 -0.0046042312472674629 0.00015556098577311484 0 -0.004568081537127921 -6.2524746038182492e-06 0 -0.003650806921601058 -6.0771115515867515e-07 0 -0.0046042312472674629 0.00015556098577311484 0 -0.0049499588281188851 7.9673832028870305e-07 0 -0.0049499588281188851 7.9673832028870305e-07 0 -0.0049185380529623308 5.9535202679292381e-05 0 -0.005772962000940348 -1.0021636367516572e-06 0 -0.0046042312472674629 0.00015556098577311484 0 -0.0049499588281188851 7.9673832028870305e-07 0 -0.0049185380529623308 5.9535202679292381e-05 0 -0.0057762421751923979 -5.841087907412404e-07 0 -0.0063297396960592554 9.0353012616711394e-05 0 -0.0065826089219923559 5.2656040728365767e-06 0 -0.0057762421751923979 -5.841087907412404e-07 0 -0.0062130184394449429 6.3698235714182804e-05 0 -0.0063297396960592554 9.0353012616711394e-05 0 -0.0049185380529623308 5.9535202679292381e-05 0 -0.005772962000940348 -1.0021636367516572e-06 0 -0.0044386328866190174 -0.00013406273709893211 0 -0.0057441354806117024 -1.6629219111983063e-05 0 -0.005517223460342272 -4.2446741752625122e-05 0 -0.0062514974441651768 6.3584980268129246e-07 0 -0.0057762421751923979 -5.841087907412404e-07 0 -0.0062130184394449429 6.3698235714182804e-05 0 -0.0064781796166079268 5.7107062075163776e-05 0 -0.0065826089219923559 5.2656040728365767e-06 0 -0.006483773600194395 3.7978098109962091e-05 0 -0.0064781796166079268 5.7107062075163776e-05 0 -0.0063297396960592554 9.0353012616711394e-05 0 -0.0065826089219923559 5.2656040728365767e-06 0 -0.0049185380529623308 5.9535202679292381e-05 0 -0.0044386328866190174 -0.00013406273709893211 0 -0.004568081537127921 -6.2524746038182492e-06 0 -0.0046042312472674629 0.00015556098577311484 0 -0.0049185380529623308 5.9535202679292381e-05 0 -0.004568081537127921 -6.2524746038182492e-06 0 -0.0045038498272349792 -0.00026830415876497136 0 -0.004568081537127921 -6.2524746038182492e-06 0 -0.0046181237039613476 -0.00015958506448565508 0 -0.0046181237039613476 -0.00015958506448565508 0 -0.0045958333250598372 -0.00010599162653572027 0 -0.0047096959795626834 -0.00014262344107297616 0 -0.0045958333250598372 -0.00010599162653572027 0 -0.004784931102572742 -6.9269020751971055e-05 0 -0.0047096959795626834 -0.00014262344107297616 0 -0.0044386328866190174 -0.00013406273709893211 0 -0.004568081537127921 -6.2524746038182492e-06 0 -0.0045958333250598372 -0.00010599162653572027 0 -0.004568081537127921 -6.2524746038182492e-06 0 -0.0046181237039613476 -0.00015958506448565508 0 -0.0045958333250598372 -0.00010599162653572027 0 -0.0044386328866190174 -0.00013406273709893211 0 -0.0045958333250598372 -0.00010599162653572027 0 -0.004784931102572742 -6.9269020751971055e-05 0 -0.0065826089219923559 5.2656040728365767e-06 0 -0.0063707492984353235 5.7569830525586005e-05 0 -0.0062473293944620093 0.00017287483088136561 0 -0.0064077837096722214 1.6682257664836577e-05 0 -0.0065826089219923559 5.2656040728365767e-06 0 -0.0063707492984353235 5.7569830525586005e-05 0 -0.0044386328866190174 -0.00013406273709893211 0 -0.004784931102572742 -6.9269020751971055e-05 0 -0.005055417152264422 1.2253714300736823e-05 0 -0.005517223460342272 -4.2446741752625122e-05 0 -0.0056587658712136035 7.8299974123707266e-05 0 -0.0064077837096722214 1.6682257664836577e-05 0 -0.0065826089219923559 5.2656040728365767e-06 0 -0.006483773600194395 3.7978098109962091e-05 0 -0.004784931102572742 -6.9269020751971055e-05 0 -0.005055417152264422 1.2253714300736823e-05 0 -0.0054152729083309353 -4.4675982988466499e-05 0 -0.0062317539398697381 -4.8280682353529288e-07 0 -0.0064077837096722214 1.6682257664836577e-05 0 -0.0063707492984353235 5.7569830525586005e-05 0 -0.0062317539398697381 -4.8280682353529288e-07 0 -0.0063707492984353235 5.7569830525586005e-05 0 -0.0062473293944620093 0.00017287483088136561 0 -0.004784931102572742 -6.9269020751971055e-05 0 -0.0047464730777116515 -0.00015004780502352467 0 -0.0047600389534662698 -0.00016048288642585518 0 -0.0046181237039613476 -0.00015958506448565508 0 -0.0047096959795626834 -0.00014262344107297616 0 -0.004706686319520253 -0.00019981810983355668 0 -0.0047574886401818674 -7.1848200040820247e-05 0 -0.0051602092403422242 -6.6268300886728886e-05 0 -0.004784931102572742 -6.9269020751971055e-05 0 -0.0047096959795626834 -0.00014262344107297616 0 -0.0047464730777116515 -0.00015004780502352467 0 -0.0047464730777116515 -0.00015004780502352467 0 -0.004706686319520253 -0.00019981810983355668 0 -0.0047520334492611284 -0.00019803768120518509 0 -0.0047096959795626834 -0.00014262344107297616 0 -0.0047464730777116515 -0.00015004780502352467 0 -0.004706686319520253 -0.00019981810983355668 0 -0.004706686319520253 -0.00019981810983355668 0 -0.0046977692704959096 -0.00027439381777473806 0 -0.0047520334492611284 -0.00019803768120518509 0 -0.0046181237039613476 -0.00015958506448565508 0 -0.004706686319520253 -0.00019981810983355668 0 -0.0046129560297182466 -0.00026734610571238211 0 -0.004706686319520253 -0.00019981810983355668 0 -0.0046129560297182466 -0.00026734610571238211 0 -0.0046977692704959096 -0.00027439381777473806 0 -0.0045038498272349792 -0.00026830415876497136 0 -0.0046181237039613476 -0.00015958506448565508 0 -0.0046129560297182466 -0.00026734610571238211 0 -0.0045038498272349792 -0.00026830415876497136 0 -0.004549897562413821 -0.00035783500070099995 0 -0.0044533194601608208 -0.00045306856591854238 0 -0.0046129560297182466 -0.00026734610571238211 0 -0.004549897562413821 -0.00035783500070099995 0 -0.0046268916140135025 -0.0003594622217042382 0 -0.0045038498272349792 -0.00026830415876497136 0 -0.0046129560297182466 -0.00026734610571238211 0 -0.004549897562413821 -0.00035783500070099995 0 -0.004549897562413821 -0.00035783500070099995 0 -0.0046268916140135025 -0.0003594622217042382 0 -0.0045509469430106012 -0.00044462943739175621 0 -0.0046268916140135025 -0.0003594622217042382 0 -0.0046977692704959096 -0.00027439381777473806 0 -0.0047012006536370082 -0.00036827583062801829 0 -0.0046129560297182466 -0.00026734610571238211 0 -0.0046268916140135025 -0.0003594622217042382 0 -0.0046977692704959096 -0.00027439381777473806 0 -0.0053343573151906128 -0.00017075654528451984 0 -0.0024252302197846701 -0.00073335214877655341 0 -0.0047657850189716244 -0.00026969137745274269 0 -0.0047012006536370082 -0.00036827583062801829 0 -0.0047788366454376381 -0.00047447300279952173 0 -0.0046977692704959096 -0.00027439381777473806 0 -0.0047657850189716244 -0.00026969137745274269 0 -0.0047012006536370082 -0.00036827583062801829 0 -0.0047657850189716244 -0.00026969137745274269 0 -0.0047809380195536627 -0.00032807644709128192 0 -0.0048190666455575184 -0.00027086581763732749 0 -0.0047657850189716244 -0.00026969137745274269 0 -0.0047809380195536627 -0.00032807644709128192 0 -0.0047177091469611963 -0.00038924077335970853 0 0.00024984464064535479 -0.00026741601831046223 0 -0.00012475080366876302 0.00024518611084863723 0 -5.0291199832601852e-05 -0.00062018554532916235 0 -0.0023045856172623147 -0.00023165318733555013 0 -0.0016172218528843728 -0.00012903329082387567 0 -0.0047872575108191236 -0.00021192015558441633 0 -0.0048328418504712369 -0.00018149639182468184 0 -0.0048190666455575184 -0.00027086581763732749 0 -0.0047657850189716244 -0.00026969137745274269 0 -0.0047872575108191236 -0.00021192015558441633 0 -0.0048190666455575184 -0.00027086581763732749 0 -0.0047657850189716244 -0.00026969137745274269 0 -0.0047872575108191236 -0.00021192015558441633 0 -0.0047520334492611284 -0.00019803768120518509 0 -0.0046977692704959096 -0.00027439381777473806 0 -0.0047657850189716244 -0.00026969137745274269 0 -0.0047520334492611284 -0.00019803768120518509 0 -0.0047464730777116515 -0.00015004780502352467 0 -0.0047520334492611284 -0.00019803768120518509 0 -0.0047600389534662698 -0.00016048288642585518 0 -0.005055417152264422 1.2253714300736823e-05 0 -0.0054152729083309353 -4.4675982988466499e-05 0 -0.0058494956971444885 0.0001013083286994517 0 -0.0047872575108191236 -0.00021192015558441633 0 -0.0047520334492611284 -0.00019803768120518509 0 -0.0047600389534662698 -0.00016048288642585518 0 -0.0056587658712136035 7.8299974123707266e-05 0 -0.0058525661148633454 0.00010165935868860464 0 -0.0062473293944620093 0.00017287483088136561 0 -0.0060155199167465836 7.2377051750410545e-05 0 -0.0058494956971444885 0.0001013083286994517 0 -0.0062473293944620093 0.00017287483088136561 0 -0.0060155199167465836 7.2377051750410545e-05 0 -0.006123457939063822 5.797385347482158e-05 0 -0.0060517246829195383 -1.1414531183652668e-05 0 -0.0060155199167465836 7.2377051750410545e-05 0 -0.006123457939063822 5.797385347482158e-05 0 -0.0062317539398697381 -4.8280682353529288e-07 0 -0.0062473293944620093 0.00017287483088136561 0 -0.006123457939063822 5.797385347482158e-05 0 -0.0058501183040573917 4.2557501426625881e-05 0 -0.0059224100774010668 4.1671929192969382e-05 0 -0.0058494956971444885 0.0001013083286994517 0 -0.0060517246829195383 -1.1414531183652668e-05 0 -0.0060155199167465836 7.2377051750410545e-05 0 -0.0059224100774010668 4.1671929192969382e-05 0 -0.0060155199167465836 7.2377051750410545e-05 0 -0.0059224100774010668 4.1671929192969382e-05 0 -0.0058494956971444885 0.0001013083286994517 0 -0.0051602092403422242 -6.6268300886728886e-05 0 -0.005004883144086621 -0.00038505507851616452 0 -0.0047872575108191236 -0.00021192015558441633 0 -0.0047600389534662698 -0.00016048288642585518 0 -0.0048328418504712369 -0.00018149639182468184 0 -0.0054152729083309353 -4.4675982988466499e-05 0 -0.0058494956971444885 0.0001013083286994517 0 -0.0059944719490775625 2.9466200850478138e-05 0 -0.0016606673016068554 -0.00055475978071794401 0 -0.0018569884784174796 -0.00059011951895044236 0 -0.0015701703789964671 -0.00097374443739112464 0 -0.0029233355734168184 -0.00034842955570808608 0 -0.0028573186201432906 -0.00033639823979618894 0 -0.0028590961034303179 -0.00057732611122699058 0 -0.0040413920976581788 -0.00067798611433714023 0 -0.0013764862880643177 -0.0013066503467031513 0 -0.0040413920976581788 -0.00067798611433714023 0 -0.005004883144086621 -0.00038505507851616452 0 -0.0059106955696480593 -4.9113850551780661e-05 0 -0.005004883144086621 -0.00038505507851616452 0 -0.0058501183040573917 4.2557501426625881e-05 0 -0.0058494956971444885 0.0001013083286994517 0 -0.0059944719490775625 2.9466200850478138e-05 0 -0.0055452131559152115 -0.00054245338623128657 0 -0.0040413920976581788 -0.00067798611433714023 0 -0.0057543503117934844 -0.00023017241107540517 0 -0.0057667049014149315 -0.00023130770701897192 0 -0.0057194234332455041 -0.00030479084959829161 0 -0.0057667049014149315 -0.00023130770701897192 0 -0.0057342134593449494 -0.00030868599056079745 0 -0.0057194234332455041 -0.00030479084959829161 0 -0.0051676099363511556 -0.00085289013536828226 0 -0.005077587672392009 -0.0011464089045741712 0 -0.0052905333910855806 -0.00103314903045653 0 -0.005473172576726958 -0.00078806340069413822 0 -0.0051676099363511556 -0.00085289013536828226 0 -0.0052905333910855806 -0.00103314903045653 0 -0.005077587672392009 -0.0011464089045741712 0 -0.0052905333910855806 -0.00103314903045653 0 -0.0051809034908803708 -0.0011662547693901506 0 -0.0052905333910855806 -0.00103314903045653 0 -0.0051606673047898868 -0.0011711921586918866 0 -0.0054588586737143079 -0.0012066799749536517 0 -0.0052350875318897278 -0.00030140838114266574 0 -0.0013764862880643177 -0.0013066503467031513 0 0.0040406591931235747 -0.00058447198657693769 0 0.0029478558630587426 -0.0003614173239242861 0 0.0037460036003455128 0.000291775100093846 0 0.0040406591931235747 -0.00058447198657693769 0 0.0037460036003455128 0.000291775100093846 0 0.0048712128480183688 -0.00063287116164852575 0 0.0036541917177895923 -0.0013786699595778466 0 0.0040406591931235747 -0.00058447198657693769 0 0.0049574079606025875 -0.00078534009137592802 0 0.0036541917177895923 -0.0013786699595778466 0 0.0040406591931235747 -0.00058447198657693769 0 0.0029478558630587426 -0.0003614173239242861 0 0.0044539505355002049 -0.00019089063874919051 0 0.0048110396197654798 -0.00060485365951307862 0 -0.0028573186201432906 -0.00033639823979618894 0 -0.0028590961034303179 -0.00057732611122699058 0 -0.0028102745625169286 -0.00063735530434928605 0 -0.0040413920976581788 -0.00067798611433714023 0 7.1411924573473756e-07 -0.00050815916284535623 0 -0.0013764862880643177 -0.0013066503467031513 0 7.1411924573473756e-07 -0.00050815916284535623 0 -0.005004883144086621 -0.00038505507851616452 0 -0.0016172218528843728 -0.00012903329082387567 0 7.1411924573473756e-07 -0.00050815916284535623 0 -0.0016172218528843728 -0.00012903329082387567 0 0.00097721640250037823 3.6496479430691203e-05 0 0.0010609690196508026 -6.1422231500395821e-05 0 0.00114458411214039 -0.00049899502001000029 0 -0.0016172218528843728 -0.00012903329082387567 0 0.0032200942395476471 -0.00024277114697740998 0 0.0029478558630587426 -0.0003614173239242861 0 0.0037460036003455128 0.000291775100093846 0 0.0026869887523963665 0.0011746768253535942 0 7.1411924573473756e-07 -0.00050815916284535623 0 0.0032200942395476471 -0.00024277114697740998 0 0.0044539505355002049 -0.00019089063874919051 0 0.0032200942395476471 -0.00024277114697740998 0 0.0049628445555451508 -0.00070562916752076651 0 0.0049707102461668965 -0.00080823881559316047 0 0.0048818331419122705 -0.0007420440603008087 0 0.0049707102461668965 -0.00080823881559316047 0 0.0049234424182213543 -0.00091628241598374672 0 0.0048818331419122705 -0.0007420440603008087 0 0.0049899195126007689 -0.00086830759643096703 0 0.0049707102461668965 -0.00080823881559316047 0 0.0049234424182213543 -0.00091628241598374672 0 0.0049899195126007689 -0.00086830759643096703 0 0.0049707102461668965 -0.00080823881559316047 0 0.0050296098639222905 -0.00085697342127614344 0 0.0049707102461668965 -0.00080823881559316047 0 0.0050861936125642894 -0.0008240131958747941 0 0.0050296098639222905 -0.00085697342127614344 0 0.0049628445555451508 -0.00070562916752076651 0 0.0049707102461668965 -0.00080823881559316047 0 0.0050861936125642894 -0.0008240131958747941 0 0.0050861936125642894 -0.0008240131958747941 0 0.0050296098639222905 -0.00085697342127614344 0 0.005085622165253381 -0.00089032677125637527 0 0.0032200942395476471 -0.00024277114697740998 0 0.0041503132886046776 -0.00089870147726336968 0 0.0049899195126007689 -0.00086830759643096703 0 0.0050296098639222905 -0.00085697342127614344 0 0.0050246665355824531 -0.00092100239440841465 0 0.0032200942395476471 -0.00024277114697740998 0 0.0050550345561177854 -0.0010959700790420352 0 0.0050884486422324224 -0.00082034378508075341 0 0.005085622165253381 -0.00089032677125637527 0 0.0050969053842056505 -0.00095763962502416896 0 0.0050633880565670621 -0.00096770632170444827 0 0.0050503991828095545 -0.00104630010960465 0 0.0050969053842056505 -0.00095763962502416896 0 0.0050296098639222905 -0.00085697342127614344 0 0.0050246665355824531 -0.00092100239440841465 0 0.005085622165253381 -0.00089032677125637527 0 0.0050246665355824531 -0.00092100239440841465 0 0.005085622165253381 -0.00089032677125637527 0 0.0050633880565670621 -0.00096770632170444827 0 0.005085622165253381 -0.00089032677125637527 0 0.0050633880565670621 -0.00096770632170444827 0 0.0050969053842056505 -0.00095763962502416896 0 0.0050246665355824531 -0.00092100239440841465 0 0.0050633880565670621 -0.00096770632170444827 0 0.0050230963588610367 -0.00098711936205422065 0 0.0050246665355824531 -0.00092100239440841465 0 0.0050230963588610367 -0.00098711936205422065 0 0.0049234424182213543 -0.00091628241598374672 0 0.0051037269641356657 -0.00090770120659024807 0 0.0051497484733451504 -0.0010291031857718226 0 0.0050230963588610367 -0.00098711936205422065 0 0.0049234424182213543 -0.00091628241598374672 0 0.0050167942953046659 -0.0010593369163555868 0 0.0052850360638075746 -0.00090191700621312888 0 0.0052901835607814919 -0.0010257875189024575 0 0.0052318298992633855 -0.00095866867326107263 0 0.0049899195126007689 -0.00086830759643096703 0 0.0050246665355824531 -0.00092100239440841465 0 0.0049234424182213543 -0.00091628241598374672 0 0.0051689031106579462 -0.0010597919971642234 0 0.0052901835607814919 -0.0010257875189024575 0 0.005271582674653762 -0.0010425995039141764 0 0.0051615145874889376 -0.0010445578785670613 0 0.0051497484733451504 -0.0010291031857718226 0 0.0052901835607814919 -0.0010257875189024575 0 0.005271582674653762 -0.0010425995039141764 0 0.0052829179573676503 -0.0010277547515381454 0 0.0051689031106579462 -0.0010597919971642234 0 0.0050167942953046659 -0.0010593369163555868 0 0.0050883849365287483 -0.001079843509009652 0 0.0050888532519162474 -0.0010773279307996757 0 0.0050883849365287483 -0.001079843509009652 0 0.0050808720083661708 -0.0011017499668290686 0 0.0051689031106579462 -0.0010597919971642234 0 0.0050888532519162474 -0.0010773279307996757 0 0.0050883849365287483 -0.001079843509009652 0 0.0050883849365287483 -0.001079843509009652 0 0.0050641975933406027 -0.0010482613037242979 0 0.0050808720083661708 -0.0011017499668290686 0 0.0050633880565670621 -0.00096770632170444827 0 0.0050641975933406027 -0.0010482613037242979 0 0.0050808720083661708 -0.0011017499668290686 0 0.0050643288588178665 -0.00099063024525934879 0 0.0050447867702106131 -0.0010723197930989586 0 0.0050167942953046659 -0.0010593369163555868 0 0.0050883849365287483 -0.001079843509009652 0 0.0050641975933406027 -0.0010482613037242979 0 0.0050633880565670621 -0.00096770632170444827 0 0.0050230963588610367 -0.00098711936205422065 0 0.0050641975933406027 -0.0010482613037242979 0 0.0050230963588610367 -0.00098711936205422065 0 0.0050167942953046659 -0.0010593369163555868 0 0.0050641975933406027 -0.0010482613037242979 0 0.0050514464423921804 -0.0010008109198272335 0 0.0050503991828095545 -0.00104630010960465 0 0.0049803488112737061 -0.00094448095024495156 0 0.0050514464423921804 -0.0010008109198272335 0 0.0050841484419231692 -0.0010657349746664333 0 0.0050823525900677491 -0.00093274248241274633 0 0.0050633880565670621 -0.00096770632170444827 0 0.0050503991828095545 -0.00104630010960465 0 0.0050373687848437685 -0.0010989869970045086 0 0.0050397268929686266 -0.00097737177048293775 0 0.0050550345561177854 -0.0010959700790420352 0 0.0049915538635501109 -0.0017703740595403621 0 0.0024511615037389588 -0.0016392420396623144 0 0.0050514464423921804 -0.0010008109198272335 0 0.0050841484419231692 -0.0010657349746664333 0 0.0050503991828095545 -0.00104630010960465 0 0.0050841484419231692 -0.0010657349746664333 0 0.0050503991828095545 -0.00104630010960465 0 0.0050373687848437685 -0.0010989869970045086 0 0.0050223841782450537 -0.0010588970382958713 0 0.0050888532519162474 -0.0010773279307996757 0 0.0050808720083661708 -0.0011017499668290686 0 0.0046541897458714293 -0.0018274711436747639 0 0.0045283351122919957 -0.0023659221519675214 0 0.004456879009755217 -0.0020315574856762269 0 0.0048950795340742814 -0.0013724055396942372 0 0.0049915538635501109 -0.0017703740595403621 0 0.0050741868000684174 -0.0011850857991950331 0 0.0050841484419231692 -0.0010657349746664333 0 0.0050373687848437685 -0.0010989869970045086 0 0.0048950795340742814 -0.0013724055396942372 0 0.0050447867702106131 -0.0010723197930989586 0 0.004222530289914002 -0.0019541367830160773 0 0.0042747429046376597 -0.0021417083979646707 0 0.0040849485262924503 -0.0020743775415624915 0 0.004222530289914002 -0.0019541367830160773 0 0.0042747429046376597 -0.0021417083979646707 0 0.004456879009755217 -0.0020315574856762269 0 0.0042747429046376597 -0.0021417083979646707 0 0.004456879009755217 -0.0020315574856762269 0 0.0044010831683562414 -0.0022239933702644836 0 0.0045283351122919957 -0.0023659221519675214 0 0.0044010831683562414 -0.0022239933702644836 0 0.0043068405701579895 -0.0023786844196885702 0 0.0045283351122919957 -0.0023659221519675214 0 0.004456879009755217 -0.0020315574856762269 0 0.0044010831683562414 -0.0022239933702644836 0 0.0042747429046376597 -0.0021417083979646707 0 0.0044010831683562414 -0.0022239933702644836 0 0.0043068405701579895 -0.0023786844196885702 0 0.0042747429046376597 -0.0021417083979646707 0 0.0043068405701579895 -0.0023786844196885702 0 0.004062652863222869 -0.0022251368191423685 0 0.0045283351122919957 -0.0023659221519675214 0 0.0043068405701579895 -0.0023786844196885702 0 0.004466507362708102 -0.002819071260975354 0 0.0043068405701579895 -0.0023786844196885702 0 0.004466507362708102 -0.002819071260975354 0 0.0040433472614936393 -0.0024777953110045993 0 0.0043068405701579895 -0.0023786844196885702 0 0.0040433472614936393 -0.0024777953110045993 0 0.004062652863222869 -0.0022251368191423685 0 -0.0029626911828704249 -0.00074615351992202996 0 -0.0011086824660290454 -0.001616662246279821 0 -0.0046937956041120188 -0.00059277289103068054 0 -0.0047788366454376381 -0.00047447300279952173 0 -0.0046410075076430413 -0.0004794318312469344 0 -0.00094459706041869157 -0.0013295318828498491 0 -0.00099689420819136596 -0.0013067946384182113 0 -0.00089463087609592887 -0.0014177375056925678 0 0.0024511615037389588 -0.0016392420396623144 0 -0.0011086824660290454 -0.001616662246279821 0 -0.00094459706041869157 -0.0013295318828498491 0 -0.00099689420819136596 -0.0013067946384182113 0 -0.00099923212160328025 -0.0012412088292793793 0 -0.0029626911828704249 -0.00074615351992202996 0 -0.0024252302197846701 -0.00073335214877655341 0 0.0050514464423921804 -0.0010008109198272335 0 0.0049803488112737061 -0.00094448095024495156 0 0.0050823525900677491 -0.00093274248241274633 0 0.0049350027751850689 -0.00079991453232690574 0 0.0049803488112737061 -0.00094448095024495156 0 0.0050823525900677491 -0.00093274248241274633 0 0.0024511615037389588 -0.0016392420396623144 0 -0.0024252302197846701 -0.00073335214877655341 0 -5.0291199832601852e-05 -0.00062018554532916235 0 0.00061253650363533418 -0.0011916042156715862 0 0.00062092159881753828 -0.00078284109854396882 0 0.0032200942395476471 -0.00024277114697740998 0 0.0024511615037389588 -0.0016392420396623144 0 0.00024984464064535479 -0.00026741601831046223 0 -5.0291199832601852e-05 -0.00062018554532916235 0 0.00062092159881753828 -0.00078284109854396882 0 -0.0023045856172623147 -0.00023165318733555013 0 -0.0024252302197846701 -0.00073335214877655341 0 -0.0047012006536370082 -0.00036827583062801829 0 -0.0047788366454376381 -0.00047447300279952173 0 -0.0046410075076430413 -0.0004794318312469344 0 -0.0046268916140135025 -0.0003594622217042382 0 -0.0046410075076430413 -0.0004794318312469344 0 -0.0045509469430106012 -0.00044462943739175621 0 -0.0046268916140135025 -0.0003594622217042382 0 -0.0047012006536370082 -0.00036827583062801829 0 -0.0046410075076430413 -0.0004794318312469344 0 -0.0046410075076430413 -0.0004794318312469344 0 -0.0045509469430106012 -0.00044462943739175621 0 -0.0045495198423505783 -0.00053359300912070382 0 -0.004549897562413821 -0.00035783500070099995 0 -0.0045509469430106012 -0.00044462943739175621 0 -0.0044533194601608208 -0.00045306856591854238 0 -0.0045509469430106012 -0.00044462943739175621 0 -0.0044533194601608208 -0.00045306856591854238 0 -0.0044909483564890005 -0.00054361614741906558 0 -0.0045509469430106012 -0.00044462943739175621 0 -0.0044909483564890005 -0.00054361614741906558 0 -0.0045495198423505783 -0.00053359300912070382 0 -0.0044909483564890005 -0.00054361614741906558 0 -0.0044851315494896984 -0.00061439172672715116 0 -0.0044126235913693789 -0.00067691154994481417 0 -0.0046974569898672741 -0.00058201121165940854 0 -0.0047151827886666789 -0.0012087417704027604 0 -0.0046713705309942731 -0.00114545107763698 0 -0.0044533194601608208 -0.00045306856591854238 0 -0.0044909483564890005 -0.00054361614741906558 0 -0.0044126235913693789 -0.00067691154994481417 0 -0.0047166359959888498 -0.00060742190752532033 0 -0.0034140286857972991 -0.00058466286731098096 0 -0.0044909483564890005 -0.00054361614741906558 0 -0.0044851315494896984 -0.00061439172672715116 0 -0.0045495198423505783 -0.00053359300912070382 0 -0.0046410075076430413 -0.0004794318312469344 0 -0.0045495198423505783 -0.00053359300912070382 0 -0.0045755026419655696 -0.00061505804697188572 0 -0.0044851315494896984 -0.00061439172672715116 0 -0.0045755026419655696 -0.00061505804697188572 0 -0.0045099631087494102 -0.00067887975121955766 0 -0.0046937956041120188 -0.00059277289103068054 0 -0.0046410075076430413 -0.0004794318312469344 0 -0.0045755026419655696 -0.00061505804697188572 0 -0.0044851315494896984 -0.00061439172672715116 0 -0.0045495198423505783 -0.00053359300912070382 0 -0.0045755026419655696 -0.00061505804697188572 0 -0.0046937956041120188 -0.00059277289103068054 0 -0.0045755026419655696 -0.00061505804697188572 0 -0.0045883465707442592 -0.00071437821233311691 0 -0.0045755026419655696 -0.00061505804697188572 0 -0.0045099631087494102 -0.00067887975121955766 0 -0.0045883465707442592 -0.00071437821233311691 0 -0.0045099631087494102 -0.00067887975121955766 0 -0.0045883465707442592 -0.00071437821233311691 0 -0.0044574071721308617 -0.00077185288815486677 0 -0.0011086824660290454 -0.001616662246279821 0 0.0001097545104640438 -0.0011135793162113502 0 -0.0011086824660290454 -0.001616662246279821 0 -0.0049375773064760367 -5.8881079497620984e-05 0 0.0040433472614936393 -0.0024777953110045993 0 0.004062652863222869 -0.0022251368191423685 0 0.0037991997870266249 -0.0021942788926191813 0 -0.004332376867025734 -0.00078754933661980876 0 -0.0044574071721308617 -0.00077185288815486677 0 -0.0044602186264516347 -0.00078333130394493374 0 0.004062652863222869 -0.0022251368191423685 0 0.0037991997870266249 -0.0021942788926191813 0 0.0038653873294152998 -0.0021176148461207211 0 0.0001097545104640438 -0.0011135793162113502 0 0.0012931603462305024 -0.00089755694201743214 0 0.0042747429046376597 -0.0021417083979646707 0 0.004062652863222869 -0.0022251368191423685 0 0.0040849485262924503 -0.0020743775415624915 0 0.004062652863222869 -0.0022251368191423685 0 0.0038653873294152998 -0.0021176148461207211 0 0.0040849485262924503 -0.0020743775415624915 0 0.0039451105776880085 -0.0018997818983814492 0 0.0038653873294152998 -0.0021176148461207211 0 0.0040849485262924503 -0.0020743775415624915 0 -0.00016890183623124725 0.00012174701562081318 0 -0.0002821554665672915 0.00016972351677801701 0 -0.00034960591587852559 0.00020056405332596504 0 0.0033601997358029202 -0.0018547308240549711 0 0.0037692925998417367 -0.0022328695960179279 0 0.0038653873294152998 -0.0021176148461207211 0 -0.0002821554665672915 0.00016972351677801701 0 -0.00051273903661635243 5.235274856355913e-05 0 -0.00034960591587852559 0.00020056405332596504 0 0.0017487451545206611 -0.00094608104974182967 0 0.0001097545104640438 -0.0011135793162113502 0 -0.0044574071721308617 -0.00077185288815486677 0 -0.0044602186264516347 -0.00078333130394493374 0 -0.0044126235913693789 -0.00067691154994481417 0 0.0001097545104640438 -0.0011135793162113502 0 -0.0034140286857972991 -0.00058466286731098096 0 -0.00051273903661635243 5.235274856355913e-05 0 -0.00060793433154252995 1.7764566236794372e-05 0 -0.00034960591587852559 0.00020056405332596504 0 -0.0044574071721308617 -0.00077185288815486677 0 -0.004467359151967807 -0.0006869514294842304 0 -0.0044126235913693789 -0.00067691154994481417 0 -0.0045099631087494102 -0.00067887975121955766 0 -0.0044574071721308617 -0.00077185288815486677 0 -0.004467359151967807 -0.0006869514294842304 0 -0.0044851315494896984 -0.00061439172672715116 0 -0.004467359151967807 -0.0006869514294842304 0 -0.0044126235913693789 -0.00067691154994481417 0 -0.0044851315494896984 -0.00061439172672715116 0 -0.0045099631087494102 -0.00067887975121955766 0 -0.004467359151967807 -0.0006869514294842304 0 -0.0034140286857972991 -0.00058466286731098096 0 -0.0029791154238259891 -0.00043609704470760517 0 -0.00060793433154252995 1.7764566236794372e-05 0 -0.00034960591587852559 0.00020056405332596504 0 -0.0011945839924147794 6.4247186259672125e-05 0 -0.00034960591587852559 0.00020056405332596504 0 -0.00039908181514310099 0.00011724521212630778 0 -0.0011945839924147794 6.4247186259672125e-05 0 0.00012855439133897356 0.00013740799512764861 0 -0.00034960591587852559 0.00020056405332596504 0 -0.00039908181514310099 0.00011724521212630778 0 0.00022956857800382407 3.6319558947005899e-07 0 -0.00039908181514310099 0.00011724521212630778 0 -0.0010628317804461641 2.979170576441734e-07 0 -0.00039908181514310099 0.00011724521212630778 0 -0.0011945839924147794 6.4247186259672125e-05 0 -0.0010628317804461641 2.979170576441734e-07 0 -0.0011945839924147794 6.4247186259672125e-05 0 -0.0017256623111700179 -0.00018252728476645703 0 -0.0023555460303509505 -2.3720569547637382e-08 0 -0.0011945839924147794 6.4247186259672125e-05 0 -0.0010628317804461641 2.979170576441734e-07 0 -0.0023555460303509505 -2.3720569547637382e-08 0 -0.0046974569898672741 -0.00058201121165940854 0 -0.0046713705309942731 -0.00114545107763698 0 -0.0042891239376995913 -0.0006709393196781396 0 -0.00060793433154252995 1.7764566236794372e-05 0 -0.0011945839924147794 6.4247186259672125e-05 0 -0.0017256623111700179 -0.00018252728476645703 0 -0.0029791154238259891 -0.00043609704470760517 0 -0.0029360070508638518 -0.00034601067191411555 0 -0.004388051094199979 -0.00014736570634088763 0 -0.0046974569898672741 -0.00058201121165940854 0 -0.0042891239376995913 -0.0006709393196781396 0 -0.003647668012927362 -7.0324238825424014e-07 0 -0.0017256623111700179 -0.00018252728476645703 0 -0.0023555460303509505 -2.3720569547637382e-08 0 -0.003648458670141299 4.6016665823802874e-08 0 -0.0029360070508638518 -0.00034601067191411555 0 -0.004353720317429686 -0.00048469879444777497 0 -0.0046770298387535589 -0.00084738172115599714 0 -0.0041283161274053492 -0.00092055741238760585 0 -0.004353720317429686 -0.00048469879444777497 0 -0.0046770298387535589 -0.00084738172115599714 0 -0.0051927619512023007 -0.00071425003200703617 0 -0.0046770298387535589 -0.00084738172115599714 0 -0.0051159668239010017 -0.00088734577019419834 0 -0.0051927619512023007 -0.00071425003200703617 0 3.910049372241477e-06 -0.00044915714457131189 0 -0.00018786656043654699 -0.00059958741841274331 0 0.0044897164206651472 -0.00037731391048863051 0 0.0046034421014135305 -0.00062965605079748767 0 0.0048301525088964058 -0.00047902720209848376 0 0.0046034421014135305 -0.00062965605079748767 0 0.0048301525088964058 -0.00047902720209848376 0 0.004863299696293232 -0.00072097334775705262 0 0.0044897164206651472 -0.00037731391048863051 0 0.0046034421014135305 -0.00062965605079748767 0 0.0040136255327970693 -0.00034949824118802241 0 0.0040136255327970693 -0.00034949824118802241 0 0.0039881576016141959 -0.00069276959323850767 0 0.0043492434226656594 -0.00078752291291152104 0 0.0046034421014135305 -0.00062965605079748767 0 0.0040136255327970693 -0.00034949824118802241 0 0.0043492434226656594 -0.00078752291291152104 0 0.0039881576016141959 -0.00069276959323850767 0 0.0036662150295873122 -0.00080332297572621378 0 0.0034708109195892047 -0.00040195474306448266 0 0.00050677804178005635 -0.00037360284783780295 0 -0.0010873162283904104 -0.00033864069505853739 0 0.0040136255327970693 -0.00034949824118802241 0 0.0039881576016141959 -0.00069276959323850767 0 0.0034708109195892047 -0.00040195474306448266 0 -0.0033662849616737482 -0.00081469307173896266 0 -0.0035411163652744235 -0.00042306007198301347 0 -0.0036856795419222686 -0.0010144166604141177 0 -0.0031492268057016892 -0.00066179086611707616 0 -0.0035411163652744235 -0.00042306007198301347 0 -0.002948765228212814 -0.00041708580484887362 0 -0.0031492268057016892 -0.00066179086611707616 0 -0.0033662849616737482 -0.00081469307173896266 0 -0.0035411163652744235 -0.00042306007198301347 0 -0.0031492268057016892 -0.00066179086611707616 0 -0.0033662849616737482 -0.00081469307173896266 0 -0.003083116871867732 -0.00092653305765265229 0 -0.004353720317429686 -0.00048469879444777497 0 -0.0035411163652744235 -0.00042306007198301347 0 -0.0041283161274053492 -0.00092055741238760585 0 -0.0035411163652744235 -0.00042306007198301347 0 -0.0036856795419222686 -0.0010144166604141177 0 -0.0041283161274053492 -0.00092055741238760585 0 3.910049372241477e-06 -0.00044915714457131189 0 0.00050677804178005635 -0.00037360284783780295 0 -0.0036856795419222686 -0.0010144166604141177 0 -0.0037674948162662787 -0.0014867971003035584 0 -0.0040778419938927004 -0.00133583299386243 0 -0.0036856795419222686 -0.0010144166604141177 0 -0.0034592774029498109 -0.0014390064811338481 0 -0.0037674948162662787 -0.0014867971003035584 0 -0.0036856795419222686 -0.0010144166604141177 0 -0.0040778419938927004 -0.00133583299386243 0 -0.0041283161274053492 -0.00092055741238760585 0 -0.0033662849616737482 -0.00081469307173896266 0 -0.0033551440618767511 -0.0010966823259632916 0 -0.003083116871867732 -0.00092653305765265229 0 -0.0033662849616737482 -0.00081469307173896266 0 -0.0036856795419222686 -0.0010144166604141177 0 -0.0033551440618767511 -0.0010966823259632916 0 -0.0036856795419222686 -0.0010144166604141177 0 -0.0033551440618767511 -0.0010966823259632916 0 -0.0034592774029498109 -0.0014390064811338481 0 -0.0033551440618767511 -0.0010966823259632916 0 -0.0034592774029498109 -0.0014390064811338481 0 -0.0030971789989371321 -0.0013625081461299702 0 -0.0033551440618767511 -0.0010966823259632916 0 -0.0030971789989371321 -0.0013625081461299702 0 -0.003083116871867732 -0.00092653305765265229 0 -0.0036097604823291498 -0.0019680149506638976 0 -0.0034592774029498109 -0.0014390064811338481 0 -0.0032308703612442739 -0.0017427626358116116 0 -0.0034592774029498109 -0.0014390064811338481 0 -0.0032308703612442739 -0.0017427626358116116 0 -0.0030971789989371321 -0.0013625081461299702 0 -0.0036097604823291498 -0.0019680149506638976 0 -0.0034592774029498109 -0.0014390064811338481 0 -0.0037674948162662787 -0.0014867971003035584 0 -0.0036097604823291498 -0.0019680149506638976 0 -0.0037674948162662787 -0.0014867971003035584 0 -0.0040010465064652086 -0.0016496492770908637 0 -0.0046847767894557931 -0.0013855759961349625 0 -0.0042085258369475862 -0.0015133114538380115 0 -0.0037674948162662787 -0.0014867971003035584 0 -0.0040010465064652086 -0.0016496492770908637 0 -0.0040778419938927004 -0.00133583299386243 0 -0.0053687381975975603 -0.00081021475592721857 0 -0.0053806397607237483 -0.00082936912972074363 0 -0.0053535992259624984 -0.00083058510327139947 0 -0.0053687381975975603 -0.00081021475592721857 0 -0.0053535992259624984 -0.00083058510327139947 0 -0.0053231888198682388 -0.00082388258459475895 0 -0.0040081219594846271 -0.0017284495331836988 0 -0.0040778419938927004 -0.00133583299386243 0 -0.0045289397633117611 -0.0013239266727257722 0 -0.0053806397607237483 -0.00082936912972074363 0 -0.0053535992259624984 -0.00083058510327139947 0 -0.0053356360357125487 -0.00086427790994137441 0 -0.0046847767894557931 -0.0013855759961349625 0 -0.0049443409635604903 -0.0010695589009136154 0 -0.0040778419938927004 -0.00133583299386243 0 -0.0045289397633117611 -0.0013239266727257722 0 -0.0041283161274053492 -0.00092055741238760585 0 -0.0046770298387535589 -0.00084738172115599714 0 -0.0045289397633117611 -0.0013239266727257722 0 -0.0041283161274053492 -0.00092055741238760585 0 -0.0049443409635604903 -0.0010695589009136154 0 -0.0051095886568422967 -0.00090798205888367755 0 -0.0046770298387535589 -0.00084738172115599714 0 -0.0045289397633117611 -0.0013239266727257722 0 -0.0051159668239010017 -0.00088734577019419834 0 -0.0053356360357125487 -0.00086427790994137441 0 -0.0051159668239010017 -0.00088734577019419834 0 -0.0052487826542472185 -0.0008546148183035759 0 -0.0051159668239010017 -0.00088734577019419834 0 -0.0052487826542472185 -0.0008546148183035759 0 -0.0052126190092411885 -0.00086561921615184456 0 -0.0052487826542472185 -0.0008546148183035759 0 -0.0053231888198682388 -0.00082388258459475895 0 -0.00528658745139094 -0.0008380440399973259 0 -0.0053356360357125487 -0.00086427790994137441 0 -0.0052487826542472185 -0.0008546148183035759 0 -0.0053231888198682388 -0.00082388258459475895 0 -0.0053535992259624984 -0.00083058510327139947 0 -0.0053356360357125487 -0.00086427790994137441 0 -0.0053231888198682388 -0.00082388258459475895 0 -0.0053685504158956952 -0.00080514943934799322 0 -0.0053231888198682388 -0.00082388258459475895 0 -0.00528658745139094 -0.0008380440399973259 0 -0.0052487826542472185 -0.0008546148183035759 0 -0.00528658745139094 -0.0008380440399973259 0 -0.0052126190092411885 -0.00086561921615184456 0 -0.00528658745139094 -0.0008380440399973259 0 -0.0052676061903752028 -0.00083424944568363563 0 -0.0052406663861730707 -0.00085442782914343885 0 -0.0053537283288435907 -0.00081650736887650612 0 -0.00528658745139094 -0.0008380440399973259 0 -0.0052676061903752028 -0.00083424944568363563 0 -0.0052676061903752028 -0.00083424944568363563 0 -0.0052073651146070715 -0.00082180698283182755 0 -0.0052015567778266984 -0.00087719389502246452 0 -0.0052676061903752028 -0.00083424944568363563 0 -0.0052406663861730707 -0.00085442782914343885 0 -0.0052015567778266984 -0.00087719389502246452 0 -0.0052170046538954238 -0.00083616945880530906 0 -0.0052406663861730707 -0.00085442782914343885 0 -0.0052015567778266984 -0.00087719389502246452 0 -0.0051159668239010017 -0.00088734577019419834 0 -0.0052170046538954238 -0.00083616945880530906 0 -0.0052126190092411885 -0.00086561921615184456 0 -0.0052170046538954238 -0.00083616945880530906 0 -0.0052126190092411885 -0.00086561921615184456 0 -0.0052406663861730707 -0.00085442782914343885 0 -0.00528658745139094 -0.0008380440399973259 0 -0.0052126190092411885 -0.00086561921615184456 0 -0.0052406663861730707 -0.00085442782914343885 0 -0.005473172576726958 -0.00078806340069413822 0 -0.005460775805853379 -0.00098027652303442196 0 -0.0056200040664559359 -0.00091442562284190377 0 -0.005473172576726958 -0.00078806340069413822 0 -0.0052905333910855806 -0.00103314903045653 0 -0.005460775805853379 -0.00098027652303442196 0 -0.005460775805853379 -0.00098027652303442196 0 -0.0056200040664559359 -0.00091442562284190377 0 -0.0054588586737143079 -0.0012066799749536517 0 -0.0060739957419651174 -0.00074742661196350747 0 -0.00074759580870223559 -0.00076203280142197864 0 -0.0052073651146070715 -0.00082180698283182755 0 -0.0050841199588262751 -0.00088330619490592792 0 -0.0052015567778266984 -0.00087719389502246452 0 0.0036541917177895923 -0.0013786699595778466 0 0.0051004899667836529 -0.001078315100600982 0 0.0049574079606025875 -0.00078534009137592802 0 -0.0013764862880643177 -0.0013066503467031513 0 -0.00074759580870223559 -0.00076203280142197864 0 -0.0052905333910855806 -0.00103314903045653 0 -0.005460775805853379 -0.00098027652303442196 0 -0.0054588586737143079 -0.0012066799749536517 0 0.0048712128480183688 -0.00063287116164852575 0 0.0049263321889387859 -0.00064368080687749742 0 0.0048818331419122705 -0.0007420440603008087 0 0.0040406591931235747 -0.00058447198657693769 0 0.0048712128480183688 -0.00063287116164852575 0 0.0049574079606025875 -0.00078534009137592802 0 0.0049572805371656615 -0.0007551546520308248 0 0.0049574079606025875 -0.00078534009137592802 0 0.0049802512647865067 -0.00069054012395266845 0 0.0048712128480183688 -0.00063287116164852575 0 0.0049574079606025875 -0.00078534009137592802 0 0.0049263321889387859 -0.00064368080687749742 0 -0.00074759580870223559 -0.00076203280142197864 0 0.0012808830662766587 -0.001805066661753415 0 0.0049574079606025875 -0.00078534009137592802 0 0.0049802512647865067 -0.00069054012395266845 0 0.0049263321889387859 -0.00064368080687749742 0 0.0049802512647865067 -0.00069054012395266845 0 0.0049263321889387859 -0.00064368080687749742 0 0.0050263194193071944 -0.00066970108305711379 0 -0.00074759580870223559 -0.00076203280142197864 0 2.4965429923344242e-05 -0.00072911491383727842 0 0.0049572805371656615 -0.0007551546520308248 0 0.0050121826775402232 -0.00065522367702138082 0 0.0049841671605776496 -0.0006070135703953876 0 0.0049802512647865067 -0.00069054012395266845 0 0.0050121826775402232 -0.00065522367702138082 0 0.0050263194193071944 -0.00066970108305711379 0 0.0049572805371656615 -0.0007551546520308248 0 0.0049802512647865067 -0.00069054012395266845 0 0.0050121826775402232 -0.00065522367702138082 0 0.005062262838307051 -0.00070811975339533993 0 0.005086190526243403 -0.00070467112889393559 0 0.0051459035364039103 -0.00082006981863186237 0 0.0050121826775402232 -0.00065522367702138082 0 0.005062262838307051 -0.00070811975339533993 0 0.0049955779711105099 -0.00065004922840943263 0 0.0050121826775402232 -0.00065522367702138082 0 0.005062262838307051 -0.00070811975339533993 0 0.0050263194193071944 -0.00066970108305711379 0 0.005062262838307051 -0.00070811975339533993 0 0.0050263194193071944 -0.00066970108305711379 0 0.005086190526243403 -0.00070467112889393559 0 0.0049263321889387859 -0.00064368080687749742 0 0.0050263194193071944 -0.00066970108305711379 0 0.005086190526243403 -0.00070467112889393559 0 0.0049524150052301609 -0.0006641274128640455 0 0.0050323109986127332 -0.00075404926661284694 0 0.0049263321889387859 -0.00064368080687749742 0 0.005086190526243403 -0.00070467112889393559 0 0.0051929776852821076 -0.00074155188758349164 0 0.0049628445555451508 -0.00070562916752076651 0 0.0048712128480183688 -0.00063287116164852575 0 0.0048818331419122705 -0.0007420440603008087 0 -0.0052170046538954238 -0.00083616945880530906 0 -0.0051927619512023007 -0.00071425003200703617 0 -0.0052015567778266984 -0.00087719389502246452 0 -0.00018786656043654699 -0.00059958741841274331 0 2.4965429923344242e-05 -0.00072911491383727842 0 -0.0051159668239010017 -0.00088734577019419834 0 -0.0052170046538954238 -0.00083616945880530906 0 -0.0051927619512023007 -0.00071425003200703617 0 0.0048301525088964058 -0.00047902720209848376 0 0.0049841671605776496 -0.0006070135703953876 0 0.0049955779711105099 -0.00065004922840943263 0 0.0050121826775402232 -0.00065522367702138082 0 0.0049841671605776496 -0.0006070135703953876 0 0.0049955779711105099 -0.00065004922840943263 0 0.005062262838307051 -0.00070811975339533993 0 0.0049955779711105099 -0.00065004922840943263 0 0.0050581178801430843 -0.00078126112086225618 0 0.0048301525088964058 -0.00047902720209848376 0 0.0049955779711105099 -0.00065004922840943263 0 0.004863299696293232 -0.00072097334775705262 0 0.0049955779711105099 -0.00065004922840943263 0 0.0050581178801430843 -0.00078126112086225618 0 0.004863299696293232 -0.00072097334775705262 0 0.0050120437974052528 -0.00085843013261036147 0 0.0048979343287236417 -0.0010073355804668972 0 0.004863299696293232 -0.00072097334775705262 0 0.0050120437974052528 -0.00085843013261036147 0 0.0050581178801430843 -0.00078126112086225618 0 0.004863299696293232 -0.00072097334775705262 0 0.0050120437974052528 -0.00085843013261036147 0 0.0050581178801430843 -0.00078126112086225618 0 0.0051336594715557715 -0.00089626323637189656 0 0.0050120437974052528 -0.00085843013261036147 0 0.0051336594715557715 -0.00089626323637189656 0 0.0050947439407538573 -0.00095959821668941628 0 0.0051336594715557715 -0.00089626323637189656 0 0.0050947439407538573 -0.00095959821668941628 0 0.0052227683056539189 -0.00098789482742532163 0 0.0050120437974052528 -0.00085843013261036147 0 0.0050947439407538573 -0.00095959821668941628 0 0.0048979343287236417 -0.0010073355804668972 0 0.0052850360638075746 -0.00090191700621312888 0 0.0051929776852821076 -0.00074155188758349164 0 0.0051459035364039103 -0.00082006981863186237 0 0.0051037269641356657 -0.00090770120659024807 0 0.0050323109986127332 -0.00075404926661284694 0 0.005086190526243403 -0.00070467112889393559 0 0.0051929776852821076 -0.00074155188758349164 0 0.0051459035364039103 -0.00082006981863186237 0 0.0050581178801430843 -0.00078126112086225618 0 0.0051336594715557715 -0.00089626323637189656 0 0.0051459035364039103 -0.00082006981863186237 0 0.005062262838307051 -0.00070811975339533993 0 0.0050581178801430843 -0.00078126112086225618 0 0.0051459035364039103 -0.00082006981863186237 0 0.0051336594715557715 -0.00089626323637189656 0 0.0052318298992633855 -0.00095866867326107263 0 0.0052227683056539189 -0.00098789482742532163 0 0.0051336594715557715 -0.00089626323637189656 0 0.0051459035364039103 -0.00082006981863186237 0 0.0052318298992633855 -0.00095866867326107263 0 0.0052850360638075746 -0.00090191700621312888 0 0.0051459035364039103 -0.00082006981863186237 0 0.0052318298992633855 -0.00095866867326107263 0 0.0052901835607814919 -0.0010257875189024575 0 0.0052318298992633855 -0.00095866867326107263 0 0.0052829179573676503 -0.0010277547515381454 0 0.0052318298992633855 -0.00095866867326107263 0 0.0052227683056539189 -0.00098789482742532163 0 0.0052829179573676503 -0.0010277547515381454 0 0.0053840906458727834 -0.00099088654774899358 0 0.0053087086415785972 -0.0010160896967012585 0 0.0052829179573676503 -0.0010277547515381454 0 0.0052227683056539189 -0.00098789482742532163 0 0.0053087086415785972 -0.0010160896967012585 0 0.0052829179573676503 -0.0010277547515381454 0 0.0053213400777793558 -0.0010030870000541858 0 0.005271582674653762 -0.0010425995039141764 0 0.0052829179573676503 -0.0010277547515381454 0 0.0050947439407538573 -0.00095959821668941628 0 0.005224287060819374 -0.0010050005812006759 0 0.0051374743084351563 -0.00099883212224662586 0 0.0050947439407538573 -0.00095959821668941628 0 0.0051374743084351563 -0.00099883212224662586 0 0.0048979343287236417 -0.0010073355804668972 0 0.0050947439407538573 -0.00095959821668941628 0 0.0052227683056539189 -0.00098789482742532163 0 0.005224287060819374 -0.0010050005812006759 0 0.0053087086415785972 -0.0010160896967012585 0 0.005224287060819374 -0.0010050005812006759 0 0.005322566914821498 -0.0010225777629335046 0 0.0052227683056539189 -0.00098789482742532163 0 0.0053087086415785972 -0.0010160896967012585 0 0.005224287060819374 -0.0010050005812006759 0 0.0052994631225208345 -0.0010403975077559978 0 0.005224287060819374 -0.0010050005812006759 0 0.005322566914821498 -0.0010225777629335046 0 0.0052994631225208345 -0.0010403975077559978 0 0.0051374743084351563 -0.00099883212224662586 0 0.0051151173727956353 -0.0010288821324508925 0 0.0052994631225208345 -0.0010403975077559978 0 0.005224287060819374 -0.0010050005812006759 0 0.0051374743084351563 -0.00099883212224662586 0 0.0051374743084351563 -0.00099883212224662586 0 0.0051151173727956353 -0.0010288821324508925 0 0.005019754057223636 -0.00098963228482474241 0 0.0050077223675206719 -0.0011286187127442541 0 0.0051151173727956353 -0.0010288821324508925 0 0.0049902814936941906 -0.0010217416202352046 0 0.0051151173727956353 -0.0010288821324508925 0 0.0049902814936941906 -0.0010217416202352046 0 0.005019754057223636 -0.00098963228482474241 0 0.0049902814936941906 -0.0010217416202352046 0 0.0049831635562284718 -0.00097469201719112524 0 0.005019754057223636 -0.00098963228482474241 0 0.0049831635562284718 -0.00097469201719112524 0 0.005019754057223636 -0.00098963228482474241 0 0.0048979343287236417 -0.0010073355804668972 0 0.0051374743084351563 -0.00099883212224662586 0 0.005019754057223636 -0.00098963228482474241 0 0.0048979343287236417 -0.0010073355804668972 0 0.0050597640743300044 -0.0010147467109460752 0 0.0047528673160984469 -0.001096351907648328 0 0.0048979343287236417 -0.0010073355804668972 0 0.0043492434226656594 -0.00078752291291152104 0 0.0041975260646497205 -0.0010875662691405424 0 0.0044399154094801174 -0.0013587172978177984 0 0.0048979343287236417 -0.0010073355804668972 0 0.0041975260646497205 -0.0010875662691405424 0 0.0046034421014135305 -0.00062965605079748767 0 0.0048979343287236417 -0.0010073355804668972 0 0.0043492434226656594 -0.00078752291291152104 0 0.0046034421014135305 -0.00062965605079748767 0 0.0048979343287236417 -0.0010073355804668972 0 0.004863299696293232 -0.00072097334775705262 0 0.0039881576016141959 -0.00069276959323850767 0 0.0038395694654379761 -0.0011807234776771514 0 0.0036662150295873122 -0.00080332297572621378 0 0.0039881576016141959 -0.00069276959323850767 0 0.0043492434226656594 -0.00078752291291152104 0 0.0041975260646497205 -0.0010875662691405424 0 0.0039881576016141959 -0.00069276959323850767 0 0.0041975260646497205 -0.0010875662691405424 0 0.0038395694654379761 -0.0011807234776771514 0 0.00078967712342714017 -0.0014416821348019783 0 0.00085369691348960235 -0.0011904102195456337 0 0.0041975260646497205 -0.0010875662691405424 0 0.0038395694654379761 -0.0011807234776771514 0 0.004004208441445189 -0.0016038360782429872 0 0.00078967712342714017 -0.0014416821348019783 0 0.0025385750425670774 -0.0015916529322065331 0 -0.0020221104354845591 -0.0017594490247188745 0 -0.0021873470100918987 -0.0020436945401877413 0 -0.001778714871748757 -0.0022536681774512411 0 -0.0021873470100918987 -0.0020436945401877413 0 -0.0020642377338804942 -0.0024135042032660753 0 -0.001778714871748757 -0.0022536681774512411 0 0.0049902814936941906 -0.0010217416202352046 0 0.0049831635562284718 -0.00097469201719112524 0 0.0048802330699518424 -0.0010030830440338383 0 0.0050597640743300044 -0.0010147467109460752 0 0.0025385750425670774 -0.0015916529322065331 0 0.0044399154094801174 -0.0013587172978177984 0 0.0041975260646497205 -0.0010875662691405424 0 0.004004208441445189 -0.0016038360782429872 0 0.0032679736674330216 -0.0011995106938808443 0 0.0025385750425670774 -0.0015916529322065331 0 0.0049046153439631724 -0.0010712202863666699 0 0.0049902814936941906 -0.0010217416202352046 0 0.0048802330699518424 -0.0010030830440338383 0 0.0024129077460781322 -0.0020465524562438327 0 0.0012638288850800603 -0.0013870065817215566 0 0.0019828507206917723 -0.00097929956711052097 0 0.0028155753394363803 -0.00069614194552843078 0 0.0017038128059577414 -0.00092785038518376078 0 0.0016537398150412116 -3.2157336288491564e-05 0 0.0032679736674330216 -0.0011995106938808443 0 -0.00027404987808952563 -0.0017382030328996977 0 -0.00027404987808952563 -0.0017382030328996977 0 0.0025385750425670774 -0.0015916529322065331 0 0.0017038128059577414 -0.00092785038518376078 0 0.0016537398150412116 -3.2157336288491564e-05 0 0.00072046008385870776 -0.0005612990235912402 0 -0.0020081616633053794 -0.0026387617109466079 0 -0.0024231580410018919 -0.0024852259378576667 0 -0.0021677507002791263 -0.0020885384187699016 0 -0.00027404987808952563 -0.0017382030328996977 0 -0.0025775135135108805 -0.0020837525491538907 0 -0.0015861403027094564 -0.0024017254168265069 0 -0.0020081616633053794 -0.0026387617109466079 0 -0.0021677507002791263 -0.0020885384187699016 0 -0.00027404987808952563 -0.0017382030328996977 0 -0.00062356917890304074 -0.0016031363627816205 0 -0.0024231580410018919 -0.0024852259378576667 0 -0.0026843503726419536 -0.0022272264909589069 0 -0.0029152153717670742 -0.002597895647622668 0 -0.0024167325374562947 -0.0028636238967202415 0 -0.0024231580410018919 -0.0024852259378576667 0 -0.0029152153717670742 -0.002597895647622668 0 -0.0024167325374562947 -0.0028636238967202415 0 -0.0020081616633053794 -0.0026387617109466079 0 -0.0024231580410018919 -0.0024852259378576667 0 -0.0024231580410018919 -0.0024852259378576667 0 -0.0026843503726419536 -0.0022272264909589069 0 -0.0021677507002791263 -0.0020885384187699016 0 -0.0026843503726419536 -0.0022272264909589069 0 -0.0021677507002791263 -0.0020885384187699016 0 -0.0027334825471491474 -0.0018056382852349158 0 -0.0025775135135108805 -0.0020837525491538907 0 -0.0028243411578702214 -0.0018384653285626244 0 -0.0025578878422233349 -0.0021236203618816641 0 -0.002992323230035674 -0.0018340344821203016 0 -0.0024942466358596907 -0.0016875370627497121 0 -0.0021873470100918987 -0.0020436945401877413 0 -0.0020642377338804942 -0.0024135042032660753 0 -0.0025578878422233349 -0.0021236203618816641 0 -0.0021873470100918987 -0.0020436945401877413 0 -0.0025578878422233349 -0.0021236203618816641 0 -0.0024942466358596907 -0.0016875370627497121 0 -0.0033712921861067018 -0.0023378808631402941 0 -0.0031031960867299144 -0.0022455192361294177 0 -0.0029152153717670742 -0.002597895647622668 0 -0.0033712921861067018 -0.0023378808631402941 0 -0.0031205340382467945 -0.0026417306364744037 0 -0.0026880438480602568 -0.0026108762778189317 0 -0.0032636922803788489 -0.0023811644415894662 0 -0.002943256038819135 -0.0025864278774064935 0 -0.0034969351223024686 -0.0027759952380702665 0 -0.0033712921861067018 -0.0023378808631402941 0 -0.0031205340382467945 -0.0026417306364744037 0 -0.0026843503726419536 -0.0022272264909589069 0 -0.0031031960867299144 -0.0022455192361294177 0 -0.0029152153717670742 -0.002597895647622668 0 -0.0027334825471491474 -0.0018056382852349158 0 -0.0031960088188255579 -0.0018994673507139507 0 -0.0033169892743740098 -0.0017448543446226454 0 -0.0027334825471491474 -0.0018056382852349158 0 -0.0029309644099179844 -0.0020466760596555681 0 -0.0031960088188255579 -0.0018994673507139507 0 -0.0026843503726419536 -0.0022272264909589069 0 -0.0027334825471491474 -0.0018056382852349158 0 -0.0029309644099179844 -0.0020466760596555681 0 -0.0026843503726419536 -0.0022272264909589069 0 -0.0031031960867299144 -0.0022455192361294177 0 -0.0029309644099179844 -0.0020466760596555681 0 -0.0031031960867299144 -0.0022455192361294177 0 -0.0029309644099179844 -0.0020466760596555681 0 -0.0031960088188255579 -0.0018994673507139507 0 -0.0031031960867299144 -0.0022455192361294177 0 -0.0034687523976011385 -0.0015470194253731798 0 -0.0036007653110534505 -0.0020012021955628225 0 -0.0031031960867299144 -0.0022455192361294177 0 -0.0031960088188255579 -0.0018994673507139507 0 -0.00349366890403627 -0.0016776866569359799 0 -0.0033712921861067018 -0.0023378808631402941 0 -0.0031031960867299144 -0.0022455192361294177 0 -0.0036007653110534505 -0.0020012021955628225 0 -0.0031315373926631882 -0.0022038567413606483 0 -0.003473640686637974 -0.0016184362867693806 0 -0.00349366890403627 -0.0016776866569359799 0 -0.0033208558998125194 -0.0015783980911319721 0 -0.0033766435361373584 -0.0013619902627350002 0 -0.0031960088188255579 -0.0018994673507139507 0 -0.00349366890403627 -0.0016776866569359799 0 -0.0033169892743740098 -0.0017448543446226454 0 -0.00349366890403627 -0.0016776866569359799 0 -0.0033169892743740098 -0.0017448543446226454 0 -0.0033208558998125194 -0.0015783980911319721 0 -0.0028243411578702214 -0.0018384653285626244 0 -0.0032881041335663798 -0.001591570639981429 0 -0.002992323230035674 -0.0018340344821203016 0 -0.0031238842621394429 -0.0014192305491715898 0 -0.0028408347200795082 -0.0014044846230362267 0 -0.0027334825471491474 -0.0018056382852349158 0 -0.0033169892743740098 -0.0017448543446226454 0 -0.0033208558998125194 -0.0015783980911319721 0 -0.002992323230035674 -0.0018340344821203016 0 -0.0033208558998125194 -0.0015783980911319721 0 -0.0031238842621394429 -0.0014192305491715898 0 -0.0030241460261433159 -0.0012567174217043094 0 -0.0031238842621394429 -0.0014192305491715898 0 -0.0028408347200795082 -0.0014044846230362267 0 -0.0030241460261433159 -0.0012567174217043094 0 -0.0031238842621394429 -0.0014192305491715898 0 -0.0031699024044191432 -0.0011379486295304173 0 -0.0031238842621394429 -0.0014192305491715898 0 -0.0033766435361373584 -0.0013619902627350002 0 -0.0031699024044191432 -0.0011379486295304173 0 -0.00349366890403627 -0.0016776866569359799 0 -0.0033766435361373584 -0.0013619902627350002 0 -0.0037690221184038001 -0.0012632037351724334 0 -0.0033766435361373584 -0.0013619902627350002 0 -0.003421946975557995 -0.0011198895179659071 0 -0.0037690221184038001 -0.0012632037351724334 0 -0.0033208558998125194 -0.0015783980911319721 0 -0.0031238842621394429 -0.0014192305491715898 0 -0.0033766435361373584 -0.0013619902627350002 0 -0.0033766435361373584 -0.0013619902627350002 0 -0.0031699024044191432 -0.0011379486295304173 0 -0.003421946975557995 -0.0011198895179659071 0 -0.0020221104354845591 -0.0017594490247188745 0 -0.0021873470100918987 -0.0020436945401877413 0 -0.0024942466358596907 -0.0016875370627497121 0 -0.0020221104354845591 -0.0017594490247188745 0 -0.0024942466358596907 -0.0016875370627497121 0 -0.002262149131816361 -0.0013123195588175707 0 -0.002992323230035674 -0.0018340344821203016 0 -0.0024942466358596907 -0.0016875370627497121 0 -0.0028408347200795082 -0.0014044846230362267 0 -0.0024942466358596907 -0.0016875370627497121 0 -0.0028408347200795082 -0.0014044846230362267 0 -0.0026445775653100544 -0.0011892109022407797 0 -0.0030241460261433159 -0.0012567174217043094 0 -0.0028408347200795082 -0.0014044846230362267 0 -0.0029180835750709654 -0.0010820002556081656 0 -0.0028408347200795082 -0.0014044846230362267 0 -0.0026445775653100544 -0.0011892109022407797 0 -0.0029180835750709654 -0.0010820002556081656 0 -0.0024942466358596907 -0.0016875370627497121 0 -0.002262149131816361 -0.0013123195588175707 0 -0.0026445775653100544 -0.0011892109022407797 0 0.00085369691348960235 -0.0011904102195456337 0 -0.0010873162283904104 -0.00033864069505853739 0 -0.002262149131816361 -0.0013123195588175707 0 -0.0026445775653100544 -0.0011892109022407797 0 -0.0024953227017899438 -0.00085993669237444093 0 -0.0026445775653100544 -0.0011892109022407797 0 -0.0024953227017899438 -0.00085993669237444093 0 -0.0027815640533494744 -0.00091545563073024204 0 -0.0010873162283904104 -0.00033864069505853739 0 -0.0029030263347011539 -0.00082085728905552738 0 -0.0027414858905250947 -0.00089147607882935135 0 -0.0029006965076673135 -0.00076067051611847366 0 -0.0027815640533494744 -0.00091545563073024204 0 -0.0031492268057016892 -0.00066179086611707616 0 -0.002948765228212814 -0.00041708580484887362 0 -0.0029006965076673135 -0.00076067051611847366 0 -0.0010873162283904104 -0.00033864069505853739 0 -0.0027665632854212293 -0.00058687229830682087 0 -0.0031492268057016892 -0.00066179086611707616 0 -0.0029006965076673135 -0.00076067051611847366 0 -0.003083116871867732 -0.00092653305765265229 0 -0.0029006965076673135 -0.00076067051611847366 0 -0.00292531512758576 -0.00077229501908223437 0 -0.0028870755578093055 -0.00072540688745994033 0 -0.0029006965076673135 -0.00076067051611847366 0 -0.0028839026670923946 -0.00085959290695195967 0 -0.0027815640533494744 -0.00091545563073024204 0 -0.0029006965076673135 -0.00076067051611847366 0 -0.00292531512758576 -0.00077229501908223437 0 -0.0028839026670923946 -0.00085959290695195967 0 -0.00292531512758576 -0.00077229501908223437 0 -0.0028839026670923946 -0.00085959290695195967 0 -0.0030208120614267872 -0.00091066453834975816 0 -0.0028839026670923946 -0.00085959290695195967 0 -0.0029180835750709654 -0.0010820002556081656 0 -0.0030208120614267872 -0.00091066453834975816 0 -0.0028839026670923946 -0.00085959290695195967 0 -0.0027815640533494744 -0.00091545563073024204 0 -0.0029180835750709654 -0.0010820002556081656 0 -0.0026445775653100544 -0.0011892109022407797 0 -0.0027815640533494744 -0.00091545563073024204 0 -0.0029180835750709654 -0.0010820002556081656 0 -0.0030241460261433159 -0.0012567174217043094 0 -0.0029180835750709654 -0.0010820002556081656 0 -0.0031699024044191432 -0.0011379486295304173 0 -0.0029180835750709654 -0.0010820002556081656 0 -0.0031699024044191432 -0.0011379486295304173 0 -0.0030208120614267872 -0.00091066453834975816 0 -0.0031699024044191432 -0.0011379486295304173 0 -0.0032308544164716033 -0.00092119938074053322 0 -0.003421946975557995 -0.0011198895179659071 0 -0.0031699024044191432 -0.0011379486295304173 0 -0.0032308544164716033 -0.00092119938074053322 0 -0.0030208120614267872 -0.00091066453834975816 0 -0.0032308544164716033 -0.00092119938074053322 0 -0.003421946975557995 -0.0011198895179659071 0 -0.0035750307666689118 -0.00091225229521207105 0 -0.003421946975557995 -0.0011198895179659071 0 -0.0035750307666689118 -0.00091225229521207105 0 -0.0037690221184038001 -0.0012632037351724334 0 -0.0032308544164716033 -0.00092119938074053322 0 -0.0035750307666689118 -0.00091225229521207105 0 -0.0033683311065529106 -0.00072746646414736927 0 -0.0035750307666689118 -0.00091225229521207105 0 -0.0033683311065529106 -0.00072746646414736927 0 -0.0036589826734190621 -0.00062605925811577852 0 -0.0033683311065529106 -0.00072746646414736927 0 -0.003066597487761836 -0.00072084914221768378 0 -0.0034118651048516057 -0.00044163118720854988 0 -0.0033683311065529106 -0.00072746646414736927 0 -0.0034118651048516057 -0.00044163118720854988 0 -0.0036589826734190621 -0.00062605925811577852 0 -0.0032308544164716033 -0.00092119938074053322 0 -0.0030208120614267872 -0.00091066453834975816 0 -0.003066597487761836 -0.00072084914221768378 0 -0.00292531512758576 -0.00077229501908223437 0 -0.0030208120614267872 -0.00091066453834975816 0 -0.003066597487761836 -0.00072084914221768378 0 -0.0032308544164716033 -0.00092119938074053322 0 -0.0033683311065529106 -0.00072746646414736927 0 -0.003066597487761836 -0.00072084914221768378 0 -0.00292531512758576 -0.00077229501908223437 0 -0.003066597487761836 -0.00072084914221768378 0 -0.0028870755578093055 -0.00072540688745994033 0 -0.008324470430643393 -0.0033608969759304935 0 -0.0088052883796834267 -0.00370186645367489 0 -0.007808524375786368 -0.0037573492382660207 0 -0.008324470430643393 -0.0033608969759304935 0 -0.0080948259618036384 -0.0028371766375775969 0 -0.007808524375786368 -0.0037573492382660207 0 -0.0029188712501817429 -0.00036612886576671653 0 -0.0043284454102145787 -0.0017548957100240506 0 -0.0062956723484032641 -0.0020869117025759218 0 -0.0043284454102145787 -0.0017548957100240506 0 -0.003066597487761836 -0.00072084914221768378 0 -0.0034118651048516057 -0.00044163118720854988 0 -0.0029168442829148136 -0.0005015737696930575 0 -0.008324470430643393 -0.0033608969759304935 0 -0.0088052883796834267 -0.00370186645367489 0 -0.0088269030763880145 -0.0029855755292393024 0 -0.0088052883796834267 -0.00370186645367489 0 -0.0088269030763880145 -0.0029855755292393024 0 -0.0093620753642903783 -0.003110515113769616 0 -0.0088269030763880145 -0.0029855755292393024 0 -0.0093620753642903783 -0.003110515113769616 0 -0.0093186109697912019 -0.0024946949285148414 0 -0.0088269030763880145 -0.0029855755292393024 0 -0.0080948259618036384 -0.0028371766375775969 0 -0.0086544822184566796 -0.0020756417531145881 0 -0.008324470430643393 -0.0033608969759304935 0 -0.0088269030763880145 -0.0029855755292393024 0 -0.0080948259618036384 -0.0028371766375775969 0 -0.005031183221851099 -0.0024000557649972 0 -0.0043284454102145787 -0.0017548957100240506 0 -0.0080948259618036384 -0.0028371766375775969 0 -0.0070998655536532694 -0.0027508478443092669 0 -0.007808524375786368 -0.0037573492382660207 0 -0.0032308703612442739 -0.0017427626358116116 0 -0.0027592028756396121 -0.0016469229999469084 0 -0.0030971789989371321 -0.0013625081461299702 0 -0.0027592028756396121 -0.0016469229999469084 0 -0.0030971789989371321 -0.0013625081461299702 0 -0.0028124871925837066 -0.0012418481657370485 0 -0.0029006965076673135 -0.00076067051611847366 0 -0.003083116871867732 -0.00092653305765265229 0 -0.0028870755578093055 -0.00072540688745994033 0 -0.0028124871925837066 -0.0012418481657370485 0 -0.003083116871867732 -0.00092653305765265229 0 -0.0023417554650276857 -0.0010343325635562832 0 -0.0030971789989371321 -0.0013625081461299702 0 -0.0028124871925837066 -0.0012418481657370485 0 -0.003083116871867732 -0.00092653305765265229 0 -0.0023394382350961757 -0.00068827892702712787 0 -0.0043284454102145787 -0.0017548957100240506 0 -0.0027592028756396121 -0.0016469229999469084 0 -0.0028124871925837066 -0.0012418481657370485 0 -0.0023417554650276857 -0.0010343325635562832 0 -0.0057098387532107438 0.00068535350897987331 0 -0.0053950653121352353 0.00016455523589722733 0 -0.0060324094021816637 0.00018905938852521801 0 -0.0048107327338565552 0.00063454449943797764 0 -0.0057098387532107438 0.00068535350897987331 0 -0.0053950653121352353 0.00016455523589722733 0 -0.0070194593711837838 -0.0012626908369256446 0 -0.01129986745533449 -0.0011603529620684652 0 -0.017199547643279418 -0.0028792235078029219 0 -0.017268326860147665 -0.0027152288665564235 0 -0.017102761398310906 -0.0027315726040620159 0 -0.01129986745533449 -0.0011603529620684652 0 -0.014332583301692573 -0.0027847227083850935 0 -0.010785323440354287 -0.0035627025190010883 0 -0.010410367546433213 -0.0029429472673918743 0 -0.011380028746227594 -0.0025847634556765108 0 -0.0070194593711837838 -0.0012626908369256446 0 -0.014332583301692573 -0.0027847227083850935 0 -0.010212308084109823 -0.002160181431111876 0 -0.011348433639273254 -0.0020821302979112961 0 -0.010771071981239198 -0.0012355924115261814 0 -0.010410367546433213 -0.0029429472673918743 0 -0.010305188666293621 -0.0023683534498029767 0 -0.011380028746227594 -0.0025847634556765108 0 -0.010410367546433213 -0.0029429472673918743 0 -0.0098472966538045558 -0.0027880045239583582 0 -0.0098006139317539775 -0.0036347994328304544 0 -0.010410367546433213 -0.0029429472673918743 0 -0.0098472966538045558 -0.0027880045239583582 0 -0.010305188666293621 -0.0023683534498029767 0 -0.0098472966538045558 -0.0027880045239583582 0 -0.0093620753642903783 -0.003110515113769616 0 -0.0098006139317539775 -0.0036347994328304544 0 -0.0098472966538045558 -0.0027880045239583582 0 -0.0093620753642903783 -0.003110515113769616 0 -0.0093186109697912019 -0.0024946949285148414 0 -0.0062956723484032641 -0.0020869117025759218 0 -0.0069208874150118848 -0.0020593446772072845 0 -0.0088052883796834267 -0.00370186645367489 0 -0.0093620753642903783 -0.003110515113769616 0 -0.0098006139317539775 -0.0036347994328304544 0 -0.0034118651048516057 -0.00044163118720854988 0 -0.0038985119700307089 -0.0003914044875892681 0 -0.0036589826734190621 -0.00062605925811577852 0 -0.0044096512369820092 -0.00035537051493169443 0 -0.0038985119700307089 -0.0003914044875892681 0 -0.0040811394110167841 -0.00083653805680461457 0 -0.0070194593711837838 -0.0012626908369256446 0 -0.0069208874150118848 -0.0020593446772072845 0 -0.010785323440354287 -0.0035627025190010883 0 -0.010410367546433213 -0.0029429472673918743 0 -0.0098006139317539775 -0.0036347994328304544 0 -0.0070194593711837838 -0.0012626908369256446 0 -0.0039533530731820843 -0.00030281659820972288 0 -0.0048107327338565552 0.00063454449943797764 0 -0.0043508613475631902 -8.6626823843756758e-05 0 -0.0048641178423474507 -2.5481887472719649e-06 0 -0.0038985119700307089 -0.0003914044875892681 0 -0.0040811394110167841 -0.00083653805680461457 0 -0.0036589826734190621 -0.00062605925811577852 0 -0.0035750307666689118 -0.00091225229521207105 0 -0.0040811394110167841 -0.00083653805680461457 0 -0.0036589826734190621 -0.00062605925811577852 0 -0.0039533530731820843 -0.00030281659820972288 0 -0.0038664214388213396 -0.0010554856147155572 0 -0.0035750307666689118 -0.00091225229521207105 0 -0.0040811394110167841 -0.00083653805680461457 0 -0.0037690221184038001 -0.0012632037351724334 0 -0.0043508613475631902 -8.6626823843756758e-05 0 -0.0048641178423474507 -2.5481887472719649e-06 0 -0.0047713807706355905 -0.0007928110101726773 0 -0.0043508613475631902 -8.6626823843756758e-05 0 -0.0047713807706355905 -0.0007928110101726773 0 -0.0038993086914390347 -0.00081626773255762922 0 -0.0052163631817636275 -0.00029411331831433668 0 -0.0054669832131837822 -0.00067874519017168886 0 -0.0047713807706355905 -0.0007928110101726773 0 -0.0048641178423474507 -2.5481887472719649e-06 0 -0.0052163631817636275 -0.00029411331831433668 0 -0.0047713807706355905 -0.0007928110101726773 0 -0.0048107327338565552 0.00063454449943797764 0 -0.0048641178423474507 -2.5481887472719649e-06 0 -0.0053950653121352353 0.00016455523589722733 0 -0.0048641178423474507 -2.5481887472719649e-06 0 -0.0053950653121352353 0.00016455523589722733 0 -0.0052163631817636275 -0.00029411331831433668 0 -0.0053950653121352353 0.00016455523589722733 0 -0.0057332955045092662 -0.00024843139461126561 0 -0.0060324094021816637 0.00018905938852521801 0 -0.0053950653121352353 0.00016455523589722733 0 -0.0057332955045092662 -0.00024843139461126561 0 -0.0052163631817636275 -0.00029411331831433668 0 -0.0057332955045092662 -0.00024843139461126561 0 -0.0052163631817636275 -0.00029411331831433668 0 -0.0054669832131837822 -0.00067874519017168886 0 -0.0054669832131837822 -0.00067874519017168886 0 -0.0047713807706355905 -0.0007928110101726773 0 -0.0053785784821750986 -0.0012353943445603344 0 -0.00331903706627557 0.00022972482119475447 0 -0.0040460025378880413 0.0012669585683008186 0 -0.0054669832131837822 -0.00067874519017168886 0 -0.0053785784821750986 -0.0012353943445603344 0 -0.0060120679571971855 -0.00069776832689048493 0 -0.0012132033351295549 0.001744254481068074 0 -0.0021333560657199714 0.0022988018765126121 0 -0.0021005167721185663 0.0014563211191995116 0 -0.00331903706627557 0.00022972482119475447 0 -0.0022233949832829217 -0.00053633452954108727 0 -0.0047713807706355905 -0.0007928110101726773 0 -0.0053785784821750986 -0.0012353943445603344 0 -0.0047355456580163461 -0.0017638681551839536 0 -0.0014572107343832465 0.00077056214645183734 0 -0.0012132033351295549 0.001744254481068074 0 0.00026417655646363973 0.0007040567860971946 0 -0.0014572107343832465 0.00077056214645183734 0 -0.0012132033351295549 0.001744254481068074 0 -0.0021005167721185663 0.0014563211191995116 0 -0.003473640686637974 -0.0016184362867693806 0 -0.0038664214388213396 -0.0010554856147155572 0 -0.0047713807706355905 -0.0007928110101726773 0 -0.0038993086914390347 -0.00081626773255762922 0 -0.0042493447494370484 -0.0014746598221001214 0 -0.0047713807706355905 -0.0007928110101726773 0 -0.0042493447494370484 -0.0014746598221001214 0 -0.0047355456580163461 -0.0017638681551839536 0 -0.0034687523976011385 -0.0015470194253731798 0 -0.0038993086914390347 -0.00081626773255762922 0 -0.0038651249016246679 -0.0016270067278237946 0 -0.0038993086914390347 -0.00081626773255762922 0 -0.0042493447494370484 -0.0014746598221001214 0 -0.0038651249016246679 -0.0016270067278237946 0 -0.0034687523976011385 -0.0015470194253731798 0 -0.0038651249016246679 -0.0016270067278237946 0 -0.0036007653110534505 -0.0020012021955628225 0 -0.0033712921861067018 -0.0023378808631402941 0 -0.0036007653110534505 -0.0020012021955628225 0 -0.0041043343322172219 -0.0022688307105765554 0 -0.0038651249016246679 -0.0016270067278237946 0 -0.0036007653110534505 -0.0020012021955628225 0 -0.0041043343322172219 -0.0022688307105765554 0 -0.0042493447494370484 -0.0014746598221001214 0 -0.0038651249016246679 -0.0016270067278237946 0 -0.0041043343322172219 -0.0022688307105765554 0 0.0012757764173936786 -0.00017790421432452901 0 0.0015851587232996399 -0.00019359973936666888 0 0.00026417655646363973 0.0007040567860971946 0 -0.0012725977563387623 -0.0012106976408681554 0 -0.0022233949832829217 -0.00053633452954108727 0 -0.0042493447494370484 -0.0014746598221001214 0 -0.0041043343322172219 -0.0022688307105765554 0 -0.0047355456580163461 -0.0017638681551839536 0 0.0012757764173936786 -0.00017790421432452901 0 0.00026417655646363973 0.0007040567860971946 0 0.00010151063697340098 -0.00033435342320626486 0 0.0010473968233567655 -0.00066704237398370139 0 0.0012932324654959455 -0.00020097590375551727 0 0.00031431893969347381 -0.0012774065993046205 0 0.0012757764173936786 -0.00017790421432452901 0 0.00010151063697340098 -0.00033435342320626486 0 0.0017752515600986537 -0.00014279459551440785 0 0.001607348745150656 -0.00017180420872862654 0 0.0012757764173936786 -0.00017790421432452901 0 0.001607348745150656 -0.00017180420872862654 0 0.0012757764173936786 -0.00017790421432452901 0 0.0015851587232996399 -0.00019359973936666888 0 -0.0034969351223024686 -0.0027759952380702665 0 -0.0033712921861067018 -0.0023378808631402941 0 -0.0041043343322172219 -0.0022688307105765554 0 -0.00097378510472053933 -0.0015509510839600837 0 -0.0012725977563387623 -0.0012106976408681554 0 0.0016665930986803051 -0.00010231213285850711 0 0.001607348745150656 -0.00017180420872862654 0 0.0015851587232996399 -0.00019359973936666888 0 -0.00082117228194796726 -9.55078051276652e-05 0 -0.0023099355575804028 -0.00058956445633427917 0 -0.0014572107343832465 0.00077056214645183734 0 -0.00074471801027012048 -5.453244471038903e-05 0 -0.0028663056283166899 -0.00070825428114448265 0 -0.00074471801027012048 -5.453244471038903e-05 0 0.00026417655646363973 0.0007040567860971946 0 0.00010151063697340098 -0.00033435342320626486 0 -0.0014572107343832465 0.00077056214645183734 0 -0.00074471801027012048 -5.453244471038903e-05 0 0.00026417655646363973 0.0007040567860971946 0 -0.00074471801027012048 -5.453244471038903e-05 0 0.00010151063697340098 -0.00033435342320626486 0 -0.00048371630895920992 -0.00084211824981884626 0 0.00031431893969347381 -0.0012774065993046205 0 0.00010151063697340098 -0.00033435342320626486 0 -0.00048371630895920992 -0.00084211824981884626 0 -0.0012338444480878455 -0.00113406462429321 0 -0.00074471801027012048 -5.453244471038903e-05 0 -0.00048371630895920992 -0.00084211824981884626 0 -0.0012338444480878455 -0.00113406462429321 0 -0.00074471801027012048 -5.453244471038903e-05 0 -0.0017948875589242051 -0.00052727562093463694 0 -0.0019955453439359661 -0.0012605378739608485 0 -0.0012338444480878455 -0.00113406462429321 0 -0.0017948875589242051 -0.00052727562093463694 0 -0.0028663056283166899 -0.00070825428114448265 0 -0.0037171700702219139 0.00028175164687536822 0 -0.0026793090083089451 0.0007067759352833823 0 -0.0014572107343832465 0.00077056214645183734 0 -0.0028663056283166899 -0.00070825428114448265 0 -0.0026793090083089451 0.0007067759352833823 0 -0.0028663056283166899 -0.00070825428114448265 0 -0.0037171700702219139 0.00028175164687536822 0 -0.0045812007265580868 -0.0010839273114123561 0 -0.0023099355575804028 -0.00058956445633427917 0 -0.0035374269264911505 -0.0010024523378459578 0 -0.0019955453439359661 -0.0012605378739608485 0 -0.0017948875589242051 -0.00052727562093463694 0 -0.0026237825142358703 -0.00082153349359157305 0 -0.0061136520344694653 -0.0015147242654798181 0 -0.0045812007265580868 -0.0010839273114123561 0 -0.0055219796006972651 -0.00071430886212716651 0 -0.0061136520344694653 -0.0015147242654798181 0 -0.0055219796006972651 -0.00071430886212716651 0 -0.0060378488316722694 0.00015476373253813706 0 -0.0051285456784264435 -0.00086856313686711263 0 -0.0035374269264911505 -0.0010024523378459578 0 -0.0045812007265580868 -0.0010839273114123561 0 -0.0055219796006972651 -0.00071430886212716651 0 -0.0053382492138288667 1.7357181221956715e-05 0 -0.0055219796006972651 -0.00071430886212716651 0 -0.0053382492138288667 1.7357181221956715e-05 0 -0.0060378488316722694 0.00015476373253813706 0 -0.0053382492138288667 1.7357181221956715e-05 0 -0.0047598136578117373 0.00041510195001974182 0 -0.0054822195130188409 0.00090950278673530415 0 -0.0053382492138288667 1.7357181221956715e-05 0 -0.0060378488316722694 0.00015476373253813706 0 -0.0054822195130188409 0.00090950278673530415 0 -0.0045812007265580868 -0.0010839273114123561 0 -0.0053382492138288667 1.7357181221956715e-05 0 -0.0047598136578117373 0.00041510195001974182 0 -0.0037171700702219139 0.00028175164687536822 0 -0.0045812007265580868 -0.0010839273114123561 0 -0.0047598136578117373 0.00041510195001974182 0 -0.0037171700702219139 0.00028175164687536822 0 -0.0047598136578117373 0.00041510195001974182 0 -0.0047150197686354331 0.00173656268124156 0 -0.0047598136578117373 0.00041510195001974182 0 -0.0052543497535803771 0.0015767116361332478 0 -0.0047150197686354331 0.00173656268124156 0 -0.0047598136578117373 0.00041510195001974182 0 -0.0054822195130188409 0.00090950278673530415 0 -0.0052543497535803771 0.0015767116361332478 0 -0.0060378488316722694 0.00015476373253813706 0 -0.0054822195130188409 0.00090950278673530415 0 -0.0057411796453694253 0.0016292231707819922 0 -0.006272700764471029 -2.1991711100023029e-05 0 -0.0059674425015815253 0.0010315122139457058 0 -0.0054822195130188409 0.00090950278673530415 0 -0.0057411796453694253 0.0016292231707819922 0 -0.0052543497535803771 0.0015767116361332478 0 -0.0057411796453694253 0.0016292231707819922 0 -0.0052543497535803771 0.0015767116361332478 0 -0.0053372946242596355 0.00192791340687267 0 -0.0052543497535803771 0.0015767116361332478 0 -0.0049997003637100197 0.0019926953120312182 0 -0.0053372946242596355 0.00192791340687267 0 -0.0052543497535803771 0.0015767116361332478 0 -0.0047150197686354331 0.00173656268124156 0 -0.0049997003637100197 0.0019926953120312182 0 -0.0047150197686354331 0.00173656268124156 0 -0.0034698830525689939 0.0024454693840915303 0 -0.0030630405340588492 0.0016637585621455059 0 -0.0042885200353801932 0.0021606064312602881 0 -0.0054082635988218688 0.0021490472034290074 0 -0.0047150197686354331 0.00173656268124156 0 -0.0034698830525689939 0.0024454693840915303 0 -0.0035354427449626907 0.0036280674912455911 0 -0.0026122553903435339 0.0027924620200064031 0 -0.0021333560657199714 0.0022988018765126121 0 -0.0030630405340588492 0.0016637585621455059 0 -0.0012132033351295549 0.001744254481068074 0 -0.0026371949151706409 0.0027635414764448029 0 -0.0021333560657199714 0.0022988018765126121 0 -0.0034698830525689939 0.0024454693840915303 0 -0.0026122553903435339 0.0027924620200064031 0 -0.0030630405340588492 0.0016637585621455059 0 -0.0040460025378880413 0.0012669585683008186 0 -0.0029625850330035051 0.0018552038144344233 0 -0.0021333560657199714 0.0022988018765126121 0 -0.0030630405340588492 0.0016637585621455059 0 -0.0021005167721185663 0.0014563211191995116 0 -0.0030630405340588492 0.0016637585621455059 0 -0.0021005167721185663 0.0014563211191995116 0 -0.0026793090083089451 0.0007067759352833823 0 -0.0014572107343832465 0.00077056214645183734 0 -0.0021005167721185663 0.0014563211191995116 0 -0.0026793090083089451 0.0007067759352833823 0 -0.0037171700702219139 0.00028175164687536822 0 -0.0030630405340588492 0.0016637585621455059 0 -0.0026793090083089451 0.0007067759352833823 0 -0.0037171700702219139 0.00028175164687536822 0 -0.0047150197686354331 0.00173656268124156 0 -0.0030630405340588492 0.0016637585621455059 0 -0.0074704722711575657 9.3156242337602175e-05 0 -0.0071932785932775625 0.0001041463166999894 0 -0.0072538781032331461 0.00024507597984887097 0 -0.0074704722711575657 9.3156242337602175e-05 0 -0.007393911947876676 -4.6879589456591275e-05 0 -0.0071932785932775625 0.0001041463166999894 0 -0.007272842604596385 -0.00015088194210955382 0 -0.0075261286142347724 -0.00011437529349528145 0 -0.007393911947876676 -4.6879589456591275e-05 0 -0.007272842604596385 -0.00015088194210955382 0 -0.007393911947876676 -4.6879589456591275e-05 0 -0.0071129302696251026 -3.3501782526526409e-05 0 -0.007272842604596385 -0.00015088194210955382 0 -0.0071129302696251026 -3.3501782526526409e-05 0 -0.0069862443339308959 -0.00013958783949999753 0 -0.007393911947876676 -4.6879589456591275e-05 0 -0.0071129302696251026 -3.3501782526526409e-05 0 -0.0071932785932775625 0.0001041463166999894 0 -0.0071129302696251026 -3.3501782526526409e-05 0 -0.0071932785932775625 0.0001041463166999894 0 -0.0069341671602025194 9.72594123959033e-05 0 -0.0071932785932775625 0.0001041463166999894 0 -0.0069341671602025194 9.72594123959033e-05 0 -0.0070426260267835586 0.00020890566855211716 0 -0.0071129302696251026 -3.3501782526526409e-05 0 -0.0069341671602025194 9.72594123959033e-05 0 -0.0068816847615685963 -2.1762941610998136e-05 0 -0.0069341671602025194 9.72594123959033e-05 0 -0.0068803726228999105 0.00020602940455134518 0 -0.0070426260267835586 0.00020890566855211716 0 -0.0069341671602025194 9.72594123959033e-05 0 -0.006811817677156236 0.0001355346649497394 0 -0.0068803726228999105 0.00020602940455134518 0 -0.0069341671602025194 9.72594123959033e-05 0 -0.006811817677156236 0.0001355346649497394 0 -0.0068001383182660384 5.5381847376076646e-05 0 -0.0069341671602025194 9.72594123959033e-05 0 -0.0068816847615685963 -2.1762941610998136e-05 0 -0.0068001383182660384 5.5381847376076646e-05 0 -0.0071129302696251026 -3.3501782526526409e-05 0 -0.0069862443339308959 -0.00013958783949999753 0 -0.0068816847615685963 -2.1762941610998136e-05 0 -0.0069862443339308959 -0.00013958783949999753 0 -0.0068816847615685963 -2.1762941610998136e-05 0 -0.0068213781492297764 -8.8683111861053004e-05 0 -0.0063154176668045623 -0.00062060696185734453 0 -0.0062572099775346198 -0.00060271534511517047 0 -0.0063529296596588061 -0.00024333748016979202 0 -0.0067802526600809748 -2.445897567214032e-07 0 -0.0067539008709568494 -6.277750717203794e-05 0 -0.0068213781492297764 -8.8683111861053004e-05 0 -0.0051285456784264435 -0.00086856313686711263 0 -0.006272700764471029 -2.1991711100023029e-05 0 -0.0067033257124729049 -0.00022965048854001541 0 -0.0069862443339308959 -0.00013958783949999753 0 -0.0068213781492297764 -8.8683111861053004e-05 0 -0.0059738350007701732 -0.00043409354135034019 0 -0.0065538892226119734 -0.00010550559532072754 0 -0.0067033257124729049 -0.00022965048854001541 0 -0.0067539008709568494 -6.277750717203794e-05 0 -0.0067041871917300671 9.6863490123968894e-06 0 -0.0062572099775346198 -0.00060271534511517047 0 -0.0062553028809943694 -9.3740188823315579e-05 0 -0.0063529296596588061 -0.00024333748016979202 0 -0.0068816847615685963 -2.1762941610998136e-05 0 -0.0067802526600809748 -2.445897567214032e-07 0 -0.0068213781492297764 -8.8683111861053004e-05 0 -0.0067802526600809748 -2.445897567214032e-07 0 -0.0067431135038886134 -7.176219953364152e-06 0 -0.0067539008709568494 -6.277750717203794e-05 0 -0.0067802526600809748 -2.445897567214032e-07 0 -0.0067431135038886134 -7.176219953364152e-06 0 -0.0067433886593253412 1.9959921491858679e-05 0 -0.0067033257124729049 -0.00022965048854001541 0 -0.0067539008709568494 -6.277750717203794e-05 0 -0.0068213781492297764 -8.8683111861053004e-05 0 -0.0067431135038886134 -7.176219953364152e-06 0 -0.0067539008709568494 -6.277750717203794e-05 0 -0.0067041871917300671 9.6863490123968894e-06 0 -0.0062553028809943694 -9.3740188823315579e-05 0 -0.0063529296596588061 -0.00024333748016979202 0 -0.0063855691547964133 3.0325745731611698e-05 0 -0.0065538892226119734 -0.00010550559532072754 0 -0.0065184841607101975 0.00010544563354135068 0 -0.0067041871917300671 9.6863490123968894e-06 0 -0.0067259268212479439 6.1285511774980962e-05 0 -0.0067027089370750208 0.00010854963759160307 0 -0.0067041871917300671 9.6863490123968894e-06 0 -0.0067433886593253412 1.9959921491858679e-05 0 -0.0067259268212479439 6.1285511774980962e-05 0 -0.0067431135038886134 -7.176219953364152e-06 0 -0.0067041871917300671 9.6863490123968894e-06 0 -0.0067433886593253412 1.9959921491858679e-05 0 -0.0067802526600809748 -2.445897567214032e-07 0 -0.0067433886593253412 1.9959921491858679e-05 0 -0.0067586131600934456 4.3783737757963286e-05 0 -0.0067433886593253412 1.9959921491858679e-05 0 -0.0067586131600934456 4.3783737757963286e-05 0 -0.0067259268212479439 6.1285511774980962e-05 0 -0.0068816847615685963 -2.1762941610998136e-05 0 -0.0067802526600809748 -2.445897567214032e-07 0 -0.0068001383182660384 5.5381847376076646e-05 0 -0.0067802526600809748 -2.445897567214032e-07 0 -0.0067586131600934456 4.3783737757963286e-05 0 -0.0068001383182660384 5.5381847376076646e-05 0 -0.0068001383182660384 5.5381847376076646e-05 0 -0.0067436892209166597 8.3657249589733405e-05 0 -0.0067565597860332425 0.00011089463751890971 0 -0.0067586131600934456 4.3783737757963286e-05 0 -0.0068001383182660384 5.5381847376076646e-05 0 -0.0067436892209166597 8.3657249589733405e-05 0 -0.0067259268212479439 6.1285511774980962e-05 0 -0.0067436892209166597 8.3657249589733405e-05 0 -0.0067027089370750208 0.00010854963759160307 0 -0.0067586131600934456 4.3783737757963286e-05 0 -0.0067259268212479439 6.1285511774980962e-05 0 -0.0067436892209166597 8.3657249589733405e-05 0 -0.0067436892209166597 8.3657249589733405e-05 0 -0.0067027089370750208 0.00010854963759160307 0 -0.0067135205935834764 0.00012829872147998101 0 -0.0067436892209166597 8.3657249589733405e-05 0 -0.0067135205935834764 0.00012829872147998101 0 -0.0067565597860332425 0.00011089463751890971 0 -0.0067135205935834764 0.00012829872147998101 0 -0.0067565597860332425 0.00011089463751890971 0 -0.0067325485347717023 0.00015003485634663494 0 -0.0067027089370750208 0.00010854963759160307 0 -0.0067135205935834764 0.00012829872147998101 0 -0.0067017972892862987 0.0001442127074513528 0 -0.006811817677156236 0.0001355346649497394 0 -0.0068001383182660384 5.5381847376076646e-05 0 -0.0067565597860332425 0.00011089463751890971 0 -0.006811817677156236 0.0001355346649497394 0 -0.0067565597860332425 0.00011089463751890971 0 -0.0067325485347717023 0.00015003485634663494 0 -0.006811817677156236 0.0001355346649497394 0 -0.0067325485347717023 0.00015003485634663494 0 -0.006769359405759021 0.00020077904704974558 0 -0.0067027089370750208 0.00010854963759160307 0 -0.0067017972892862987 0.0001442127074513528 0 -0.006660678487469005 0.0001631070768558535 0 -0.0067135205935834764 0.00012829872147998101 0 -0.0067325485347717023 0.00015003485634663494 0 -0.0067017972892862987 0.0001442127074513528 0 -0.0067325485347717023 0.00015003485634663494 0 -0.0066931545964943493 0.00016961156049109387 0 -0.0067122179744971795 0.00019401968065639892 0 -0.0067325485347717023 0.00015003485634663494 0 -0.0067017972892862987 0.0001442127074513528 0 -0.0066931545964943493 0.00016961156049109387 0 -0.0067017972892862987 0.0001442127074513528 0 -0.0066931545964943493 0.00016961156049109387 0 -0.006660678487469005 0.0001631070768558535 0 -0.0067041871917300671 9.6863490123968894e-06 0 -0.0067027089370750208 0.00010854963759160307 0 -0.006660678487469005 0.0001631070768558535 0 -0.0062553028809943694 -9.3740188823315579e-05 0 -0.0063855691547964133 3.0325745731611698e-05 0 -0.0063967346553706096 0.00014812814222339561 0 -0.0066261309643353365 0.00022878748926359604 0 -0.0066010836682808861 0.00037241029685845865 0 -0.0064511296900119919 0.00057792882509013707 0 -0.0062553028809943694 -9.3740188823315579e-05 0 -0.0062384400302466199 0.0004591099296695432 0 -0.0063967346553706096 0.00014812814222339561 0 -0.0065074206020781355 0.00021279546335721845 0 -0.0064724630228846797 0.00055482461586338024 0 -0.0065184841607101975 0.00010544563354135068 0 -0.0065074206020781355 0.00021279546335721845 0 -0.006660678487469005 0.0001631070768558535 0 -0.0066261309643353365 0.00022878748926359604 0 -0.0066570928321512748 0.00019713532935976724 0 -0.0066261309643353365 0.00022878748926359604 0 -0.0066570928321512748 0.00019713532935976724 0 -0.0066541150180407238 0.00022018330106866191 0 -0.0066931545964943493 0.00016961156049109387 0 -0.006660678487469005 0.0001631070768558535 0 -0.0066570928321512748 0.00019713532935976724 0 -0.0066931545964943493 0.00016961156049109387 0 -0.0066570928321512748 0.00019713532935976724 0 -0.0067122179744971795 0.00019401968065639892 0 -0.0066768391304365005 0.0002180390209755452 0 -0.0067122179744971795 0.00019401968065639892 0 -0.0067085213047134327 0.00024547973618187327 0 -0.0066570928321512748 0.00019713532935976724 0 -0.0066768391304365005 0.0002180390209755452 0 -0.0067122179744971795 0.00019401968065639892 0 -0.0066570928321512748 0.00019713532935976724 0 -0.0066768391304365005 0.0002180390209755452 0 -0.0066541150180407238 0.00022018330106866191 0 -0.0067122179744971795 0.00019401968065639892 0 -0.0067085213047134327 0.00024547973618187327 0 -0.006769359405759021 0.00020077904704974558 0 -0.0067325485347717023 0.00015003485634663494 0 -0.0067122179744971795 0.00019401968065639892 0 -0.006769359405759021 0.00020077904704974558 0 -0.0067085213047134327 0.00024547973618187327 0 -0.0066860845179747891 0.00030787582392529744 0 -0.0067805615666230957 0.00028551676054182682 0 -0.0067085213047134327 0.00024547973618187327 0 -0.0066688738199638534 0.00027284431687947302 0 -0.0066860845179747891 0.00030787582392529744 0 -0.0066261309643353365 0.00022878748926359604 0 -0.0066483815255722447 0.00025442110148638739 0 -0.0066406247766859399 0.00029699459474201082 0 -0.0066261309643353365 0.00022878748926359604 0 -0.0066768391304365005 0.0002180390209755452 0 -0.0066483815255722447 0.00025442110148638739 0 -0.0066261309643353365 0.00022878748926359604 0 -0.0066768391304365005 0.0002180390209755452 0 -0.0066541150180407238 0.00022018330106866191 0 -0.0066768391304365005 0.0002180390209755452 0 -0.0067085213047134327 0.00024547973618187327 0 -0.0066483815255722447 0.00025442110148638739 0 -0.0066688738199638534 0.00027284431687947302 0 -0.0066483815255722447 0.00025442110148638739 0 -0.0066406247766859399 0.00029699459474201082 0 -0.0067085213047134327 0.00024547973618187327 0 -0.0066688738199638534 0.00027284431687947302 0 -0.0066483815255722447 0.00025442110148638739 0 -0.0066406247766859399 0.00029699459474201082 0 -0.0066860845179747891 0.00030787582392529744 0 -0.0066010836682808861 0.00037241029685845865 0 -0.0066261309643353365 0.00022878748926359604 0 -0.0066406247766859399 0.00029699459474201082 0 -0.0066010836682808861 0.00037241029685845865 0 -0.0066688738199638534 0.00027284431687947302 0 -0.0066406247766859399 0.00029699459474201082 0 -0.0066860845179747891 0.00030787582392529744 0 -0.0066860845179747891 0.00030787582392529744 0 -0.0066010836682808861 0.00037241029685845865 0 -0.0067026440523002663 0.00038719131276694212 0 -0.0066010836682808861 0.00037241029685845865 0 -0.0066156099986126862 0.00046110805097279359 0 -0.0067026440523002663 0.00038719131276694212 0 -0.0062384400302466199 0.0004591099296695432 0 -0.0063967346553706096 0.00014812814222339561 0 -0.0064511296900119919 0.00057792882509013707 0 -0.0062384400302466199 0.0004591099296695432 0 -0.0064511296900119919 0.00057792882509013707 0 -0.0060697574405045593 0.0010939931909409971 0 -0.0064511296900119919 0.00057792882509013707 0 -0.00672833592790072 0.00052519111842535247 0 -0.0065437313752788285 0.0008071424229924559 0 -0.0064511296900119919 0.00057792882509013707 0 -0.0066156099986126862 0.00046110805097279359 0 -0.00672833592790072 0.00052519111842535247 0 -0.0066010836682808861 0.00037241029685845865 0 -0.0064511296900119919 0.00057792882509013707 0 -0.0066156099986126862 0.00046110805097279359 0 -0.00672833592790072 0.00052519111842535247 0 -0.0069329781993011062 0.00049493118584902161 0 -0.006815279550454338 0.0003978685440632078 0 -0.0066156099986126862 0.00046110805097279359 0 -0.00672833592790072 0.00052519111842535247 0 -0.0067026440523002663 0.00038719131276694212 0 -0.00672833592790072 0.00052519111842535247 0 -0.006815279550454338 0.0003978685440632078 0 -0.0067026440523002663 0.00038719131276694212 0 -0.00672833592790072 0.00052519111842535247 0 -0.0067949048703677085 0.00074189656341531118 0 -0.0065437313752788285 0.0008071424229924559 0 -0.00672833592790072 0.00052519111842535247 0 -0.0069329781993011062 0.00049493118584902161 0 -0.0067949048703677085 0.00074189656341531118 0 -0.0069329781993011062 0.00049493118584902161 0 -0.0070541066762420408 0.00070564556811718716 0 -0.0067949048703677085 0.00074189656341531118 0 -0.0069329781993011062 0.00049493118584902161 0 -0.0069367970613977434 0.00032379236346949614 0 -0.006815279550454338 0.0003978685440632078 0 -0.0069329781993011062 0.00049493118584902161 0 -0.0069367970613977434 0.00032379236346949614 0 -0.0071033537341753513 0.00035605388322734977 0 -0.0069367970613977434 0.00032379236346949614 0 -0.006815279550454338 0.0003978685440632078 0 -0.0067805615666230957 0.00028551676054182682 0 -0.006815279550454338 0.0003978685440632078 0 -0.0067026440523002663 0.00038719131276694212 0 -0.0067805615666230957 0.00028551676054182682 0 -0.0066860845179747891 0.00030787582392529744 0 -0.0067026440523002663 0.00038719131276694212 0 -0.0067805615666230957 0.00028551676054182682 0 -0.0069367970613977434 0.00032379236346949614 0 -0.0067805615666230957 0.00028551676054182682 0 -0.0068803726228999105 0.00020602940455134518 0 -0.0067085213047134327 0.00024547973618187327 0 -0.0067805615666230957 0.00028551676054182682 0 -0.006769359405759021 0.00020077904704974558 0 -0.0067805615666230957 0.00028551676054182682 0 -0.006769359405759021 0.00020077904704974558 0 -0.0068803726228999105 0.00020602940455134518 0 -0.006811817677156236 0.0001355346649497394 0 -0.006769359405759021 0.00020077904704974558 0 -0.0068803726228999105 0.00020602940455134518 0 -0.0069367970613977434 0.00032379236346949614 0 -0.0068803726228999105 0.00020602940455134518 0 -0.0070426260267835586 0.00020890566855211716 0 -0.0070426260267835586 0.00020890566855211716 0 -0.0072538781032331461 0.00024507597984887097 0 -0.0071033537341753513 0.00035605388322734977 0 -0.0071932785932775625 0.0001041463166999894 0 -0.0070426260267835586 0.00020890566855211716 0 -0.0072538781032331461 0.00024507597984887097 0 -0.0072538781032331461 0.00024507597984887097 0 -0.0071033537341753513 0.00035605388322734977 0 -0.0072848003966234851 0.00041760913491516177 0 -0.0069367970613977434 0.00032379236346949614 0 -0.0070426260267835586 0.00020890566855211716 0 -0.0071033537341753513 0.00035605388322734977 0 -0.0069329781993011062 0.00049493118584902161 0 -0.0071033537341753513 0.00035605388322734977 0 -0.0071209307079404026 0.00051630475076173195 0 -0.0069329781993011062 0.00049493118584902161 0 -0.0071209307079404026 0.00051630475076173195 0 -0.0070541066762420408 0.00070564556811718716 0 -0.0071209307079404026 0.00051630475076173195 0 -0.0070541066762420408 0.00070564556811718716 0 -0.0072756305371726821 0.00063103162281473641 0 -0.0071209307079404026 0.00051630475076173195 0 -0.0072848003966234851 0.00041760913491516177 0 -0.0072756305371726821 0.00063103162281473641 0 -0.0071033537341753513 0.00035605388322734977 0 -0.0071209307079404026 0.00051630475076173195 0 -0.0072848003966234851 0.00041760913491516177 0 -0.007625294591533935 0.000829365924204828 0 -0.0072756305371726821 0.00063103162281473641 0 -0.0074835844538268239 0.00050080325655902963 0 -0.0072848003966234851 0.00041760913491516177 0 -0.0072756305371726821 0.00063103162281473641 0 -0.0074835844538268239 0.00050080325655902963 0 -0.0072848003966234851 0.00041760913491516177 0 -0.0074835844538268239 0.00050080325655902963 0 -0.0074638489021056813 0.00029049619242166487 0 -0.0072538781032331461 0.00024507597984887097 0 -0.0072848003966234851 0.00041760913491516177 0 -0.0074638489021056813 0.00029049619242166487 0 -0.0074704722711575657 9.3156242337602175e-05 0 -0.0072538781032331461 0.00024507597984887097 0 -0.0074638489021056813 0.00029049619242166487 0 -0.007625294591533935 0.000829365924204828 0 -0.0076472082032586495 0.0013415005311933326 0 -0.0073294555414307417 0.0013209063019791686 0 -0.007625294591533935 0.000829365924204828 0 -0.0073294555414307417 0.0013209063019791686 0 -0.0072403686077093616 0.00094840605820331635 0 -0.007625294591533935 0.000829365924204828 0 -0.0072756305371726821 0.00063103162281473641 0 -0.0072403686077093616 0.00094840605820331635 0 -0.0070541066762420408 0.00070564556811718716 0 -0.0072756305371726821 0.00063103162281473641 0 -0.0072403686077093616 0.00094840605820331635 0 -0.0070541066762420408 0.00070564556811718716 0 -0.0072403686077093616 0.00094840605820331635 0 -0.0069283340169942545 0.00093956874572428994 0 -0.0072403686077093616 0.00094840605820331635 0 -0.0069622058259492421 0.0013312200877577513 0 -0.0069283340169942545 0.00093956874572428994 0 -0.0073294555414307417 0.0013209063019791686 0 -0.0072403686077093616 0.00094840605820331635 0 -0.0069622058259492421 0.0013312200877577513 0 -0.0073294555414307417 0.0013209063019791686 0 -0.0069622058259492421 0.0013312200877577513 0 -0.0069783585594378975 0.0017723663290503898 0 -0.0069622058259492421 0.0013312200877577513 0 -0.0066290632238694127 0.0011261600521345514 0 -0.0066725707131163898 0.0016081527809398274 0 -0.0069622058259492421 0.0013312200877577513 0 -0.0066290632238694127 0.0011261600521345514 0 -0.0069283340169942545 0.00093956874572428994 0 -0.0066290632238694127 0.0011261600521345514 0 -0.0069283340169942545 0.00093956874572428994 0 -0.0067949048703677085 0.00074189656341531118 0 -0.0070541066762420408 0.00070564556811718716 0 -0.0069283340169942545 0.00093956874572428994 0 -0.0067949048703677085 0.00074189656341531118 0 -0.0066290632238694127 0.0011261600521345514 0 -0.0067949048703677085 0.00074189656341531118 0 -0.0065437313752788285 0.0008071424229924559 0 -0.0066290632238694127 0.0011261600521345514 0 -0.0065437313752788285 0.0008071424229924559 0 -0.0060697574405045593 0.0010939931909409971 0 -0.0064511296900119919 0.00057792882509013707 0 -0.0065437313752788285 0.0008071424229924559 0 -0.0060697574405045593 0.0010939931909409971 0 -0.0066290632238694127 0.0011261600521345514 0 -0.0063220618467576912 0.0013955494090172969 0 -0.0066725707131163898 0.0016081527809398274 0 -0.0063220618467576912 0.0013955494090172969 0 -0.0060779603636532051 0.0018656143639083399 0 -0.0060697574405045593 0.0010939931909409971 0 -0.0066290632238694127 0.0011261600521345514 0 -0.0063220618467576912 0.0013955494090172969 0 -0.0060697574405045593 0.0010939931909409971 0 -0.0060779603636532051 0.0018656143639083399 0 -0.0064379373531623062 0.0023315042942002296 0 -0.0058229218601472867 0.0021835990511835037 0 -0.0063220618467576912 0.0013955494090172969 0 -0.0060779603636532051 0.0018656143639083399 0 -0.0064315437512978395 0.0017966178606958385 0 -0.0063220618467576912 0.0013955494090172969 0 -0.0064315437512978395 0.0017966178606958385 0 -0.0066725707131163898 0.0016081527809398274 0 -0.0064315437512978395 0.0017966178606958385 0 -0.0065638040033412217 0.002006366011959331 0 -0.0065799821904787203 0.0018686743031144132 0 -0.0058930661112431837 0.0016358604921002161 0 -0.0084441176157147232 0.0015033468052506466 0 -0.0060779603636532051 0.0018656143639083399 0 -0.0064315437512978395 0.0017966178606958385 0 -0.0065638040033412217 0.002006366011959331 0 -0.0084441176157147232 0.0015033468052506466 0 -0.011663304317957059 -0.00043411069763059308 0 -0.013084133939722029 -0.00060818853788511152 0 -0.013398144456272404 -0.00072182887632698514 0 -0.012597090345086206 -0.0007872008406905565 0 -0.013084133939722029 -0.00060818853788511152 0 -0.013253527513232681 -0.00042260505210210339 0 -0.013079109069902457 -0.00026871978216092083 0 -0.013084133939722029 -0.00060818853788511152 0 -0.013253527513232681 -0.00042260505210210339 0 -0.013285535883976015 -0.00059672494674641789 0 -0.013253527513232681 -0.00042260505210210339 0 -0.013420535525097105 -0.00052231421756878988 0 -0.013397351551841392 -0.00022733053744903605 0 -0.013253527513232681 -0.00042260505210210339 0 -0.013420535525097105 -0.00052231421756878988 0 -0.013285535883976015 -0.00059672494674641789 0 -0.013084133939722029 -0.00060818853788511152 0 -0.013285535883976015 -0.00059672494674641789 0 -0.013398144456272404 -0.00072182887632698514 0 -0.013406594857343865 -0.00060562697289256442 0 -0.013285535883976015 -0.00059672494674641789 0 -0.013398144456272404 -0.00072182887632698514 0 -0.013420535525097105 -0.00052231421756878988 0 -0.013406594857343865 -0.00060562697289256442 0 -0.013285535883976015 -0.00059672494674641789 0 -0.0065682188999334383 0.001992996921173469 0 -0.0066194917651643008 0.0019952844156394868 0 -0.0067309262806394717 0.0021111277211190685 0 -0.0084441176157147232 0.0015033468052506466 0 -0.0081262026573989243 0.0015112060748956333 0 -0.011608521509007888 0.00071630634692101838 0 -0.014813629321167398 0.00045534976658903646 0 -0.0066194917651643008 0.0019952844156394868 0 -0.0067309262806394717 0.0021111277211190685 0 -0.0067382825535497234 0.001875244570415764 0 -0.0084441176157147232 0.0015033468052506466 0 -0.011608521509007888 0.00071630634692101838 0 -0.013420535525097105 -0.00052231421756878988 0 -0.013406594857343865 -0.00060562697289256442 0 -0.013557153424732338 -0.00055918137833333055 0 -0.013406594857343865 -0.00060562697289256442 0 -0.013398144456272404 -0.00072182887632698514 0 -0.013557153424732338 -0.00055918137833333055 0 -0.013074183838345767 9.421415283488131e-05 0 -0.011608521509007888 0.00071630634692101838 0 -0.013420535525097105 -0.00052231421756878988 0 -0.013599940960814041 -0.00057004096222823715 0 -0.013652094785817123 -0.00016158310001910707 0 -0.0067309262806394717 0.0021111277211190685 0 -0.0067382825535497234 0.001875244570415764 0 -0.0069783585594378975 0.0017723663290503898 0 -0.0067382825535497234 0.001875244570415764 0 -0.0066725707131163898 0.0016081527809398274 0 -0.0069783585594378975 0.0017723663290503898 0 -0.0069622058259492421 0.0013312200877577513 0 -0.0066725707131163898 0.0016081527809398274 0 -0.0069783585594378975 0.0017723663290503898 0 -0.0067382825535497234 0.001875244570415764 0 -0.0065799821904787203 0.0018686743031144132 0 -0.0066725707131163898 0.0016081527809398274 0 -0.0066194917651643008 0.0019952844156394868 0 -0.0067382825535497234 0.001875244570415764 0 -0.0065799821904787203 0.0018686743031144132 0 -0.0065638040033412217 0.002006366011959331 0 -0.0066194917651643008 0.0019952844156394868 0 -0.0065799821904787203 0.0018686743031144132 0 -0.0064315437512978395 0.0017966178606958385 0 -0.0065799821904787203 0.0018686743031144132 0 -0.0066725707131163898 0.0016081527809398274 0 -0.0073294555414307417 0.0013209063019791686 0 -0.0069783585594378975 0.0017723663290503898 0 -0.0073478614859568232 0.0018253397825226233 0 -0.011608521509007888 0.00071630634692101838 0 -0.010780919833298019 0.0016421007458864868 0 -0.014639703700252346 0.0011661566487513966 0 -0.01458450274169353 0.00087416916935978807 0 -0.014770598994697902 0.00083613427314223061 0 -0.014926856135783872 0.0010380033383313356 0 -0.014639703700252346 0.0011661566487513966 0 -0.014770598994697902 0.00083613427314223061 0 -0.0067309262806394717 0.0021111277211190685 0 -0.0069783585594378975 0.0017723663290503898 0 -0.0073478614859568232 0.0018253397825226233 0 -0.014421907021453982 0.0010239116840522792 0 -0.014639703700252346 0.0011661566487513966 0 -0.01458450274169353 0.00087416916935978807 0 -0.014421907021453982 0.0010239116840522792 0 -0.014205807634716943 0.0013901696104522631 0 -0.014639703700252346 0.0011661566487513966 0 -0.0076472082032586495 0.0013415005311933326 0 -0.0073294555414307417 0.0013209063019791686 0 -0.0073478614859568232 0.0018253397825226233 0 -0.0076472082032586495 0.0013415005311933326 0 -0.0078996217073798811 0.0015831978932166182 0 -0.0073478614859568232 0.0018253397825226233 0 -0.011135198870685644 0.0014481837399783588 0 -0.010780919833298019 0.0016421007458864868 0 -0.0072111156636866427 0.00082147234421374557 0 -0.0079270366983069749 0.0011456992834266598 0 -0.010954151088363047 -8.318487162628941e-05 0 -0.010861932750186787 2.6075030267764576e-05 0 -0.01079090748613676 -9.6736940871688031e-05 0 -0.0055421680406715843 0.0020945493686113309 0 -0.0055528278217834267 0.0021401455008721532 0 -0.0055480102816638822 0.0021558998121108388 0 -0.0054082635988218688 0.0021490472034290074 0 -0.0052955709573790392 0.0021374837929504452 0 -0.0057332955045092662 -0.00024843139461126561 0 -0.0060324094021816637 0.00018905938852521801 0 -0.006368641565827636 -0.00030460943056253361 0 -0.0083484771115154531 0.00021795437066364173 0 -0.0072111156636866427 0.00082147234421374557 0 -0.0057332955045092662 -0.00024843139461126561 0 -0.0060120679571971855 -0.00069776832689048493 0 -0.006368641565827636 -0.00030460943056253361 0 -0.0057332955045092662 -0.00024843139461126561 0 -0.0054669832131837822 -0.00067874519017168886 0 -0.0060120679571971855 -0.00069776832689048493 0 -0.0040460025378880413 0.0012669585683008186 0 -0.0072111156636866427 0.00082147234421374557 0 -0.0040460025378880413 0.0012669585683008186 0 -0.0054082635988218688 0.0021490472034290074 0 -0.0048166171683523403 0.002071864698538171 0 -0.0049997003637100197 0.0019926953120312182 0 -0.005026775017031985 0.0020951320323857755 0 -0.0045649006231669557 0.00054650431469143747 0 -0.0063111808744157807 0.0020630006534551304 0 -0.0061438079673591713 0.0023063620615650614 0 -0.0034698830525689939 0.0024454693840915303 0 -0.0026122553903435339 0.0027924620200064031 0 -0.0035354427449626907 0.0036280674912455911 0 -0.0055440053260914172 0.0020913567744876762 0 -0.0055421680406715843 0.0020945493686113309 0 -0.0055528278217834267 0.0021401455008721532 0 -0.0047150197686354331 0.00173656268124156 0 -0.0048166171683523403 0.002071864698538171 0 -0.0049997003637100197 0.0019926953120312182 0 -0.0054082635988218688 0.0021490472034290074 0 -0.0072111156636866427 0.00082147234421374557 0 -0.0048166171683523403 0.002071864698538171 0 -0.005026775017031985 0.0020951320323857755 0 -0.0051048557260066196 0.0022251669175839578 0 -0.0049997003637100197 0.0019926953120312182 0 -0.005243332413525841 0.0021023711630185783 0 -0.0053372946242596355 0.00192791340687267 0 -0.0049997003637100197 0.0019926953120312182 0 -0.005243332413525841 0.0021023711630185783 0 -0.005026775017031985 0.0020951320323857755 0 -0.0059674425015815253 0.0010315122139457058 0 -0.0058178237311298326 0.0016359098068839291 0 -0.005243332413525841 0.0021023711630185783 0 -0.0053372946242596355 0.00192791340687267 0 -0.0055211481392095745 0.0021417574742255926 0 -0.0057411796453694253 0.0016292231707819922 0 -0.0053372946242596355 0.00192791340687267 0 -0.0055211481392095745 0.0021417574742255926 0 -0.0058178237311298326 0.0016359098068839291 0 -0.0058095444345055243 0.0021823936805728306 0 -0.005243332413525841 0.0021023711630185783 0 -0.0055211481392095745 0.0021417574742255926 0 -0.0053952273108015753 0.0021679774990319288 0 -0.0055211481392095745 0.0021417574742255926 0 -0.0053952273108015753 0.0021679774990319288 0 -0.0055455778189000922 0.0022072957725185493 0 -0.005243332413525841 0.0021023711630185783 0 -0.005026775017031985 0.0020951320323857755 0 -0.0051048557260066196 0.0022251669175839578 0 -0.005243332413525841 0.0021023711630185783 0 -0.0053952273108015753 0.0021679774990319288 0 -0.0051048557260066196 0.0022251669175839578 0 -0.0053952273108015753 0.0021679774990319288 0 -0.0051048557260066196 0.0022251669175839578 0 -0.0055455778189000922 0.0022072957725185493 0 -0.0052955709573790392 0.0021374837929504452 0 -0.0055013564812205276 0.0022163085783456957 0 -0.0055528278217834267 0.0021401455008721532 0 -0.0055480102816638822 0.0021558998121108388 0 -0.0055455778189000922 0.0022072957725185493 0 -0.011663304317957059 -0.00043411069763059308 0 -0.015267065096483236 -0.0016547186222263125 0 -0.0055480102816638822 0.0021558998121108388 0 -0.0055455778189000922 0.0022072957725185493 0 -0.0055243669710270081 0.0022739455883803764 0 -0.01079090748613676 -9.6736940871688031e-05 0 -0.010724499196068746 -0.00020228298829168417 0 -0.010876238568242991 -0.00019983602602202083 0 -0.0079270366983069749 0.0011456992834266598 0 -0.011663304317957059 -0.00043411069763059308 0 -0.0064379373531623062 0.0023315042942002296 0 -0.0055243669710270081 0.0022739455883803764 0 -0.0058229218601472867 0.0021835990511835037 0 -0.0060779603636532051 0.0018656143639083399 0 -0.0060697574405045593 0.0010939931909409971 0 -0.0058229218601472867 0.0021835990511835037 0 -0.0055211481392095745 0.0021417574742255926 0 -0.0055455778189000922 0.0022072957725185493 0 -0.0058229218601472867 0.0021835990511835037 0 -0.0055455778189000922 0.0022072957725185493 0 -0.0055243669710270081 0.0022739455883803764 0 -0.0058229218601472867 0.0021835990511835037 0 -0.011663304317957059 -0.00043411069763059308 0 -0.015838494423333196 -0.0014916757890025768 0 -0.013084133939722029 -0.00060818853788511152 0 -0.012597090345086206 -0.0007872008406905565 0 -0.013079109069902457 -0.00026871978216092083 0 -0.017627379327226123 -0.0028109552847575144 0 -0.017638343485163306 -0.0026865917586432393 0 -0.017757569634650697 -0.0026651498840007184 0 -0.017627379327226123 -0.0028109552847575144 0 -0.017531077716749676 -0.0027555528776803122 0 -0.017638343485163306 -0.0026865917586432393 0 -0.017627379327226123 -0.0028109552847575144 0 -0.017531077716749676 -0.0027555528776803122 0 -0.01744184271797225 -0.002853027791715495 0 -0.017531077716749676 -0.0027555528776803122 0 -0.017402057436994266 -0.0027555950963183795 0 -0.017533460771446761 -0.0026655740200868818 0 -0.017531077716749676 -0.0027555528776803122 0 -0.017402057436994266 -0.0027555950963183795 0 -0.01744184271797225 -0.002853027791715495 0 -0.010954151088363047 -8.318487162628941e-05 0 -0.01079090748613676 -9.6736940871688031e-05 0 -0.010876238568242991 -0.00019983602602202083 0 -0.01129986745533449 -0.0011603529620684652 0 -0.015267065096483236 -0.0016547186222263125 0 -0.011041353937304276 -0.00019867328947196646 0 -0.010954151088363047 -8.318487162628941e-05 0 -0.010876238568242991 -0.00019983602602202083 0 -0.01129986745533449 -0.0011603529620684652 0 -0.0083484771115154531 0.00021795437066364173 0 -0.017199547643279418 -0.0028792235078029219 0 -0.017402057436994266 -0.0027555950963183795 0 -0.017268326860147665 -0.0027152288665564235 0 -0.017199547643279418 -0.0028792235078029219 0 -0.017402057436994266 -0.0027555950963183795 0 -0.01744184271797225 -0.002853027791715495 0 -0.017268326860147665 -0.0027152288665564235 0 -0.017413865233642935 -0.0026638099635313364 0 -0.017334899440755423 -0.0025925977732340812 0 -0.017402057436994266 -0.0027555950963183795 0 -0.017268326860147665 -0.0027152288665564235 0 -0.017413865233642935 -0.0026638099635313364 0 -0.017413865233642935 -0.0026638099635313364 0 -0.017334899440755423 -0.0025925977732340812 0 -0.017526082705059974 -0.0025402692512309323 0 -0.017334899440755423 -0.0025925977732340812 0 -0.017526082705059974 -0.0025402692512309323 0 -0.01744731021118856 -0.0024612845910588787 0 -0.017334899440755423 -0.0025925977732340812 0 -0.01744731021118856 -0.0024612845910588787 0 -0.017209732432887301 -0.0024839292098682931 0 -0.017526082705059974 -0.0025402692512309323 0 -0.017533460771446761 -0.0026655740200868818 0 -0.017642341238879332 -0.002576198634359231 0 -0.017413865233642935 -0.0026638099635313364 0 -0.017526082705059974 -0.0025402692512309323 0 -0.017533460771446761 -0.0026655740200868818 0 -0.017402057436994266 -0.0027555950963183795 0 -0.017413865233642935 -0.0026638099635313364 0 -0.017533460771446761 -0.0026655740200868818 0 -0.017533460771446761 -0.0026655740200868818 0 -0.017638343485163306 -0.0026865917586432393 0 -0.017642341238879332 -0.002576198634359231 0 -0.017531077716749676 -0.0027555528776803122 0 -0.017533460771446761 -0.0026655740200868818 0 -0.017638343485163306 -0.0026865917586432393 0 -0.017638343485163306 -0.0026865917586432393 0 -0.017713178011981287 -0.0026115139194772168 0 -0.017757569634650697 -0.0026651498840007184 0 -0.017638343485163306 -0.0026865917586432393 0 -0.017713178011981287 -0.0026115139194772168 0 -0.017642341238879332 -0.002576198634359231 0 -0.017713178011981287 -0.0026115139194772168 0 -0.017757569634650697 -0.0026651498840007184 0 -0.017766333967346767 -0.0025704403557646458 0 -0.017744901320739442 -0.0025411141302199916 0 -0.017642341238879332 -0.002576198634359231 0 -0.017727368709363742 -0.0025043896236378645 0 -0.017713178011981287 -0.0026115139194772168 0 -0.017744901320739442 -0.0025411141302199916 0 -0.017642341238879332 -0.002576198634359231 0 -0.017713178011981287 -0.0026115139194772168 0 -0.017744901320739442 -0.0025411141302199916 0 -0.017766333967346767 -0.0025704403557646458 0 -0.017526082705059974 -0.0025402692512309323 0 -0.017642341238879332 -0.002576198634359231 0 -0.017655765657792422 -0.0024711293458259615 0 -0.017642341238879332 -0.002576198634359231 0 -0.017655765657792422 -0.0024711293458259615 0 -0.017727368709363742 -0.0025043896236378645 0 -0.017655765657792422 -0.0024711293458259615 0 -0.017727368709363742 -0.0025043896236378645 0 -0.017783335307090357 -0.0024500230707551651 0 -0.017744901320739442 -0.0025411141302199916 0 -0.017727368709363742 -0.0025043896236378645 0 -0.017787793014365682 -0.0024833318140729224 0 -0.017727368709363742 -0.0025043896236378645 0 -0.017783335307090357 -0.0024500230707551651 0 -0.017787793014365682 -0.0024833318140729224 0 -0.017854131373486192 -0.0024109008821534871 0 -0.018009196414963156 -0.0024922114265243998 0 -0.017783335307090357 -0.0024500230707551651 0 -0.017862047657307943 -0.0024081122156867029 0 -0.017809170404003739 -0.002440243971597532 0 -0.017783335307090357 -0.0024500230707551651 0 -0.017787793014365682 -0.0024833318140729224 0 -0.017809170404003739 -0.002440243971597532 0 -0.017862047657307943 -0.0024081122156867029 0 -0.018131183632655805 -0.0025181933718533911 0 -0.018113426706813367 -0.0023904286379335398 0 -0.017783335307090357 -0.0024500230707551651 0 -0.017862047657307943 -0.0024081122156867029 0 -0.017709608522559487 -0.002395178660436992 0 -0.017655765657792422 -0.0024711293458259615 0 -0.017783335307090357 -0.0024500230707551651 0 -0.017709608522559487 -0.002395178660436992 0 -0.017709608522559487 -0.002395178660436992 0 -0.017542761022990627 -0.0024270384441945963 0 -0.017514678881946265 -0.0023662138460837697 0 -0.017655765657792422 -0.0024711293458259615 0 -0.017709608522559487 -0.002395178660436992 0 -0.017542761022990627 -0.0024270384441945963 0 -0.017542761022990627 -0.0024270384441945963 0 -0.017514678881946265 -0.0023662138460837697 0 -0.017419869331996934 -0.0024204303653710614 0 -0.017532468320897689 -0.0024591669701985739 0 -0.016958342186259228 -0.0022373501588244106 0 -0.017542761022990627 -0.0024270384441945963 0 -0.01744731021118856 -0.0024612845910588787 0 -0.017419869331996934 -0.0024204303653710614 0 -0.01754183918493538 -0.0025123430367623677 0 -0.016958342186259228 -0.0022373501588244106 0 -0.017526082705059974 -0.0025402692512309323 0 -0.017655765657792422 -0.0024711293458259615 0 -0.017542761022990627 -0.0024270384441945963 0 -0.017526082705059974 -0.0025402692512309323 0 -0.017542761022990627 -0.0024270384441945963 0 -0.01744731021118856 -0.0024612845910588787 0 -0.014506803480062473 0.00035512769461694844 0 -0.014513352416462039 0.00033810088108363913 0 -0.014464166507663523 0.00030425419520815238 0 -0.014506803480062473 0.00035512769461694844 0 -0.014513352416462039 0.00033810088108363913 0 -0.01422855828852823 0.00032336366229438347 0 -0.014459147304231611 0.00075322401489740691 0 -0.014584611965543349 0.00057344932549469518 0 -0.01458450274169353 0.00087416916935978807 0 -0.014584611965543349 0.00057344932549469518 0 -0.01458450274169353 0.00087416916935978807 0 -0.014770598994697902 0.00083613427314223061 0 -0.014421907021453982 0.0010239116840522792 0 -0.014459147304231611 0.00075322401489740691 0 -0.01458450274169353 0.00087416916935978807 0 -0.014462333606009388 0.0004019898882833837 0 -0.014813629321167398 0.00045534976658903646 0 -0.013937039105085125 0.00018791081999048793 0 -0.01422855828852823 0.00032336366229438347 0 -0.014041535909586218 0.00066504908461231793 0 -0.014506803480062473 0.00035512769461694844 0 -0.01422855828852823 0.00032336366229438347 0 -0.014041535909586218 0.00066504908461231793 0 -0.014513352416462039 0.00033810088108363913 0 -0.014108073375944323 -0.00011130314264043142 0 -0.01422855828852823 0.00032336366229438347 0 -0.014108073375944323 -0.00011130314264043142 0 -0.013937039105085125 0.00018791081999048793 0 -0.01422855828852823 0.00032336366229438347 0 -0.017814131165415362 -0.0025392426035417462 0 -0.017804796064846907 -0.0024896537145104895 0 -0.01780998933032512 -0.002493093264928456 0 -0.013937039105085125 0.00018791081999048793 0 -0.013581911916423738 0.00022696566712230809 0 -0.014041535909586218 0.00066504908461231793 0 -0.017814131165415362 -0.0025392426035417462 0 -0.01780998933032512 -0.002493093264928456 0 -0.017814037229590286 -0.0024785217409549359 0 -0.01568404078992942 -0.001192164945742546 0 -0.015493078371110993 -0.00069252096042667544 0 -0.013599940960814041 -0.00057004096222823715 0 -0.014108073375944323 -0.00011130314264043142 0 -0.013652094785817123 -0.00016158310001910707 0 -0.013937039105085125 0.00018791081999048793 0 -0.013581911916423738 0.00022696566712230809 0 -0.013652094785817123 -0.00016158310001910707 0 -0.014108073375944323 -0.00011130314264043142 0 -0.013937039105085125 0.00018791081999048793 0 -0.013652094785817123 -0.00016158310001910707 0 -0.013581911916423738 0.00022696566712230809 0 -0.013652094785817123 -0.00016158310001910707 0 -0.013397351551841392 -0.00022733053744903605 0 -0.013420535525097105 -0.00052231421756878988 0 -0.013652094785817123 -0.00016158310001910707 0 -0.013397351551841392 -0.00022733053744903605 0 -0.01568404078992942 -0.001192164945742546 0 -0.015838494423333196 -0.0014916757890025768 0 -0.013581911916423738 0.00022696566712230809 0 -0.013397351551841392 -0.00022733053744903605 0 -0.013079109069902457 -0.00026871978216092083 0 -0.017814131165415362 -0.0025392426035417462 0 -0.017757569634650697 -0.0026651498840007184 0 -0.017766333967346767 -0.0025704403557646458 0 -0.013253527513232681 -0.00042260505210210339 0 -0.013397351551841392 -0.00022733053744903605 0 -0.013079109069902457 -0.00026871978216092083 0 -0.017814131165415362 -0.0025392426035417462 0 -0.01779129124402317 -0.0025155754209740763 0 -0.017804796064846907 -0.0024896537145104895 0 -0.017814131165415362 -0.0025392426035417462 0 -0.017766333967346767 -0.0025704403557646458 0 -0.01779129124402317 -0.0025155754209740763 0 -0.017744901320739442 -0.0025411141302199916 0 -0.01779129124402317 -0.0025155754209740763 0 -0.017787793014365682 -0.0024833318140729224 0 -0.017744901320739442 -0.0025411141302199916 0 -0.017766333967346767 -0.0025704403557646458 0 -0.01779129124402317 -0.0025155754209740763 0 -0.017738724952018607 -0.002512579988390664 0 -0.017920787900119535 -0.0022275170693313757 0 -0.017797177325442178 -0.0024911659058066507 0 -0.017787793014365682 -0.0024833318140729224 0 -0.017803318125160554 -0.0024827764152912653 0 -0.017787793014365682 -0.0024833318140729224 0 -0.017809170404003739 -0.002440243971597532 0 -0.017855719042163383 -0.0024619743438700982 0 -0.01779129124402317 -0.0025155754209740763 0 -0.017797177325442178 -0.0024911659058066507 0 -0.017787793014365682 -0.0024833318140729224 0 -0.01779129124402317 -0.0025155754209740763 0 -0.017797177325442178 -0.0024911659058066507 0 -0.017804796064846907 -0.0024896537145104895 0 -0.018009196414963156 -0.0024922114265243998 0 -0.017920787900119535 -0.0022275170693313757 0 -0.018131183632655805 -0.0025181933718533911 0 -0.018258002807031642 -0.0024879130757733902 0 -0.018306451594495152 -0.002572993209615319 0 -0.018131183632655805 -0.0025181933718533911 0 -0.018218380679402679 -0.002416608325575666 0 -0.018113426706813367 -0.0023904286379335398 0 -0.018218380679402679 -0.002416608325575666 0 -0.018293019463232453 -0.0024398337052905479 0 -0.018291449151116197 -0.0023499495090770267 0 -0.018131183632655805 -0.0025181933718533911 0 -0.018218380679402679 -0.002416608325575666 0 -0.018258002807031642 -0.0024879130757733902 0 -0.018218380679402679 -0.002416608325575666 0 -0.018258002807031642 -0.0024879130757733902 0 -0.018293019463232453 -0.0024398337052905479 0 -0.018258002807031642 -0.0024879130757733902 0 -0.018321484897217827 -0.0024983726641036475 0 -0.018306451594495152 -0.002572993209615319 0 -0.018321484897217827 -0.0024983726641036475 0 -0.01835672164696452 -0.0024208406922992922 0 -0.018395875048633548 -0.0025346480875167569 0 -0.017353357268204521 -0.0017010883910833921 0 -0.017920787900119535 -0.0022275170693313757 0 -0.018321484897217827 -0.0024983726641036475 0 -0.018395875048633548 -0.0025346480875167569 0 -0.018306451594495152 -0.002572993209615319 0 -0.018258002807031642 -0.0024879130757733902 0 -0.018321484897217827 -0.0024983726641036475 0 -0.018293019463232453 -0.0024398337052905479 0 -0.018321484897217827 -0.0024983726641036475 0 -0.018293019463232453 -0.0024398337052905479 0 -0.01835672164696452 -0.0024208406922992922 0 -0.018293019463232453 -0.0024398337052905479 0 -0.01835672164696452 -0.0024208406922992922 0 -0.018291449151116197 -0.0023499495090770267 0 -0.01835672164696452 -0.0024208406922992922 0 -0.018395875048633548 -0.0025346480875167569 0 -0.018458723386527529 -0.0024343303851016721 0 -0.017353357268204521 -0.0017010883910833921 0 -0.016118846334524477 -0.00084688316324208358 0 -0.017353357268204521 -0.0017010883910833921 0 -0.017046277216659224 -0.0013345604862928238 0 -0.016567543283873915 -0.0012539155525577909 0 -0.016760299622411188 -0.00097086539557180546 0 -0.016289360720136686 -0.0010702474477821504 0 -0.016760299622411188 -0.00097086539557180546 0 -0.016160401887984843 -0.00068436727957766111 0 -0.016289360720136686 -0.0010702474477821504 0 -0.017587095630619033 -0.0019132951647043235 0 -0.015493078371110993 -0.00069252096042667544 0 -0.017353357268204521 -0.0017010883910833921 0 -0.017587095630619033 -0.0019132951647043235 0 -0.017797177325442178 -0.0024911659058066507 0 -0.017803318125160554 -0.0024827764152912653 0 -0.017804796064846907 -0.0024896537145104895 0 -0.017587095630619033 -0.0019132951647043235 0 -0.017920787900119535 -0.0022275170693313757 0 -0.017807387156476635 -0.002483663132890686 0 -0.017803318125160554 -0.0024827764152912653 0 -0.017804796064846907 -0.0024896537145104895 0 -0.017548622527419309 -0.0019826784373902047 0 -0.017595451180551024 -0.0019149115504463422 0 -0.017657130847236059 -0.001944598272814477 0 -0.017587095630619033 -0.0019132951647043235 0 -0.017569236995653107 -0.0022484655732639058 0 -0.017806345884396037 -0.0024800152342257411 0 -0.017804796064846907 -0.0024896537145104895 0 -0.01780998933032512 -0.002493093264928456 0 -0.017806345884396037 -0.0024800152342257411 0 -0.01780998933032512 -0.002493093264928456 0 -0.017814037229590286 -0.0024785217409549359 0 -0.014016043818736862 0.00070836310756700201 0 -0.015493078371110993 -0.00069252096042667544 0 -0.014506803480062473 0.00035512769461694844 0 -0.014805203058175455 0.00024853556799275052 0 -0.014657597511726267 0.00026244113620428231 0 -0.014805203058175455 0.00024853556799275052 0 -0.014657597511726267 0.00026244113620428231 0 -0.014723111518047727 0.0001492006375045379 0 -0.014719442418768639 0.00016918251819647397 0 -0.014649841954994136 7.4745002445854137e-05 0 -0.014606019040381 0.00018193274516529773 0 -0.014657597511726267 0.00026244113620428231 0 -0.014719442418768639 0.00016918251819647397 0 -0.014606019040381 0.00018193274516529773 0 -0.01470744578878754 0.00027022346096014765 0 -0.015032400690572 -0.00019923668570739862 0 -0.016160401887984843 -0.00068436727957766111 0 -0.015865093172516803 -0.0010170632059034374 0 -0.016289360720136686 -0.0010702474477821504 0 -0.015493078371110993 -0.00069252096042667544 0 -0.015032400690572 -0.00019923668570739862 0 -0.015032400690572 -0.00019923668570739862 0 -0.016118846334524477 -0.00084688316324208358 0 -0.016984856802170351 -0.0013501764961760829 0 -0.016973038383084491 -0.0013516740456879946 0 -0.016977259032401694 -0.0013578807379777044 0 -0.016567543283873915 -0.0012539155525577909 0 -0.016289360720136686 -0.0010702474477821504 0 -0.016094569855479666 -0.001424423621254314 0 -0.015865093172516803 -0.0010170632059034374 0 -0.016289360720136686 -0.0010702474477821504 0 -0.016094569855479666 -0.001424423621254314 0 -0.016118846334524477 -0.00084688316324208358 0 -0.017046277216659224 -0.0013345604862928238 0 -0.016462577569259979 -0.00055953495180230102 0 -0.016564113414761238 -0.00074009294189823316 0 -0.016146666639871271 -0.00090442683596648338 0 -0.01473914325210969 0.00016829026579183256 0 -0.014798380075452916 6.3737503305187881e-05 0 -0.014649841954994136 7.4745002445854137e-05 0 -0.015032400690572 -0.00019923668570739862 0 -0.014814169018222842 -1.9054928761751972e-05 0 -0.016462577569259979 -0.00055953495180230102 0 -0.015682412729259767 -0.00083882893078981839 0 -0.016146666639871271 -0.00090442683596648338 0 -0.016118846334524477 -0.00084688316324208358 0 -0.01502665520668935 -0.00035048121331297832 0 -0.014649841954994136 7.4745002445854137e-05 0 -0.014480739811607673 -5.0133141808318956e-05 0 -0.0145264859243859 0.00011012720817399953 0 -0.014649841954994136 7.4745002445854137e-05 0 -0.0145264859243859 0.00011012720817399953 0 -0.014606019040381 0.00018193274516529773 0 -0.014798380075452916 6.3737503305187881e-05 0 -0.014649841954994136 7.4745002445854137e-05 0 -0.014480739811607673 -5.0133141808318956e-05 0 -0.014397079744080468 0.00012764676781473072 0 -0.0145264859243859 0.00011012720817399953 0 -0.014499299313876538 0.00020990574637700299 0 -0.014397079744080468 0.00012764676781473072 0 -0.014480739811607673 -5.0133141808318956e-05 0 -0.0145264859243859 0.00011012720817399953 0 -0.01442482638355972 0.00024232296324456091 0 -0.014499299313876538 0.00020990574637700299 0 -0.014464166507663523 0.00030425419520815238 0 -0.0145264859243859 0.00011012720817399953 0 -0.014499299313876538 0.00020990574637700299 0 -0.014606019040381 0.00018193274516529773 0 -0.014342851714543501 0.00029020681159482503 0 -0.014513352416462039 0.00033810088108363913 0 -0.014464166507663523 0.00030425419520815238 0 -0.014499299313876538 0.00020990574637700299 0 -0.014606019040381 0.00018193274516529773 0 -0.014547265872219961 0.00025300169333097221 0 -0.014657597511726267 0.00026244113620428231 0 -0.014606019040381 0.00018193274516529773 0 -0.014547265872219961 0.00025300169333097221 0 -0.014657597511726267 0.00026244113620428231 0 -0.014547265872219961 0.00025300169333097221 0 -0.01454261288520679 0.00029324539643065228 0 -0.014506803480062473 0.00035512769461694844 0 -0.014657597511726267 0.00026244113620428231 0 -0.01454261288520679 0.00029324539643065228 0 -0.014499299313876538 0.00020990574637700299 0 -0.014547265872219961 0.00025300169333097221 0 -0.014464166507663523 0.00030425419520815238 0 -0.014506803480062473 0.00035512769461694844 0 -0.01454261288520679 0.00029324539643065228 0 -0.014464166507663523 0.00030425419520815238 0 -0.014547265872219961 0.00025300169333097221 0 -0.01454261288520679 0.00029324539643065228 0 -0.014464166507663523 0.00030425419520815238 0 -0.015851192144712759 -0.001820286474984603 0 -0.015788769203384869 -0.0013358610792880336 0 -0.016209259953779163 -0.0012716489744734626 0 -0.015894286394136186 -0.0017858653748633263 0 -0.016344239245867483 -0.0010686314924900514 0 -0.015973771207873796 -0.0016952557563073396 0 -0.016438162689955946 -0.001048178715455664 0 -0.016515132808505736 -0.0018370295600569891 0 -0.015517741265333687 -0.0016228130691806307 0 -0.015851192144712759 -0.001820286474984603 0 -0.015788769203384869 -0.0013358610792880336 0 -0.015373092257190787 -0.0012586470782179836 0 -0.015682412729259767 -0.00083882893078981839 0 -0.015788769203384869 -0.0013358610792880336 0 -0.015682412729259767 -0.00083882893078981839 0 -0.015788769203384869 -0.0013358610792880336 0 -0.016146666639871271 -0.00090442683596648338 0 -0.015788769203384869 -0.0013358610792880336 0 -0.016209259953779163 -0.0012716489744734626 0 -0.016146666639871271 -0.00090442683596648338 0 -0.017046277216659224 -0.0013345604862928238 0 -0.016344239245867483 -0.0010686314924900514 0 -0.016880443048441843 -0.00041315154917717439 0 -0.016438162689955946 -0.001048178715455664 0 -0.017214666781404712 -0.0010002809500102238 0 -0.016564113414761238 -0.00074009294189823316 0 -0.016209259953779163 -0.0012716489744734626 0 -0.016146666639871271 -0.00090442683596648338 0 -0.016438162689955946 -0.001048178715455664 0 -0.016948285239011689 -0.0015450292334546094 0 -0.016515132808505736 -0.0018370295600569891 0 -0.016438162689955946 -0.001048178715455664 0 -0.016948285239011689 -0.0015450292334546094 0 -0.017214666781404712 -0.0010002809500102238 0 -0.018375554043710603 -0.0022725855766907339 0 -0.018278763792220175 -0.0022450550110268449 0 -0.018301403717318605 -0.0021214876389579708 0 -0.017814771131595127 -0.00166704899332515 0 -0.018164088840353091 -0.0019237825779955572 0 -0.016948285239011689 -0.0015450292334546094 0 -0.017214666781404712 -0.0010002809500102238 0 -0.017556966774282548 -0.0015974237581546772 0 -0.01835672164696452 -0.0024208406922992922 0 -0.018458723386527529 -0.0024343303851016721 0 -0.018375554043710603 -0.0022725855766907339 0 -0.017046277216659224 -0.0013345604862928238 0 -0.017814771131595127 -0.00166704899332515 0 -0.01835672164696452 -0.0024208406922992922 0 -0.018375554043710603 -0.0022725855766907339 0 -0.018291449151116197 -0.0023499495090770267 0 -0.018375554043710603 -0.0022725855766907339 0 -0.018291449151116197 -0.0023499495090770267 0 -0.018278763792220175 -0.0022450550110268449 0 -0.018278763792220175 -0.0022450550110268449 0 -0.018205724524477718 -0.0023208052315034865 0 -0.018199157108205355 -0.0022337133486239214 0 -0.018291449151116197 -0.0023499495090770267 0 -0.018278763792220175 -0.0022450550110268449 0 -0.018205724524477718 -0.0023208052315034865 0 -0.018218380679402679 -0.002416608325575666 0 -0.018291449151116197 -0.0023499495090770267 0 -0.018205724524477718 -0.0023208052315034865 0 -0.018218380679402679 -0.002416608325575666 0 -0.018113426706813367 -0.0023904286379335398 0 -0.018205724524477718 -0.0023208052315034865 0 -0.018113426706813367 -0.0023904286379335398 0 -0.018205724524477718 -0.0023208052315034865 0 -0.018077006365350454 -0.0023004414301409809 0 -0.018205724524477718 -0.0023208052315034865 0 -0.018199157108205355 -0.0022337133486239214 0 -0.018077006365350454 -0.0023004414301409809 0 -0.018199157108205355 -0.0022337133486239214 0 -0.018200479160763342 -0.0021681554713863073 0 -0.018271003467950461 -0.0021669080362270205 0 -0.018199157108205355 -0.0022337133486239214 0 -0.018200479160763342 -0.0021681554713863073 0 -0.018109318823805405 -0.0022105650852318132 0 -0.018278763792220175 -0.0022450550110268449 0 -0.018199157108205355 -0.0022337133486239214 0 -0.018271003467950461 -0.0021669080362270205 0 -0.018278763792220175 -0.0022450550110268449 0 -0.018271003467950461 -0.0021669080362270205 0 -0.018301403717318605 -0.0021214876389579708 0 -0.018271003467950461 -0.0021669080362270205 0 -0.018302447592180755 -0.0021315355127844624 0 -0.018251546755292516 -0.0021008467175552977 0 -0.018167083136201703 -0.0020252575050714672 0 -0.018164088840353091 -0.0019237825779955572 0 -0.018200479160763342 -0.0021681554713863073 0 -0.018271003467950461 -0.0021669080362270205 0 -0.018251546755292516 -0.0021008467175552977 0 -0.018200479160763342 -0.0021681554713863073 0 -0.018251546755292516 -0.0021008467175552977 0 -0.018162300582949726 -0.0021292126580560082 0 -0.018251546755292516 -0.0021008467175552977 0 -0.018223696194978375 -0.0020508998003761717 0 -0.018162300582949726 -0.0021292126580560082 0 -0.018164088840353091 -0.0019237825779955572 0 -0.018376206090461453 -0.0019848444763827483 0 -0.018302447592180755 -0.0021315355127844624 0 -0.018251546755292516 -0.0021008467175552977 0 -0.018326667078703708 -0.0019182083937626807 0 -0.018393664160616441 -0.0019826660788055134 0 -0.018376529983078045 -0.0019431973832918607 0 -0.018326667078703708 -0.0019182083937626807 0 -0.018251546755292516 -0.0021008467175552977 0 -0.018223696194978375 -0.0020508998003761717 0 -0.018326667078703708 -0.0019182083937626807 0 -0.018376529983078045 -0.0019431973832918607 0 -0.018369705513338618 -0.0019168709855673209 0 -0.018384636054415815 -0.0019124480980381628 0 -0.018376529983078045 -0.0019431973832918607 0 -0.018326667078703708 -0.0019182083937626807 0 -0.018369705513338618 -0.0019168709855673209 0 -0.018376529983078045 -0.0019431973832918607 0 -0.018384636054415815 -0.0019124480980381628 0 -0.018396161173561919 -0.0019115329528950698 0 -0.018223696194978375 -0.0020508998003761717 0 -0.018326667078703708 -0.0019182083937626807 0 -0.018217744124107493 -0.0019876939833525652 0 -0.018326667078703708 -0.0019182083937626807 0 -0.018334442215592914 -0.0018699302820401954 0 -0.018257773037128153 -0.0019263828819763068 0 -0.018326667078703708 -0.0019182083937626807 0 -0.01838531190605168 -0.001893146463576794 0 -0.018369705513338618 -0.0019168709855673209 0 -0.018326667078703708 -0.0019182083937626807 0 -0.018334442215592914 -0.0018699302820401954 0 -0.01838531190605168 -0.001893146463576794 0 -0.018334442215592914 -0.0018699302820401954 0 -0.018404281311438557 -0.001815049576012628 0 -0.01838531190605168 -0.001893146463576794 0 -0.018334442215592914 -0.0018699302820401954 0 -0.018404281311438557 -0.001815049576012628 0 -0.018360906678766612 -0.0018103805293140302 0 -0.018483786485948527 -0.0017815258960638335 0 -0.018404281311438557 -0.001815049576012628 0 -0.01838531190605168 -0.001893146463576794 0 -0.01838531190605168 -0.001893146463576794 0 -0.018384636054415815 -0.0019124480980381628 0 -0.018396161173561919 -0.0019115329528950698 0 -0.01838531190605168 -0.001893146463576794 0 -0.018369705513338618 -0.0019168709855673209 0 -0.018384636054415815 -0.0019124480980381628 0 -0.01838531190605168 -0.001893146463576794 0 -0.018407154683960678 -0.001911382875007918 0 -0.018415563684685266 -0.0019110359584562431 0 -0.018483786485948527 -0.0017815258960638335 0 -0.01838531190605168 -0.001893146463576794 0 -0.018617584859625457 -0.0018302051325544675 0 -0.018419542758136506 -0.0018090556773494313 0 -0.018479701817277039 -0.0021565471805704501 0 -0.01838531190605168 -0.001893146463576794 0 -0.018396161173561919 -0.0019115329528950698 0 -0.018407154683960678 -0.001911382875007918 0 -0.018396161173561919 -0.0019115329528950698 0 -0.018407154683960678 -0.001911382875007918 0 -0.018411979551522586 -0.0019263906435088652 0 -0.018393664160616441 -0.0019826660788055134 0 -0.018376529983078045 -0.0019431973832918607 0 -0.018411979551522586 -0.0019263906435088652 0 -0.018164088840353091 -0.0019237825779955572 0 -0.017739060118757165 -0.0020853654724691064 0 -0.016948285239011689 -0.0015450292334546094 0 -0.017556966774282548 -0.0015974237581546772 0 -0.017084016054031131 -0.0022407052322835214 0 -0.018376529983078045 -0.0019431973832918607 0 -0.018396161173561919 -0.0019115329528950698 0 -0.018411979551522586 -0.0019263906435088652 0 -0.016948285239011689 -0.0015450292334546094 0 -0.017084016054031131 -0.0022407052322835214 0 -0.016515132808505736 -0.0018370295600569891 0 -0.016515132808505736 -0.0018370295600569891 0 -0.016525669351525416 -0.0023414612274795261 0 -0.016118154242370768 -0.0021739179496459088 0 -0.017084016054031131 -0.0022407052322835214 0 -0.016515132808505736 -0.0018370295600569891 0 -0.016525669351525416 -0.0023414612274795261 0 -0.017739060118757165 -0.0020853654724691064 0 -0.017454688461760369 -0.0023581627716489969 0 -0.017084016054031131 -0.0022407052322835214 0 -0.016525669351525416 -0.0023414612274795261 0 -0.016603497094663865 -0.0029186860420622259 0 -0.018407154683960678 -0.001911382875007918 0 -0.018411979551522586 -0.0019263906435088652 0 -0.018416520500982782 -0.0019106288975795089 0 -0.018407154683960678 -0.001911382875007918 0 -0.018415563684685266 -0.0019110359584562431 0 -0.018416520500982782 -0.0019106288975795089 0 -0.018479701817277039 -0.0021565471805704501 0 -0.017454688461760369 -0.0023581627716489969 0 -0.016236916414515034 -0.002605784804918217 0 -0.01607462060453705 -0.0028060049101318466 0 -0.016967567585137237 -0.0028000413099062435 0 -0.016603497094663865 -0.0029186860420622259 0 -0.016342714564461572 -0.0025936439118929367 0 -0.01603477928137402 -0.0026490263362609588 0 -0.017992350895971995 -0.0022820429322765326 0 -0.018038370330335261 -0.002265010854710195 0 -0.01801983222315192 -0.0022908256913898085 0 -0.018479701817277039 -0.0021565471805704501 0 -0.018433136927218468 -0.00213088667066137 0 -0.018433136927218468 -0.00213088667066137 0 -0.017454688461760369 -0.0023581627716489969 0 -0.016525669351525416 -0.0023414612274795261 0 -0.016342714564461572 -0.0025936439118929367 0 -0.016198488123536067 -0.0024360245592459739 0 -0.016525669351525416 -0.0023414612274795261 0 -0.016603497094663865 -0.0029186860420622259 0 -0.016342714564461572 -0.0025936439118929367 0 -0.017837792054929621 -0.0031423843375331887 0 -0.01607462060453705 -0.0028060049101318466 0 -0.016967567585137237 -0.0028000413099062435 0 -0.016306306219533755 -0.002853869203508243 0 -0.017454688461760369 -0.0023581627716489969 0 -0.015420062677296001 -0.0025094949374442105 0 -0.016603497094663865 -0.0029186860420622259 0 -0.01603477928137402 -0.0026490263362609588 0 -0.016236916414515034 -0.002605784804918217 0 -0.017206459621374074 -0.0025921512279676487 0 -0.016967567585137237 -0.0028000413099062435 0 -0.016198488123536067 -0.0024360245592459739 0 -0.01603477928137402 -0.0026490263362609588 0 -0.01596809363167772 -0.0024245597267956512 0 -0.016342714564461572 -0.0025936439118929367 0 -0.016198488123536067 -0.0024360245592459739 0 -0.01603477928137402 -0.0026490263362609588 0 -0.017837792054929621 -0.0031423843375331887 0 -0.017470223061621614 -0.0028826441055791823 0 -0.016967567585137237 -0.0028000413099062435 0 -0.017470223061621614 -0.0028826441055791823 0 -0.017206459621374074 -0.0025921512279676487 0 -0.016967567585137237 -0.0028000413099062435 0 -0.015420062677296001 -0.0025094949374442105 0 -0.01603477928137402 -0.0026490263362609588 0 -0.015739840162392046 -0.0025222137577427892 0 -0.01603477928137402 -0.0026490263362609588 0 -0.01596809363167772 -0.0024245597267956512 0 -0.015739840162392046 -0.0025222137577427892 0 -0.01596809363167772 -0.0024245597267956512 0 -0.015739840162392046 -0.0025222137577427892 0 -0.015813350974649164 -0.0022692808871707143 0 -0.015596170310581987 -0.0024286320767077652 0 -0.015739840162392046 -0.0025222137577427892 0 -0.015813350974649164 -0.0022692808871707143 0 -0.01548467559020569 -0.0023684137779577744 0 -0.015973771207873796 -0.0016952557563073396 0 -0.015813350974649164 -0.0022692808871707143 0 -0.015528320647654217 -0.0023103842015057816 0 -0.015894286394136186 -0.0017858653748633263 0 -0.01596809363167772 -0.0024245597267956512 0 -0.015813350974649164 -0.0022692808871707143 0 -0.016118154242370768 -0.0021739179496459088 0 -0.016198488123536067 -0.0024360245592459739 0 -0.01596809363167772 -0.0024245597267956512 0 -0.016118154242370768 -0.0021739179496459088 0 -0.016525669351525416 -0.0023414612274795261 0 -0.016198488123536067 -0.0024360245592459739 0 -0.016118154242370768 -0.0021739179496459088 0 -0.015973771207873796 -0.0016952557563073396 0 -0.016515132808505736 -0.0018370295600569891 0 -0.016118154242370768 -0.0021739179496459088 0 -0.015973771207873796 -0.0016952557563073396 0 -0.015813350974649164 -0.0022692808871707143 0 -0.016118154242370768 -0.0021739179496459088 0 -0.017564816104515407 -0.002192915928848526 0 -0.017827059795973849 -0.0022168679465715806 0 -0.017736639163503022 -0.0020258815414345155 0 -0.017564816104515407 -0.002192915928848526 0 -0.017680042076423517 -0.0023142079242306265 0 -0.017827059795973849 -0.0022168679465715806 0 -0.017564816104515407 -0.002192915928848526 0 -0.01747383208267015 -0.0019477028604868803 0 -0.017286878443554546 -0.0022556078497962687 0 -0.017498568528026517 -0.0025339108136936276 0 -0.017564816104515407 -0.002192915928848526 0 -0.017680042076423517 -0.0023142079242306265 0 -0.017498568528026517 -0.0025339108136936276 0 -0.017564816104515407 -0.002192915928848526 0 -0.017286878443554546 -0.0022556078497962687 0 -0.017532468320897689 -0.0024591669701985739 0 -0.01765085033653041 -0.0023321183891785125 0 -0.017709608522559487 -0.002395178660436992 0 -0.017514678881946265 -0.0023662138460837697 0 -0.017680042076423517 -0.0023142079242306265 0 -0.017709608522559487 -0.002395178660436992 0 -0.017680042076423517 -0.0023142079242306265 0 -0.017827059795973849 -0.0022168679465715806 0 -0.017709608522559487 -0.002395178660436992 0 -0.017938733806805735 -0.0022664481519087966 0 -0.017827059795973849 -0.0022168679465715806 0 -0.017862047657307943 -0.0024081122156867029 0 -0.017709608522559487 -0.002395178660436992 0 -0.017938733806805735 -0.0022664481519087966 0 -0.017862047657307943 -0.0024081122156867029 0 -0.018113426706813367 -0.0023904286379335398 0 -0.018077006365350454 -0.0023004414301409809 0 -0.017862047657307943 -0.0024081122156867029 0 -0.017938733806805735 -0.0022664481519087966 0 -0.018077006365350454 -0.0023004414301409809 0 -0.017938733806805735 -0.0022664481519087966 0 -0.018077006365350454 -0.0023004414301409809 0 -0.018109318823805405 -0.0022105650852318132 0 -0.018199157108205355 -0.0022337133486239214 0 -0.018077006365350454 -0.0023004414301409809 0 -0.018109318823805405 -0.0022105650852318132 0 -0.018200479160763342 -0.0021681554713863073 0 -0.018109318823805405 -0.0022105650852318132 0 -0.018162300582949726 -0.0021292126580560082 0 -0.018109318823805405 -0.0022105650852318132 0 -0.018066023182730304 -0.0021616415422299629 0 -0.018162300582949726 -0.0021292126580560082 0 -0.017938733806805735 -0.0022664481519087966 0 -0.018109318823805405 -0.0022105650852318132 0 -0.018066023182730304 -0.0021616415422299629 0 -0.017938733806805735 -0.0022664481519087966 0 -0.018066023182730304 -0.0021616415422299629 0 -0.017991075231936816 -0.0021361701484292365 0 -0.018066023182730304 -0.0021616415422299629 0 -0.017991075231936816 -0.0021361701484292365 0 -0.018125118662834883 -0.0020697891887475686 0 -0.018066023182730304 -0.0021616415422299629 0 -0.018162300582949726 -0.0021292126580560082 0 -0.018125118662834883 -0.0020697891887475686 0 -0.017827059795973849 -0.0022168679465715806 0 -0.017991075231936816 -0.0021361701484292365 0 -0.017952439097241688 -0.0020266384201504937 0 -0.017938733806805735 -0.0022664481519087966 0 -0.017827059795973849 -0.0022168679465715806 0 -0.017991075231936816 -0.0021361701484292365 0 -0.017827059795973849 -0.0022168679465715806 0 -0.017952439097241688 -0.0020266384201504937 0 -0.017736639163503022 -0.0020258815414345155 0 -0.017991075231936816 -0.0021361701484292365 0 -0.017952439097241688 -0.0020266384201504937 0 -0.018049511016611956 -0.0020532056272024278 0 -0.017952439097241688 -0.0020266384201504937 0 -0.018049511016611956 -0.0020532056272024278 0 -0.018137596298833381 -0.0019759408642680554 0 -0.017952439097241688 -0.0020266384201504937 0 -0.018137596298833381 -0.0019759408642680554 0 -0.018056270736758431 -0.0018749029968374872 0 -0.017952439097241688 -0.0020266384201504937 0 -0.018056270736758431 -0.0018749029968374872 0 -0.017860745706049758 -0.0019088699882663504 0 -0.018223696194978375 -0.0020508998003761717 0 -0.018125118662834883 -0.0020697891887475686 0 -0.018217744124107493 -0.0019876939833525652 0 -0.018223696194978375 -0.0020508998003761717 0 -0.018162300582949726 -0.0021292126580560082 0 -0.018125118662834883 -0.0020697891887475686 0 -0.018125118662834883 -0.0020697891887475686 0 -0.018049511016611956 -0.0020532056272024278 0 -0.018137596298833381 -0.0019759408642680554 0 -0.017991075231936816 -0.0021361701484292365 0 -0.018125118662834883 -0.0020697891887475686 0 -0.018049511016611956 -0.0020532056272024278 0 -0.018125118662834883 -0.0020697891887475686 0 -0.018137596298833381 -0.0019759408642680554 0 -0.018217744124107493 -0.0019876939833525652 0 -0.018137596298833381 -0.0019759408642680554 0 -0.018217744124107493 -0.0019876939833525652 0 -0.018257773037128153 -0.0019263828819763068 0 -0.018326667078703708 -0.0019182083937626807 0 -0.018217744124107493 -0.0019876939833525652 0 -0.018257773037128153 -0.0019263828819763068 0 -0.018334442215592914 -0.0018699302820401954 0 -0.018250354758861997 -0.0018738047285067002 0 -0.018257773037128153 -0.0019263828819763068 0 -0.018137596298833381 -0.0019759408642680554 0 -0.018250354758861997 -0.0018738047285067002 0 -0.018257773037128153 -0.0019263828819763068 0 -0.018137596298833381 -0.0019759408642680554 0 -0.018250354758861997 -0.0018738047285067002 0 -0.018056270736758431 -0.0018749029968374872 0 -0.018277996927499807 -0.0017869133251618434 0 -0.018250354758861997 -0.0018738047285067002 0 -0.018056270736758431 -0.0018749029968374872 0 -0.018277996927499807 -0.0017869133251618434 0 -0.018250354758861997 -0.0018738047285067002 0 -0.018360906678766612 -0.0018103805293140302 0 -0.018334442215592914 -0.0018699302820401954 0 -0.018250354758861997 -0.0018738047285067002 0 -0.018360906678766612 -0.0018103805293140302 0 -0.018056270736758431 -0.0018749029968374872 0 -0.017867761167659896 -0.0017487412507107458 0 -0.017860745706049758 -0.0019088699882663504 0 -0.018061221534827528 -0.0017297810542756537 0 -0.018277996927499807 -0.0017869133251618434 0 -0.018056270736758431 -0.0018749029968374872 0 -0.018061221534827528 -0.0017297810542756537 0 -0.018056270736758431 -0.0018749029968374872 0 -0.017867761167659896 -0.0017487412507107458 0 -0.017693437710923937 -0.0016153155483603643 0 -0.017867761167659896 -0.0017487412507107458 0 -0.017689453402458779 -0.001819291345077389 0 -0.017867761167659896 -0.0017487412507107458 0 -0.017689453402458779 -0.001819291345077389 0 -0.017860745706049758 -0.0019088699882663504 0 -0.017689453402458779 -0.001819291345077389 0 -0.017860745706049758 -0.0019088699882663504 0 -0.017736639163503022 -0.0020258815414345155 0 -0.017952439097241688 -0.0020266384201504937 0 -0.017860745706049758 -0.0019088699882663504 0 -0.017736639163503022 -0.0020258815414345155 0 -0.017564816104515407 -0.002192915928848526 0 -0.017736639163503022 -0.0020258815414345155 0 -0.01747383208267015 -0.0019477028604868803 0 -0.017689453402458779 -0.001819291345077389 0 -0.017736639163503022 -0.0020258815414345155 0 -0.01747383208267015 -0.0019477028604868803 0 -0.017507010046871403 -0.0016339776589165615 0 -0.017689453402458779 -0.001819291345077389 0 -0.01747383208267015 -0.0019477028604868803 0 -0.017693437710923937 -0.0016153155483603643 0 -0.017507010046871403 -0.0016339776589165615 0 -0.017689453402458779 -0.001819291345077389 0 -0.017507010046871403 -0.0016339776589165615 0 -0.01747383208267015 -0.0019477028604868803 0 -0.017248822902101658 -0.0016985246543498118 0 -0.01747383208267015 -0.0019477028604868803 0 -0.017248822902101658 -0.0016985246543498118 0 -0.01717673151112583 -0.0019724990568801308 0 -0.016960835796421533 -0.0014343777003671678 0 -0.017248822902101658 -0.0016985246543498118 0 -0.016914187703605945 -0.0018020185620962179 0 -0.017248822902101658 -0.0016985246543498118 0 -0.016914187703605945 -0.0018020185620962179 0 -0.01717673151112583 -0.0019724990568801308 0 -0.016914187703605945 -0.0018020185620962179 0 -0.01717673151112583 -0.0019724990568801308 0 -0.016939932413173486 -0.0021409047962696742 0 -0.01747383208267015 -0.0019477028604868803 0 -0.01717673151112583 -0.0019724990568801308 0 -0.017286878443554546 -0.0022556078497962687 0 -0.01717673151112583 -0.0019724990568801308 0 -0.017286878443554546 -0.0022556078497962687 0 -0.016939932413173486 -0.0021409047962696742 0 -0.017286878443554546 -0.0022556078497962687 0 -0.016939932413173486 -0.0021409047962696742 0 -0.016986793481831079 -0.002504969899993405 0 -0.017286878443554546 -0.0022556078497962687 0 -0.016986793481831079 -0.002504969899993405 0 -0.017256298601459066 -0.0024956932577927843 0 -0.017498568528026517 -0.0025339108136936276 0 -0.017286878443554546 -0.0022556078497962687 0 -0.017256298601459066 -0.0024956932577927843 0 -0.016032932438295105 -0.0018176236702637581 0 -0.016049473986257043 -0.0019246924378434362 0 -0.016144869401040606 -0.0018558086887160044 0 -0.015909222368510254 -0.0018162589131130609 0 -0.016032932438295105 -0.0018176236702637581 0 -0.016049473986257043 -0.0019246924378434362 0 -0.016372353778737084 -0.0021388434566806001 0 -0.0163614265563405 -0.0020959562199282153 0 -0.016939932413173486 -0.0021409047962696742 0 -0.016647977979530652 -0.0022721329576543487 0 -0.016669082140107577 -0.0019781082710394276 0 -0.016939932413173486 -0.0021409047962696742 0 -0.016986793481831079 -0.002504969899993405 0 -0.016647977979530652 -0.0022721329576543487 0 -0.0163614265563405 -0.0020959562199282153 0 -0.016230089393543826 -0.0019535710652479571 0 -0.016049473986257043 -0.0019246924378434362 0 -0.016238744640364539 -0.0019488309864265677 0 -0.016154358987570457 -0.001925963880765825 0 -0.016049473986257043 -0.0019246924378434362 0 -0.016154358987570457 -0.001925963880765825 0 -0.016144869401040606 -0.0018558086887160044 0 -0.016669082140107577 -0.0019781082710394276 0 -0.016554476161919549 -0.0017372420243988065 0 -0.016238744640364539 -0.0019488309864265677 0 -0.016647977979530652 -0.0022721329576543487 0 -0.016669082140107577 -0.0019781082710394276 0 -0.016238744640364539 -0.0019488309864265677 0 -0.016914187703605945 -0.0018020185620962179 0 -0.016939932413173486 -0.0021409047962696742 0 -0.016669082140107577 -0.0019781082710394276 0 -0.016914187703605945 -0.0018020185620962179 0 -0.016669082140107577 -0.0019781082710394276 0 -0.016554476161919549 -0.0017372420243988065 0 -0.016746186516164711 -0.0016029074389992527 0 -0.016914187703605945 -0.0018020185620962179 0 -0.016554476161919549 -0.0017372420243988065 0 -0.016557004927440624 -0.0014442078402730051 0 -0.016554476161919549 -0.0017372420243988065 0 -0.016292544239081597 -0.0016298378970167719 0 -0.016292544239081597 -0.0016298378970167719 0 -0.016129331060969074 -0.001788919449796718 0 -0.016238744640364539 -0.0019488309864265677 0 -0.016554476161919549 -0.0017372420243988065 0 -0.016292544239081597 -0.0016298378970167719 0 -0.016238744640364539 -0.0019488309864265677 0 -0.016292544239081597 -0.0016298378970167719 0 -0.016079700872804983 -0.0016041816907202298 0 -0.016129331060969074 -0.001788919449796718 0 -0.016079700872804983 -0.0016041816907202298 0 -0.016129331060969074 -0.001788919449796718 0 -0.015874470705863578 -0.0017103516505344067 0 -0.013159965778597847 -0.0014772653912502899 0 -0.012718003532884686 -0.0010013269274510427 0 -0.010136039024337013 -0.00096727095433562832 0 -0.00991293963990739 -0.000463974344301981 0 -0.0097695901968674146 -0.0010218725393118812 0 -0.016129331060969074 -0.001788919449796718 0 -0.016145703755584277 -0.001971969637415737 0 -0.015874470705863578 -0.0017103516505344067 0 -0.016129331060969074 -0.001788919449796718 0 -0.016145703755584277 -0.001971969637415737 0 -0.016238744640364539 -0.0019488309864265677 0 -0.009433494002478825 -0.00038005360241508634 0 -0.00991293963990739 -0.000463974344301981 0 -0.0094458583950554568 -0.0008140309271235924 0 -0.00991293963990739 -0.000463974344301981 0 -0.0094458583950554568 -0.0008140309271235924 0 -0.0097695901968674146 -0.0010218725393118812 0 -0.0094458583950554568 -0.0008140309271235924 0 -0.0093740486830331191 -0.0011452828336840025 0 -0.0097695901968674146 -0.0010218725393118812 0 -0.0093740486830331191 -0.0011452828336840025 0 -0.0097695901968674146 -0.0010218725393118812 0 -0.0096803639139463101 -0.0013029474204868747 0 -0.0097695901968674146 -0.0010218725393118812 0 -0.0096803639139463101 -0.0013029474204868747 0 -0.0099515578793886172 -0.0012825928217619958 0 -0.0096803639139463101 -0.0013029474204868747 0 -0.0099515578793886172 -0.0012825928217619958 0 -0.009760597291996952 -0.0014793034581952009 0 -0.0099515578793886172 -0.0012825928217619958 0 -0.0099388463690125162 -0.0014833799906878401 0 -0.009760597291996952 -0.0014793034581952009 0 -0.0092416394447351474 -0.001472363697419869 0 -0.0096803639139463101 -0.0013029474204868747 0 -0.0093443412867261922 -0.0015962111979149563 0 -0.0098336684613972748 -0.0013023208846944748 0 -0.0085362771379496397 -0.0013450202811348447 0 -0.0092416394447351474 -0.001472363697419869 0 -0.0093740486830331191 -0.0011452828336840025 0 -0.0096803639139463101 -0.0013029474204868747 0 -0.0096803639139463101 -0.0013029474204868747 0 -0.0093443412867261922 -0.0015962111979149563 0 -0.0093903208075139088 -0.0017316199199443403 0 -0.0096803639139463101 -0.0013029474204868747 0 -0.0095512668673064204 -0.0015100053504828001 0 -0.009760597291996952 -0.0014793034581952009 0 -0.016145703755584277 -0.001971969637415737 0 -0.016238744640364539 -0.0019488309864265677 0 -0.016154358987570457 -0.001925963880765825 0 -0.013159965778597847 -0.0014772653912502899 0 -0.013197225162175519 -0.0016038050472494609 0 -0.016145703755584277 -0.001971969637415737 0 -0.016154358987570457 -0.001925963880765825 0 -0.016144869401040606 -0.0018558086887160044 0 -0.010136039024337013 -0.00096727095433562832 0 -0.0099515578793886172 -0.0012825928217619958 0 -0.010244099431071862 -0.0013436849339879791 0 -0.010136039024337013 -0.00096727095433562832 0 -0.0097695901968674146 -0.0010218725393118812 0 -0.0099515578793886172 -0.0012825928217619958 0 -0.0099515578793886172 -0.0012825928217619958 0 -0.010048150692658851 -0.0014154098525770127 0 -0.0099388463690125162 -0.0014833799906878401 0 -0.0099515578793886172 -0.0012825928217619958 0 -0.010048150692658851 -0.0014154098525770127 0 -0.010244099431071862 -0.0013436849339879791 0 -0.010244099431071862 -0.0013436849339879791 0 -0.010077417209726642 -0.0015577554385901179 0 -0.010284665517945846 -0.0015533036301721244 0 -0.010048150692658851 -0.0014154098525770127 0 -0.010244099431071862 -0.0013436849339879791 0 -0.010077417209726642 -0.0015577554385901179 0 -0.010048150692658851 -0.0014154098525770127 0 -0.010077417209726642 -0.0015577554385901179 0 -0.0099388463690125162 -0.0014833799906878401 0 -0.010077417209726642 -0.0015577554385901179 0 -0.0099388463690125162 -0.0014833799906878401 0 -0.0098896604229450832 -0.0016197271616486435 0 -0.0079124228342881131 -0.0011190834336683624 0 -0.0089905831925459236 -0.0011074262359314685 0 -0.0079024046011302168 -0.00070020088718085005 0 -0.010077417209726642 -0.0015577554385901179 0 -0.010146514132209511 -0.0016534767729979192 0 -0.0098896604229450832 -0.0016197271616486435 0 -0.0095883000869270932 -0.0014016905269550197 0 -0.0088399970124241247 -0.0010930401566579145 0 -0.010077417209726642 -0.0015577554385901179 0 -0.010146514132209511 -0.0016534767729979192 0 -0.010284665517945846 -0.0015533036301721244 0 -0.0071190367437324546 -0.00058706687187401474 0 -0.0070391482320806172 -0.00049109195935903929 0 -0.0070532722708694859 -0.00073637402922545564 0 -0.0071190367437324546 -0.00058706687187401474 0 -0.0071224899746318059 -0.00051976459784731975 0 -0.0072617706928756248 -0.00060126197238821147 0 -0.0071190367437324546 -0.00058706687187401474 0 -0.0072617706928756248 -0.00060126197238821147 0 -0.0070532722708694859 -0.00073637402922545564 0 -0.0071224899746318059 -0.00051976459784731975 0 -0.0070997452033427248 -0.00040185787879275426 0 -0.0072617706928756248 -0.00060126197238821147 0 -0.0071224899746318059 -0.00051976459784731975 0 -0.0070391482320806172 -0.00049109195935903929 0 -0.0070997452033427248 -0.00040185787879275426 0 -0.0071190367437324546 -0.00058706687187401474 0 -0.0071224899746318059 -0.00051976459784731975 0 -0.0070391482320806172 -0.00049109195935903929 0 -0.0084157063371684184 -0.0012523304529269328 0 -0.0085362771379496397 -0.0013450202811348447 0 -0.0092013680364475235 -0.0016737808099822609 0 -0.0092603378740284108 -0.0017275599097859012 0 -0.0093443412867261922 -0.0015962111979149563 0 -0.0093368803874670694 -0.0018024126548135211 0 -0.0093443412867261922 -0.0015962111979149563 0 -0.0093903208075139088 -0.0017316199199443403 0 -0.0093368803874670694 -0.0018024126548135211 0 -0.0092603378740284108 -0.0017275599097859012 0 -0.0093443412867261922 -0.0015962111979149563 0 -0.0095512668673064204 -0.0015100053504828001 0 -0.009760597291996952 -0.0014793034581952009 0 -0.0098896604229450832 -0.0016197271616486435 0 -0.0085362771379496397 -0.0013450202811348447 0 -0.0088399970124241247 -0.0010930401566579145 0 -0.0070997452033427248 -0.00040185787879275426 0 -0.0072617706928756248 -0.00060126197238821147 0 -0.0079024046011302168 -0.00070020088718085005 0 -0.0099388463690125162 -0.0014833799906878401 0 -0.009760597291996952 -0.0014793034581952009 0 -0.0098896604229450832 -0.0016197271616486435 0 -0.0072617706928756248 -0.00060126197238821147 0 -0.0079024046011302168 -0.00070020088718085005 0 -0.0074639419001845493 -0.00079993377222159598 0 -0.0079124228342881131 -0.0011190834336683624 0 -0.0079024046011302168 -0.00070020088718085005 0 -0.0076105392486629994 -0.00093651812345252555 0 -0.0079124228342881131 -0.0011190834336683624 0 -0.0075687602026154 -0.0010721510285947708 0 -0.0076105392486629994 -0.00093651812345252555 0 -0.0079124228342881131 -0.0011190834336683624 0 -0.0075687602026154 -0.0010721510285947708 0 -0.0074434976505017717 -0.0012569485609242894 0 -0.0075687602026154 -0.0010721510285947708 0 -0.0073181352371348733 -0.00098476722636115172 0 -0.0074434976505017717 -0.0012569485609242894 0 -0.0076105392486629994 -0.00093651812345252555 0 -0.0074639419001845493 -0.00079993377222159598 0 -0.0073181352371348733 -0.00098476722636115172 0 -0.0075687602026154 -0.0010721510285947708 0 -0.0076105392486629994 -0.00093651812345252555 0 -0.0073181352371348733 -0.00098476722636115172 0 -0.0079024046011302168 -0.00070020088718085005 0 -0.0076105392486629994 -0.00093651812345252555 0 -0.0074639419001845493 -0.00079993377222159598 0 -0.0072617706928756248 -0.00060126197238821147 0 -0.0074639419001845493 -0.00079993377222159598 0 -0.0072315008639680873 -0.0008038141535959834 0 -0.0072617706928756248 -0.00060126197238821147 0 -0.0072315008639680873 -0.0008038141535959834 0 -0.0070532722708694859 -0.00073637402922545564 0 -0.0074639419001845493 -0.00079993377222159598 0 -0.0072315008639680873 -0.0008038141535959834 0 -0.0073181352371348733 -0.00098476722636115172 0 -0.0073181352371348733 -0.00098476722636115172 0 -0.0071089236347227228 -0.0011031678869070742 0 -0.007199402029666113 -0.0012399501882296448 0 -0.0072315008639680873 -0.0008038141535959834 0 -0.0073181352371348733 -0.00098476722636115172 0 -0.0070463913523245098 -0.00096316050565366457 0 -0.0073181352371348733 -0.00098476722636115172 0 -0.0070463913523245098 -0.00096316050565366457 0 -0.0071089236347227228 -0.0011031678869070742 0 -0.0070463913523245098 -0.00096316050565366457 0 -0.0071089236347227228 -0.0011031678869070742 0 -0.0069312178754750179 -0.0011453713130346892 0 -0.0072315008639680873 -0.0008038141535959834 0 -0.0070463913523245098 -0.00096316050565366457 0 -0.0070532722708694859 -0.00073637402922545564 0 -0.0063697243288663285 -0.0017340141085940592 0 -0.0069155832227132813 -0.0016772079102684379 0 -0.0070996029302641053 -0.0020439005181837394 0 -0.0063697243288663285 -0.0017340141085940592 0 -0.0065555862151897241 -0.0015766855292946526 0 -0.0069155832227132813 -0.0016772079102684379 0 -0.0051671755570879933 -0.0016624364355491902 0 -0.0064365963809771363 -0.0013510812042852062 0 -0.0068775766902536709 -0.0012869399229349114 0 -0.00699048915566908 -0.0014144233458233187 0 -0.0070214906934253649 -0.001238248900539844 0 -0.0068775766902536709 -0.0012869399229349114 0 -0.0069312178754750179 -0.0011453713130346892 0 -0.0070214906934253649 -0.001238248900539844 0 -0.0071089236347227228 -0.0011031678869070742 0 -0.0069312178754750179 -0.0011453713130346892 0 -0.0070214906934253649 -0.001238248900539844 0 -0.0071089236347227228 -0.0011031678869070742 0 -0.0070214906934253649 -0.001238248900539844 0 -0.007199402029666113 -0.0012399501882296448 0 -0.00699048915566908 -0.0014144233458233187 0 -0.0070214906934253649 -0.001238248900539844 0 -0.007199402029666113 -0.0012399501882296448 0 -0.0064365963809771363 -0.0013510812042852062 0 -0.0070078849607517445 -0.0011426113364373161 0 -0.0069839120299988611 -0.0014192612515751787 0 -0.007199402029666113 -0.0012399501882296448 0 -0.0074434976505017717 -0.0012569485609242894 0 -0.0065555862151897241 -0.0015766855292946526 0 -0.0069155832227132813 -0.0016772079102684379 0 -0.0072233206482366034 -0.0013386516250798687 0 -0.0064365963809771363 -0.0013510812042852062 0 -0.0073823733963692172 -0.0012741968338654808 0 -0.0073181352371348733 -0.00098476722636115172 0 -0.007199402029666113 -0.0012399501882296448 0 -0.0074434976505017717 -0.0012569485609242894 0 -0.0069155832227132813 -0.0016772079102684379 0 -0.0073327422748852176 -0.0016916943804834801 0 -0.0070996029302641053 -0.0020439005181837394 0 -0.0069155832227132813 -0.0016772079102684379 0 -0.0073327422748852176 -0.0016916943804834801 0 -0.0072233206482366034 -0.0013386516250798687 0 -0.0073327422748852176 -0.0016916943804834801 0 -0.0072233206482366034 -0.0013386516250798687 0 -0.0077104095374381535 -0.0015579062655409995 0 -0.007816256058613625 -0.0011413763636791698 0 -0.0073823733963692172 -0.0012741968338654808 0 -0.0079124228342881131 -0.0011190834336683624 0 -0.0072233206482366034 -0.0013386516250798687 0 -0.0077104095374381535 -0.0015579062655409995 0 -0.0073327422748852176 -0.0016916943804834801 0 -0.0077104095374381535 -0.0015579062655409995 0 -0.0077748270747155408 -0.0020567945188252686 0 -0.0070998655536532694 -0.0027508478443092669 0 -0.0077748270747155408 -0.0020567945188252686 0 -0.0070996029302641053 -0.0020439005181837394 0 -0.0080948259618036384 -0.0028371766375775969 0 -0.0070998655536532694 -0.0027508478443092669 0 -0.0077748270747155408 -0.0020567945188252686 0 -0.0073327422748852176 -0.0016916943804834801 0 -0.0077748270747155408 -0.0020567945188252686 0 -0.0070996029302641053 -0.0020439005181837394 0 -0.0032292260860299991 -0.0022961682933457903 0 -0.0032308703612442739 -0.0017427626358116116 0 -0.0027592028756396121 -0.0016469229999469084 0 -0.0063697243288663285 -0.0017340141085940592 0 -0.0070998655536532694 -0.0027508478443092669 0 -0.0070996029302641053 -0.0020439005181837394 0 -0.0051671755570879933 -0.0016624364355491902 0 -0.005031183221851099 -0.0024000557649972 0 -0.0089905831925459236 -0.0011074262359314685 0 -0.0082875292798238465 -0.0015783783460004304 0 -0.0086544822184566796 -0.0020756417531145881 0 -0.0089905831925459236 -0.0011074262359314685 0 -0.0086544822184566796 -0.0020756417531145881 0 -0.0092640394087452442 -0.0019764232967730872 0 -0.0077748270747155408 -0.0020567945188252686 0 -0.0082875292798238465 -0.0015783783460004304 0 -0.0086544822184566796 -0.0020756417531145881 0 -0.0079124228342881131 -0.0011190834336683624 0 -0.0089905831925459236 -0.0011074262359314685 0 -0.0082875292798238465 -0.0015783783460004304 0 -0.0079124228342881131 -0.0011190834336683624 0 -0.0077104095374381535 -0.0015579062655409995 0 -0.0082875292798238465 -0.0015783783460004304 0 -0.0077104095374381535 -0.0015579062655409995 0 -0.0077748270747155408 -0.0020567945188252686 0 -0.0082875292798238465 -0.0015783783460004304 0 -0.0080948259618036384 -0.0028371766375775969 0 -0.0077748270747155408 -0.0020567945188252686 0 -0.0086544822184566796 -0.0020756417531145881 0 -0.0088269030763880145 -0.0029855755292393024 0 -0.0086544822184566796 -0.0020756417531145881 0 -0.0093186109697912019 -0.0024946949285148414 0 -0.0086544822184566796 -0.0020756417531145881 0 -0.0092640394087452442 -0.0019764232967730872 0 -0.0093186109697912019 -0.0024946949285148414 0 -0.0098472966538045558 -0.0027880045239583582 0 -0.0093186109697912019 -0.0024946949285148414 0 -0.0097791148366035297 -0.0022098011083246426 0 -0.0098472966538045558 -0.0027880045239583582 0 -0.0097791148366035297 -0.0022098011083246426 0 -0.010305188666293621 -0.0023683534498029767 0 -0.0097791148366035297 -0.0022098011083246426 0 -0.0096892553795721557 -0.0018159659025176011 0 -0.010114715267474416 -0.002029160165854642 0 -0.0092640394087452442 -0.0019764232967730872 0 -0.0097791148366035297 -0.0022098011083246426 0 -0.0096892553795721557 -0.0018159659025176011 0 -0.0092640394087452442 -0.0019764232967730872 0 -0.0093186109697912019 -0.0024946949285148414 0 -0.0097791148366035297 -0.0022098011083246426 0 -0.0089905831925459236 -0.0011074262359314685 0 -0.0096892553795721557 -0.0018159659025176011 0 -0.010235788625282722 -0.0016797748190824789 0 -0.0089905831925459236 -0.0011074262359314685 0 -0.0092640394087452442 -0.0019764232967730872 0 -0.0096892553795721557 -0.0018159659025176011 0 -0.0095883000869270932 -0.0014016905269550197 0 -0.010193283057176677 -0.0016573002248077241 0 -0.0096892553795721557 -0.0018159659025176011 0 -0.010235788625282722 -0.0016797748190824789 0 -0.010114715267474416 -0.002029160165854642 0 -0.010367642391697284 -0.0016717453039377351 0 -0.010235788625282722 -0.0016797748190824789 0 -0.010284665517945846 -0.0015533036301721244 0 -0.010235788625282722 -0.0016797748190824789 0 -0.010327311616107424 -0.0018203401161355026 0 -0.010114715267474416 -0.002029160165854642 0 -0.010367642391697284 -0.0016717453039377351 0 -0.010235788625282722 -0.0016797748190824789 0 -0.010327311616107424 -0.0018203401161355026 0 -0.01355299081932955 -0.0018465536226546632 0 -0.010879380746933022 -0.0025540361981401423 0 -0.010327311616107424 -0.0018203401161355026 0 -0.010305188666293621 -0.0023683534498029767 0 -0.011380028746227594 -0.0025847634556765108 0 -0.010327311616107424 -0.0018203401161355026 0 -0.010114715267474416 -0.002029160165854642 0 -0.010305188666293621 -0.0023683534498029767 0 -0.0097791148366035297 -0.0022098011083246426 0 -0.010114715267474416 -0.002029160165854642 0 -0.010305188666293621 -0.0023683534498029767 0 -0.016830723201234656 -0.0025137990859518977 0 -0.017052205080613479 -0.0028263888070560557 0 -0.017050819014986143 -0.0025580262953376091 0 -0.01355299081932955 -0.0018465536226546632 0 -0.014332583301692573 -0.0027847227083850935 0 -0.010661239455115186 -0.0015323068214375157 0 -0.010327311616107424 -0.0018203401161355026 0 -0.011380028746227594 -0.0025847634556765108 0 -0.017052205080613479 -0.0028263888070560557 0 -0.017172270470647098 -0.0026476040474938201 0 -0.017050819014986143 -0.0025580262953376091 0 -0.017268326860147665 -0.0027152288665564235 0 -0.017334899440755423 -0.0025925977732340812 0 -0.017172270470647098 -0.0026476040474938201 0 -0.017268326860147665 -0.0027152288665564235 0 -0.017102761398310906 -0.0027315726040620159 0 -0.017172270470647098 -0.0026476040474938201 0 -0.014332583301692573 -0.0027847227083850935 0 -0.017086630993161482 -0.0021996842319472209 0 -0.017334899440755423 -0.0025925977732340812 0 -0.017172270470647098 -0.0026476040474938201 0 -0.017209732432887301 -0.0024839292098682931 0 -0.017172270470647098 -0.0026476040474938201 0 -0.017209732432887301 -0.0024839292098682931 0 -0.017050819014986143 -0.0025580262953376091 0 -0.017209732432887301 -0.0024839292098682931 0 -0.017050819014986143 -0.0025580262953376091 0 -0.017021661249003912 -0.0023708700331395694 0 -0.016830723201234656 -0.0025137990859518977 0 -0.017050819014986143 -0.0025580262953376091 0 -0.017021661249003912 -0.0023708700331395694 0 -0.01355299081932955 -0.0018465536226546632 0 -0.016668559884461084 -0.0018135076734628148 0 -0.015867947461617144 -0.0016582565327760924 0 -0.015811058605318052 -0.0017191762188085724 0 -0.015921318236937747 -0.0017149075529317192 0 -0.01591360820552043 -0.0015978097450791565 0 -0.015867947461617144 -0.0016582565327760924 0 -0.015921318236937747 -0.0017149075529317192 0 -0.017209732432887301 -0.0024839292098682931 0 -0.017021661249003912 -0.0023708700331395694 0 -0.017209021498042199 -0.0022168889122095173 0 -0.01744731021118856 -0.0024612845910588787 0 -0.017209732432887301 -0.0024839292098682931 0 -0.017209021498042199 -0.0022168889122095173 0 -0.016668559884461084 -0.0018135076734628148 0 -0.016958342186259228 -0.0022373501588244106 0 -0.017498568528026517 -0.0025339108136936276 0 -0.017256298601459066 -0.0024956932577927843 0 -0.017286576161314893 -0.0027352184039677336 0 -0.016986793481831079 -0.002504969899993405 0 -0.017256298601459066 -0.0024956932577927843 0 -0.017286576161314893 -0.0027352184039677336 0 -0.016372353778737084 -0.0021388434566806001 0 -0.016958342186259228 -0.0022373501588244106 0 -0.015909222368510254 -0.0018162589131130609 0 -0.015811058605318052 -0.0017191762188085724 0 -0.015921318236937747 -0.0017149075529317192 0 -0.015909222368510254 -0.0018162589131130609 0 -0.016032932438295105 -0.0018176236702637581 0 -0.015921318236937747 -0.0017149075529317192 0 -0.016032932438295105 -0.0018176236702637581 0 -0.015921318236937747 -0.0017149075529317192 0 -0.016016871559214194 -0.0017092418383059668 0 -0.016032932438295105 -0.0018176236702637581 0 -0.016144869401040606 -0.0018558086887160044 0 -0.016016871559214194 -0.0017092418383059668 0 -0.013197225162175519 -0.0016038050472494609 0 -0.013078231696901477 -0.0015709290731321991 0 -0.010146514132209511 -0.0016534767729979192 0 -0.010235788625282722 -0.0016797748190824789 0 -0.010284665517945846 -0.0015533036301721244 0 -0.01355299081932955 -0.0018465536226546632 0 -0.013078231696901477 -0.0015709290731321991 0 -0.01591360820552043 -0.0015978097450791565 0 -0.015921318236937747 -0.0017149075529317192 0 -0.016016871559214194 -0.0017092418383059668 0 
</DataArray>
</PointData>
<CellData Scalars="region_id,cross_section_updated," Vectors="" Tensors="stress,">
<DataArray type="Float64" Name="region_id" format="ascii">
5 5 6 5 5 5 5 6 5 5 5 6 6 6 5 5 5 6 5 5 5 5 5 6 5 5 5 5 5 5 5 5 5 5 6 5 6 5 5 5 5 6 5 5 5 5 5 5 6 5 5 5 5 5 5 5 5 5 5 6 5 5 5 5 5 5 5 5 5 5 5 5 5 5 5 5 5 5 5 5 5 6 5 5 5 5 6 5 6 5 5 6 5 6 5 5 6 5 5 5 5 5 5 5 5 5 5 5 5 6 5 5 5 5 5 5 5 6 5 5 5 5 5 5 5 5 5 5 5 5 5 6 5 5 5 5 5 5 6 5 5 6 6 5 5 5 5 5 6 5 5 5 5 6 5 5 5 5 5 5 5 5 5 5 5 5 5 5 5 5 5 5 6 5 5 5 5 5 5 5 5 6 5 5 5 5 5 5 5 5 5 5 5 5 5 5 5 5 5 5 5 5 5 5 5 5 5 5 5 5 5 5 5 5 5 5 5 5 5 5 5 5 5 5 5 5 5 5 5 5 5 6 5 5 5 5 5 5 5 5 5 5 5 5 5 5 5 5 5 5 5 5 5 5 6 5 5 5 6 5 5 5 6 5 6 5 6 5 6 5 5 5 6 5 5 6 6 5 5 6 5 6 5 5 6 6 6 5 6 5 6 5 5 6 5 5 5 5 5 5 5 5 6 5 5 5 6 5 6 5 5 6 6 5 6 6 5 5 5 6 5 5 6 5 5 6 5 6 6 5 5 5 6 5 5 5 6 5 5 5 5 6 5 6 6 5 5 5 5 5 5 5 6 5 5 5 5 5 6 5 5 5 5 5 5 6 5 5 5 5 5 6 5 5 5 5 5 5 5 5 5 5 5 5 5 5 5 5 5 5 5 5 5 5 5 5 5 5 5 5 5 6 5 5 5 5 6 5 5 6 5 5 5 5 5 5 5 5 5 5 5 5 5 5 5 6 5 6 5 5 6 5 6 5 6 5 5 6 5 5 5 5 5 5 5 5 5 6 5 5 5 5 5 5 5 5 6 5 5 5 6 6 5 5 5 5 5 6 5 5 5 6 5 5 5 6 6 5 6 5 5 5 5 6 6 5 5 6 6 5 5 5 6 5 5 5 5 6 5 6 5 5 5 5 6 5 6 5 5 6 5 5 5 5 5 5 6 5 6 6 5 6 5 5 5 6 5 5 6 5 5 5 5 5 5 5 6 5 5 5 5 5 5 5 5 6 5 6 6 5 6 5 5 5 6 5 5 6 5 5 5 5 5 5 5 5 5 5 5 5 5 5 5 5 5 5 6 5 5 5 5 6 5 5 5 5 5 5 5 5 5 5 5 6 5 5 5 5 5 5 5 5 6 5 5 5 5 5 5 5 6 5 5 5 6 5 5 5 5 5 5 5 5 5 5 5 5 5 5 5 5 5 5 5 5 5 5 5 5 5 5 5 5 6 5 5 5 5 5 5 5 5 5 5 5 5 5 5 5 5 5 6 5 5 5 5 5 5 5 6 5 5 6 5 5 5 5 5 5 6 5 5 5 5 5 5 5 5 5 5 5 5 5 6 5 5 5 5 5 5 5 5 6 5 5 6 5 5 5 5 5 5 5 5 5 5 5 5 5 5 5 5 5 5 5 5 5 5 5 5 5 5 6 5 5 5 6 5 5 5 6 5 6 5 6 5 5 5 5 5 5 5 5 5 5 5 5 5 5 5 5 5 5 6 5 5 5 5 6 5 5 5 6 6 5 5 5 5 5 5 5 5 6 6 5 5 5 5 5 5 5 5 6 5 6 5 6 6 6 6 5 5 5 6 5 6 5 5 5 5 5 5 5 5 5 5 5 5 6 5 5 5 5 5 5 5 5 5 5 5 5 5 5 5 6 5 5 5 5 5 5 5 5 5 6 5 5 5 6 5 5 5 5 5 5 5 5 6 5 5 5 5 5 5 5 5 5 6 5 5 5 5 5 5 6 5 6 5 5 5 5 5 5 5 5 6 5 6 5 5 5 5 5 5 5 5 5 5 5 5 5 5 5 5 6 5 5 5 5 5 5 5 5 5 5 5 5 5 6 5 5 5 5 6 5 5 5 5 5 5 5 5 5 6 5 5 5 5 5 5 6 5 5 5 5 5 5 5 6 5 5 6 5 5 6 5 5 5 5 5 5 5 5 5 5 5 5 5 5 5 5 5 5 5 5 5 5 5 5 5 5 5 6 5 5 6 5 5 5 5 5 6 5 5 5 5 5 5 5 5 5 5 6 5 5 5 5 6 5 5 5 5 5 5 5 5 5 5 5 5 5 5 6 5 5 5 5 6 5 5 5 5 5 5 5 5 5 5 6 5 5 6 5 5 5 5 5 5 5 6 5 5 5 5 5 5 6 5 5 5 5 5 5 5 5 5 5 5 5 5 5 5 5 5 5 5 5 5 5 5 5 5 5 5 5 5 5 5 5 5 5 5 6 5 5 5 5 6 5 5 5 5 5 5 5 5 5 5 5 5 5 5 5 6 5 5 5 5 6 5 5 5 5 5 5 6 5 5 5 5 5 6 5 5 5 5 5 5 5 5 5 5 5 5 5 5 5 5 5 5 5 5 5 5 5 5 5 5 5 5 5 5 5 5 6 5 5 5 6 5 5 6 5 5 5 5 5 5 6 5 5 5 5 5 5 5 5 5 6 5 5 5 5 5 5 5 6 5 5 5 5 5 5 6 6 5 5 5 5 6 5 5 5 5 6 6 5 6 5 5 5 5 5 5 5 6 5 5 6 5 5 5 5 5 5 6 5 5 5 5 5 6 6 5 5 5 6 5 5 5 5 5 5 5 5 5 5 5 6 5 5 5 5 5 5 5 5 5 5 5 5 5 5 5 5 5 5 5 6 5 5 5 5 5 5 5 5 5 5 5 5 5 5 5 5 5 5 5 5 5 5 5 5 5 5 5 5 5 5 5 5 5 5 5 5 5 5 5 5 5 6 5 5 5 5 5 5 6 5 5 5 5 5 5 5 5 5 5 5 5 5 5 5 5 5 5 5 5 5 5 5 5 5 5 5 6 5 5 5 5 6 5 5 5 5 5 5 5 5 5 5 5 5 5 5 5 5 5 6 5 5 5 5 5 5 5 5 5 5 6 5 6 5 5 6 5 6 5 5 6 5 5 5 5 6 5 5 5 5 5 6 5 6 6 5 5 5 6 6 5 5 5 5 5 5 5 5 5 5 5 5 5 6 5 5 5 5 5 5 5 5 5 5 5 5 5 5 5 5 5 5 5 5 5 5 5 5 5 5 5 5 5 5 5 5 5 5 5 5 5 5 5 5 6 5 5 5 6 5 5 5 5 6 5 5 5 5 5 5 5 5 5 5 5 5 6 5 6 5 5 5 5 5 5 6 5 5 6 5 5 5 5 6 5 5 5 5 5 5 5 5 5 5 5 5 5 5 5 5 5 5 5 5 5 5 5 5 6 5 5 6 5 5 5 5 5 5 6 5 5 5 5 5 5 5 5 5 5 5 5 5 5 5 5 5 5 5 5 5 6 5 5 5 5 5 5 5 5 5 6 5 5 5 6 5 5 5 6 5 5 5 6 5 5 5 5 6 5 6 5 5 5 5 6 6 5 5 5 5 5 5 5 5 5 5 5 5 5 5 5 6 6 5 5 5 6 5 5 5 5 5 5 5 5 5 5 5 5 6 5 5 5 6 6 5 5 5 5 5 6 5 5 5 5 5 5 5 5 5 5 5 5 5 5 5 5 5 5 5 5 6 5 5 6 6 5 5 5 5 5 5 5 6 6 6 5 5 5 6 6 5 5 5 5 6 5 6 5 5 5 5 5 5 5 5 5 5 5 5 6 5 5 5 6 5 5 5 5 5 6 5 5 6 5 6 5 5 5 5 5 5 5 5 5 5 5 5 5 5 5 5 5 5 5 5 5 5 5 6 5 6 5 5 6 5 5 6 5 5 5 5 5 5 5 5 5 5 5 5 5 5 5 5 5 5 5 5 5 5 5 5 5 5 5 5 6 5 5 5 5 5 5 5 5 5 5 5 5 5 5 5 5 6 5 5 5 5 5 6 5 5 5 5 6 5 5 6 5 5 5 6 5 5 5 5 5 5 5 6 5 5 5 5 5 5 6 5 5 6 5 6 6 5 5 5 5 5 5 5 5 6 5 5 6 5 6 5 5 5 6 5 5 5 6 5 5 5 6 6 5 6 5 6 5 5 6 5 6 5 6 6 5 5 5 5 5 6 5 5 5 5 5 5 5 6 5 5 5 5 5 5 5 5 5 5 5 5 5 5 5 5 5 5 5 5 5 5 5 5 5 5 5 5 5 5 5 5 5 5 5 5 6 5 5 5 5 5 5 6 5 5 5 5 5 5 5 5 5 5 5 5 5 5 5 5 5 5 5 5 6 5 5 5 5 5 5 5 5 5 5 5 5 5 6 5 5 5 5 5 5 5 5 5 5 5 5 5 5 5 5 5 6 5 5 6 5 5 5 5 5 5 5 5 6 5 5 5 5 5 5 5 5 5 5 5 5 5 5 5 5 6 5 5 5 5 5 6 5 6 5 6 5 5 6 5 6 6 5 5 5 6 5 5 5 5 5 5 5 5 6 5 5 5 5 5 5 5 6 5 6 5 5 5 5 5 5 5 5 5 5 6 6 5 5 5 6 5 5 5 6 5 6 5 5 6 5 5 5 5 6 5 5 6 5 5 5 5 5 5 6 6 5 5 5 5 5 5 5 5 6 5 5 5 5 5 6 5 6 5 5 5 5 5 5 6 5 5 5 5 5 5 6 5 5 5 5 5 5 6 5 5 5 5 5 5 6 5 6 5 5 5 5 5 6 5 6 5 5 5 5 5 5 5 5 5 6 5 5 5 5 5 5 5 5 6 5 6 5 6 5 5 6 6 5 6 5 5 5 5 5 6 5 6 5 5 5 5 5 5 5 5 5 5 5 5 5 5 5 5 5 5 5 5 6 5 5 6 5 5 5 5 5 5 5 5 5 5 5 5 5 5 5 5 5 5 5 6 5 5 6 5 5 5 5 5 5 5 6 6 5 5 6 5 6 5 5 5 5 6 6 5 6 5 5 5 5 5 5 5 6 5 5 5 5 5 6 6 5 6 6 5 6 6 5 5 5 5 5 5 5 5 5 5 5 6 5 5 5 5 5 6 6 5 5 5 5 5 5 5 5 5 5 5 6 5 5 5 5 6 5 5 5 5 6 5 5 5 5 5 5 5 5 6 5 6 5 5 5 5 6 5 5 5 5 5 5 5 5 5 5 5 5 6 5 5 6 5 5 5 5 5 5 5 5 5 5 5 5 5 6 5 5 5 6 5 5 5 5 6 6 5 5 5 5 5 5 5 5 5 5 5 5 5 6 5 5 5 5 5 5 5 5 5 5 5 5 5 5 5 6 6 5 5 5 5 5 5 5 5 5 5 5 5 5 5 5 5 5 5 5 5 5 5 5 5 6 5 6 5 5 5 5 5 5 5 5 5 5 5 5 5 5 5 5 5 5 5 5 5 5 5 6 6 5 6 6 5 5 5 5 5 6 5 6 5 5 5 5 5 5 5 5 5 5 5 5 5 5 5 5 6 5 5 6 5 6 5 6 5 5 5 5 5 5 5 6 5 5 5 5 5 5 5 5 5 5 5 5 5 5 5 6 5 5 5 6 5 5 5 5 6 6 5 5 6 5 5 5 5 5 5 5 5 6 5 5 6 5 6 5 5 5 6 5 5 6 5 6 5 5 6 5 5 5 6 5 5 5 5 6 6 5 5 5 5 5 5 5 5 5 5 5 5 6 5 5 5 5 5 6 5 5 5 5 5 5 6 5 6 5 5 5 5 5 5 5 5 5 5 6 5 5 6 5 5 5 5 5 5 5 5 5 6 6 5 5 5 5 5 6 5 5 5 6 5 6 5 5 5 5 5 5 6 5 5 5 6 5 5 5 5 5 5 5 5 5 5 5 5 5 5 5 5 5 5 5 5 5 5 5 5 5 5 5 5 5 6 5 5 5 5 5 5 6 5 5 5 5 5 5 6 5 6 5 5 6 6 5 5 6 5 5 5 5 5 5 5 5 5 5 5 5 5 5 5 5 5 5 5 5 5 5 5 5 5 5 5 5 6 5 5 5 5 5 5 5 5 5 5 5 5 5 5 5 5 5 5 5 5 5 5 5 5 5 5 5 5 5 5 5 5 6 5 5 5 6 5 5 5 5 5 5 6 5 5 5 5 5 5 5 5 5 5 5 5 5 5 5 5 5 5 6 5 6 5 5 5 5 5 5 5 5 5 5 5 5 5 5 5 5 5 5 5 5 5 5 5 5 5 6 6 6 6 6 6 5 5 5 5 6 5 5 6 5 5 5 5 5 5 5 5 5 6 5 5 5 6 5 5 6 5 6 5 6 5 6 5 6 5 5 5 5 5 5 6 5 5 6 5 5 5 5 5 6 5 5 5 5 5 6 5 5 5 5 5 5 6 5 5 5 5 5 5 5 6 5 5 5 6 5 5 5 5 5 5 5 5 5 5 5 5 6 5 5 6 5 5 5 5 6 5 6 5 5 5 6 5 5 5 5 5 6 5 6 5 5 5 5 5 5 5 5 5 6 5 5 6 5 5 6 5 5 6 6 5 5 5 5 5 6 6 6 5 5 5 5 5 5 6 5 5 5 5 5 5 5 5 5 5 5 5 5 5 5 5 5 5 5 5 5 5 5 5 5 5 5 5 5 5 5 5 5 5 5 5 5 5 6 5 5 5 5 5 6 6 5 5 5 6 5 5 5 6 5 6 5 6 5 6 6 5 6 5 5 5 5 6 5 5 5 5 5 5 5 5 5 5 5 5 5 5 5 5 5 5 5 5 5 5 5 5 5 5 5 5 5 5 6 5 5 5 5 5 5 5 5 5 5 5 5 5 5 5 5 5 6 5 5 5 5 5 6 5 5 5 5 6 5 5 5 5 5 5 5 6 5 5 5 5 5 5 5 5 5 5 5 5 6 5 5 5 5 5 5 5 5 5 5 5 5 6 5 5 5 5 6 6 5 6 5 5 5 5 6 5 5 6 5 5 5 5 5 5 5 6 5 5 5 5 5 5 5 5 5 5 5 5 6 5 5 5 6 6 5 5 5 6 5 5 5 5 5 5 5 6 5 5 5 6 5 5 6 5 5 5 5 5 5 6 5 5 5 5 5 5 5 5 5 5 5 5 5 6 5 5 5 5 6 5 5 5 5 5 5 5 5 5 5 6 5 5 5 6 5 6 5 5 5 5 5 5 5 5 5 5 5 5 5 5 5 5 5 5 5 5 5 5 5 5 5 6 5 5 5 5 5 5 5 5 5 5 5 5 5 5 6 5 6 5 5 6 5 5 5 5 5 5 6 6 5 5 5 5 5 6 5 5 5 6 6 5 6 5 5 5 5 6 5 6 5 5 6 5 5 5 6 6 5 6 5 6 5 6 5 5 5 5 6 5 5 5 5 6 5 5 5 5 5 5 5 5 5 5 5 5 5 5 5 5 5 5 5 6 5 5 5 5 5 6 5 6 5 5 6 5 5 5 5 5 5 6 5 5 5 6 6 5 5 5 6 5 5 5 5 6 5 5 5 5 5 5 5 5 5 5 5 5 5 5 5 5 5 5 5 5 5 5 5 5 5 5 5 5 6 5 5 5 5 5 5 5 6 5 5 5 6 5 5 6 5 5 6 5 6 5 5 6 5 6 6 5 6 5 6 5 5 5 5 5 6 5 6 5 5 5 6 5 5 5 5 6 5 5 5 5 5 6 5 5 5 5 5 5 5 5 5 5 5 5 5 5 5 5 5 5 5 5 5 5 5 5 5 5 5 5 5 5 5 5 5 5 5 5 5 5 5 5 5 5 5 5 5 5 5 6 5 5 5 5 5 5 5 5 5 5 5 5 5 5 5 5 5 5 5 5 5 5 5 5 6 5 5 5 5 5 5 5 5 5 5 5 5 5 5 5 6 5 5 5 6 5 5 5 5 5 5 5 5 5 5 5 5 5 6 5 5 5 5 5 5 5 5 5 5 5 5 5 5 5 5 5 5 5 5 5 5 5 5 5 5 5 5 5 6 5 5 5 5 6 5 6 5 5 5 5 6 5 5 5 6 5 5 5 6 5 5 5 5 6 5 6 5 5 5 5 5 5 5 6 5 5 5 5 6 5 5 5 5 5 5 5 5 5 5 5 5 5 5 5 5 5 5 5 5 5 5 5 5 5 5 5 5 5 5 6 5 5 5 5 5 5 6 5 5 6 5 5 5 5 6 6 6 5 5 6 5 5 5 6 6 5 6 5 5 5 6 5 5 5 5 5 5 5 5 5 6 5 6 5 5 5 5 5 5 5 5 5 5 6 5 5 5 5 5 5 5 5 5 5 5 6 5 5 5 5 5 5 5 5 5 5 5 5 5 5 5 5 5 5 5 5 5 5 5 5 6 5 5 5 5 5 5 5 5 5 6 5 5 5 5 5 5 5 5 5 5 5 5 5 5 5 5 6 6 5 6 5 6 5 5 6 5 5 5 6 6 6 5 5 6 5 6 6 5 5 5 5 6 5 6 6 6 5 5 5 5 5 6 5 5 6 6 5 5 5 5 6 5 6 5 5 6 5 5 5 5 5 5 5 5 5 5 5 5 5 5 5 5 5 5 5 5 5 5 6 5 5 5 6 5 6 6 5 5 6 5 5 6 5 5 5 5 6 5 6 5 5 5 5 5 5 5 5 5 6 5 5 5 5 5 5 5 5 6 5 6 5 5 5 5 5 5 5 5 5 5 5 5 5 5 6 5 5 5 6 5 6 5 5 5 6 5 5 5 5 5 5 5 5 5 5 5 6 5 5 5 5 5 5 5 5 5 5 5 5 5 5 5 5 5 5 6 5 6 5 5 5 6 6 5 5 5 5 5 5 5 5 5 6 5 5 5 5 5 6 5 5 5 6 5 6 5 6 5 6 5 5 5 5 5 5 5 5 6 5 5 5 6 6 5 5 5 5 5 6 6 5 5 5 6 5 6 5 5 5 5 5 5 5 5 6 6 5 5 5 5 6 5 5 5 5 6 5 5 5 5 5 5 5 5 5 5 5 6 5 5 5 5 5 5 5 5 5 6 5 5 5 5 5 5 5 6 5 5 6 5 5 6 6 6 5 5 5 6 5 5 5 6 5 5 5 5 5 5 5 5 5 5 5 6 5 6 5 6 5 5 6 5 5 5 5 5 5 5 5 5 5 6 5 5 6 5 5 6 5 5 6 5 6 5 5 5 5 5 5 5 5 5 5 5 5 5 5 6 5 5 5 5 5 5 5 5 5 5 5 5 5 5 5 5 5 5 6 5 5 5 5 5 6 5 6 5 5 5 5 5 5 5 5 5 6 5 5 5 5 6 5 5 5 5 5 5 5 5 6 5 6 5 5 5 6 5 5 6 5 5 6 5 5 5 6 5 5 5 5 5 5 5 6 5 5 5 5 5 5 5 5 5 5 5 5 5 5 5 5 5 5 5 5 5 5 5 5 5 5 5 5 5 5 5 5 6 5 5 6 5 5 5 6 5 6 5 5 5 5 5 5 5 5 6 5 5 5 5 5 5 5 5 5 5 5 5 5 5 5 5 5 5 5 5 5 5 5 5 5 5 6 5 5 6 5 5 5 5 5 5 5 5 5 5 5 5 5 5 5 5 5 5 5 5 5 5 6 5 5 5 5 5 5 5 5 5 5 5 5 5 6 5 5 5 5 5 5 5 5 5 5 5 5 6 5 6 5 5 6 6 5 5 5 5 5 6 5 6 5 5 6 5 6 5 5 6 6 6 5 5 6 5 5 5 6 6 5 5 5 5 5 5 5 5 5 5 5 5 5 5 6 5 5 5 5 6 5 6 6 5 5 5 6 5 6 5 5 5 6 6 5 5 5 6 5 6 5 6 5 6 5 5 6 5 6 5 5 6 5 5 5 5 5 5 6 5 5 5 5 5 5 5 5 5 5 5 5 5 5 5 5 5 5 5 6 5 5 5 5 5 6 5 5 5 6 6 5 5 6 5 5 5 5 6 5 5 5 5 5 5 5 5 5 6 5 5 5 6 6 5 6 5 5 5 5 5 5 5 6 5 6 5 5 5 5 5 5 5 5 6 5 5 5 5 5 5 5 5 5 5 5 6 5 5 5 5 5 5 5 5 5 6 5 5 6 5 5 5 5 5 5 5 5 5 5 5 5 5 5 5 5 5 5 5 5 5 5 5 5 5 5 5 5 5 5 5 5 5 5 5 5 5 5 5 5 5 5 5 5 5 5 5 5 5 5 6 5 5 5 5 5 5 5 5 5 5 5 5 5 5 5 5 5 5 6 5 5 5 5 5 5 5 5 5 5 5 6 5 5 5 5 5 6 5 5 5 5 5 5 5 5 5 5 5 5 5 5 5 5 5 6 5 5 6 5 5 5 5 5 5 5 5 5 5 6 5 5 6 5 6 5 5 5 5 5 5 5 6 5 6 5 5 6 5 5 5 5 5 6 6 5 5 5 5 5 5 5 5 5 5 5 5 5 5 6 5 6 5 5 6 5 5 5 5 5 5 5 5 6 5 5 6 5 5 5 5 5 6 5 5 5 6 6 5 5 5 6 5 6 6 5 5 5 6 5 5 5 6 5 5 6 6 6 5 6 6 5 5 5 5 5 6 5 6 5 6 5 6 5 5 6 5 6 5 5 6 6 5 5 5 6 5 5 6 5 5 5 5 5 5 5 5 5 5 5 5 6 5 5 5 5 5 5 5 5 5 5 5 5 6 5 5 5 5 5 5 5 5 5 6 5 5 5 6 5 5 5 5 5 5 6 5 6 5 5 5 5 5 5 5 5 5 5 5 5 5 5 5 6 5 5 5 5 5 6 5 6 5 5 6 5 5 5 5 5 5 5 5 5 5 5 5 5 5 5 5 5 5 5 5 5 5 5 5 5 5 5 5 5 5 5 5 5 5 5 5 5 5 5 5 5 5 5 5 5 5 5 5 5 5 5 5 5 5 5 5 5 5 5 5 5 5 5 5 5 5 5 5 5 5 5 5 5 5 5 5 6 5 5 5 5 5 5 5 5 5 5 5 5 5 5 5 5 5 5 5 6 5 5 5 5 5 6 5 5 5 5 5 5 5 5 5 5 5 5 5 5 5 6 5 5 5 5 5 6 5 5 6 5 5 5 5 5 5 5 5 5 5 5 5 5 5 5 5 5 5 5 5 5 5 5 5 5 5 5 5 5 6 5 5 5 5 5 5 5 5 5 5 5 5 5 6 5 6 5 6 6 5 5 5 6 5 5 5 5 5 5 5 5 5 6 5 5 5 5 5 5 5 5 5 5 5 5 5 5 5 5 5 5 5 6 6 5 5 6 5 5 5 5 5 5 5 5 5 5 5 5 5 5 5 6 5 5 6 5 5 5 5 6 5 6 5 5 5 5 5 5 5 5 5 5 5 5 5 6 5 5 5 5 6 5 6 5 5 5 5 5 6 5 5 5 5 5 5 5 5 5 5 5 5 5 5 6 5 5 5 6 5 5 5 5 5 5 5 5 6 5 5 5 5 6 6 5 5 5 5 5 6 5 5 5 5 5 5 5 5 5 5 5 6 5 5 5 5 5 5 6 5 6 5 5 5 5 5 5 5 5 5 5 5 6 5 5 5 6 5 5 5 6 5 6 6 6 5 6 5 6 5 5 5 6 6 5 5 6 5 5 5 6 5 6 5 6 5 5 6 6 6 5 6 5 6 6 5 5 6 5 6 5 5 5 5 5 6 5 6 5 6 5 6 6 5 6 5 5 6 5 5 5 6 5 5 6 5 5 6 5 5 5 5 6 5 5 6 5 6 5 5 5 5 5 5 5 5 5 5 5 6 5 6 5 5 5 5 5 6 5 5 5 5 5 5 5 5 5 5 5 5 5 5 5 5 5 5 5 6 5 5 5 5 6 5 5 5 5 5 5 5 5 5 5 5 5 5 6 5 5 5 5 5 5 5 5 5 5 6 5 5 6 5 5 5 6 6 5 5 5 5 5 6 5 5 5 5 5 5 5 5 5 5 5 5 5 5 5 5 5 5 5 5 5 5 5 5 5 6 5 5 6 5 6 5 5 6 5 5 5 5 5 5 5 5 5 5 5 5 5 5 5 5 5 5 5 5 5 5 5 6 6 5 5 5 5 6 5 5 5 5 5 6 5 5 5 5 5 5 5 5 5 5 5 5 5 5 5 5 6 5 5 5 5 5 5 5 5 5 5 5 5 5 5 5 5 5 5 5 5 5 5 5 6 5 6 5 5 5 5 5 5 5 5 5 5 5 5 5 5 6 5 6 5 5 5 5 5 5 5 5 5 6 5 5 6 5 5 5 5 5 5 5 5 5 5 5 5 5 5 5 5 5 5 5 5 5 5 6 6 5 5 5 5 5 5 5 5 5 5 5 5 5 5 5 5 5 5 5 6 5 5 5 5 5 5 6 5 5 5 5 5 5 5 5 5 6 5 5 5 5 5 5 5 5 5 5 5 5 5 5 5 5 5 5 5 5 5 5 5 5 5 5 5 5 5 5 5 5 5 5 5 5 5 5 5 5 5 5 5 5 5 5 5 5 5 5 5 5 5 5 5 5 6 6 5 6 5 6 6 5 5 5 5 5 5 5 6 5 5 5 5 5 5 5 5 5 6 5 5 6 5 5 5 5 5 5 5 5 5 5 5 5 5 5 5 5 5 5 5 5 5 5 5 5 5 5 5 5 6 5 5 5 5 5 5 5 6 5 5 5 5 5 5 5 5 5 5 5 5 5 5 5 6 5 6 5 5 6 6 6 5 6 5 5 5 6 5 5 5 5 5 5 5 6 5 5 5 5 5 6 5 5 5 5 5 5 5 5 5 5 5 5 5 5 5 5 5 5 5 5 5 6 5 5 5 5 5 5 5 5 5 5 6 5 5 5 5 5 5 5 5 5 5 5 5 5 6 5 5 5 6 6 5 5 5 6 5 5 6 5 5 5 6 5 5 5 5 6 5 5 5 5 5 5 5 5 5 5 5 5 5 5 6 5 5 5 5 5 6 5 5 6 5 5 5 5 5 5 5 5 6 5 5 5 5 6 5 5 5 5 5 5 6 5 5 5 5 6 5 5 5 5 5 5 6 5 5 5 5 5 5 5 5 5 5 5 5 5 5 5 5 5 5 5 5 5 5 5 5 5 5 5 5 5 5 6 5 5 5 5 5 5 5 5 5 5 5 5 5 5 5 5 5 5 5 6 5 6 6 6 5 5 5 5 5 5 6 6 5 5 5 5 5 5 5 5 5 5 6 5 5 5 5 5 5 5 5 5 5 6 5 5 5 5 5 5 6 5 5 5 5 6 5 5 6 5 5 5 6 6 5 5 5 6 5 5 5 5 5 5 5 5 6 5 5 5 5 5 5 6 5 5 6 5 6 6 5 6 5 5 5 5 6 5 5 5 5 5 5 5 5 5 5 5 5 5 5 5 5 5 6 5 5 5 5 5 5 5 5 5 5 5 5 5 5 5 5 5 5 5 5 6 5 6 5 6 5 6 6 5 5 5 5 5 5 5 5 6 5 5 5 5 5 5 5 5 5 5 5 5 5 5 5 5 5 5 6 5 5 5 5 5 5 5 5 5 6 5 5 5 5 5 5 5 5 6 5 5 5 5 5 5 6 5 5 5 6 5 5 6 5 5 5 5 5 6 5 5 5 6 5 5 5 5 5 5 5 5 6 5 5 5 5 5 5 6 5 5 5 5 5 6 5 6 5 6 5 5 6 5 5 5 5 5 5 5 5 5 6 5 5 5 5 5 6 5 5 5 5 5 6 5 5 5 5 5 5 5 5 5 5 5 5 5 5 5 5 5 5 5 5 5 5 5 5 5 5 5 5 5 5 5 5 5 5 6 5 5 6 5 5 5 5 5 5 5 5 5 5 5 5 5 5 5 5 5 5 5 5 5 5 5 5 5 5 5 5 6 5 5 5 5 6 5 5 5 5 6 5 5 5 5 5 5 5 5 5 5 5 5 5 5 5 5 5 5 5 5 5 5 5 5 5 5 5 5 5 6 5 5 5 5 5 5 6 5 5 5 5 5 5 5 5 6 5 6 5 5 5 5 5 5 5 5 5 5 5 6 5 5 5 5 5 6 5 5 5 6 5 5 5 5 5 5 5 5 5 5 5 5 5 5 5 5 5 5 5 5 5 5 6 5 5 5 5 6 5 5 5 5 5 5 5 5 5 5 5 5 5 5 5 5 5 5 5 5 5 5 5 5 5 5 5 5 5 5 5 5 5 6 5 5 5 5 6 5 5 5 5 5 6 5 5 5 6 5 5 5 5 5 5 5 5 5 5 5 5 6 5 5 5 5 5 5 5 5 5 6 6 5 5 5 5 5 5 5 5 5 5 5 5 6 5 6 6 5 5 5 5 5 6 5 5 5 5 5 5 6 5 5 6 5 6 5 5 5 5 5 5 5 5 5 5 5 5 5 5 5 5 5 5 5 5 5 5 5 5 5 5 5 5 5 5 5 5 5 5 6 5 5 6 6 5 5 5 6 5 5 5 5 5 5 5 6 6 6 6 5 5 6 5 5 6 5 6 5 5 5 5 5 5 5 5 5 5 5 5 5 5 5 5 5 5 5 5 5 5 5 5 5 5 5 5 5 5 5 5 5 5 5 6 5 5 5 5 6 5 5 5 5 5 5 5 5 5 6 5 5 5 5 5 6 5 5 5 5 6 5 5 5 5 6 5 5 5 5 6 5 5 5 5 5 5 5 5 5 5 5 5 5 5 5 5 5 5 5 5 6 5 5 6 5 6 5 5 5 5 5 5 5 5 5 5 6 5 5 5 5 6 5 5 6 6 5 5 5 5 5 5 5 5 5 5 5 5 5 5 5 6 5 5 5 5 5 5 5 5 5 5 5 5 5 5 6 6 5 5 6 5 5 5 5 5 5 5 5 5 5 5 5 5 5 5 5 5 6 5 5 5 5 6 5 5 5 5 5 5 5 5 5 6 5 5 5 5 5 6 6 5 5 5 6 5 5 5 5 6 5 5 5 5 5 5 6 5 5 5 5 5 5 5 5 5 5 5 5 6 5 6 5 5 5 6 5 6 5 5 5 5 6 6 5 6 5 5 5 5 5 5 5 5 5 6 5 6 5 5 5 6 5 5 5 5 5 5 6 5 5 5 5 5 5 6 5 5 5 6 5 6 5 6 5 6 6 5 5 6 5 5 6 5 6 5 5 5 5 5 5 5 5 5 5 5 5 5 6 5 5 5 5 6 5 5 5 5 5 5 5 5 5 5 5 6 5 6 5 5 6 6 6 5 5 5 6 5 5 6 5 5 5 5 5 5 5 5 5 5 5 6 5 5 5 5 5 5 6 6 5 5 5 5 5 6 5 6 5 5 5 5 5 5 5 5 5 5 5 5 5 5 5 5 5 5 5 5 5 5 5 5 5 5 5 6 5 5 5 5 5 6 5 5 5 5 5 5 5 5 5 6 6 5 5 6 5 5 5 6 5 5 5 5 6 6 5 6 5 5 6 5 5 5 5 5 5 5 5 5 5 5 5 5 5 5 5 5 5 5 5 5 5 5 5 5 5 5 6 6 5 5 6 5 5 5 5 5 6 6 5 6 5 6 5 5 5 5 5 5 6 5 6 5 5 5 5 5 5 5 5 5 5 5 5 5 5 5 6 5 5 5 5 5 5 5 5 6 5 5 5 5 6 5 5 5 5 5 5 5 5 5 5 5 5 6 5 5 5 5 5 5 5 5 5 5 5 5 5 5 5 5 5 5 5 5 5 5 5 5 5 5 5 5 5 5 5 5 5 5 5 5 5 5 6 5 5 5 5 5 5 5 5 5 5 5 5 5 5 5 5 6 5 5 5 5 6 5 5 5 5 5 5 5 5 5 5 5 6 5 5 5 5 5 5 5 5 6 5 5 5 5 6 5 5 5 6 5 5 5 5 5 5 5 5 5 5 5 5 5 5 5 5 6 5 5 5 5 5 5 6 5 5 5 5 5 6 5 5 5 5 6 6 5 6 6 5 5 5 5 5 5 5 5 5 5 5 5 5 5 5 5 5 5 5 5 5 6 5 5 5 5 5 6 5 5 5 5 5 5 5 5 5 5 5 5 5 5 5 5 5 5 5 6 5 5 5 6 5 5 6 6 5 5 5 6 5 6 5 5 6 5 5 5 5 5 5 6 5 6 5 5 5 6 5 5 6 6 5 6 5 5 5 5 5 5 6 5 5 5 5 5 5 5 6 6 6 5 5 5 6 5 5 5 5 6 5 5 5 5 6 5 6 5 5 5 5 5 5 5 5 5 5 5 5 5 5 6 5 5 6 5 5 5 5 6 5 5 5 5 5 5 6 5 5 5 5 5 5 5 5 6 5 5 6 5 5 5 6 6 5 5 5 5 5 5 5 6 6 5 5 6 5 5 5 5 5 6 5 5 5 5 5 5 6 5 5 6 5 5 5 6 5 5 5 5 5 6 5 5 5 5 5 5 5 5 5 5 5 5 5 5 5 5 5 5 5 5 5 5 6 5 5 5 5 5 6 6 5 6 5 6 6 5 6 5 5 5 5 5 6 5 5 5 5 5 6 5 6 5 5 6 5 5 6 6 5 5 5 5 6 6 5 5 5 6 5 6 5 6 5 5 6 5 5 5 6 5 5 5 5 5 5 6 5 5 6 6 5 6 5 5 6 5 5 5 5 5 5 5 5 6 5 5 5 5 5 5 5 5 5 5 5 5 5 6 5 5 5 6 5 5 5 5 6 5 5 5 5 5 5 5 5 5 5 5 5 5 5 5 5 5 5 5 5 5 6 5 5 5 5 6 5 5 5 5 5 5 5 5 5 5 5 5 5 5 5 5 5 5 5 5 5 5 5 5 5 6 5 5 5 5 6 5 5 5 5 5 5 5 6 5 6 5 5 5 5 5 5 5 6 5 5 6 5 5 5 5 6 5 5 5 5 5 5 5 5 6 5 5 5 6 5 6 5 5 5 5 5 6 5 6 5 5 5 5 6 5 5 6 5 5 5 5 5 6 5 5 5 5 5 5 5 6 5 5 6 5 5 5 5 5 5 5 5 5 6 6 5 5 6 5 5 5 5 5 5 5 6 6 6 5 5 6 5 5 5 6 5 5 5 6 5 5 5 5 5 5 5 5 6 5 6 5 5 5 6 5 5 5 5 5 5 5 6 5 5 5 5 5 5 5 5 5 6 5 5 5 5 5 5 5 5 5 5 5 5 5 5 5 6 5 5 5 5 5 5 6 5 5 5 6 6 5 5 5 5 5 5 5 5 5 6 5 5 5 5 5 5 6 5 5 6 5 6 5 5 5 5 5 5 5 5 5 5 5 5 5 5 5 5 5 5 6 5 5 5 5 5 6 5 6 5 5 5 5 5 5 6 5 6 5 5 5 6 5 5 5 5 6 5 5 5 5 5 6 5 5 5 5 5 5 5 5 5 6 5 6 6 5 5 5 5 5 6 5 5 5 5 5 5 5 6 5 6 6 6 5 5 5 5 5 6 5 5 6 5 5 5 5 5 6 5 5 6 5 5 5 5 5 5 5 5 5 5 5 6 6 5 5 5 5 6 5 5 5 5 5 5 5 5 5 5 5 5 5 5 5 5 5 5 5 5 5 6 5 5 5 5 5 5 5 6 5 5 5 5 5 6 6 6 5 5 5 5 5 5 6 5 6 5 5 5 6 5 5 5 5 5 5 5 5 5 5 5 6 6 5 5 5 5 5 6 5 5 5 5 5 5 5 6 5 5 5 5 5 5 5 5 5 5 5 5 6 5 5 5 5 5 5 5 5 5 5 5 5 5 5 6 5 5 5 5 5 5 5 5 6 5 5 5 5 5 5 5 5 5 5 5 5 5 5 6 5 5 5 5 5 5 6 5 5 5 6 5 5 6 5 5 5 6 5 6 6 6 6 5 5 6 6 5 5 5 6 5 5 6 5 6 5 5 5 5 5 5 5 5 6 6 5 5 6 5 5 6 5 5 5 5 6 5 5 5 5 5 5 6 5 5 5 5 5 5 5 6 5 5 5 5 5 6 5 5 6 6 5 5 5 5 5 5 5 5 5 5 5 5 5 5 5 5 5 5 6 5 5 5 5 5 5 5 5 5 5 5 5 5 5 5 5 5 5 5 5 6 5 5 5 5 5 5 5 5 5 5 5 5 5 6 5 5 5 5 6 5 5 5 5 5 6 5 5 5 5 5 5 5 5 5 5 5 5 5 5 5 5 5 5 5 5 5 5 5 5 5 5 5 5 5 5 5 5 5 5 5 5 5 5 5 5 5 5 5 5 5 5 5 5 5 6 5 5 5 5 5 5 5 5 5 5 5 5 5 5 5 5 5 5 5 5 5 5 5 5 5 5 5 5 5 5 5 6 5 5 5 5 5 5 5 5 6 5 5 5 5 5 5 6 5 5 5 5 5 5 6 5 5 6 5 5 5 5 6 5 5 6 5 5 5 5 5 5 5 5 5 5 5 5 5 5 5 5 5 5 5 5 6 5 5 5 5 5 5 5 5 5 5 5 5 6 5 6 5 5 5 5 5 5 5 5 5 5 5 5 5 5 5 6 5 5 6 5 5 5 5 5 5 5 5 5 5 5 5 5 5 5 6 6 5 5 5 5 6 5 6 5 5 5 6 5 5 6 5 5 5 6 6 5 6 5 5 6 5 5 6 5 5 5 5 5 5 5 5 5 5 5 5 5 5 5 5 5 5 5 5 5 5 5 6 6 5 5 5 6 5 5 6 5 6 6 5 6 5 6 5 6 5 6 5 6 5 5 5 6 5 5 5 5 5 5 5 5 5 5 6 5 5 5 5 5 5 5 5 6 5 5 5 5 5 5 5 5 5 5 5 5 5 5 5 5 5 5 5 5 5 5 5 5 5 5 6 5 5 6 5 5 5 5 5 5 5 6 5 6 5 5 5 5 5 5 5 5 5 6 5 6 6 5 5 5 5 5 5 5 5 5 5 5 5 5 5 5 5 5 6 6 5 5 5 5 5 5 5 5 5 5 5 5 5 6 6 6 5 5 5 5 5 5 5 5 5 5 5 5 6 5 5 6 5 5 5 5 5 5 6 5 5 5 6 5 6 5 5 5 5 6 5 5 5 6 5 5 5 5 5 5 5 5 5 5 5 5 5 5 5 5 5 5 5 5 5 5 5 6 5 6 5 5 5 5 5 5 5 5 5 5 5 6 5 5 5 6 5 5 5 5 5 5 6 5 6 5 5 6 5 5 5 5 6 6 5 5 5 5 5 6 5 5 5 5 5 5 5 5 5 6 5 5 5 5 5 5 5 5 5 6 5 5 5 5 5 5 5 5 5 5 5 6 6 5 5 5 5 5 5 5 5 5 6 5 5 5 5 5 5 5 5 5 5 5 5 5 5 5 5 5 5 6 5 6 5 5 5 5 5 5 5 5 6 5 5 5 5 5 5 5 5 5 5 6 5 5 5 6 5 5 5 5 5 6 5 5 5 5 6 5 5 5 6 5 6 5 6 5 5 6 5 5 5 5 5 5 6 5 5 5 5 5 5 5 6 5 5 5 5 5 5 5 6 5 5 5 5 5 5 5 5 5 5 5 5 5 5 5 5 6 5 5 6 5 6 5 5 5 5 5 5 5 5 6 5 5 5 6 5 5 5 5 5 5 5 5 5 6 6 5 5 6 5 5 5 5 6 5 5 6 5 5 5 5 5 5 5 5 5 6 5 5 6 5 5 5 5 6 5 6 5 5 5 5 5 5 5 5 5 5 5 6 5 6 5 5 6 5 5 5 5 5 6 5 6 5 5 5 6 6 5 5 5 5 5 5 5 6 5 5 5 5 6 5 5 5 5 5 5 5 6 5 5 6 5 5 5 5 6 5 6 6 5 5 6 5 5 5 5 6 5 5 5 5 5 5 6 5 5 5 5 6 5 5 5 5 5 5 6 5 5 6 5 5 6 5 5 5 5 5 6 5 5 5 5 5 6 5 5 5 5 6 5 5 5 5 6 5 5 5 6 5 5 5 5 5 5 5 5 5 5 5 5 5 5 6 5 5 6 5 6 6 5 5 5 5 6 5 6 5 6 5 5 6 6 5 5 5 5 6 5 5 5 6 5 5 6 5 5 5 6 5 5 6 5 5 5 6 5 5 6 5 5 5 5 5 5 5 5 5 5 5 5 5 5 5 5 5 6 5 5 5 5 5 5 5 5 5 5 5 5 5 5 5 5 5 5 5 5 5 5 5 5 5 5 5 5 5 5 6 5 5 5 5 5 5 5 5 5 5 6 6 5 5 5 6 5 5 6 5 5 5 5 5 5 5 5 5 6 5 5 5 5 5 5 5 5 5 5 5 5 5 5 5 5 5 5 5 6 5 5 5 5 6 5 5 6 5 5 5 5 5 5 5 5 5 5 5 5 5 5 5 5 5 5 6 5 5 5 6 5 5 5 5 5 6 5 5 5 5 5 5 5 5 5 5 5 5 5 5 5 5 5 5 5 5 5 5 5 5 5 5 5 5 5 5 5 5 5 5 5 5 5 5 5 5 5 5 5 5 5 5 5 5 5 6 5 5 6 5 6 5 5 6 5 5 5 6 5 5 5 5 5 5 5 5 5 5 6 6 5 5 6 5 5 5 5 5 5 5 5 5 5 5 5 5 5 5 6 6 5 5 5 5 5 5 5 5 5 5 5 6 5 5 5 5 5 5 5 5 5 6 5 5 5 5 5 5 5 5 6 5 5 6 5 5 5 5 6 5 5 5 5 5 6 5 6 5 5 5 5 6 5 5 5 5 6 5 5 6 5 5 5 5 5 5 5 5 5 5 5 5 5 5 5 5 5 6 5 6 5 6 5 5 5 5 5 5 5 5 5 5 5 5 5 5 5 5 5 5 5 5 5 6 5 5 5 5 5 5 5 5 5 6 5 5 5 5 5 5 5 5 5 5 5 5 5 5 5 5 6 6 5 5 5 5 5 5 5 5 5 5 5 5 5 5 5 6 5 5 5 5 5 5 5 5 5 5 5 6 5 5 6 5 5 5 5 5 5 5 5 5 5 5 6 5 6 5 5 5 6 5 5 6 5 5 5 5 5 5 5 5 5 5 5 5 6 6 5 5 5 5 5 5 6 5 5 5 5 5 6 5 5 5 5 5 5 5 5 5 5 5 5 5 5 5 5 5 5 5 5 5 6 6 5 5 5 5 5 5 5 5 5 5 6 6 5 5 5 5 6 5 6 5 6 5 6 5 5 6 6 5 5 5 6 6 5 6 5 5 5 6 5 6 5 5 6 5 5 5 5 5 6 5 5 5 5 5 6 5 6 5 5 5 5 5 5 5 5 5 5 5 6 5 6 6 5 6 5 5 6 5 5 6 5 6 5 5 6 5 5 5 5 5 6 5 5 5 5 5 5 5 5 6 5 5 5 6 5 5 5 5 6 5 6 5 6 5 5 6 5 5 6 6 5 6 5 5 6 6 5 5 6 5 6 5 5 6 6 5 6 5 5 6 5 5 5 6 5 5 6 5 5 5 5 5 5 5 5 5 5 5 5 5 5 5 5 6 5 5 5 5 5 5 5 5 6 5 5 5 6 6 5 5 5 5 6 5 5 6 6 5 5 5 5 5 6 6 5 5 6 6 5 6 5 5 6 5 5 5 5 5 5 5 5 5 5 5 5 5 5 5 5 5 5 5 6 5 5 5 5 5 5 6 5 5 6 5 6 5 5 5 5 5 5 6 5 5 5 6 5 5 5 5 5 5 6 5 6 5 5 5 5 5 5 5 5 6 5 5 5 5 5 5 5 5 5 5 6 5 5 6 5 5 5 5 5 5 5 6 5 5 5 5 5 5 5 5 5 5 5 5 5 5 6 5 5 5 5 5 5 6 5 5 5 5 5 5 5 5 5 5 5 5 5 6 5 5 5 5 5 6 5 5 5 5 5 5 5 6 5 5 5 5 5 5 5 6 5 5 5 5 6 6 6 5 6 5 5 5 5 5 5 6 5 5 5 5 6 5 6 6 6 6 5 6 5 6 6 5 5 5 5 5 5 5 6 5 6 5 5 5 5 5 5 5 6 5 5 5 5 6 5 5 5 5 5 5 6 5 5 5 5 5 5 6 6 5 5 5 5 6 5 6 5 5 5 5 5 5 5 5 5 5 6 5 5 6 5 6 5 5 6 5 6 5 6 5 5 5 5 5 5 5 5 5 5 6 5 5 5 5 5 5 5 5 6 6 5 5 5 6 5 5 5 5 5 5 6 5 6 5 5 5 5 5 6 5 5 5 5 5 5 5 5 5 6 5 5 6 5 5 5 6 5 5 5 5 5 5 6 5 5 5 5 5 5 5 6 5 5 5 5 5 5 5 5 5 5 5 5 6 5 5 5 5 5 6 5 5 6 5 5 5 5 5 5 5 5 5 5 5 5 5 5 5 5 5 5 5 6 5 5 6 5 5 5 5 5 6 5 5 6 5 5 5 5 5 5 5 5 6 5 5 5 6 5 5 5 5 5 5 5 5 5 5 5 5 5 6 5 5 5 5 5 5 5 5 5 5 5 5 5 5 5 5 5 5 5 5 5 5 5 5 5 6 5 5 5 5 5 5 5 6 5 6 5 5 5 6 5 6 5 5 5 6 6 5 5 6 5 6 5 5 5 5 5 6 5 5 5 5 5 6 5 5 5 5 5 5 5 5 5 5 6 5 5 5 6 5 5 5 5 5 5 5 5 5 5 5 5 5 5 5 5 5 6 5 5 6 5 5 6 5 5 5 5 5 5 5 5 5 5 5 5 5 5 5 5 5 5 5 5 5 5 5 5 6 6 5 5 5 5 5 5 6 5 5 5 5 5 5 6 5 5 5 6 5 6 5 6 5 5 5 5 5 5 6 5 5 5 6 5 6 5 5 5 6 5 5 5 5 5 5 5 5 5 5 5 6 5 5 6 5 5 5 6 5 5 5 5 5 5 5 5 5 6 5 5 6 5 5 5 5 6 5 6 5 5 5 5 5 5 5 5 5 5 5 6 5 5 5 6 5 5 5 5 5 5 5 5 5 5 6 5 5 5 5 5 6 5 5 5 5 6 5 5 5 5 5 5 5 5 5 5 5 5 5 5 5 5 5 5 5 5 5 5 6 5 6 5 5 5 5 5 5 5 5 6 5 5 5 5 5 5 5 5 5 5 5 5 5 5 5 5 5 5 5 5 5 5 5 5 5 5 5 6 6 5 5 5 5 5 5 5 5 5 5 5 5 5 5 5 5 5 5 5 5 5 5 5 5 5 5 5 5 5 5 5 5 5 5 5 5 5 5 5 5 5 5 5 5 5 5 5 5 5 5 5 5 5 5 5 5 5 5 5 5 5 5 5 5 5 5 5 5 5 5 5 5 5 5 5 5 5 5 5 6 5 6 5 5 5 5 5 5 5 5 5 6 6 5 6 5 5 6 5 5 5 5 5 5 5 5 5 6 5 5 5 5 5 5 5 6 6 5 5 6 5 6 5 5 6 6 5 5 5 5 5 6 5 5 5 6 5 5 6 5 5 5 5 5 6 5 6 5 5 6 5 5 5 5 6 5 5 5 5 5 5 5 6 5 6 5 5 5 5 5 5 5 5 5 5 5 5 5 5 5 5 5 5 5 5 5 5 5 6 5 5 5 5 5 5 5 5 6 5 6 5 5 5 5 5 5 5 6 5 5 5 5 5 5 5 6 5 5 5 5 5 6 5 5 5 5 5 5 5 6 5 5 5 5 6 5 5 5 5 5 5 5 6 5 5 5 5 5 6 6 5 5 6 6 5 6 5 5 6 5 5 6 5 5 5 5 6 5 6 6 5 5 5 6 5 5 6 5 6 5 5 5 5 5 5 5 5 5 5 5 5 5 5 5 5 6 5 5 5 5 5 6 5 5 5 5 5 6 5 5 6 5 5 5 5 5 5 5 5 5 5 5 5 5 6 5 5 5 6 5 5 5 5 5 5 5 5 5 5 5 5 5 5 5 5 5 6 5 5 5 6 5 5 5 5 5 6 5 5 5 6 5 5 5 6 6 5 5 5 6 5 5 5 5 5 5 5 5 5 5 5 6 5 5 5 5 5 5 5 5 5 5 6 5 5 5 5 5 5 5 5 5 5 5 5 5 5 5 5 5 5 5 5 5 5 5 5 5 5 5 5 5 5 5 5 5 5 5 5 5 5 5 5 5 5 5 5 5 5 5 5 5 5 5 5 5 5 5 5 5 6 5 5 6 5 5 5 5 5 5 5 5 5 5 5 5 6 5 5 5 5 5 5 5 5 5 5 5 6 5 5 5 5 6 5 5 5 5 5 5 5 5 5 5 5 6 5 5 5 5 5 5 5 6 5 5 5 5 6 5 5 5 5 5 5 5 5 5 5 5 5 5 5 5 5 5 5 5 5 6 5 5 5 5 5 6 5 5 6 5 5 5 5 6 5 5 5 5 5 5 5 6 5 5 5 5 5 5 5 5 5 5 5 5 5 5 5 5 6 5 5 5 5 6 5 5 5 5 6 5 5 5 5 6 5 5 5 5 6 5 5 5 5 6 5 5 6 5 5 5 5 6 5 6 5 
</DataArray>
<DataArray type="Float64" Name="stress" NumberOfComponents="9" format="ascii">
-2488.3439930535678 649.0883722252081 0 649.0883722252081 69.866839318600555 0 0 0 0 -347.07382756720472 -5.6735881715002607 0 -5.6735881715002607 -22.020427527742697 0 0 0 0 -4.7059741530875385 -0.82677615835374496 0 -0.82677615835374496 -0.1011185276110268 0 0 0 0 -1453.8240645111073 311.64798212674117 0 311.64798212674117 104.47762907481101 0 0 0 0 279.29594533229465 -12.682947044693748 0 -12.682947044693748 -267.35877545395715 0 0 0 0 -27.297651657179813 518.92037602024971 0 518.92037602024971 -476.51473808385583 0 0 0 0 -790.09442797198426 -117.0978903089507 0 -117.0978903089507 -5.1022576803593438 0 0 0 0 -5.5836271056931821 -0.65624966058196321 0 -0.65624966058196321 -1.0419379996502893 0 0 0 0 211.95629805799399 -68.264275036585616 0 -68.264275036585616 18.372010841077781 0 0 0 0 -33.865163293725345 105.45194425865424 0 105.45194425865424 -394.6821416223338 0 0 0 0 -2488.3518838044256 0.68785438898943629 0 0.68785438898943629 0.43638274602124977 0 0 0 0 -2.3443447158476545 1.1727175666243639 0 1.1727175666243639 -1.5142296272628584 0 0 0 0 -2.4835427021846499 -0.68140752755473954 0 -0.68140752755473954 -1.2927698935427014 0 0 0 0 -7.2494862872883346 2.2138282017170923 0 2.2138282017170923 -1.7246598521736629 0 0 0 0 -278.97793214584817 -482.46058154459473 0 -482.46058154459473 -861.68318445567593 0 0 0 0 -2495.9227919106561 -791.27391460389424 0 -791.27391460389424 184.95990802008183 0 0 0 0 -866.87501019058527 117.6355700585559 0 117.6355700585559 8.0827390444623965 0 0 0 0 -11.731393495611087 3.730444630350064 0 3.730444630350064 0.78885506435433861 0 0 0 0 2.8875237829051912 312.54896788548626 0 312.54896788548626 182.61288824281928 0 0 0 0 71.580139523925027 90.245239516714278 0 90.245239516714278 -84.127280907810302 0 0 0 0 -879.02166592869798 45.090072822617202 0 45.090072822617202 2.7678952117517355 0 0 0 0 -726.49185304329148 311.75870476228221 0 311.75870476228221 361.59450765878574 0 0 0 0 -92.379505668462116 -173.19133712210603 0 -173.19133712210603 23.990801393443007 0 0 0 0 -11.964486580967076 -0.6583909335334539 0 -0.6583909335334539 6.8431841916911491 0 0 0 0 -804.43506726736086 55.321650338652702 0 55.321650338652702 2.1379446931282864 0 0 0 0 -46.022710967224157 429.50252465661521 0 429.50252465661521 -589.16073449930627 0 0 0 0 -2498.7719122742928 774.98301363064559 0 774.98301363064559 -90.329428442985801 0 0 0 0 -800.33358864829506 126.78787629081435 0 126.78787629081435 7.3426610235151539 0 0 0 0 -437.87368725458873 -209.18525805089442 0 -209.18525805089442 -80.873395547420159 0 0 0 0 -424.05853687331546 -156.5118149682495 0 -156.5118149682495 -733.57808895061748 0 0 0 0 -1294.0889134200843 -488.49122393962716 0 -488.49122393962716 -214.52067473146417 0 0 0 0 -1872.9076521826282 204.11356724299128 0 204.11356724299128 200.000350892489 0 0 0 0 -1038.2581403028889 903.54689404135411 0 903.54689404135411 -100.83035337049694 0 0 0 0 -2393.4911152082823 124.68204412195121 0 124.68204412195121 -259.0557415191065 0 0 0 0 -8.9319343732282164 4.005276599718627 0 4.005276599718627 0.10287722836292756 0 0 0 0 -2540.4015794377628 -247.12264255335003 0 -247.12264255335003 -19.888575418124447 0 0 0 0 -5.4570360461287635 1.5978191443448111 0 1.5978191443448111 0.58622775863015586 0 0 0 0 -399.85047406474041 -648.23223856639675 0 -648.23223856639675 530.94873155333744 0 0 0 0 -2734.9156767525856 134.30476941274583 0 134.30476941274583 91.514075094049105 0 0 0 0 -2496.2140091764013 -479.21083115397471 0 -479.21083115397471 142.21484117285178 0 0 0 0 49.194890297329039 482.63936024179793 0 482.63936024179793 -98.824724637687041 0 0 0 0 -22.516470412186152 12.758724285933383 0 12.758724285933383 -6.84130049523894 0 0 0 0 -316.49185874553223 -504.21093846501253 0 -504.21093846501253 -213.29906775525853 0 0 0 0 -261.81079231776675 445.27299687742106 0 445.27299687742106 65.571253963824518 0 0 0 0 -1291.5742661987024 -2.4443821510942114 0 -2.4443821510942114 -0.42584475412243045 0 0 0 0 -210.3672268318046 -193.418525675518 0 -193.418525675518 70.012323687386015 0 0 0 0 -2305.7921538895753 97.968817223948633 0 97.968817223948633 224.43472066521429 0 0 0 0 -2896.575006684172 -480.76233621214669 0 -480.76233621214669 224.08716856228375 0 0 0 0 -10.965016956070741 4.9100745510222055 0 4.9100745510222055 -2.1430592164061166 0 0 0 0 -3153.6025011339807 -2.7396822261157467 0 -2.7396822261157467 480.60869192696475 0 0 0 0 -828.03622882144555 63.316953667557527 0 63.316953667557527 -861.91970992701181 0 0 0 0 -2441.706566398705 -35.736173243460307 0 -35.736173243460307 197.89044445639138 0 0 0 0 -2426.9676923158695 -216.67896111463131 0 -216.67896111463131 153.13750182083959 0 0 0 0 -2139.2930024804955 25.981673104350648 0 25.981673104350648 208.13167367587261 0 0 0 0 -2220.2856825093622 -139.63979280317758 0 -139.63979280317758 181.81023624793025 0 0 0 0 -2192.7060093169166 132.6072893148874 0 132.6072893148874 223.80178454665997 0 0 0 0 -424.94561733193405 -163.99635577166015 0 -163.99635577166015 -153.39786730608367 0 0 0 0 -462.42199749412248 -116.36483329669392 0 -116.36483329669392 162.53216302714662 0 0 0 0 315.15983857653919 -40.270058260979965 0 -40.270058260979965 -284.14827808615775 0 0 0 0 0.90491854677927819 -1.0114828611531266 0 -1.0114828611531266 1.9995033154854238 0 0 0 0 -37.421488393098116 -18.958945074008998 0 -18.958945074008998 10.379005709077369 0 0 0 0 5.94938394134806 -41.399302163534124 0 -41.399302163534124 11.907452158171219 0 0 0 0 107.02986501476698 -3.9954403089682993 0 -3.9954403089682993 -0.53845539533881281 0 0 0 0 -42.482937939013937 -0.73720613993711503 0 -0.73720613993711503 -0.39429590629681704 0 0 0 0 -98.488273675597156 5.1562154491124588 0 5.1562154491124588 20.94430447599736 0 0 0 0 -141.76088369966601 -18.485019125254652 0 -18.485019125254652 41.523158431296821 0 0 0 0 -43.365390686842147 -36.870350049996858 0 -36.870350049996858 41.962342659946017 0 0 0 0 -28.321014427405316 0.54898522021107876 0 0.54898522021107876 -0.8963976079730519 0 0 0 0 -38.643526406754972 7.3851235986182431 0 7.3851235986182431 0.66014971736209738 0 0 0 0 -56.239212213433348 20.32001086190601 0 20.32001086190601 8.967659834835402 0 0 0 0 -55.609182487911312 25.817099626204993 0 25.817099626204993 9.0646485413129305 0 0 0 0 -50.40263146662619 31.42067525659823 0 31.42067525659823 -9.1964124206977829 0 0 0 0 -31.084360432985704 18.279686912374061 0 18.279686912374061 -1.1119727371682728 0 0 0 0 -55.605862772387809 14.116667767005907 0 14.116667767005907 0.98386813806160944 0 0 0 0 -29.851832378815743 7.3616614591902447 0 7.3616614591902447 -4.3076047489857245 0 0 0 0 -32.919585286057554 9.0748187265550015 0 9.0748187265550015 -5.2640495484729684 0 0 0 0 -13.800867162670329 -6.4717687903048784 0 -6.4717687903048784 -3.9248388046917313 0 0 0 0 -34.16528112711967 0.39552702994983591 0 0.39552702994983591 -4.4736821408906735 0 0 0 0 -1.6017033378011547 -5.6830069614377692 0 -5.6830069614377692 -4.4821407186432936 0 0 0 0 -19.140504361002968 7.1234381969716178 0 7.1234381969716178 -13.257873112224445 0 0 0 0 -29.933553459239192 40.416056755552781 0 40.416056755552781 -18.528021165894586 0 0 0 0 -2.6316398180301803 0.85125197948859466 0 0.85125197948859466 -0.19526490303834598 0 0 0 0 -3.9024263766550575 19.011479294340514 0 19.011479294340514 -19.325826693322309 0 0 0 0 -27.21904914737388 -114.41598643802502 0 -114.41598643802502 -86.743134885592326 0 0 0 0 -13.278941562661203 -6.5997920162988564 0 -6.5997920162988564 13.173402802161547 0 0 0 0 -16.808350666949991 1.4065988088025421 0 1.4065988088025421 15.482705826140229 0 0 0 0 -7.7432615477342495 2.8259510764366382 0 2.8259510764366382 -1.1854670159485414 0 0 0 0 -8.8339549724041717 -64.654819083222037 0 -64.654819083222037 152.07008626304651 0 0 0 0 -7.1342706364065727 -1.3426636961062428 0 -1.3426636961062428 7.8002195179825797 0 0 0 0 125.45870683453086 -44.118345110984748 0 -44.118345110984748 -139.14005435587691 0 0 0 0 -103.13809938562918 53.342057131477858 0 53.342057131477858 0.45928752783319737 0 0 0 0 -24.957208127534869 4.0244949276476376 0 4.0244949276476376 6.1776357889696403 0 0 0 0 -174.20592579718505 101.59167871119274 0 101.59167871119274 96.574355009788064 0 0 0 0 -8.0665601575033588 0.93959429332038269 0 0.93959429332038269 -11.076075675237675 0 0 0 0 195.38694842856057 -66.805492505807138 0 -66.805492505807138 -247.10890683926777 0 0 0 0 -33.034160748997238 -10.65163415610607 0 -10.65163415610607 -5.0028726895172895 0 0 0 0 -0.17144914819772872 0.17029390208723783 0 0.17029390208723783 -4.3256802950852418 0 0 0 0 -269.36049324951819 -386.4042702659076 0 -386.4042702659076 -244.93789672741241 0 0 0 0 -55.375782165239798 77.531661297416221 0 77.531661297416221 -127.62311745911286 0 0 0 0 -87.9462279673171 0.20287150507760998 0 0.20287150507760998 -1.0422643651652947 0 0 0 0 -16.051178150322812 -45.114265124981813 0 -45.114265124981813 -221.5259814512458 0 0 0 0 -70.700010603191913 -112.82566532907805 0 -112.82566532907805 50.359978338054248 0 0 0 0 27.343203879934208 -137.61106933996132 0 -137.61106933996132 -600.76713465915816 0 0 0 0 27.340405421375181 -140.48208062681164 0 -140.48208062681164 -81.227552090249105 0 0 0 0 -347.33211370161735 -320.60294485014697 0 -320.60294485014697 74.752887140666274 0 0 0 0 -116.06845625188726 -126.25155879380236 0 -126.25155879380236 201.67353328779132 0 0 0 0 -277.02724051804853 190.33224113326253 0 190.33224113326253 -26.534404854467027 0 0 0 0 -151.80106229428202 -272.04048592054261 0 -272.04048592054261 -452.25490017713412 0 0 0 0 -44.084633872875202 -35.359440822954596 0 -35.359440822954596 -19.986511605827445 0 0 0 0 -26.58636711505477 4.7023235651686761 0 4.7023235651686761 6.4124131579051662 0 0 0 0 -56.807738106239412 13.820527656715399 0 13.820527656715399 27.038842738013841 0 0 0 0 -13.283714473050168 -69.08199823249771 0 -69.08199823249771 -70.435686590562341 0 0 0 0 -94.831694445587345 -56.887780761504473 0 -56.887780761504473 -54.907319828919981 0 0 0 0 -83.13222368429706 -57.483971965020999 0 -57.483971965020999 -58.161255109630865 0 0 0 0 -74.448989167249238 -50.574696819483364 0 -50.574696819483364 -61.196804663079888 0 0 0 0 -42.976839963012026 -5.0270899931936128 0 -5.0270899931936128 -3.7113510052526379 0 0 0 0 -78.773107700824767 -43.062245809876643 0 -43.062245809876643 -35.026179293665194 0 0 0 0 -27.762553427274952 4.2158433188622695 0 4.2158433188622695 6.2652229980100227 0 0 0 0 -86.263357406991418 -70.05997612576698 0 -70.05997612576698 -26.939807716299129 0 0 0 0 -82.559412549293484 -72.93424394858971 0 -72.93424394858971 -30.909735503546472 0 0 0 0 -87.105462021077983 -48.656508446074952 0 -48.656508446074952 -57.609947615234432 0 0 0 0 -79.498486847827735 -76.731495610546858 0 -76.731495610546858 -76.609910619120683 0 0 0 0 -215.38342530431692 59.907741211813686 0 59.907741211813686 36.477319774118314 0 0 0 0 -110.3700376056222 -107.5239349843464 0 -107.5239349843464 -35.785649700271733 0 0 0 0 33.748085544415517 32.352333242697114 0 32.352333242697114 31.613903602444225 0 0 0 0 -74.582167025990202 -37.89707935873912 0 -37.89707935873912 119.37704697803429 0 0 0 0 -101.66510228373954 -80.571040652787019 0 -80.571040652787019 12.894386819967167 0 0 0 0 6.6315985622641165 -36.436338668064764 0 -36.436338668064764 1.7167976257892406 0 0 0 0 -51.395228647030308 -108.0070578562727 0 -108.0070578562727 -25.890358589311745 0 0 0 0 -90.353147094610904 -94.971731983389418 0 -94.971731983389418 2.4889671231940156 0 0 0 0 -80.338314647131483 -83.658625952380135 0 -83.658625952380135 -32.190993280040658 0 0 0 0 -2.2846845443679058 5.3370167783356681 0 5.3370167783356681 2.4183629374244333 0 0 0 0 11.872204216055707 82.03402159589794 0 82.03402159589794 12.606385332292007 0 0 0 0 -262.34711915010121 -3.1249193572309508 0 -3.1249193572309508 760.63934146212239 0 0 0 0 -162.76448657015862 237.84643691872594 0 237.84643691872594 516.72719732431506 0 0 0 0 153.73570771995583 -105.47844725331407 0 -105.47844725331407 147.81966048858368 0 0 0 0 -35.714411347405985 105.41536020121112 0 105.41536020121112 -165.04380680349664 0 0 0 0 -124.57608787640493 -312.52677975069918 0 -312.52677975069918 359.91005351853386 0 0 0 0 -1.3668877130741635 -1.1226837413703175 0 -1.1226837413703175 0.0096620762257582649 0 0 0 0 -5.7831045765051385 -41.122962697595767 0 -41.122962697595767 37.954009614099959 0 0 0 0 -88.172856120458164 149.75905190489243 0 149.75905190489243 119.27853733405755 0 0 0 0 -46.575645156698812 8.264703843619067 0 8.264703843619067 6.9004391101926519 0 0 0 0 -47.516217152750215 3.0516831737794092 0 3.0516831737794092 7.8615331568188749 0 0 0 0 -326.78111132631602 -317.82001389407486 0 -317.82001389407486 84.17416690351078 0 0 0 0 -326.78032572195661 94.114440522459518 0 94.114440522459518 187.83694968076304 0 0 0 0 -65.065142004663358 -315.44469206850192 0 -315.44469206850192 -172.5464420569192 0 0 0 0 50.75062481124769 -220.44146424380961 0 -220.44146424380961 -306.13390520770645 0 0 0 0 40.205182142497506 -253.57693353701677 0 -253.57693353701677 -400.42245464111238 0 0 0 0 -5.3221511827279357 -5.4843945639828249 0 -5.4843945639828249 3.6409080544137193 0 0 0 0 53.395781460607395 319.42336617163272 0 319.42336617163272 815.74831556404365 0 0 0 0 110.53567167647816 -36.306886396829064 0 -36.306886396829064 474.22935356774605 0 0 0 0 -115.14160674344748 -213.46705243181395 0 -213.46705243181395 -225.22551634546738 0 0 0 0 7.343558523687534 -142.811685471901 0 -142.811685471901 279.74315335288748 0 0 0 0 -39.828578055786551 -1.9168590879933922 0 -1.9168590879933922 3.0706941786714959 0 0 0 0 -129.41734010916844 -15.981722185155604 0 -15.981722185155604 468.02351661704392 0 0 0 0 -18.897438178886659 -71.816691504833827 0 -71.816691504833827 419.62066992781376 0 0 0 0 -93.2125319588813 475.30903165088682 0 475.30903165088682 -64.970694099597779 0 0 0 0 85.661334651666039 -90.528798294271837 0 -90.528798294271837 -502.85457532042892 0 0 0 0 -99.592726689908886 -582.68328209728782 0 -582.68328209728782 -846.4495927350672 0 0 0 0 -115.10585122804332 -400.92715417044747 0 -400.92715417044747 -307.68136133252108 0 0 0 0 -58.779507772705983 -694.85239445652701 0 -694.85239445652701 -702.94427353948618 0 0 0 0 -2668.7750443491459 -125.49944776491418 0 -125.49944776491418 -371.09955996848129 0 0 0 0 78.733019641018473 -566.37833457569343 0 -566.37833457569343 -1083.8834820908432 0 0 0 0 -722.45326832291903 -523.33220128193034 0 -523.33220128193034 -719.48521774649964 0 0 0 0 -498.60601685682195 405.59854835570354 0 405.59854835570354 -271.8331949926453 0 0 0 0 -740.66173362263362 -885.5621877737351 0 -885.5621877737351 -1494.2902640614341 0 0 0 0 -595.73044986813329 -538.94100902675086 0 -538.94100902675086 -957.4411307782625 0 0 0 0 109.38273642974491 -227.29505548588421 0 -227.29505548588421 -1471.4086191498777 0 0 0 0 -2495.8708641626472 259.66878603681778 0 259.66878603681778 -63.379630195952039 0 0 0 0 -2394.3990411546038 539.04559748274608 0 539.04559748274608 -1366.6530196898905 0 0 0 0 -2364.2349755967953 -425.46824661482907 0 -425.46824661482907 -1160.0440893131997 0 0 0 0 -295.96179151741671 -601.77064508926776 0 -601.77064508926776 -1817.361343024113 0 0 0 0 -14.800379287639657 -2.2033244650867978 0 -2.2033244650867978 -1.6936635744426578 0 0 0 0 -1204.6155048754881 1018.9108439456337 0 1018.9108439456337 -711.25955545959243 0 0 0 0 -2455.8342599227326 691.37774171339356 0 691.37774171339356 84.278133455361981 0 0 0 0 -60.055056530783986 348.34796792007506 0 348.34796792007506 -418.87699693112251 0 0 0 0 -892.47937981487485 945.75278053481543 0 945.75278053481543 -159.85902976356243 0 0 0 0 -1254.2781641101938 463.93341808255451 0 463.93341808255451 -118.02392237768603 0 0 0 0 -1254.9852701064374 725.00527600136468 0 725.00527600136468 129.82264469154939 0 0 0 0 -2497.2490978687056 94.342267027617098 0 94.342267027617098 117.54509609755294 0 0 0 0 -1790.6381923569279 -433.99279366517248 0 -433.99279366517248 452.78814198950732 0 0 0 0 -6.2392337997727338 -1.7937146785892679 0 -1.7937146785892679 2.6190016429334668 0 0 0 0 -38.580061661043146 -670.40702528554095 0 -670.40702528554095 410.26773913636146 0 0 0 0 -534.44063466005173 502.66541558531469 0 502.66541558531469 145.57297800786114 0 0 0 0 -930.36646829995152 486.14938326814053 0 486.14938326814053 305.43665403570327 0 0 0 0 -917.4941967716677 541.38604837228831 0 541.38604837228831 127.14709985255809 0 0 0 0 -857.92604215283063 450.74405896412202 0 450.74405896412202 258.88868046298967 0 0 0 0 -1048.8636294742973 177.66591927942807 0 177.66591927942807 30.035671280166525 0 0 0 0 -483.75482052556617 -151.78277045632538 0 -151.78277045632538 -192.04752076213254 0 0 0 0 -360.03491635530372 -320.26817275226233 0 -320.26817275226233 -56.003452823475129 0 0 0 0 -593.27004070815747 -277.38067524313431 0 -277.38067524313431 -164.20046080489902 0 0 0 0 -440.53857590092957 67.090838855503222 0 67.090838855503222 11.083566815294915 0 0 0 0 -85.59782616366283 -83.831994489550169 0 -83.831994489550169 -181.67223934169738 0 0 0 0 -278.30505324499973 5.0066338628624862 0 5.0066338628624862 470.41438059494487 0 0 0 0 116.03913185362035 91.488553077234158 0 91.488553077234158 11.543264560421676 0 0 0 0 -382.84335174017178 430.93862233160405 0 430.93862233160405 60.80734350758604 0 0 0 0 -600.8642079559213 582.00317413398795 0 582.00317413398795 -2.4193500220835915 0 0 0 0 -304.70810445882671 248.30476315355534 0 248.30476315355534 33.906427021035178 0 0 0 0 -37.770854484595475 -9.2429037078095888 0 -9.2429037078095888 1.2823510163944292 0 0 0 0 -37.023583410213178 -9.0667041028760025 0 -9.0667041028760025 -3.5928575235577398 0 0 0 0 -45.326364605709387 -14.235320454690509 0 -14.235320454690509 -1.9623137951203233 0 0 0 0 -36.319349090847027 -8.273587846994916 0 -8.273587846994916 -5.4376001338488891 0 0 0 0 -28.120323245180771 -4.8496338816934497 0 -4.8496338816934497 -2.2244988270873733 0 0 0 0 -36.802174624172039 -6.7845824314311471 0 -6.7845824314311471 2.4962023804176852 0 0 0 0 -29.572471735074942 -4.8207025223012039 0 -4.8207025223012039 6.9639052875838559 0 0 0 0 -21.275953196913179 -9.8125586823072766 0 -9.8125586823072766 0.80569916084226634 0 0 0 0 -42.668031069184508 -6.6254865738772839 0 -6.6254865738772839 -3.0179583056173129 0 0 0 0 -28.295761675486574 -3.5575223656662445 0 -3.5575223656662445 -3.0424213287551822 0 0 0 0 -29.365865135048807 15.422256778276006 0 15.422256778276006 -13.532534248469233 0 0 0 0 -37.056600669340696 -8.7343266862050051 0 -8.7343266862050051 -7.3864619749643481 0 0 0 0 -42.934236374203465 -10.688145547236438 0 -10.688145547236438 -2.8187930024473324 0 0 0 0 -43.870111443495261 -9.231956196788218 0 -9.231956196788218 -4.3515785745889275 0 0 0 0 -40.725268188107293 -7.4299760225674731 0 -7.4299760225674731 -5.7952523612580933 0 0 0 0 -42.119117292408191 -8.7633630615989766 0 -8.7633630615989766 -3.9596604571423555 0 0 0 0 -39.565730890608393 -6.304737726254114 0 -6.304737726254114 -5.1934062411522852 0 0 0 0 -49.66127056987898 -0.6545212162914531 0 -0.6545212162914531 -9.4016530015757986 0 0 0 0 -43.674239652755205 -3.9872484317375942 0 -3.9872484317375942 -6.627710726942464 0 0 0 0 -58.373017759447976 -5.4377632958206616 0 -5.4377632958206616 2.3590458809010686 0 0 0 0 -47.704116987879388 -6.7456247059086021 0 -6.7456247059086021 -0.011275999100650275 0 0 0 0 -68.630661292732839 6.6672946703482658 0 6.6672946703482658 -2.8746638776479987 0 0 0 0 -52.1470907742696 -1.0306027815689269 0 -1.0306027815689269 -2.260371698214346 0 0 0 0 -88.845242123352364 22.521528422043609 0 22.521528422043609 -6.7945797240551471 0 0 0 0 -100.20981408521766 -3.9241305121977312 0 -3.9241305121977312 7.9373031369242426 0 0 0 0 -82.014314936332084 -6.7875249003907845 0 -6.7875249003907845 0.021017563683444811 0 0 0 0 -98.560863989172503 -3.3866057237342275 0 -3.3866057237342275 8.1116037872850875 0 0 0 0 -97.394588225333337 -16.358259859928143 0 -16.358259859928143 11.89980509738044 0 0 0 0 -119.39223729766059 13.2660888015411 0 13.2660888015411 -6.8258368170670636 0 0 0 0 -120.81992213519516 -16.302577614890829 0 -16.302577614890829 15.699805901319642 0 0 0 0 -145.53990498450003 17.050864230244095 0 17.050864230244095 5.518336448897438 0 0 0 0 -2.7365532897820231 6.7082308211526964 0 6.7082308211526964 -13.378212035308039 0 0 0 0 -135.99762944108443 26.945112848063179 0 26.945112848063179 -11.926924605655316 0 0 0 0 0.044157626536772909 0.25533142140614018 0 0.25533142140614018 -0.10756424023141263 0 0 0 0 -75.46919183373393 -42.205668584897182 0 -42.205668584897182 -10.008918085590095 0 0 0 0 -195.79215517082775 -25.623329965638153 0 -25.623329965638153 10.703577308774932 0 0 0 0 -174.08717660755792 43.256118824154932 0 43.256118824154932 -10.04750865094125 0 0 0 0 -104.86659342581697 -68.668341268918311 0 -68.668341268918311 -38.081266066976411 0 0 0 0 -33.171566668192099 -10.675743086688019 0 -10.675743086688019 -24.296700260708178 0 0 0 0 -15.868937525185174 9.2116305307225872 0 9.2116305307225872 -8.2538489902743848 0 0 0 0 -36.27480462854146 -8.1312585954357814 0 -8.1312585954357814 -15.574270097609279 0 0 0 0 -46.443613267310866 -17.370554308484163 0 -17.370554308484163 7.5067407453008954 0 0 0 0 -99.296397171448916 -15.589710404019236 0 -15.589710404019236 3.3604756059220762 0 0 0 0 -96.175439875791199 -32.205063650877676 0 -32.205063650877676 -4.0263945354612147 0 0 0 0 -50.239369811533834 -8.6393711198391152 0 -8.6393711198391152 0.98963484236863053 0 0 0 0 -91.199274511851399 -18.121130650041586 0 -18.121130650041586 17.422596536092499 0 0 0 0 -92.683244828316674 -13.124735916280626 0 -13.124735916280626 7.7430881071358506 0 0 0 0 -86.389914830491762 -17.536245878878994 0 -17.536245878878994 -0.013734894737760347 0 0 0 0 -95.018025989294983 -17.209831579311686 0 -17.209831579311686 14.183052941530271 0 0 0 0 -55.169576792031876 19.697298497475735 0 19.697298497475735 3.2907666067075354 0 0 0 0 -57.780994695844129 -8.2951466011087405 0 -8.2951466011087405 11.171540534054234 0 0 0 0 -10.312834566073434 -1.4639880472035891 0 -1.4639880472035891 0.39634386714187642 0 0 0 0 -58.190715690558136 -9.6697576239858449 0 -9.6697576239858449 20.488878774985523 0 0 0 0 -3.3418062120254035 20.982481971795483 0 20.982481971795483 4.1851838337697114 0 0 0 0 23.399628314582515 -9.5243292349250623 0 -9.5243292349250623 8.4901705897115143 0 0 0 0 28.197389149479932 19.850597194036141 0 19.850597194036141 -21.324883716164486 0 0 0 0 0.081362921696893409 -0.093855184522922741 0 -0.093855184522922741 0.076615618458539883 0 0 0 0 -0.0008380416693398729 25.814293470077757 0 25.814293470077757 -3.0496720462163673 0 0 0 0 -17.356840057043883 20.914662431185945 0 20.914662431185945 -0.24204192838922722 0 0 0 0 -1.6951965305488557 3.1075962555997645 0 3.1075962555997645 -7.1891267584020397 0 0 0 0 0.030476343666355987 0.1798439405240515 0 0.1798439405240515 -0.27484826612366975 0 0 0 0 0.68853308651887346 -1.2372297767648242 0 -1.2372297767648242 -0.6001946688170392 0 0 0 0 -3.3614365624380298 -0.97344380588484825 0 -0.97344380588484825 0.19466341319449754 0 0 0 0 2.3824409244116396 0.94352382731663287 0 0.94352382731663287 -0.79690723449582068 0 0 0 0 -0.07795140189948313 0.058325612566520135 0 0.058325612566520135 -0.0096967770716284984 0 0 0 0 -1.8792320022257627 -1.3445190622682972 0 -1.3445190622682972 -0.76327271880469993 0 0 0 0 -0.48564283462436642 0.12462711726941222 0 0.12462711726941222 -0.25853101865190425 0 0 0 0 -14.683582841171301 -6.9672004187600223 0 -6.9672004187600223 -3.384633382870021 0 0 0 0 -0.48686931256503385 -0.080164416112879167 0 -0.080164416112879167 -0.17054849626846796 0 0 0 0 -12.60975726466495 -4.6878131242830179 0 -4.6878131242830179 -4.2905390039458666 0 0 0 0 -0.014675452917884968 0.052470155158317766 0 0.052470155158317766 -0.090125085651967543 0 0 0 0 -0.15850893533206545 -1.7215172485637051 0 -1.7215172485637051 -0.87675944879506007 0 0 0 0 5.7182469447725452 3.1063501961994042 0 3.1063501961994042 -1.3164329749450365 0 0 0 0 -2.4163684937811922 -5.1658764057867597 0 -5.1658764057867597 -2.2110252099421643 0 0 0 0 -0.052609123381756717 0.067839278646459888 0 0.067839278646459888 -0.035604233444996067 0 0 0 0 -14.818300529754197 1.2257133403514473 0 1.2257133403514473 9.3813597206972617 0 0 0 0 -9.0204090155748418 0.077199234685821239 0 0.077199234685821239 -1.3359340967768958 0 0 0 0 -2.21564463369252 2.1216917463138003 0 2.1216917463138003 -0.16929483707324952 0 0 0 0 -2.4677500064826301 -1.13848328860837 0 -1.13848328860837 0.18428563863340486 0 0 0 0 -8.922334299207705 1.9916630871692291 0 1.9916630871692291 -0.56849927796406519 0 0 0 0 -45.082163449842483 -13.556650087536809 0 -13.556650087536809 -4.2860766947904949 0 0 0 0 -9.9139861421634343 1.0549760291798123 0 1.0549760291798123 -3.373241015945434 0 0 0 0 -20.577846696716733 5.540668192738849 0 5.540668192738849 -12.431954635676902 0 0 0 0 -1.821321038288886 -2.063980546907338 0 -2.063980546907338 0.078151989422475143 0 0 0 0 -7.3159803962626029 0.65235446960087984 0 0.65235446960087984 -1.7547542570482619 0 0 0 0 5.0422623960766941 18.750570285477785 0 18.750570285477785 -10.297579397969741 0 0 0 0 -6.3564565952219709 1.9002150739852652 0 1.9002150739852652 -0.56655782102510122 0 0 0 0 -4.4456981854008717 2.5769986394014097 0 2.5769986394014097 -1.3044820375709485 0 0 0 0 -12.97633682826563 1.9135268770178584 0 1.9135268770178584 0.86113155128360219 0 0 0 0 -9.4371080734417774 3.0312123810390403 0 3.0312123810390403 -0.66710293017791855 0 0 0 0 -11.780356705146829 0.63084434786841825 0 0.63084434786841825 1.0562132290481658 0 0 0 0 -18.738918922274024 -1.005866700163665 0 -1.005866700163665 -2.3016753984677507 0 0 0 0 -10.517350759647005 -6.0139065696042167 0 -6.0139065696042167 -5.5842555455115273 0 0 0 0 -37.838181260725833 -17.518608952487966 0 -17.518608952487966 -10.82988443023487 0 0 0 0 -96.384679679584224 -51.377682463335987 0 -51.377682463335987 -38.777755278520203 0 0 0 0 -8.5652721300954191 -1.1419317119546974 0 -1.1419317119546974 0.11011168960122042 0 0 0 0 -9.7705004270046629 -29.203642836323027 0 -29.203642836323027 -27.711509498910345 0 0 0 0 -121.17751414425607 -16.812640210742362 0 -16.812640210742362 -2.160573857883719 0 0 0 0 -121.64448228677793 -71.233942251009012 0 -71.233942251009012 -14.680028584602496 0 0 0 0 -68.901528649221291 -0.65410819912153784 0 -0.65410819912153784 -8.9174707983111148 0 0 0 0 -162.40561638733561 16.888217637552231 0 16.888217637552231 -0.62985548131882751 0 0 0 0 -214.02645746532653 -116.61175564324367 0 -116.61175564324367 4.8733172846159505 0 0 0 0 -60.957231352287636 -15.158199697043614 0 -15.158199697043614 -3.6941429883411274 0 0 0 0 -46.582195953626069 -82.704089136690072 0 -82.704089136690072 22.524762206515973 0 0 0 0 -7.8813460568876224 -3.2527382358291987 0 -3.2527382358291987 -5.5879624569594801 0 0 0 0 -35.923693674805691 -43.554072564548164 0 -43.554072564548164 22.984500902497722 0 0 0 0 -22.264986297981523 -0.91335401518892922 0 -0.91335401518892922 -2.0885871984769437 0 0 0 0 -48.687583002334577 5.2918628465204165 0 5.2918628465204165 -3.5315528156461369 0 0 0 0 -18.822629852365679 2.2286470635612119 0 2.2286470635612119 1.5456836780901642 0 0 0 0 -22.80081106669968 0.86477078855978107 0 0.86477078855978107 -0.070356166591409419 0 0 0 0 -7.9410325652374496 4.7697727907589069 0 4.7697727907589069 0.12936946991430354 0 0 0 0 -9.4807572613353841 16.114417915330819 0 16.114417915330819 -0.076834562381691285 0 0 0 0 2.2628880174088408 19.594058518208044 0 19.594058518208044 -3.9524646337240483 0 0 0 0 -3.6558110106486481 8.107906037491631 0 8.107906037491631 -0.13995355991639968 0 0 0 0 -18.1704017611127 7.5854047021719708 0 7.5854047021719708 2.7881639747493487 0 0 0 0 -13.888601222322905 2.9024695735240584 0 2.9024695735240584 2.7843669317742297 0 0 0 0 -23.470814193341909 4.6179147839886525 0 4.6179147839886525 1.0904519847780496 0 0 0 0 -19.057406342922405 7.7060767746704215 0 7.7060767746704215 4.6387921372083598 0 0 0 0 -30.674681912820233 -11.616012715884089 0 -11.616012715884089 88.830798044729136 0 0 0 0 -37.898748834559228 14.295344024880364 0 14.295344024880364 22.526627987880715 0 0 0 0 -8.2738307441031793 12.917713012287663 0 12.917713012287663 10.750850901956255 0 0 0 0 -32.41731646884881 3.7841128290908301 0 3.7841128290908301 3.6009051239026304 0 0 0 0 -18.05163061498024 44.925182545515099 0 44.925182545515099 -11.15265510256495 0 0 0 0 -131.57605885337398 -1.3565962042707724 0 -1.3565962042707724 294.42507712791416 0 0 0 0 2.3162904707242262 3.6241067996443022 0 3.6241067996443022 -1.2283006802361753 0 0 0 0 -129.55750275291211 -78.715900683783957 0 -78.715900683783957 59.515638663328104 0 0 0 0 21.95925158157479 67.907921015498232 0 67.907921015498232 35.38889510273475 0 0 0 0 -24.802871005866308 6.0998624394501348 0 6.0998624394501348 3.7463593901557548 0 0 0 0 43.09471190093609 39.663413232156131 0 39.663413232156131 -43.707115206424533 0 0 0 0 -15.597135021508507 7.9167824330904928 0 7.9167824330904928 2.2108099774258392 0 0 0 0 -4.9896901820631001 1.0003175460972997 0 1.0003175460972997 0.14071151265280957 0 0 0 0 -3.8595437216754362 1.2185623137268067 0 1.2185623137268067 2.0703301348323748 0 0 0 0 -816.93478411066462 183.20035311493962 0 183.20035311493962 -12.905994587545365 0 0 0 0 11.964328382229724 1.0510001366209849 0 1.0510001366209849 -35.482145222196323 0 0 0 0 -3.5867190148286738 0.65616932451963805 0 0.65616932451963805 0.2400408616313463 0 0 0 0 -9.5979898956429679 22.253892760589224 0 22.253892760589224 -21.886072835608729 0 0 0 0 -5.5485541605230537 -7.449641325891605 0 -7.449641325891605 13.241060714966352 0 0 0 0 -106.70770480651117 338.65780768685113 0 338.65780768685113 -23.796096476885793 0 0 0 0 -1.6117702477052376 0.30454656001435865 0 0.30454656001435865 -2.1293885753147404 0 0 0 0 -508.79635617595341 -881.50566014688343 0 -881.50566014688343 330.54781406137647 0 0 0 0 -9.5861795109813102 6.5842384332496522 0 6.5842384332496522 0.28515010155138043 0 0 0 0 -5.3860080076447048 7.8371692273867097 0 7.8371692273867097 3.0571188609475257 0 0 0 0 -2.9159924952546135 6.3707986122053626 0 6.3707986122053626 3.6204779393913213 0 0 0 0 -5.360204644129368 4.9666347839808367 0 4.9666347839808367 -1.4349686431672048 0 0 0 0 -15.409081012316165 12.984910475077882 0 12.984910475077882 9.3732216726133402 0 0 0 0 -7.2064402173218696 4.1036183443532082 0 4.1036183443532082 -1.4236514388335142 0 0 0 0 -9.46751624514377 7.8697383818888653 0 7.8697383818888653 -3.4414788491336794 0 0 0 0 -14.139691676027724 12.187712593851259 0 12.187712593851259 -17.38424193422712 0 0 0 0 -15.240366322555928 4.1492306340515341 0 4.1492306340515341 5.6513625541826826 0 0 0 0 11.133385565473873 -27.988996948000931 0 -27.988996948000931 -48.197037981821879 0 0 0 0 -35.780729931837413 5.4118342735104719 0 5.4118342735104719 8.938909250658952 0 0 0 0 -141.04735318204985 -31.36119674564803 0 -31.36119674564803 -105.9561517424377 0 0 0 0 -303.13824637468497 -5.3564080805078937 0 -5.3564080805078937 94.816690083093022 0 0 0 0 -295.74804986915842 57.430592132055622 0 57.430592132055622 195.17235788323038 0 0 0 0 -0.65304229075209719 -0.68603434051701129 0 -0.68603434051701129 -0.64728899702531051 0 0 0 0 -134.28240949974133 5.4338887874919575 0 5.4338887874919575 -5.3696450331807739 0 0 0 0 -43.047335261806438 -2.3764747781299818 0 -2.3764747781299818 -24.473958775014097 0 0 0 0 -70.322454872992239 -6.726677607860637 0 -6.726677607860637 -6.1679882487259761 0 0 0 0 -62.006851849582745 -21.190824673617072 0 -21.190824673617072 18.935622495819985 0 0 0 0 -64.874826995597687 -0.6317198235556134 0 -0.6317198235556134 -29.480300621653271 0 0 0 0 -20.78257601226278 -3.1335038910594832 0 -3.1335038910594832 -0.053623483010105465 0 0 0 0 -63.675956843770109 -17.646413683331843 0 -17.646413683331843 -24.278094080725893 0 0 0 0 -70.756851084210211 -31.65401418060793 0 -31.65401418060793 7.0288001349951514 0 0 0 0 -39.754764367433381 -11.052145291859631 0 -11.052145291859631 13.811730194715608 0 0 0 0 -67.437772953802778 -18.738986141931591 0 -18.738986141931591 31.447127696782729 0 0 0 0 -64.938582737313482 -26.826432336524785 0 -26.826432336524785 3.9941819193230685 0 0 0 0 -50.885549364873441 188.15860740746663 0 188.15860740746663 -241.9329745499891 0 0 0 0 -7.4243867247452613 0.019044376127254292 0 0.019044376127254292 -0.15058561467106524 0 0 0 0 -77.033810952608746 71.931295070529018 0 71.931295070529018 -49.694637774538421 0 0 0 0 -244.53832287716796 108.52836608254725 0 108.52836608254725 67.580369703926706 0 0 0 0 -235.43600490767858 182.25990108552119 0 182.25990108552119 235.27569982505463 0 0 0 0 71.633406057721004 -137.30659020218013 0 -137.30659020218013 -92.193894507574726 0 0 0 0 2.4925889889418613 -187.3977851813853 0 -187.3977851813853 -108.65260962341154 0 0 0 0 -3.1684193204604298 -0.63536085039368828 0 -0.63536085039368828 0.92793346544402588 0 0 0 0 -746.44832405875786 -146.43586764650945 0 -146.43586764650945 -95.305864553000674 0 0 0 0 -92.279281419119798 156.18347751075407 0 156.18347751075407 -325.50094845207559 0 0 0 0 -27.767198688336066 -15.898041715144927 0 -15.898041715144927 -101.45286900018618 0 0 0 0 -71.323089882542263 13.087768784625951 0 13.087768784625951 99.332080321094054 0 0 0 0 -145.69756135936768 93.330186945524474 0 93.330186945524474 149.78843180150488 0 0 0 0 -215.74747147614835 148.78860757254506 0 148.78860757254506 -20.17346401480836 0 0 0 0 -606.00271527288714 132.09812872717112 0 132.09812872717112 -30.167549371211862 0 0 0 0 -167.74179785948945 59.853611814318583 0 59.853611814318583 -20.005013899409278 0 0 0 0 -91.673995400047716 -130.91102425505437 0 -130.91102425505437 1.6525907895593264 0 0 0 0 -54.41162949547288 -88.785872433752502 0 -88.785872433752502 48.549912570558263 0 0 0 0 -109.29772334106383 -94.051474004711054 0 -94.051474004711054 60.907550924648604 0 0 0 0 -74.597859455243452 36.314641890996427 0 36.314641890996427 65.282624066351673 0 0 0 0 -34.464734065142693 -78.772850200855828 0 -78.772850200855828 89.822909819547021 0 0 0 0 -1.878231298935134 -27.44878665037686 0 -27.44878665037686 115.39795234497342 0 0 0 0 -163.98345103824977 -112.21904209576678 0 -112.21904209576678 82.334369718674679 0 0 0 0 -94.009007632063003 -103.05365860749816 0 -103.05365860749816 -4.0012108748496757 0 0 0 0 -111.20791551325237 -138.59024681743313 0 -138.59024681743313 -53.402108333148135 0 0 0 0 -348.4877614202851 0.33559636250902258 0 0.33559636250902258 60.608514107524343 0 0 0 0 -129.43990011315327 -76.922845041217897 0 -76.922845041217897 -88.973314671892922 0 0 0 0 -96.770506385946646 -140.74495657494708 0 -140.74495657494708 -102.90179715111844 0 0 0 0 -46.27335583056265 -80.35069466709956 0 -80.35069466709956 -33.151917224945464 0 0 0 0 -16.95732245335239 -106.11362709009313 0 -106.11362709009313 -100.95357217843411 0 0 0 0 10.122600858110673 -47.488062997036934 0 -47.488062997036934 -224.94509070770528 0 0 0 0 -105.48050975028309 24.170113112155988 0 24.170113112155988 109.72243442786258 0 0 0 0 15.181324284141738 -16.324501165705044 0 -16.324501165705044 -97.243794616677405 0 0 0 0 -96.715818220953224 -7.6464436133976506 0 -7.6464436133976506 -46.679698142443158 0 0 0 0 -380.35816975303169 -277.83459262603378 0 -277.83459262603378 -245.81345911465996 0 0 0 0 -82.607095902989386 78.140276815252037 0 78.140276815252037 -477.94097701400005 0 0 0 0 -225.83608192828251 187.53643204673449 0 187.53643204673449 -91.806548535811544 0 0 0 0 -1.7356660203970335 -10.797143284159375 0 -10.797143284159375 -1.8067173122439701 0 0 0 0 -56.660214380088291 -10.681894894080777 0 -10.681894894080777 6.9201460829434609 0 0 0 0 -45.160539605800295 -15.044238294560728 0 -15.044238294560728 -10.067815812890558 0 0 0 0 -64.453407351014903 -10.71998604611224 0 -10.71998604611224 8.2497444827567961 0 0 0 0 80.850422075847746 4.5704395253080747 0 4.5704395253080747 -81.053094261462689 0 0 0 0 -6.8311794435696314 0.97785082471087037 0 0.97785082471087037 -0.39398657436996665 0 0 0 0 120.79586915663094 -52.579419239866183 0 -52.579419239866183 -104.64307830737516 0 0 0 0 85.013112857297529 43.290194109977648 0 43.290194109977648 97.134590287477067 0 0 0 0 -18.668568129173579 -11.531886034633914 0 -11.531886034633914 -0.35361759308674978 0 0 0 0 55.179221922007855 -64.443248873738867 0 -64.443248873738867 -61.71261662173174 0 0 0 0 32.458765026567562 -22.22216174164123 0 -22.22216174164123 14.631646315375292 0 0 0 0 106.11898770609696 -18.005300525755729 0 -18.005300525755729 -99.211498860284337 0 0 0 0 -51.74722772485984 -7.9853033532033351 0 -7.9853033532033351 -4.7353521336472113 0 0 0 0 -39.531470545567572 0.30790067367024676 0 0.30790067367024676 -2.0849164205283159 0 0 0 0 -55.070401224489615 -85.48799239690527 0 -85.48799239690527 32.084685099144735 0 0 0 0 -32.720127467116981 -15.721555500666909 0 -15.721555500666909 -4.554722021300222 0 0 0 0 -45.422224411086063 -4.07652117581722 0 -4.07652117581722 -10.830913675680677 0 0 0 0 -54.246747983284877 -16.51693939601995 0 -16.51693939601995 3.6858074742112876 0 0 0 0 -55.801316040524398 -10.718363808758113 0 -10.718363808758113 -16.510837981431678 0 0 0 0 -43.809191299980739 -7.406524981836526 0 -7.406524981836526 1.9975909431299215 0 0 0 0 -56.456604160644929 -9.9962918798813405 0 -9.9962918798813405 5.673414034428049 0 0 0 0 -44.209941536784754 -5.4347852516349349 0 -5.4347852516349349 15.809822621654348 0 0 0 0 -46.287928168356302 -13.370736133308924 0 -13.370736133308924 2.5231675418561963 0 0 0 0 -52.690402629887103 -5.3296246344957581 0 -5.3296246344957581 -5.979080611346717 0 0 0 0 -31.142811333290183 -5.4806171389972489 0 -5.4806171389972489 0.95817387708389479 0 0 0 0 -26.813009504578076 -4.3602582456936148 0 -4.3602582456936148 5.1998519211708754 0 0 0 0 -29.424287600794827 -4.9743930004809922 0 -4.9743930004809922 1.3487225434409047 0 0 0 0 -24.880750076597906 -6.0036932120954134 0 -6.0036932120954134 1.6853696658821491 0 0 0 0 -23.324533047016303 -5.5780171567731429 0 -5.5780171567731429 1.7980311501877395 0 0 0 0 -20.233787692154181 -3.661406715117054 0 -3.661406715117054 0.51367985144450601 0 0 0 0 -23.31619527238945 -5.6081550573481991 0 -5.6081550573481991 1.7335923886389537 0 0 0 0 -10.892544570614739 -8.5063966927916681 0 -8.5063966927916681 -0.20250272682893822 0 0 0 0 -14.121394989982946 -21.791910303647569 0 -21.791910303647569 -13.265572641172753 0 0 0 0 -0.30653750485117826 -2.9703041969736632 0 -2.9703041969736632 -0.87624140075120094 0 0 0 0 -22.147457407321781 1.823825970752452 0 1.823825970752452 3.2211641285792183 0 0 0 0 -25.42119471373735 -3.5993732679182813 0 -3.5993732679182813 6.9173880510896044 0 0 0 0 -2.6621395533581165 -0.68953342874567625 0 -0.68953342874567625 -0.37065038952444179 0 0 0 0 -12.976408354737941 -1.2703114085041811 0 -1.2703114085041811 0.32768769904379269 0 0 0 0 -35.17948631625768 -13.618590223041739 0 -13.618590223041739 -0.29615206848058051 0 0 0 0 -27.01776920825796 -7.6164314289455746 0 -7.6164314289455746 -1.4669998736165724 0 0 0 0 -27.796026087133214 -0.68063260320268171 0 -0.68063260320268171 3.3303046925815636 0 0 0 0 -117.37053161997756 2.506963343542111 0 2.506963343542111 232.60919554882685 0 0 0 0 -57.106295865371067 -41.426639527129623 0 -41.426639527129623 184.02008239154588 0 0 0 0 -105.81552694017978 -10.925716018196958 0 -10.925716018196958 171.31528429374816 0 0 0 0 11.380087381301564 -127.74839343791666 0 -127.74839343791666 194.66532308664 0 0 0 0 -101.00678372113907 -59.51268973918377 0 -59.51268973918377 249.86547656428706 0 0 0 0 -52.714448584025519 -3.2617359438340592 0 -3.2617359438340592 0.51110276967571022 0 0 0 0 -49.767769184061763 -60.810017283132879 0 -60.810017283132879 124.37347404749585 0 0 0 0 -56.608795728592668 -0.94376729851046548 0 -0.94376729851046548 -0.58563309106789774 0 0 0 0 -53.608163942626561 -3.1080036101668611 0 -3.1080036101668611 -1.8877715214530326 0 0 0 0 -40.401751175977552 -0.10709941908567089 0 -0.10709941908567089 -3.5427574364402972 0 0 0 0 -84.446116873819847 -14.711030097038019 0 -14.711030097038019 0.82276398689236885 0 0 0 0 -24.908992418981143 -14.504938556972434 0 -14.504938556972434 -14.625995494775452 0 0 0 0 -93.763591520197224 18.201748655186748 0 18.201748655186748 -7.578041572453003 0 0 0 0 -11.08378754981095 34.920822805976513 0 34.920822805976513 -42.929241389109393 0 0 0 0 -0.76405909697179908 1.5176839395908814 0 1.5176839395908814 0.35683889118793743 0 0 0 0 -73.391926158172282 15.641613753296724 0 15.641613753296724 -7.2641160353869054 0 0 0 0 -51.168154571023479 -11.566436177272863 0 -11.566436177272863 -10.918345200999283 0 0 0 0 -43.996050713896693 -8.4995588424794732 0 -8.4995588424794732 4.5956789898227726 0 0 0 0 -17.537383085156673 -11.351759306328233 0 -11.351759306328233 -2.2688180860781912 0 0 0 0 -45.697106473122972 -0.1070138434365866 0 -0.1070138434365866 2.1552277665531445 0 0 0 0 -32.449191943916958 -8.0985466096742584 0 -8.0985466096742584 -0.39597554411466263 0 0 0 0 -45.668584828395979 -68.503832181620055 0 -68.503832181620055 55.220152986043104 0 0 0 0 -39.634748393291375 -11.393800142879172 0 -11.393800142879172 3.5805340112983686 0 0 0 0 -58.347707258501032 -10.607572746083292 0 -10.607572746083292 -3.8473898933302735 0 0 0 0 -70.064022421174741 -4.316777840769646 0 -4.316777840769646 3.0401371382863545 0 0 0 0 -20.691937833635986 -7.0774442108168358 0 -7.0774442108168358 0.52456337500792394 0 0 0 0 -75.354303822838119 -26.203196551695214 0 -26.203196551695214 -71.996994614349205 0 0 0 0 -39.173179340221395 23.776024797887658 0 23.776024797887658 -47.039132322920068 0 0 0 0 -84.428593429402099 39.447062477598138 0 39.447062477598138 -4.4165989741318299 0 0 0 0 -6.8262797262993047 -3.5236621454366883 0 -3.5236621454366883 1.9026910152268881 0 0 0 0 -150.72157923330815 -19.148086978859965 0 -19.148086978859965 72.995798644507886 0 0 0 0 -59.523686016356805 -65.660559564291816 0 -65.660559564291816 -30.746379802816591 0 0 0 0 -70.778219270810951 -25.331530640621168 0 -25.331530640621168 42.313650149184923 0 0 0 0 -65.317576993434074 2.4855911674316395 0 2.4855911674316395 2.9157627886540416 0 0 0 0 -44.41305754096102 -5.5910241605241993 0 -5.5910241605241993 2.1239065357090592 0 0 0 0 -145.33436068132869 95.527685219829891 0 95.527685219829891 189.92128545706328 0 0 0 0 -14.447068781968653 -1.3427417790921368 0 -1.3427417790921368 6.2077903460024775 0 0 0 0 -25.37532104550337 -136.48092029521649 0 -136.48092029521649 366.72959977426217 0 0 0 0 -109.55487327708397 -106.12008042126672 0 -106.12008042126672 172.71798218920776 0 0 0 0 -60.962406922903028 -55.730856601289815 0 -55.730856601289815 89.786455535320783 0 0 0 0 -25.747544055047911 -3.6402601501240497 0 -3.6402601501240497 3.8036860475381218 0 0 0 0 -24.521877446628309 -2.0651056609743819 0 -2.0651056609743819 4.3800005698128812 0 0 0 0 -34.412212095240164 -0.9795339642587102 0 -0.9795339642587102 5.4454813498335612 0 0 0 0 -46.517243162696104 -12.281650847980529 0 -12.281650847980529 -2.5213761678974151 0 0 0 0 -35.514562958045644 6.6913245364575573 0 6.6913245364575573 -10.077656438029408 0 0 0 0 -15.89128474092891 -8.5375206829872496 0 -8.5375206829872496 -1.3312856357717795 0 0 0 0 -59.105854911486915 -6.5142183385861596 0 -6.5142183385861596 -1.9465577605001978 0 0 0 0 -51.301912369388617 15.14550711026024 0 15.14550711026024 4.603071445681735 0 0 0 0 -41.420701685885433 -2.0913570047678149 0 -2.0913570047678149 9.1005055654005673 0 0 0 0 -89.72181085649936 -37.807109249117957 0 -37.807109249117957 -10.375095705673957 0 0 0 0 -58.790872137926016 -16.458450881020397 0 -16.458450881020397 -2.9094907237427305 0 0 0 0 -68.122891073617211 3.9994723617456884 0 3.9994723617456884 22.069361984996995 0 0 0 0 -89.960218121173966 2.4741456563172051 0 2.4741456563172051 56.54318277686184 0 0 0 0 -51.257629182538949 9.2309737719954228 0 9.2309737719954228 19.563547227168328 0 0 0 0 -104.34813131681949 20.89642212925105 0 20.89642212925105 35.630538078068639 0 0 0 0 -63.758447708326131 -2.0700306849087426 0 -2.0700306849087426 1.0345998394491625 0 0 0 0 -70.823143739093211 50.383349067848712 0 50.383349067848712 107.53655588760716 0 0 0 0 -17.567241253963903 0.083815151486724915 0 0.083815151486724915 1.3560087568238091 0 0 0 0 -114.62653753844643 -163.68998293639925 0 -163.68998293639925 276.61097186969869 0 0 0 0 -114.51483604085661 -173.06293977802216 0 -173.06293977802216 -100.84421823223238 0 0 0 0 -132.96352713830129 -55.195659917326225 0 -55.195659917326225 35.859689286008688 0 0 0 0 -81.621288286347408 -31.567200491147105 0 -31.567200491147105 254.46071945257825 0 0 0 0 -7.6429430364366553 -14.054907935155462 0 -14.054907935155462 -3.9417472166819287 0 0 0 0 -45.292842962433497 -10.458503121092576 0 -10.458503121092576 3.4199315632263279 0 0 0 0 -25.724950129809102 -0.67501407048903772 0 -0.67501407048903772 7.5129117726003081 0 0 0 0 -122.04209499821445 -31.270489183070822 0 -31.270489183070822 71.533445775899054 0 0 0 0 -63.889877191026244 -6.7365617021396247 0 -6.7365617021396247 26.183459336463329 0 0 0 0 -27.612731223926929 -2.2491280769567794 0 -2.2491280769567794 0.95725993078997318 0 0 0 0 38.665613669145387 -4.8040597104397875 0 -4.8040597104397875 -16.299319650752523 0 0 0 0 -9.3627804955904139 35.825307718314548 0 35.825307718314548 22.347089962907376 0 0 0 0 -21.137807563151 71.712906207375084 0 71.712906207375084 -29.065051555250193 0 0 0 0 -157.19713747836067 -120.13899081163254 0 -120.13899081163254 73.059152298121717 0 0 0 0 -31.128031347609067 -71.424740904664304 0 -71.424740904664304 79.636295974061341 0 0 0 0 -29.361666231052368 -2.7307472035689671 0 -2.7307472035689671 10.12049754019381 0 0 0 0 -41.246631038395321 -5.4060482679745823 0 -5.4060482679745823 1.6654902926496167 0 0 0 0 -40.217837718111696 -10.061212610191433 0 -10.061212610191433 -3.5934681389826437 0 0 0 0 -31.885846199640888 0.40690763855671719 0 0.40690763855671719 3.2033870710452703 0 0 0 0 -27.453229886102889 -23.777016573691434 0 -23.777016573691434 -5.1380802824934655 0 0 0 0 -16.741751188470516 -13.66447612261436 0 -13.66447612261436 4.2204606619961851 0 0 0 0 -28.798196021954837 -11.961117664424251 0 -11.961117664424251 -8.5143192248516915 0 0 0 0 -45.054179223632673 -11.634044346516021 0 -11.634044346516021 -10.849162442595116 0 0 0 0 112.19238533218595 -57.720884698760756 0 -57.720884698760756 -5.8539064313229119 0 0 0 0 84.668953568247161 -166.47013999940407 0 -166.47013999940407 -14.862019286954819 0 0 0 0 -11.998921686308975 0.62524469921653747 0 0.62524469921653747 -3.7160393526703484 0 0 0 0 -40.336392870827694 0.70592548860884108 0 0.70592548860884108 1.6936307895612117 0 0 0 0 -41.941075328162697 -3.8474894719734039 0 -3.8474894719734039 -2.9509077058575031 0 0 0 0 -5.1200127751152564 4.3259831459504028 0 4.3259831459504028 -3.6530933179681426 0 0 0 0 105.00791447971278 130.14601613803643 0 130.14601613803643 -96.563331751136502 0 0 0 0 -53.150447357547819 -101.82177787159935 0 -101.82177787159935 36.044599725511034 0 0 0 0 -329.1037438660278 380.0474539677557 0 380.0474539677557 -169.79698766042202 0 0 0 0 -196.21276074851266 -199.36611604901768 0 -199.36611604901768 10.682733974095299 0 0 0 0 -443.81721303863196 140.59003068295061 0 140.59003068295061 31.721168346512059 0 0 0 0 -75.921755686104007 41.250124790577843 0 41.250124790577843 56.495720334944963 0 0 0 0 -285.36761019440019 -318.07600077774441 0 -318.07600077774441 3.4128237327664692 0 0 0 0 -5.6644375596045506 -3.2783187818878012 0 -3.2783187818878012 -0.74857527732248852 0 0 0 0 -83.031766716951097 106.47281559753037 0 106.47281559753037 -201.73942211791655 0 0 0 0 13.743169796478469 -53.673696988339088 0 -53.673696988339088 -37.059573902511147 0 0 0 0 114.25497325668402 -102.98667789467407 0 -102.98667789467407 -94.977777353605234 0 0 0 0 11.922166858916171 -194.79060951223528 0 -194.79060951223528 -177.22033509119453 0 0 0 0 -571.42508132389776 20.349899079117449 0 20.349899079117449 231.28447187070469 0 0 0 0 160.77606005511188 71.872871527008726 0 71.872871527008726 -167.34968185334674 0 0 0 0 -302.12525007452496 -190.90892867663752 0 -190.90892867663752 -3.0959764111994446 0 0 0 0 -419.19633673412318 44.18665261351407 0 44.18665261351407 19.735407511361359 0 0 0 0 0.54843653974293716 -1.3468653689734253 0 -1.3468653689734253 -4.0682863202509623 0 0 0 0 33.588919606497711 77.623279146287757 0 77.623279146287757 24.404461112636909 0 0 0 0 -16.001183353104381 5.0214079300683983 0 5.0214079300683983 4.3324251649064589 0 0 0 0 -47.348809652311914 1.9920609645293581 0 1.9920609645293581 10.202583320632071 0 0 0 0 -122.00971681284136 105.22221706583605 0 105.22221706583605 89.173720875163013 0 0 0 0 -2.4142857972725835 -3.0917147273745895 0 -3.0917147273745895 -0.21749742823046159 0 0 0 0 -262.10051989109343 -254.69152756686094 0 -254.69152756686094 -123.72342495084615 0 0 0 0 -413.9914870440989 -69.283137534815353 0 -69.283137534815353 74.861270274522553 0 0 0 0 64.030591852839279 25.211813009115836 0 25.211813009115836 -148.66306714405962 0 0 0 0 -50.04206721238387 3.5574648548906183 0 3.5574648548906183 8.1303166159725517 0 0 0 0 -172.35100984148812 112.02997818726953 0 112.02997818726953 144.06128924573841 0 0 0 0 -2.9051375698836637 99.501546691735271 0 99.501546691735271 45.888842227664739 0 0 0 0 -6.8517852684147442 5.9140494866071407 0 5.9140494866071407 2.7216047641249244 0 0 0 0 -126.39407830074924 5.82431285351322 0 5.82431285351322 87.966451127919953 0 0 0 0 -10.95248543537673 -51.124400753468706 0 -51.124400753468706 -73.437285898227628 0 0 0 0 -336.74317394402897 -153.89172870181642 0 -153.89172870181642 -22.928685787472318 0 0 0 0 -321.76347426487337 -264.96221053906015 0 -264.96221053906015 -67.333944911347771 0 0 0 0 -376.22460627092369 -198.84830009047698 0 -198.84830009047698 -64.611572454371071 0 0 0 0 -382.99857023122604 -274.16981091743401 0 -274.16981091743401 -231.59266599256262 0 0 0 0 -419.37024919305986 -325.74138473064113 0 -325.74138473064113 -167.72771731620469 0 0 0 0 -309.91766660488429 -254.77607504600758 0 -254.77607504600758 -129.48677834882619 0 0 0 0 -295.17202201507462 -267.27087048151247 0 -267.27087048151247 -120.19447485259298 0 0 0 0 -290.98435440316098 -165.52646797535999 0 -165.52646797535999 -59.413993558136099 0 0 0 0 -504.95483542027068 -202.70496430223466 0 -202.70496430223466 -20.479218936316556 0 0 0 0 -646.13337524969393 -443.84222200951808 0 -443.84222200951808 -526.43046400512685 0 0 0 0 -511.53782047217146 -434.43580835426201 0 -434.43580835426201 -363.04136706162262 0 0 0 0 -534.79323169594863 -229.54704209651027 0 -229.54704209651027 -177.54799741850547 0 0 0 0 -440.71351510323439 -264.19289313057425 0 -264.19289313057425 -168.2496905489279 0 0 0 0 -681.96147562988335 -378.15467430356284 0 -378.15467430356284 -250.41593514867964 0 0 0 0 -578.5857586609709 -326.21020088771638 0 -326.21020088771638 -570.46514907208802 0 0 0 0 -334.26157774593958 -518.31112957872119 0 -518.31112957872119 -672.2588441152966 0 0 0 0 -4.4000959774335797 -1.6199363813406045 0 -1.6199363813406045 0.63600086176632598 0 0 0 0 -191.93130048763851 -302.83610913694338 0 -302.83610913694338 -514.05094072055726 0 0 0 0 -604.91892783715593 -418.26359221219082 0 -418.26359221219082 -363.56391932859106 0 0 0 0 30.051418235547317 -50.643073103263077 0 -50.643073103263077 138.41820263374211 0 0 0 0 131.70091539063287 -44.742255846662829 0 -44.742255846662829 -53.830281322912015 0 0 0 0 -31.544925975603007 -3.9134014632664602 0 -3.9134014632664602 0.02346795970523563 0 0 0 0 36.013318973076821 20.789416218513566 0 20.789416218513566 315.31424392295651 0 0 0 0 -56.571445519432018 -46.78932313130224 0 -46.78932313130224 202.64046227207018 0 0 0 0 56.555644053318247 58.394203195379077 0 58.394203195379077 257.99923029750403 0 0 0 0 35.73190288807109 -15.927630122598885 0 -15.927630122598885 126.79366455918989 0 0 0 0 19.578155146416975 -47.963320734136232 0 -47.963320734136232 148.09795085651217 0 0 0 0 -667.25832942160196 -252.22984555424682 0 -252.22984555424682 -101.17367930939372 0 0 0 0 -543.26767188972008 -439.89619625814248 0 -439.89619625814248 -789.63617954453639 0 0 0 0 1084.2776951601554 392.84739113959222 0 392.84739113959222 -1622.9392145966121 0 0 0 0 5.832288114084804 -1217.9129664192956 0 -1217.9129664192956 -1233.8844457089956 0 0 0 0 -27.434785339990412 -424.24653977132436 0 -424.24653977132436 -1408.4525444660999 0 0 0 0 -313.89880420545887 72.612009476444427 0 72.612009476444427 204.75348693179967 0 0 0 0 -13.130795649465398 -3.0714895945835163 0 -3.0714895945835163 -0.63285367835109996 0 0 0 0 18.524809931522327 -19.674558712395957 0 -19.674558712395957 108.05215345081115 0 0 0 0 -195.55676303651853 -85.857599264808869 0 -85.857599264808869 68.655416714228636 0 0 0 0 -218.83405640415367 116.1842225322323 0 116.1842225322323 157.23204278932974 0 0 0 0 -835.79254466875864 -187.28300475540436 0 -187.28300475540436 209.87109349515094 0 0 0 0 -526.95145188186052 -692.50633490128848 0 -692.50633490128848 -629.82449773105645 0 0 0 0 -112.34000646693676 92.551632518599945 0 92.551632518599945 -849.13532108082791 0 0 0 0 -36.772914264821338 283.98042471512406 0 283.98042471512406 88.366571623885875 0 0 0 0 -1001.9933920647254 -184.98466264588399 0 -184.98466264588399 -107.08019403036315 0 0 0 0 -0.41876794244420523 -3.2754541815724423 0 -3.2754541815724423 -6.0245924138733304 0 0 0 0 698.05415699846344 -787.58877811811954 0 -787.58877811811954 -976.12499914689909 0 0 0 0 -645.93364011303004 -233.72164613004659 0 -233.72164613004659 -142.30419372280539 0 0 0 0 37.161153984041448 21.168333930158497 0 21.168333930158497 -43.477128345541075 0 0 0 0 -157.46969897612507 137.02208004731017 0 137.02208004731017 14.734039031427983 0 0 0 0 -536.48380088517661 -10.665839504300891 0 -10.665839504300891 92.983723938324147 0 0 0 0 -228.20757994817541 -138.21702119849192 0 -138.21702119849192 491.81059783137749 0 0 0 0 79.87049798582666 -244.82042807235473 0 -244.82042807235473 384.50398420858858 0 0 0 0 -8.9783856947025455 -6.1115380089216984 0 -6.1115380089216984 -6.7403994236662301 0 0 0 0 -44.689553998534393 144.77756132739455 0 144.77756132739455 624.14614248424118 0 0 0 0 -273.72811771367196 127.4983594903083 0 127.4983594903083 323.92469645100437 0 0 0 0 -228.68716084761763 -63.120840914034488 0 -63.120840914034488 558.26013578562879 0 0 0 0 -3.1804835679369603 -4.2809495785358003 0 -4.2809495785358003 -0.76206200731240248 0 0 0 0 -2.2998242478133761 -70.3303017045979 0 -70.3303017045979 212.23856303513162 0 0 0 0 -2.6551270407762786 20.6402153029494 0 20.6402153029494 24.644500624990087 0 0 0 0 -42.591103031616512 72.438632105365741 0 72.438632105365741 205.38035454672786 0 0 0 0 -31.923686198962969 -94.321521927061667 0 -94.321521927061667 332.43655535348262 0 0 0 0 -43.942518908876082 70.75466172282654 0 70.75466172282654 -75.284771225349687 0 0 0 0 -56.357847192237386 21.78073177152578 0 21.78073177152578 25.266039882441532 0 0 0 0 -19.856818925170955 -8.5631394560834906 0 -8.5631394560834906 -199.0141075633419 0 0 0 0 -96.287562471043202 -28.558477319362282 0 -28.558477319362282 -86.643341661991485 0 0 0 0 -54.519883452394424 127.88334310422965 0 127.88334310422965 -24.854310151311893 0 0 0 0 -122.31258297646855 30.993165265283096 0 30.993165265283096 -155.42710370820987 0 0 0 0 -57.483114159032993 60.569243748455278 0 60.569243748455278 -274.80421417793104 0 0 0 0 -239.14688930874581 -330.5399102507605 0 -330.5399102507605 -202.37084353091495 0 0 0 0 -244.76601737790406 -289.57206219158229 0 -289.57206219158229 -111.84584375399209 0 0 0 0 -237.51202669859049 -250.86019138398387 0 -250.86019138398387 -90.262633181888077 0 0 0 0 -256.06667044995993 -180.41295896304086 0 -180.41295896304086 -80.546296642348352 0 0 0 0 -99.492263569110946 -104.3797573935442 0 -104.3797573935442 -165.07659321551819 0 0 0 0 -84.428187104618701 -176.85658322536392 0 -176.85658322536392 -428.73741125361471 0 0 0 0 -67.262765516500167 -67.362773240033391 0 -67.362773240033391 -129.2659620458453 0 0 0 0 -30.719386623117316 -9.5559781594824926 0 -9.5559781594824926 -213.44058622829562 0 0 0 0 -40.945725785453305 45.236265014133394 0 45.236265014133394 -34.224120033045438 0 0 0 0 -38.109232243121369 34.041750619461709 0 34.041750619461709 -85.761213105182151 0 0 0 0 -38.721848537461483 10.271714371446251 0 10.271714371446251 -119.31467808807702 0 0 0 0 -95.96792739472221 -3.9366868847841943 0 -3.9366868847841943 13.00862281578793 0 0 0 0 -132.59812556414545 -47.137537178894036 0 -47.137537178894036 -37.574145361512137 0 0 0 0 -179.23685748175558 -102.35145582757718 0 -102.35145582757718 -30.103006761145252 0 0 0 0 -237.85711000971423 108.57627405796768 0 108.57627405796768 -56.081917900558892 0 0 0 0 -425.47680866756855 72.452487012568326 0 72.452487012568326 16.39969726009349 0 0 0 0 -359.20445820738678 64.139086019619526 0 64.139086019619526 -35.673832384733487 0 0 0 0 -0.66686447125950821 -0.71279364269768308 0 -0.71279364269768308 -1.2391835745554287 0 0 0 0 8.8064327578576922 30.950819291770131 0 30.950819291770131 -94.083046702254933 0 0 0 0 -203.09961490060232 -47.651735517334942 0 -47.651735517334942 30.354488679038695 0 0 0 0 -55.298689104643927 -6.3608947608893232 0 -6.3608947608893232 -113.724526267692 0 0 0 0 -32.980078735494317 43.361735372210887 0 43.361735372210887 -2.9941948787882211 0 0 0 0 -21.86340204800581 39.613206010048316 0 39.613206010048316 -99.488117608663742 0 0 0 0 -31.467497973741771 -2.4098616957947385 0 -2.4098616957947385 165.12439046856639 0 0 0 0 -78.461850001320272 -24.039396701565693 0 -24.039396701565693 14.787800632255255 0 0 0 0 -80.801456871937262 28.639157034820414 0 28.639157034820414 184.05904488428314 0 0 0 0 -130.21360885629474 -39.906138891180376 0 -39.906138891180376 148.28871197786395 0 0 0 0 -109.06583198279259 26.206368336734101 0 26.206368336734101 87.585217397018369 0 0 0 0 -61.222556082488154 50.532185392651058 0 50.532185392651058 8.2150345978680051 0 0 0 0 -298.58191922471815 93.244425846098693 0 93.244425846098693 86.166533562196378 0 0 0 0 -72.214567344191892 91.764176964902177 0 91.764176964902177 -106.77366111457681 0 0 0 0 -102.57420467380143 -53.425482388121736 0 -53.425482388121736 80.837631086585134 0 0 0 0 -118.52574596017621 -1.8310032164743575 0 -1.8310032164743575 131.23326832229623 0 0 0 0 -127.44085527048082 27.922979969477069 0 27.922979969477069 47.900167121485765 0 0 0 0 10.834621849222458 65.904376507838151 0 65.904376507838151 -15.914795312674414 0 0 0 0 -2.8438568384805443 6.4025791352778612 0 6.4025791352778612 4.5803721040908476 0 0 0 0 -2161.8435141150912 -454.0905604320796 0 -454.0905604320796 -0.68910195415255693 0 0 0 0 -2310.6694681863155 -376.47389267223139 0 -376.47389267223139 -22.131443427377885 0 0 0 0 -2500.9373463249176 -412.99965488643471 0 -412.99965488643471 117.13238043750283 0 0 0 0 -1897.5138091546105 -481.29910156829959 0 -481.29910156829959 136.89907415755076 0 0 0 0 -2366.5968514890119 -494.71037156587062 0 -494.71037156587062 139.48293428949808 0 0 0 0 -2.0340252909663832 -141.10188935390687 0 -141.10188935390687 -88.195445793049203 0 0 0 0 -1176.8706662291079 -647.71956557193846 0 -647.71956557193846 -319.32654356696452 0 0 0 0 -1.5472686396345168 1.9536566240116429 0 1.9536566240116429 0.91327376642877445 0 0 0 0 -2495.4928540964393 -807.93035408057892 0 -807.93035408057892 109.78435737020416 0 0 0 0 -1847.750458735718 -1024.8199781279839 0 -1024.8199781279839 -387.05192931208694 0 0 0 0 -9.7614956596686682 -1.8625732637513588 0 -1.8625732637513588 0.020651044084813656 0 0 0 0 -2094.3149574254785 652.62804415031883 0 652.62804415031883 314.86424286994048 0 0 0 0 -81.790178282564739 482.20943468850862 0 482.20943468850862 -295.94879444243384 0 0 0 0 -801.29234971728874 -687.85302010646842 0 -687.85302010646842 -540.23841208316117 0 0 0 0 703.30970311519923 -378.3479454825025 0 -378.3479454825025 -581.4446463716165 0 0 0 0 612.14600147880265 -162.98029158979435 0 -162.98029158979435 -624.49597314610037 0 0 0 0 316.73752079745464 -791.85879400132967 0 -791.85879400132967 -735.17647619515674 0 0 0 0 -9.8070445131735653 -2.4032820255539016 0 -2.4032820255539016 0.1101794672009612 0 0 0 0 -140.44560936730704 -878.46875871064753 0 -878.46875871064753 -545.87049317270771 0 0 0 0 470.58553517947803 161.08769987352824 0 161.08769987352824 -199.19355510880015 0 0 0 0 -111.80638132896638 271.75495657496469 0 271.75495657496469 330.58474847595505 0 0 0 0 124.77585861869738 64.000469198212315 0 64.000469198212315 -82.882881401080468 0 0 0 0 -573.21676849185314 -55.729373924454336 0 -55.729373924454336 115.26566865148888 0 0 0 0 -588.7006883797003 -42.151109566621841 0 -42.151109566621841 -205.89103400987119 0 0 0 0 -741.55530648191052 -658.83828159199311 0 -658.83828159199311 -294.34351681122894 0 0 0 0 -281.9739880695779 -407.5085330050286 0 -407.5085330050286 -790.90823152212556 0 0 0 0 -479.6603508715416 -192.10109875382636 0 -192.10109875382636 -81.060684741743358 0 0 0 0 141.38148397492841 101.07557143952505 0 101.07557143952505 -234.87016059587086 0 0 0 0 -109.98258182835707 41.382585299197018 0 41.382585299197018 -77.647860412308091 0 0 0 0 -80.876161372143542 253.05986645943844 0 253.05986645943844 146.20010502665241 0 0 0 0 24.189959208306391 -76.496627710001064 0 -76.496627710001064 22.869682299699065 0 0 0 0 -4.7207368592753198 -3.8319104470919068 0 -3.8319104470919068 -1.1937322320042867 0 0 0 0 -109.96188277810143 -405.40382342717487 0 -405.40382342717487 -879.22075961387498 0 0 0 0 -51.19199726248371 -181.2098741312067 0 -181.2098741312067 -316.04332330321898 0 0 0 0 -466.77405810874916 -125.14964493556528 0 -125.14964493556528 -108.85960066922814 0 0 0 0 -470.98502377179574 -464.12907573239198 0 -464.12907573239198 -293.34773386107645 0 0 0 0 -475.35733075204462 -426.96331236817184 0 -426.96331236817184 -748.92608374586189 0 0 0 0 43.107281053438783 -161.33783329610878 0 -161.33783329610878 -108.87822757019239 0 0 0 0 144.25063586716715 34.795462706540548 0 34.795462706540548 -47.873924333520108 0 0 0 0 -74.552632782149885 -82.713296555236411 0 -82.713296555236411 14.076267271518191 0 0 0 0 -47.268070646143457 4.0664777938644292 0 4.0664777938644292 7.6919407749120543 0 0 0 0 44.729003953472329 81.614884914187471 0 81.614884914187471 15.967817979686401 0 0 0 0 15.614069237693911 113.01269732892524 0 113.01269732892524 152.79195464966119 0 0 0 0 -14.821093801094094 2.8578373950737905 0 2.8578373950737905 4.1342997661666292 0 0 0 0 -115.11505475639569 -162.95626450737177 0 -162.95626450737177 -111.40368571792987 0 0 0 0 -73.193269650113507 -129.08478260306526 0 -129.08478260306526 -178.22106214590167 0 0 0 0 -45.767149071441963 -156.77025427687295 0 -156.77025427687295 -159.86548595921658 0 0 0 0 -120.95943754306063 -176.30810569154104 0 -176.30810569154104 -139.26116464035914 0 0 0 0 -175.2966213960608 -168.58866923482537 0 -168.58866923482537 -280.60825789423916 0 0 0 0 -137.56892870213778 -256.20841923481538 0 -256.20841923481538 -226.674507587351 0 0 0 0 -135.16266803618782 -255.21046174182277 0 -255.21046174182277 -206.50342192002995 0 0 0 0 -105.92120995835285 -234.97262043160231 0 -234.97262043160231 -257.46810762240045 0 0 0 0 -107.71057366531022 -260.52467875706589 0 -260.52467875706589 -230.88037688139059 0 0 0 0 -105.73498080753029 -322.81099785970753 0 -322.81099785970753 -370.64547518809292 0 0 0 0 -181.61048488015149 -246.98903141642143 0 -246.98903141642143 -131.6538901274921 0 0 0 0 -148.24823347900383 -157.61827332630673 0 -157.61827332630673 -115.86470097416014 0 0 0 0 -170.27910917982081 -237.39546091140306 0 -237.39546091140306 -214.45091687607896 0 0 0 0 -234.25031047695666 -223.80796934441923 0 -223.80796934441923 -147.44581573380037 0 0 0 0 -241.88871647097403 -203.61416436932791 0 -203.61416436932791 -139.22590399384694 0 0 0 0 -324.79748262368958 -244.38650470819471 0 -244.38650470819471 -128.81755063605624 0 0 0 0 -350.19680649272777 -136.64072829562269 0 -136.64072829562269 -177.07613365152406 0 0 0 0 -100.76272993462044 -142.14496564492299 0 -142.14496564492299 -154.62229036080191 0 0 0 0 -270.62435543500033 -350.22006058993509 0 -350.22006058993509 -144.69361172637127 0 0 0 0 -214.34897176063532 -217.80611831499516 0 -217.80611831499516 -132.47425380624406 0 0 0 0 -160.04325428569427 -213.26884254999595 0 -213.26884254999595 -92.444947083363331 0 0 0 0 -211.45765875004872 -206.02659567103592 0 -206.02659567103592 -52.413772352555497 0 0 0 0 -177.98333482426369 -61.170709022493043 0 -61.170709022493043 164.87854009273133 0 0 0 0 -265.55786199438444 -281.97723809164017 0 -281.97723809164017 49.492112692994624 0 0 0 0 -1.0806451196112903 23.722280004676577 0 23.722280004676577 15.952843889693213 0 0 0 0 -125.77715077353059 -23.646651056606515 0 -23.646651056606515 2.0247568762779338 0 0 0 0 -3.118314470700021 -0.3725700469362323 0 -0.3725700469362323 3.3090540376439384 0 0 0 0 -110.78607272792033 -79.416336241450949 0 -79.416336241450949 7.4956692817240764 0 0 0 0 -76.437398059402767 -1.9758324214926688 0 -1.9758324214926688 -33.156526747547559 0 0 0 0 -148.726803114012 -109.23812125296899 0 -109.23812125296899 -56.980110122213773 0 0 0 0 -2.5182720154795106 -3.4325043122955492 0 -3.4325043122955492 2.5072374834878657 0 0 0 0 -68.826858105690917 -75.48950384036084 0 -75.48950384036084 -47.079552761361811 0 0 0 0 -86.741322239002329 -39.671248241921603 0 -39.671248241921603 -12.988092634494024 0 0 0 0 -102.57467825428466 -80.317501495374472 0 -80.317501495374472 -0.90061407607686306 0 0 0 0 -17.852621904626432 -0.46546381183889274 0 -0.46546381183889274 2.4476839795757117 0 0 0 0 -18.331987184123136 -28.129889161138635 0 -28.129889161138635 38.91846435115076 0 0 0 0 -4.0224813523194172 -13.053975107027711 0 -13.053975107027711 3.6239349753264722 0 0 0 0 -44.611216701542844 -14.575549403046104 0 -14.575549403046104 -8.6459481946003507 0 0 0 0 -8.2303267711401382 -2.2471046837717097 0 -2.2471046837717097 -0.32776330421852506 0 0 0 0 -34.013804476628138 7.5015391763349726 0 7.5015391763349726 26.825920879634396 0 0 0 0 -44.741025965202425 -31.988038470899028 0 -31.988038470899028 46.690526318115644 0 0 0 0 -26.858959001976473 4.43933920052541 0 4.43933920052541 24.733107270407345 0 0 0 0 -26.853429580951342 12.771820161453888 0 12.771820161453888 20.561029291015075 0 0 0 0 -93.712292797121336 -29.421063212469107 0 -29.421063212469107 42.210581398375325 0 0 0 0 -89.635119264894456 -28.648671076332448 0 -28.648671076332448 40.389474492909585 0 0 0 0 -68.103325052023138 -26.617691453435214 0 -26.617691453435214 19.627034845645539 0 0 0 0 -114.7414420547575 -40.034218380208586 0 -40.034218380208586 35.727670229368869 0 0 0 0 -141.28882253278243 -22.910938988973896 0 -22.910938988973896 21.565281397834042 0 0 0 0 -104.89114047538897 -11.949949490731797 0 -11.949949490731797 23.653482684192568 0 0 0 0 -76.565892259328393 -48.181897988523815 0 -48.181897988523815 -5.7375686768136802 0 0 0 0 -211.67128674141713 -258.9380578486298 0 -258.9380578486298 -260.82990129260725 0 0 0 0 -324.52570942434977 -274.33489658463088 0 -274.33489658463088 -131.94312333356766 0 0 0 0 -176.4848162753151 -183.94210062047409 0 -183.94210062047409 -144.29857955214356 0 0 0 0 -88.281537985567411 -157.46690937020003 0 -157.46690937020003 -213.86824520989876 0 0 0 0 -169.36075601062475 -221.47680793284917 0 -221.47680793284917 -173.21237668612639 0 0 0 0 -140.73455655323596 -163.2229471314522 0 -163.2229471314522 -112.62891228425087 0 0 0 0 -28.506530892846058 -52.785030822153203 0 -52.785030822153203 -105.56417922789853 0 0 0 0 -10.945712297259348 -0.58867750403993035 0 -0.58867750403993035 0.89479613909070288 0 0 0 0 -14.018846585158371 21.287044264780647 0 21.287044264780647 29.31107218642137 0 0 0 0 -13.01669391233736 8.1743676226542448 0 8.1743676226542448 20.388682205757505 0 0 0 0 -132.53815231109184 -168.73888122933795 0 -168.73888122933795 -232.46695727789938 0 0 0 0 -143.59940929493314 -165.85332438585374 0 -165.85332438585374 -209.88878852657353 0 0 0 0 -41.72079344522102 -3.5349554375683434 0 -3.5349554375683434 0.97328206752964852 0 0 0 0 18.700448690109624 37.588355397216219 0 37.588355397216219 169.91683455147938 0 0 0 0 -65.539362066356261 57.005611462426941 0 57.005611462426941 108.19639747034944 0 0 0 0 -15.055764436881873 12.39841055844272 0 12.39841055844272 17.857457811135646 0 0 0 0 -27.934789405985086 -0.2694535978458088 0 -0.2694535978458088 4.6208497686976866 0 0 0 0 -22.713796640004233 -4.630718503129243 0 -4.630718503129243 2.5559914031991253 0 0 0 0 -190.81128324237216 -72.88230854249457 0 -72.88230854249457 200.44682638322865 0 0 0 0 -22.62825056615111 14.247167512127817 0 14.247167512127817 27.419369793798069 0 0 0 0 -311.86254364990418 -43.612868996937664 0 -43.612868996937664 425.15665291330606 0 0 0 0 -88.697837116229493 220.4650217359133 0 220.4650217359133 606.94895928081655 0 0 0 0 -419.18260161666331 -204.48226534449668 0 -204.48226534449668 308.75212340396774 0 0 0 0 -74.926090021534037 88.1004072998129 0 88.1004072998129 315.09800595815568 0 0 0 0 103.75861452873141 111.25664831540462 0 111.25664831540462 278.54853542001547 0 0 0 0 -23.400160431219774 78.901575448725566 0 78.901575448725566 277.60206768186617 0 0 0 0 0.025858416668427253 2.1668759265602384 0 2.1668759265602384 5.9949550754586456 0 0 0 0 -54.817297414666569 -9.2663670619047753 0 -9.2663670619047753 7.1403840983184228 0 0 0 0 -117.60464198089903 -79.181745102256173 0 -79.181745102256173 -44.064128535537236 0 0 0 0 -150.14807272396865 17.137558985447868 0 17.137558985447868 87.168894455857753 0 0 0 0 -187.23569662195223 -93.168290402363937 0 -93.168290402363937 -11.195220263894271 0 0 0 0 -180.67738628639017 -202.91681158763066 0 -202.91681158763066 -265.32982881030284 0 0 0 0 -130.34769521166527 -85.336697069040042 0 -85.336697069040042 -145.16700185650848 0 0 0 0 -32.423201022931607 -68.897117308370071 0 -68.897117308370071 171.1052452201933 0 0 0 0 14.588511538051534 0.79349252088832145 0 0.79349252088832145 78.21439153350002 0 0 0 0 -9.6058497696358245 -1.8354971459230001 0 -1.8354971459230001 16.778792528100894 0 0 0 0 -21.697091270279998 -8.6588287500465615 0 -8.6588287500465615 9.0994727043805241 0 0 0 0 -18.621170065511251 -10.080464448757994 0 -10.080464448757994 0.018828955700882943 0 0 0 0 -50.95997042988953 -12.832109629523138 0 -12.832109629523138 7.1375210038890433 0 0 0 0 -17.493611725396477 -9.3047689801232991 0 -9.3047689801232991 -0.33123995769346948 0 0 0 0 -51.985748462092317 -13.930104780842527 0 -13.930104780842527 1.4052618630808453 0 0 0 0 -14.37520496215916 -5.8877353018097223 0 -5.8877353018097223 16.618437623640929 0 0 0 0 -18.281865614230995 -3.718461938141786 0 -3.718461938141786 8.8148499614530316 0 0 0 0 -14.997304178684754 -13.091846708113131 0 -13.091846708113131 5.3160206776863745 0 0 0 0 -34.613141302703298 -9.2366930048517588 0 -9.2366930048517588 0.69697034304445538 0 0 0 0 -148.87421148334397 -45.745062214096379 0 -45.745062214096379 57.804850248565913 0 0 0 0 91.085223499481799 55.664982658843428 0 55.664982658843428 4.6451440137266218 0 0 0 0 -5.1317029055011005 -1.6132480848421054 0 -1.6132480848421054 3.9154295706477211 0 0 0 0 -160.58840815507938 -202.81807655786716 0 -202.81807655786716 -149.25624998777926 0 0 0 0 -0.112668170835871 -6.4486575417758019 0 -6.4486575417758019 2.0892010471920268 0 0 0 0 -794.51605001541611 394.10454283844592 0 394.10454283844592 -550.66560897278396 0 0 0 0 -197.59888280990526 -116.14782770411158 0 -116.14782770411158 -119.4209500884117 0 0 0 0 -211.01697445874743 -164.06189200938422 0 -164.06189200938422 -102.06798002642063 0 0 0 0 -206.68109268466651 -141.56581569220856 0 -141.56581569220856 -24.408434506667561 0 0 0 0 -201.85262059797242 -207.65915123567913 0 -207.65915123567913 -130.51020163676168 0 0 0 0 -162.3388329226085 -219.7867326217642 0 -219.7867326217642 -220.45070460574061 0 0 0 0 -163.4520635431254 -151.27076288356852 0 -151.27076288356852 -81.796340803653038 0 0 0 0 -132.07112282007529 -140.9787640395862 0 -140.9787640395862 -96.218249200295304 0 0 0 0 -260.45789811289433 -282.36086405586394 0 -282.36086405586394 -170.05295181361726 0 0 0 0 -287.06603561597149 -263.05130170760503 0 -263.05130170760503 -150.3028337778477 0 0 0 0 -823.41352240924061 -211.90893245375429 0 -211.90893245375429 -38.273508736300073 0 0 0 0 -487.88647119413508 -511.68074245386583 0 -511.68074245386583 -288.10252596448936 0 0 0 0 -0.44653229888427148 0.16150190525534924 0 0.16150190525534924 0.03768129392905506 0 0 0 0 -811.77582359370717 2.0975403387601546 0 2.0975403387601546 -39.196459433268842 0 0 0 0 -166.37759649233703 -753.06739431409687 0 -753.06739431409687 -407.80113266371359 0 0 0 0 -1292.2866743460545 -1128.5159553447529 0 -1128.5159553447529 -742.63698997869869 0 0 0 0 -527.88633721672522 -400.24070599017273 0 -400.24070599017273 -145.29135933577993 0 0 0 0 288.66488065318117 211.6575655509788 0 211.6575655509788 -645.64140852039918 0 0 0 0 -3.1778315899282461 -277.30451107902644 0 -277.30451107902644 -1031.4162784962098 0 0 0 0 -332.51803653293609 -250.10527470652073 0 -250.10527470652073 -193.55015584445118 0 0 0 0 12.052226148298359 -279.45669626907875 0 -279.45669626907875 -398.04790337234829 0 0 0 0 -352.56723393764332 -443.43162800671666 0 -443.43162800671666 -427.14464645305657 0 0 0 0 112.51160867714498 -257.26163208517391 0 -257.26163208517391 -459.14431124489028 0 0 0 0 98.728410022566095 76.214352992340537 0 76.214352992340537 -111.47638683385912 0 0 0 0 -70.360323718152358 -36.528735400982896 0 -36.528735400982896 34.232116925203172 0 0 0 0 -22.873974118025217 -0.99849622204260413 0 -0.99849622204260413 -1.0695114163545441 0 0 0 0 -68.737554943581927 -20.300022046192225 0 -20.300022046192225 10.28126045306135 0 0 0 0 -42.40869741600909 20.252426467741088 0 20.252426467741088 29.338963476217032 0 0 0 0 -45.35981977341541 -9.2321634206884085 0 -9.2321634206884085 4.9115231090329257 0 0 0 0 -300.31737540823815 37.674809327268122 0 37.674809327268122 -85.846986143419826 0 0 0 0 -56.498743168922374 14.836326590236695 0 14.836326590236695 44.663284145856778 0 0 0 0 -63.370972216536757 -3.4533387359729204 0 -3.4533387359729204 25.739019025431332 0 0 0 0 -40.877941756916698 5.951196177318252 0 5.951196177318252 29.225212224557708 0 0 0 0 -70.408923183316801 3.1172208876982097 0 3.1172208876982097 43.102012459464049 0 0 0 0 -48.593258976150537 12.335484088640953 0 12.335484088640953 26.13086014896453 0 0 0 0 -84.622617789922515 -30.793961892058974 0 -30.793961892058974 8.0388441134427921 0 0 0 0 -53.076866855197295 -4.3979007855066357 0 -4.3979007855066357 14.459887050868019 0 0 0 0 -2645.0187261598403 -432.27322244742822 0 -432.27322244742822 -27.320394718376278 0 0 0 0 -8.9774682720321053 9.5543775821631129 0 9.5543775821631129 10.268295217063084 0 0 0 0 -2639.7497887622667 -12.700550470738222 0 -12.700550470738222 3.3958401755098748 0 0 0 0 -2412.1559212187931 -593.76378056761962 0 -593.76378056761962 -614.12572440764961 0 0 0 0 -2633.196882462576 -470.15359602934825 0 -470.15359602934825 -176.30446212360192 0 0 0 0 0.3263674850222742 1.8298351248663671 0 1.8298351248663671 -0.43199058489119369 0 0 0 0 -3657.8527764244354 -857.60064460073875 0 -857.60064460073875 -193.76778954878597 0 0 0 0 -3086.8837629609116 -506.27038607957161 0 -506.27038607957161 -93.559032207099222 0 0 0 0 -2417.1909650821108 -408.97251034477034 0 -408.97251034477034 -342.00078806684434 0 0 0 0 -2499.6913301822242 -413.49303697624822 0 -413.49303697624822 -314.2400093584049 0 0 0 0 -2499.70803180847 -360.70850047087578 0 -360.70850047087578 -370.08442072641094 0 0 0 0 -2961.1691871785515 -989.34840895901141 0 -989.34840895901141 -814.69780504957544 0 0 0 0 -1964.0835458531474 -410.76762468811739 0 -410.76762468811739 -703.19699653976716 0 0 0 0 -3614.0230599828865 -886.64247456722444 0 -886.64247456722444 -251.31521969755147 0 0 0 0 -7.6250604674558904 -3.2425634561122791 0 -3.2425634561122791 -5.9799796217657804 0 0 0 0 -1943.0727117113038 -232.41428349673532 0 -232.41428349673532 110.4379940876978 0 0 0 0 -2392.5504552912389 -62.231320893159847 0 -62.231320893159847 211.90906485142531 0 0 0 0 -2500.0980370386715 -38.830489671860576 0 -38.830489671860576 389.76740413663703 0 0 0 0 -2015.148422024984 -226.37572612984098 0 -226.37572612984098 225.78659560577083 0 0 0 0 -1969.2329047606077 -20.906378231734237 0 -20.906378231734237 382.30880496316604 0 0 0 0 -2329.0479703929814 296.46407685829286 0 296.46407685829286 225.55906692546961 0 0 0 0 -2135.0323794233591 -125.53887060419609 0 -125.53887060419609 307.40540002643911 0 0 0 0 -298.40899747408548 -263.85174222505111 0 -263.85174222505111 -150.04592777600465 0 0 0 0 -243.78303295045407 -4.3397938465593597 0 -4.3397938465593597 34.121005619570383 0 0 0 0 -0.4077845218088143 1.9400919040779812 0 1.9400919040779812 5.1441463969501076 0 0 0 0 -103.16521273741091 -75.420124910181585 0 -75.420124910181585 -77.236552215682877 0 0 0 0 -1398.6255940607371 -102.52163439093891 0 -102.52163439093891 206.28540923080183 0 0 0 0 -54.784193468054582 42.848169592233262 0 42.848169592233262 51.667741973410557 0 0 0 0 -50.425962427646482 -95.972818459927325 0 -95.972818459927325 -63.15647777788854 0 0 0 0 -18.962995239366137 16.837433086335295 0 16.837433086335295 52.811419928662872 0 0 0 0 -27.580311272162362 41.410313415636665 0 41.410313415636665 -13.656752759017081 0 0 0 0 -2.2779262158466409 7.5363222190743429 0 7.5363222190743429 15.912964116700726 0 0 0 0 -48.30991635376995 18.940279672469842 0 18.940279672469842 79.232071970979632 0 0 0 0 -25.083556806921237 -12.387091308109735 0 -12.387091308109735 -0.32484109123740595 0 0 0 0 -154.88738167386691 -75.570889049033894 0 -75.570889049033894 245.18454605543974 0 0 0 0 116.71171448563109 -85.013746770458056 0 -85.013746770458056 199.49076712782124 0 0 0 0 -2499.5402477818898 84.906016189175432 0 84.906016189175432 -36.268464979990249 0 0 0 0 -2592.1044658371356 108.8827152787018 0 108.8827152787018 201.57037909617068 0 0 0 0 -1932.0962039498081 308.46848447264813 0 308.46848447264813 -117.56287430231896 0 0 0 0 -2447.742090323994 100.29814316136714 0 100.29814316136714 110.76311834632105 0 0 0 0 -2764.9038122921843 -189.07608718809519 0 -189.07608718809519 -158.64083288854241 0 0 0 0 -2545.6313891637292 1367.0066059964447 0 1367.0066059964447 -209.17614714600302 0 0 0 0 -5.3438443979664783 2.5202797693305246 0 2.5202797693305246 3.5813228800335537 0 0 0 0 -1208.8149742790993 -1162.1813078252731 0 -1162.1813078252731 -1120.0302488273981 0 0 0 0 -5.5382909501446242 -3.250475290550348 0 -3.250475290550348 3.2798089130119088 0 0 0 0 -4127.4682347676498 -577.88270523250378 0 -577.88270523250378 702.41213123561852 0 0 0 0 -2549.1056789575523 455.25686514028837 0 455.25686514028837 -833.52385800874026 0 0 0 0 -2442.6911389218476 224.209088056224 0 224.209088056224 -16.38833497841631 0 0 0 0 -2516.4644180986324 226.82010720717889 0 226.82010720717889 490.29852251078762 0 0 0 0 -2500.2904789343556 122.08670038328401 0 122.08670038328401 309.99701023795615 0 0 0 0 -2593.7772251393653 -125.16029353252392 0 -125.16029353252392 535.15018639047184 0 0 0 0 -2110.1106418233139 514.84186090955143 0 514.84186090955143 522.92982100838253 0 0 0 0 -1767.9677629052203 396.82335215371734 0 396.82335215371734 445.06652158840279 0 0 0 0 -2209.2542761686673 -33.373293136682804 0 -33.373293136682804 477.43437494225589 0 0 0 0 -2739.588153506993 224.73221799848341 0 224.73221799848341 483.79442628979194 0 0 0 0 -1159.1340768901791 -359.42673532651486 0 -359.42673532651486 388.90306938011389 0 0 0 0 -564.3165329271942 -262.22055964024946 0 -262.22055964024946 71.949911135975299 0 0 0 0 -1124.1494156746921 -213.12859664480391 0 -213.12859664480391 237.7875965351617 0 0 0 0 57.873227940743163 123.59113361571588 0 123.59113361571588 -138.64750322432735 0 0 0 0 42.313239347654161 -365.98223517786698 0 -365.98223517786698 575.04976925964729 0 0 0 0 72.886077632912929 -51.109700117735713 0 -51.109700117735713 157.52696858874612 0 0 0 0 -21.197861374531698 -7.0764854079406572 0 -7.0764854079406572 -0.93007654239387505 0 0 0 0 -54.32765402665791 -103.65528395685079 0 -103.65528395685079 626.33398690468778 0 0 0 0 -763.72209730869145 523.24841217566677 0 523.24841217566677 347.84540508301802 0 0 0 0 -269.64753588174608 -594.60429535065703 0 -594.60429535065703 145.35125190975202 0 0 0 0 121.55416194666577 61.754803697976207 0 61.754803697976207 131.37855245331258 0 0 0 0 20.491230914045445 -158.41461825588533 0 -158.41461825588533 -17.442683345003559 0 0 0 0 -37.669554899166542 -76.400763295921479 0 -76.400763295921479 15.216412610747454 0 0 0 0 102.75748728156395 -58.928826105551423 0 -58.928826105551423 2.5826977453675681 0 0 0 0 -159.65664856466537 -32.482241358664623 0 -32.482241358664623 258.3548390378179 0 0 0 0 -161.88799583647415 -146.53305306098935 0 -146.53305306098935 61.617136912737237 0 0 0 0 -2499.8150472643301 57.299981228433403 0 57.299981228433403 493.18689719055493 0 0 0 0 -2499.8199180391057 57.837051835167173 0 57.837051835167173 -79.918164765037119 0 0 0 0 -2501.9448062371557 340.99470073924431 0 340.99470073924431 275.53691118941236 0 0 0 0 -1610.2551788702458 -537.57114630257558 0 -537.57114630257558 320.74249287666112 0 0 0 0 -11.491044638475387 -3.2554390189282572 0 -3.2554390189282572 -0.39999918301669363 0 0 0 0 -439.81491915648439 278.77558529609092 0 278.77558529609092 -53.52513871681856 0 0 0 0 -233.40156896693316 -164.84780244755305 0 -164.84780244755305 20.702155059948382 0 0 0 0 -423.20376236188167 122.93179114187154 0 122.93179114187154 141.03365702023052 0 0 0 0 -338.62217205017078 99.598956076999258 0 99.598956076999258 -185.49304588430013 0 0 0 0 -2.9646766510563296 -1.2331766549843586 0 -1.2331766549843586 -0.60056240214187806 0 0 0 0 18.845724347371288 -34.231990836178397 0 -34.231990836178397 18.376220786478111 0 0 0 0 21.715891448711773 41.511781102975533 0 41.511781102975533 9.8752767898459979 0 0 0 0 18.262981249685254 16.507294283454513 0 16.507294283454513 135.21188445722646 0 0 0 0 16.649764432284428 60.812719979503413 0 60.812719979503413 32.794152654349205 0 0 0 0 45.25254246780969 1.5024364015577589 0 1.5024364015577589 32.018113087971557 0 0 0 0 64.417425629970239 -152.02512939582033 0 -152.02512939582033 245.36888833274438 0 0 0 0 60.851434896881983 3.9281521791779426 0 3.9281521791779426 134.7068668464027 0 0 0 0 -110.15551943026185 -25.132979871578982 0 -25.132979871578982 142.68852346275048 0 0 0 0 -83.880700855395844 -206.32187558080943 0 -206.32187558080943 422.9633491129556 0 0 0 0 -16.197750578971579 -5.569632362701201 0 -5.569632362701201 -0.67830242933378915 0 0 0 0 60.438080237829126 -244.52590922839636 0 -244.52590922839636 496.76579320467113 0 0 0 0 34.180744687575498 -247.75993984491714 0 -247.75993984491714 518.58467608907881 0 0 0 0 -60.350533192483681 190.2429761128123 0 190.2429761128123 109.21692545495557 0 0 0 0 -346.61490558876903 43.187446414193573 0 43.187446414193573 110.87481244564924 0 0 0 0 -464.60827166612398 118.68282984997626 0 118.68282984997626 235.58289265021631 0 0 0 0 -531.16633838919734 136.72705387363237 0 136.72705387363237 292.11857353232051 0 0 0 0 -6.3609677144833228 -1.9562936165103917 0 -1.9562936165103917 -0.014620482535143697 0 0 0 0 -760.17634852067931 -62.540177523346188 0 -62.540177523346188 210.29114075624784 0 0 0 0 150.49460875831937 -137.60547985261888 0 -137.60547985261888 383.66345922686128 0 0 0 0 -955.25709703711982 -491.67058683073128 0 -491.67058683073128 1082.9935426698894 0 0 0 0 73.982575550600814 -263.72940509244393 0 -263.72940509244393 514.26415892435398 0 0 0 0 -67.470759714175074 -114.96587940746736 0 -114.96587940746736 -377.76571759682793 0 0 0 0 350.03071147593073 -636.4760249006888 0 -636.4760249006888 -515.12159341799725 0 0 0 0 111.34422282048854 -223.12378768042629 0 -223.12378768042629 -1455.327816407186 0 0 0 0 -5.3142253881028836 -5.3283342285353053 0 -5.3283342285353053 -1.1975990616788821 0 0 0 0 -289.92430843256261 -695.06401330604638 0 -695.06401330604638 -984.84133711127834 0 0 0 0 -150.04944136177073 -22.040519263111946 0 -22.040519263111946 199.30422741602183 0 0 0 0 -21.147902755936883 -12.619310608089609 0 -12.619310608089609 -2.201572363672657 0 0 0 0 133.52957232376502 -128.54549043486151 0 -128.54549043486151 247.83253348975697 0 0 0 0 61.764965216025303 -260.99177901972445 0 -260.99177901972445 524.89905449337334 0 0 0 0 -14.771511507574758 -11.203972150853771 0 -11.203972150853771 -1.9077149570442358 0 0 0 0 -40.503057585156057 -341.57344223533164 0 -341.57344223533164 -492.66206202462809 0 0 0 0 -75.483735099671321 -177.08890551094373 0 -177.08890551094373 -237.86121648410926 0 0 0 0 -553.10019716964598 -628.46260945051495 0 -628.46260945051495 -398.70216095049955 0 0 0 0 19.573826539492075 50.081629598545049 0 50.081629598545049 -149.32761290169037 0 0 0 0 -227.1076029064352 -260.98408508534089 0 -260.98408508534089 -252.24417783454555 0 0 0 0 -288.78648615092243 -241.08739942258092 0 -241.08739942258092 -114.24866409154103 0 0 0 0 -79.748714920991915 -54.767755610719178 0 -54.767755610719178 -111.63186995901879 0 0 0 0 -264.78285810852685 -257.14045550773221 0 -257.14045550773221 -196.5403646887919 0 0 0 0 -982.91604364172235 -503.22682262083936 0 -503.22682262083936 -60.845218849003913 0 0 0 0 -515.81094934341672 -417.47041256202101 0 -417.47041256202101 -238.83104980126336 0 0 0 0 -236.77656793289134 -261.90522717613976 0 -261.90522717613976 -230.47039932563212 0 0 0 0 -692.66706380007054 -140.2164768050888 0 -140.2164768050888 -57.512274361794425 0 0 0 0 106.39398150873058 -194.73017072854293 0 -194.73017072854293 182.24117512444536 0 0 0 0 -403.58700224515633 -81.325588646209326 0 -81.325588646209326 -86.753407572156902 0 0 0 0 -281.63410817043768 -57.877769764068262 0 -57.877769764068262 -108.7988241049643 0 0 0 0 -232.65574720128279 -144.20093376653381 0 -144.20093376653381 -105.31923343936887 0 0 0 0 -290.11498692938039 -176.70788756299385 0 -176.70788756299385 -116.17940035232323 0 0 0 0 -465.84096221588698 -183.42866396681188 0 -183.42866396681188 -85.995498168210815 0 0 0 0 -363.79274566399909 -298.8593731512417 0 -298.8593731512417 -170.00298900817279 0 0 0 0 -267.73656967670104 -249.50186386582675 0 -249.50186386582675 -144.67190512239063 0 0 0 0 -280.29318975869683 -243.7986044417022 0 -243.7986044417022 -145.65843606080944 0 0 0 0 -273.45715126187133 -272.1880886455333 0 -272.1880886455333 -155.07234364219289 0 0 0 0 -356.75385069933282 -205.16291676421139 0 -205.16291676421139 -145.37112610070517 0 0 0 0 -368.20468072190124 -245.298757042669 0 -245.298757042669 -184.35082754854608 0 0 0 0 19.513817650833516 -404.42987219590555 0 -404.42987219590555 -268.51660661046492 0 0 0 0 -44.933752638469741 -285.63786511802175 0 -285.63786511802175 -322.67290561461004 0 0 0 0 978.5726143683587 -138.13263687948688 0 -138.13263687948688 -573.22724928405614 0 0 0 0 0.39738049204938264 -1.000514687485925 0 -1.000514687485925 -0.036325236025193774 0 0 0 0 219.69911484561453 68.930307010487468 0 68.930307010487468 -68.389004951804509 0 0 0 0 322.7888072220303 -249.24746582021828 0 -249.24746582021828 -422.44015339927864 0 0 0 0 -6.8282187543197068 0.056314082694383316 0 0.056314082694383316 0.58790002952659637 0 0 0 0 100.33269930267397 -1332.0258620291647 0 -1332.0258620291647 -363.14297859775536 0 0 0 0 84.913769692735514 -315.31640543197841 0 -315.31640543197841 -488.7593598218794 0 0 0 0 -231.81117928742606 -336.58763405955062 0 -336.58763405955062 232.14647943401781 0 0 0 0 -36.641120672262332 -139.85684763183656 0 -139.85684763183656 -326.13631114612292 0 0 0 0 -2.3508055329584749 131.76711920689343 0 131.76711920689343 450.95097576837099 0 0 0 0 -19.985928905750953 1.6946549339979295 0 1.6946549339979295 2.0778834706950153 0 0 0 0 -552.71065465032916 -145.36978808478307 0 -145.36978808478307 217.90685308662057 0 0 0 0 -111.06967287349653 199.04426640332656 0 199.04426640332656 173.00931091365976 0 0 0 0 -24.065317876395056 -208.33942110031489 0 -208.33942110031489 -212.73088289379484 0 0 0 0 -5.1525189410722305 7.8489992887755307 0 7.8489992887755307 162.7244053638583 0 0 0 0 45.866531429390307 116.37094149086772 0 116.37094149086772 253.73216902833531 0 0 0 0 -258.88075839435987 -320.35570809726642 0 -320.35570809726642 -90.898430643006577 0 0 0 0 -28.371304331725696 -65.096487029074297 0 -65.096487029074297 85.430827442773762 0 0 0 0 -436.3034122325007 -92.545382975401026 0 -92.545382975401026 192.02746360978267 0 0 0 0 -167.55836907209778 -29.192509666030446 0 -29.192509666030446 238.29720524315735 0 0 0 0 -124.69772821506558 148.19473557356116 0 148.19473557356116 383.52767892284407 0 0 0 0 -27.4490169548328 4.1532633505828436 0 4.1532633505828436 1.4224295517962005 0 0 0 0 17.269336022622156 -40.177621632181413 0 -40.177621632181413 -151.2927293848702 0 0 0 0 38.544932818398593 82.692804706456513 0 82.692804706456513 60.855158335240958 0 0 0 0 51.674512614143168 91.412165644159018 0 91.412165644159018 -4.3397422597799959 0 0 0 0 72.510964344185595 28.205230894362728 0 28.205230894362728 9.2381492691463336 0 0 0 0 -28.432866113017788 4.3618759762828034 0 4.3618759762828034 2.0854754735797876 0 0 0 0 79.405110657564364 35.608496453327405 0 35.608496453327405 -83.609903821991338 0 0 0 0 -23.307791283412371 -65.172978684264763 0 -65.172978684264763 4.2938238327107001 0 0 0 0 -144.07358837166248 -141.29909560738588 0 -141.29909560738588 -131.53558630165344 0 0 0 0 -50.784223441149152 -5.7475863201200355 0 -5.7475863201200355 -37.379271246884855 0 0 0 0 -229.22747008245278 -62.742189843769324 0 -62.742189843769324 -50.952819610281836 0 0 0 0 -206.2129901544904 -108.54422654242921 0 -108.54422654242921 -237.4828589299641 0 0 0 0 -529.87960730364284 -285.70407990039394 0 -285.70407990039394 -101.51091140296262 0 0 0 0 -542.50352467505218 -201.49653075897641 0 -201.49653075897641 -66.699506293112563 0 0 0 0 -843.88007583623767 -294.36881017583028 0 -294.36881017583028 -83.882083645762123 0 0 0 0 -392.17660159222396 -319.08646427995518 0 -319.08646427995518 -429.24805501820265 0 0 0 0 -710.30398808830842 44.473232808965236 0 44.473232808965236 -184.4809968462946 0 0 0 0 -871.78669278193775 -612.05433846690062 0 -612.05433846690062 -177.61945063501483 0 0 0 0 -330.35484039795301 79.070081992340363 0 79.070081992340363 23.012859276516792 0 0 0 0 -313.60744781614903 161.1038021279148 0 161.1038021279148 -69.445571731661857 0 0 0 0 -1.3627858887157629 -1.6361684021305436 0 -1.6361684021305436 -2.2740256784029853 0 0 0 0 -208.12722388010297 47.694864286416589 0 47.694864286416589 -32.395594774280198 0 0 0 0 -162.90441456744156 -117.67358660178616 0 -117.67358660178616 -39.527836583321914 0 0 0 0 -547.96539318426585 -104.78352248540546 0 -104.78352248540546 9.1825275870087353 0 0 0 0 -212.28985211103281 119.5359913495405 0 119.5359913495405 -178.46971750895591 0 0 0 0 -1.1451540394208308 -0.67567248803072033 0 -0.67567248803072033 -1.153885785989349 0 0 0 0 -1045.0986322261451 -285.48873121791166 0 -285.48873121791166 34.553965950625752 0 0 0 0 -188.89047216121253 -207.89773476188384 0 -207.89773476188384 -238.81590849659369 0 0 0 0 -439.23747410869692 -365.16252822982966 0 -365.16252822982966 -73.277338473808868 0 0 0 0 -209.64267861617554 -262.58388419400308 0 -262.58388419400308 -43.376309075220661 0 0 0 0 -355.30674397711846 -120.71325821168011 0 -120.71325821168011 3.2118988146693823 0 0 0 0 -340.2862685060245 -292.87488746810232 0 -292.87488746810232 0.80545184758420874 0 0 0 0 -257.48184666338057 -309.06914234429541 0 -309.06914234429541 -46.17125047399395 0 0 0 0 -273.99576349914059 -293.02660106735766 0 -293.02660106735766 45.884049854253135 0 0 0 0 8.8944566832033161 -196.19224787913799 0 -196.19224787913799 -36.115765149484105 0 0 0 0 -243.83319746868801 -193.84377395279262 0 -193.84377395279262 78.348650671624 0 0 0 0 -8.3995717673900927 1.4034030058002713 0 1.4034030058002713 0.62739194394421105 0 0 0 0 -279.63575582408885 -144.56402291122481 0 -144.56402291122481 -78.834361799245016 0 0 0 0 -80.174995854256849 34.610879521464994 0 34.610879521464994 77.623134185536401 0 0 0 0 -6.7562459868924734 2.3006206482990237 0 2.3006206482990237 6.3586568210556136 0 0 0 0 -228.22180277152074 119.04496318354097 0 119.04496318354097 105.22992835480153 0 0 0 0 -5.2995003522155457 -53.901801153270526 0 -53.901801153270526 14.278171756079246 0 0 0 0 -180.62135735760967 166.48313051156669 0 166.48313051156669 81.831676971603429 0 0 0 0 27.129954195042956 4.0672131124879343 0 4.0672131124879343 -180.47859672802028 0 0 0 0 -328.17201115687203 375.02033187192592 0 375.02033187192592 -175.66705275425142 0 0 0 0 -355.35981984276805 350.67549789480898 0 350.67549789480898 -110.95595523226666 0 0 0 0 -161.3358394674633 403.88017826868281 0 403.88017826868281 -644.97617907951962 0 0 0 0 -19.540598738551438 7.9534711932284896 0 7.9534711932284896 -0.77726410849619798 0 0 0 0 -216.66705895352789 -56.931508743161885 0 -56.931508743161885 -25.080508459648627 0 0 0 0 -108.56140925002364 -108.54016350047857 0 -108.54016350047857 -165.01054090485104 0 0 0 0 -234.27641467432295 -407.33659780300752 0 -407.33659780300752 -424.74817161620558 0 0 0 0 -1182.5618221843761 143.73394929678443 0 143.73394929678443 -279.99704259249984 0 0 0 0 -1625.7183084430872 439.13439380704813 0 439.13439380704813 -456.99219106957662 0 0 0 0 -1211.810105104254 -463.88843637369973 0 -463.88843637369973 -366.68391718976704 0 0 0 0 -7.3481080060701345 2.9842853421169053 0 2.9842853421169053 -1.7724481853124985 0 0 0 0 -902.34920404521108 652.71796003604436 0 652.71796003604436 -259.13693821119136 0 0 0 0 -532.63896192983157 154.22560629297232 0 154.22560629297232 -148.66931846607963 0 0 0 0 -1341.5642535084098 -342.28907170887726 0 -342.28907170887726 -452.67241086946751 0 0 0 0 -691.90844347068924 293.67806403576947 0 293.67806403576947 -1092.4502368758463 0 0 0 0 -322.43924068340857 88.491487951166391 0 88.491487951166391 -449.21721112306318 0 0 0 0 -592.09177098731379 -171.99515487202416 0 -171.99515487202416 -109.92178733133392 0 0 0 0 -121.82994918846452 -86.532420889981381 0 -86.532420889981381 -578.78162851370882 0 0 0 0 -473.29984451697965 -19.772549936009 0 -19.772549936009 -250.44814192679178 0 0 0 0 -150.60903150501326 19.598863227030733 0 19.598863227030733 -465.05029505817538 0 0 0 0 -357.35227124306766 -41.722111299997096 0 -41.722111299997096 -843.68968921864507 0 0 0 0 -253.0781164818145 269.65795282468218 0 269.65795282468218 -371.15276125935179 0 0 0 0 -281.65346904319995 -72.069748615025361 0 -72.069748615025361 741.62690978121918 0 0 0 0 -107.18840843677026 -88.341165991171124 0 -88.341165991171124 -97.11267089021726 0 0 0 0 -424.3296659306634 133.35247318841576 0 133.35247318841576 146.41137697680813 0 0 0 0 -580.06086090037297 478.95220312112099 0 478.95220312112099 57.17855335229865 0 0 0 0 -486.48463648684628 12.617394220524886 0 12.617394220524886 -20.11862415557556 0 0 0 0 -160.75479197267123 437.90091076937972 0 437.90091076937972 106.07399537574474 0 0 0 0 48.272195542729605 -153.6498327191415 0 -153.6498327191415 269.90425240712062 0 0 0 0 -530.17028525762726 437.28413542606881 0 437.28413542606881 253.73229941000159 0 0 0 0 -486.49483560083536 374.81430230759247 0 374.81430230759247 139.05972706319619 0 0 0 0 -480.89574173357005 351.36687604884736 0 351.36687604884736 111.88670945938685 0 0 0 0 -448.99156587499965 327.63286841769411 0 327.63286841769411 43.125797086576647 0 0 0 0 30.850319908295205 64.490327765799805 0 64.490327765799805 48.278928710094078 0 0 0 0 -459.06771219375855 -45.877287192693601 0 -45.877287192693601 218.99419540355439 0 0 0 0 -877.53140306634305 251.91317249330996 0 251.91317249330996 220.58978995226732 0 0 0 0 -264.46927239853176 150.32164945976757 0 150.32164945976757 -62.591814438348649 0 0 0 0 -682.97301091497911 -306.32086388609287 0 -306.32086388609287 -474.01913179308099 0 0 0 0 -2.7992705200158525 266.5466081807474 0 266.5466081807474 -1129.0032410754868 0 0 0 0 -1010.2300339909125 293.39831403785706 0 293.39831403785706 -454.83661211873368 0 0 0 0 -284.88517001449509 -4.5677553136667939 0 -4.5677553136667939 -332.55710596149038 0 0 0 0 -371.9560638155076 -9.6973824008009828 0 -9.6973824008009828 105.15181847558165 0 0 0 0 -667.96075601356279 155.68249599114154 0 155.68249599114154 12.87044424747296 0 0 0 0 -372.96338931125774 -254.43625171704792 0 -254.43625171704792 -384.18489500641863 0 0 0 0 -344.05111549838057 -76.536955971182778 0 -76.536955971182778 47.569552936125383 0 0 0 0 -211.68261349285604 -421.1536376891188 0 -421.1536376891188 -976.65009125063489 0 0 0 0 -14.332713198790387 -1.5679225428729655 0 -1.5679225428729655 -0.51946577697255614 0 0 0 0 -1032.6481902891269 -488.41992972249756 0 -488.41992972249756 -428.90127609272349 0 0 0 0 -33.171726659915294 -36.01115044006383 0 -36.01115044006383 -484.33860881834926 0 0 0 0 -107.03115189663549 -281.36119715639154 0 -281.36119715639154 -291.01491628799965 0 0 0 0 -8.8367359384710653 -107.35560600707834 0 -107.35560600707834 -310.29168980375789 0 0 0 0 -37.61894728188976 -5.9265204476220186 0 -5.9265204476220186 0.16051253665354165 0 0 0 0 -353.05222224257886 -186.50189807393701 0 -186.50189807393701 -23.039636206421619 0 0 0 0 -394.44557336157231 -168.84966192371246 0 -168.84966192371246 -30.54651494638523 0 0 0 0 -410.82996913690477 -136.07870145022088 0 -136.07870145022088 -95.034620321854959 0 0 0 0 -460.98271291763012 -100.98587700501207 0 -100.98587700501207 60.389762495302421 0 0 0 0 -562.45512082752612 -15.691873278592652 0 -15.691873278592652 59.678756453023638 0 0 0 0 -673.70667035622864 -253.90615949707865 0 -253.90615949707865 28.843904113577082 0 0 0 0 -557.99282812461388 -166.78184267982829 0 -166.78184267982829 83.052556131963968 0 0 0 0 -344.40370995550256 -168.92196843112424 0 -168.92196843112424 -39.731555540412046 0 0 0 0 -449.05522637809918 -229.73162350728069 0 -229.73162350728069 -16.303153343463237 0 0 0 0 -401.23330140687722 -146.71275805838161 0 -146.71275805838161 25.612821169188919 0 0 0 0 -344.93309660939633 -129.54606868567646 0 -129.54606868567646 6.3701599208457083 0 0 0 0 -315.85241111851792 -168.21173615234102 0 -168.21173615234102 -14.953257270238169 0 0 0 0 -164.13934685579443 -109.94458481092511 0 -109.94458481092511 -50.03623850957203 0 0 0 0 18.215729875309989 64.623285302361865 0 64.623285302361865 2.4664177457630103 0 0 0 0 -240.4559888348158 -63.343053182975495 0 -63.343053182975495 46.436710109366231 0 0 0 0 -1.3287740781780286 -3.0106129974911511 0 -3.0106129974911511 -1.3501169014514378 0 0 0 0 124.78524667753754 -339.66140528795381 0 -339.66140528795381 132.28629242854697 0 0 0 0 133.88933772028031 -88.7393377067541 0 -88.7393377067541 -71.227094644013505 0 0 0 0 418.31506976833771 42.150097429794158 0 42.150097429794158 -885.52001809261219 0 0 0 0 -440.33630403449934 -5.4791349092890869 0 -5.4791349092890869 526.43964813348634 0 0 0 0 -1.2403356733444646 -1.8770584720735606 0 -1.8770584720735606 -2.4847712736533896 0 0 0 0 -401.61381860886104 -163.96408107221055 0 -163.96408107221055 -16.376836073787643 0 0 0 0 -385.89331938554824 -161.77361650683849 0 -161.77361650683849 48.477064230351274 0 0 0 0 -275.79208786833988 -10.669664267012308 0 -10.669664267012308 98.908173647761373 0 0 0 0 -344.32933181275257 -240.04484936067985 0 -240.04484936067985 -291.82237171543943 0 0 0 0 -253.87572330011972 37.237259887386813 0 37.237259887386813 -590.99566159806204 0 0 0 0 -464.42310100269242 233.59260455686638 0 233.59260455686638 -104.9024715214706 0 0 0 0 0.042317227735296115 -0.028799909404639834 0 -0.028799909404639834 -3.4679121519071581 0 0 0 0 184.06407535379913 -59.391015887022434 0 -59.391015887022434 -714.18703793841814 0 0 0 0 -118.62886513177546 147.15483995334699 0 147.15483995334699 -453.5900797215931 0 0 0 0 -318.86713063805291 179.45369538855118 0 179.45369538855118 142.90559113856398 0 0 0 0 -296.87247237334577 18.812478124598456 0 18.812478124598456 12.006931072336101 0 0 0 0 -341.4279308452069 236.16128779077903 0 236.16128779077903 84.265569949306382 0 0 0 0 -0.72436355025495658 -0.60908462537092234 0 -0.60908462537092234 0.0028280820049704225 0 0 0 0 -522.24947952179355 -89.728912220847931 0 -89.728912220847931 195.427928831477 0 0 0 0 -121.97510102072192 -19.526323819603505 0 -19.526323819603505 -56.963775554719462 0 0 0 0 -270.05953492813569 -24.77874595147216 0 -24.77874595147216 42.449933929277336 0 0 0 0 -442.51923165509652 164.58152193899957 0 164.58152193899957 33.006728774816111 0 0 0 0 -316.51773265915472 100.9371191944806 0 100.9371191944806 -33.950999093896826 0 0 0 0 -312.62408735508507 142.979745612378 0 142.979745612378 -130.58388913383021 0 0 0 0 -343.95912302923534 82.653198557015344 0 82.653198557015344 -7.6359642025751668 0 0 0 0 -258.27554111305653 45.157969564002542 0 45.157969564002542 -161.34624031417627 0 0 0 0 -321.76399628979561 74.968190775961602 0 74.968190775961602 -171.3166136065667 0 0 0 0 -317.24851864261473 100.12390959296266 0 100.12390959296266 -88.123967192447026 0 0 0 0 -333.93398862068898 6.2639381455556418 0 6.2639381455556418 -178.10795003861926 0 0 0 0 -411.69170983809818 153.57023551216463 0 153.57023551216463 -53.66303065069701 0 0 0 0 -402.56059495118461 87.247796195529247 0 87.247796195529247 71.330132400258563 0 0 0 0 -408.36216078154393 46.833627854124018 0 46.833627854124018 -104.4623770535261 0 0 0 0 -340.61135075294806 128.5316121509785 0 128.5316121509785 -88.925280928943891 0 0 0 0 -357.12839982536752 129.3355564277455 0 129.3355564277455 -84.967332955138488 0 0 0 0 -339.14228970366094 140.8983258881936 0 140.8983258881936 -83.074739117565855 0 0 0 0 -341.32785235379197 119.34144920946648 0 119.34144920946648 -103.24530658445087 0 0 0 0 -306.9959549505038 131.74841524783233 0 131.74841524783233 -98.924628936262309 0 0 0 0 -296.07280229297385 75.185301681701276 0 75.185301681701276 -99.386685345845933 0 0 0 0 -342.12556902638607 53.855644589496393 0 53.855644589496393 -36.497446926385521 0 0 0 0 -296.45446749508847 58.968921615784524 0 58.968921615784524 -54.529394671745322 0 0 0 0 -297.16890761604009 4.46114948492351 0 4.46114948492351 -42.391189423682135 0 0 0 0 -211.95058754649654 55.599392607690447 0 55.599392607690447 -25.710818261496627 0 0 0 0 -288.56032539491571 30.252651768885446 0 30.252651768885446 -7.5683288275072016 0 0 0 0 -247.7388991366841 25.754271275833165 0 25.754271275833165 36.922785570557778 0 0 0 0 -248.83847935402082 60.836188622538913 0 60.836188622538913 -36.828165750774957 0 0 0 0 -301.43220464275873 71.166792443195789 0 71.166792443195789 -3.8357578989825356 0 0 0 0 -245.28410203597923 74.932386293188756 0 74.932386293188756 -64.444860923046576 0 0 0 0 -241.32937140675222 92.141056391006344 0 92.141056391006344 10.428514533404439 0 0 0 0 -162.75258421383842 45.104447397606066 0 45.104447397606066 -104.73955143287984 0 0 0 0 -144.59128859099656 42.423813072150722 0 42.423813072150722 -46.45945578755115 0 0 0 0 -0.52926659108816665 -0.28635164045857664 0 -0.28635164045857664 -4.8143448143595444 0 0 0 0 -346.02997820789369 302.04145716754061 0 302.04145716754061 379.723462291842 0 0 0 0 -350.67298976744405 -156.30600682837519 0 -156.30600682837519 -54.773005784763654 0 0 0 0 -519.44807485177716 4.5626272034775752 0 4.5626272034775752 -130.49336278715964 0 0 0 0 -1.2773891359595719 -1.6301944056016886 0 -1.6301944056016886 -0.36677024584351386 0 0 0 0 -164.82407977832554 6.042499357442864 0 6.042499357442864 -26.215837880513533 0 0 0 0 -362.92256527808422 15.658287828159416 0 15.658287828159416 64.806862890037621 0 0 0 0 -1.0379149084161803 -0.72188143733673371 0 -0.72188143733673371 -1.3539794905623279 0 0 0 0 -275.49569538053947 28.826393312328946 0 28.826393312328946 -2.7300284540009443 0 0 0 0 -212.91763170868398 11.631717828365709 0 11.631717828365709 -58.155827113792839 0 0 0 0 -543.54756447009822 15.648943781477499 0 15.648943781477499 33.445652757194011 0 0 0 0 -292.709761270331 -24.852465295452475 0 -24.852465295452475 49.211459566492977 0 0 0 0 -262.23981868398914 -8.5784063166938722 0 -8.5784063166938722 -29.250335173161375 0 0 0 0 -271.69512367723655 -47.317405978525585 0 -47.317405978525585 46.574911947440171 0 0 0 0 -0.73546992500306274 -0.60855856851853929 0 -0.60855856851853929 0.056099661666924483 0 0 0 0 -349.01546485257131 62.522281704258489 0 62.522281704258489 87.51526717710567 0 0 0 0 -236.78168017803455 -51.559149985692898 0 -51.559149985692898 41.313447384580058 0 0 0 0 -297.50225138615133 15.4372198127312 0 15.4372198127312 -20.75807412383358 0 0 0 0 -408.97054307861617 3.1063427020196741 0 3.1063427020196741 -16.762707522731091 0 0 0 0 -282.08665601729263 -33.855667284766412 0 -33.855667284766412 -53.675338515200565 0 0 0 0 -320.00003730803837 13.351364304536276 0 13.351364304536276 -32.918295668067003 0 0 0 0 -322.03130898414565 -19.202412690904339 0 -19.202412690904339 -39.79032914019956 0 0 0 0 -272.24317490616659 0.013387203463651076 0 0.013387203463651076 -21.284556621845354 0 0 0 0 -285.95481031838062 35.365365822145179 0 35.365365822145179 4.5986443161743864 0 0 0 0 -1.3836438007553209 -1.963921275791062 0 -1.963921275791062 -0.78524364468998264 0 0 0 0 -88.934281870200266 -92.498771856302326 0 -92.498771856302326 69.965459272780663 0 0 0 0 -25.7694021571333 -84.001456084738152 0 -84.001456084738152 -12.067354135449591 0 0 0 0 -112.25134949464882 -196.70624499711857 0 -196.70624499711857 -34.5160782441381 0 0 0 0 -55.017673195379757 84.625538587304277 0 84.625538587304277 313.57688617720464 0 0 0 0 -76.951178579911357 -158.58521411310525 0 -158.58521411310525 42.188525484822037 0 0 0 0 -20.685981130915025 315.86955414514995 0 315.86955414514995 167.30202491674288 0 0 0 0 -235.52959696056314 482.04515727110334 0 482.04515727110334 618.27698042367501 0 0 0 0 -1.0746172893728669 -0.97870742400928989 0 -0.97870742400928989 2.8875336433275955 0 0 0 0 -90.125086916430519 -71.221219576154567 0 -71.221219576154567 -70.940819343926478 0 0 0 0 -247.91059678903457 -105.81465609583955 0 -105.81465609583955 -23.424128886027347 0 0 0 0 -115.4578196833827 -30.150657771818487 0 -30.150657771818487 8.8613277560855295 0 0 0 0 -24.887228291318024 -36.200816592388151 0 -36.200816592388151 -18.379545910870092 0 0 0 0 -96.691772011094599 -67.499284140652932 0 -67.499284140652932 -24.608322148689467 0 0 0 0 -82.354012608938547 -24.14555394198738 0 -24.14555394198738 -24.182309721928164 0 0 0 0 1.4956246626258363 -4.2688404368200601 0 -4.2688404368200601 8.295851819416761 0 0 0 0 2.4421762455615053 -13.842669442071038 0 -13.842669442071038 11.512018823229123 0 0 0 0 -11.187083843225992 0.41051547061351812 0 0.41051547061351812 124.89642266721648 0 0 0 0 -48.966795762511538 -27.968950637604621 0 -27.968950637604621 132.10576956941907 0 0 0 0 -15.109827232794487 -18.139632359007351 0 -18.139632359007351 -4.8783183224804816 0 0 0 0 -25.245267792078607 -26.786427665287192 0 -26.786427665287192 8.7604069648714358 0 0 0 0 -23.309774488284646 -17.966765071172681 0 -17.966765071172681 -3.4521868208217041 0 0 0 0 -11.263703699800317 -46.178025139650117 0 -46.178025139650117 0.9576286687083666 0 0 0 0 -20.966654963259316 -25.481040047250957 0 -25.481040047250957 10.924362574021416 0 0 0 0 -13.050329080756455 -24.462359486532591 0 -24.462359486532591 1.816196386048432 0 0 0 0 -29.737538717348798 -49.979293724827698 0 -49.979293724827698 30.302199106539774 0 0 0 0 -9.0972845894128653 -11.93690303994785 0 -11.93690303994785 7.8047778737723146 0 0 0 0 -18.736642048696396 -10.521202044029897 0 -10.521202044029897 -3.5592232836114874 0 0 0 0 -32.046361813563635 4.8366371625905202 0 4.8366371625905202 63.268052351291772 0 0 0 0 -2.9867330890392267 -4.0994481464401922 0 -4.0994481464401922 -2.6803720905656601 0 0 0 0 -119.23369518683467 -36.391083255747844 0 -36.391083255747844 44.263377215489299 0 0 0 0 -214.90670959398994 -49.910266764037033 0 -49.910266764037033 28.820272881411825 0 0 0 0 -108.02688816057707 -12.92456080163447 0 -12.92456080163447 31.720565148367086 0 0 0 0 -229.96678264883485 23.453120031633716 0 23.453120031633716 81.941929528146829 0 0 0 0 -171.98447239593224 -33.638263181414686 0 -33.638263181414686 59.005796390958039 0 0 0 0 -109.56995107226976 14.039341219279095 0 14.039341219279095 -12.01324894492177 0 0 0 0 -76.281856563899055 -14.504250702247191 0 -14.504250702247191 -21.299610761619306 0 0 0 0 1.9163322346546181 -0.21301827738103896 0 -0.21301827738103896 -1.9274261047192711 0 0 0 0 -68.103176318221813 179.58525257440942 0 179.58525257440942 -95.489013283809072 0 0 0 0 -459.09313731813018 259.09504992793677 0 259.09504992793677 -160.60724421656869 0 0 0 0 -0.81825005956133623 -1.3487673983949051 0 -1.3487673983949051 -2.0928860185382447 0 0 0 0 -54.174255925223179 -181.88666647268192 0 -181.88666647268192 -252.99512067104934 0 0 0 0 -209.04741604656374 -112.2769177328712 0 -112.2769177328712 -28.232436888822576 0 0 0 0 -186.18306370007122 -138.57413564706667 0 -138.57413564706667 -65.653020891040342 0 0 0 0 -21.978155822686745 48.158321589198309 0 48.158321589198309 -18.130622808609587 0 0 0 0 -10.606634030897112 -2.6508099958155071 0 -2.6508099958155071 -1.5431929624653549 0 0 0 0 7.409412781787978 -23.00670329291961 0 -23.00670329291961 -16.481356444443009 0 0 0 0 -10.453157665486593 -12.011905971582909 0 -12.011905971582909 -9.6454763286469198 0 0 0 0 -25.739938472797803 -11.932038094779273 0 -11.932038094779273 -8.7197745346975353 0 0 0 0 -3.9449640547049967 -42.14154464373064 0 -42.14154464373064 -33.217766664638475 0 0 0 0 -26.945975581738821 -35.324468171142598 0 -35.324468171142598 -33.889906763630393 0 0 0 0 30.769697939990238 4.1640606660683943 0 4.1640606660683943 -18.945766117458788 0 0 0 0 -45.057592573448346 -37.896489702933422 0 -37.896489702933422 -20.873614867527976 0 0 0 0 9.5754538543915118 -6.6409183715215843 0 -6.6409183715215843 0.56497651224142498 0 0 0 0 -0.28281866457331084 1.3690167045773727 0 1.3690167045773727 1.3644909260056206 0 0 0 0 -35.698356086775675 -26.788527163942945 0 -26.788527163942945 -8.3127437091952743 0 0 0 0 -26.014455712647759 -26.634833265351745 0 -26.634833265351745 -25.24842281119254 0 0 0 0 -21.383423676486473 -25.796444929875207 0 -25.796444929875207 -13.52335811360831 0 0 0 0 -9.5324576099697982 -6.1936847028263529 0 -6.1936847028263529 10.451826197152901 0 0 0 0 -30.240093789837488 -29.751901094955542 0 -29.751901094955542 -26.276546412161224 0 0 0 0 -344.71325048238032 -95.902533595880982 0 -95.902533595880982 -23.674212832934245 0 0 0 0 -321.58673283741155 -145.93970406842504 0 -145.93970406842504 -17.172770909652172 0 0 0 0 -299.44327075142792 -144.06118136707005 0 -144.06118136707005 -24.652431368187536 0 0 0 0 -246.85371772513827 -85.524760777345023 0 -85.524760777345023 -47.325020808430054 0 0 0 0 -271.61224889978439 -61.624158596607117 0 -61.624158596607117 -69.021357357789839 0 0 0 0 -225.37892911421977 -3.8655506762994207 0 -3.8655506762994207 -2.9085058431614925 0 0 0 0 -395.02568652712216 -141.42640805665928 0 -141.42640805665928 -70.977465733056079 0 0 0 0 -264.95483031541335 -43.351119273479753 0 -43.351119273479753 -76.953585204400497 0 0 0 0 -320.94682799788279 -77.844910022480008 0 -77.844910022480008 -66.772630298755757 0 0 0 0 -98.408579418330191 -116.42437009364278 0 -116.42437009364278 -36.238756224020108 0 0 0 0 -0.92545151158226524 -1.0897966065346232 0 -1.0897966065346232 -0.34307154715146293 0 0 0 0 -564.89228803467358 -36.262846900285695 0 -36.262846900285695 20.289283752056235 0 0 0 0 -270.58720118858764 -54.882590693680868 0 -54.882590693680868 85.442217717000403 0 0 0 0 -328.2402947188566 -65.702211248319372 0 -65.702211248319372 83.542378205671412 0 0 0 0 -233.1314771767029 -11.075677028299253 0 -11.075677028299253 76.369477236321018 0 0 0 0 -283.56628701549198 -31.647115452472462 0 -31.647115452472462 74.81903847364481 0 0 0 0 -293.36856284754504 -24.045857711442295 0 -24.045857711442295 74.483842414626452 0 0 0 0 -332.28126573823829 -71.94117945903281 0 -71.94117945903281 26.079698504296175 0 0 0 0 -381.56785820139521 -65.629272163951669 0 -65.629272163951669 66.65190875431017 0 0 0 0 -293.70603451729403 38.137512561824451 0 38.137512561824451 29.13483674746476 0 0 0 0 -304.94984967451637 -145.32681999981878 0 -145.32681999981878 -48.816105551057717 0 0 0 0 -262.11617457282773 -70.809617009728981 0 -70.809617009728981 26.953516464854602 0 0 0 0 -373.64244668715764 -133.84817026748897 0 -133.84817026748897 5.1487141013287783 0 0 0 0 -345.44948384602935 -130.01353409755382 0 -130.01353409755382 -44.939630569804194 0 0 0 0 -344.36637118720682 -118.32727092089499 0 -118.32727092089499 -124.11047419485067 0 0 0 0 -306.17426330095986 5.8129411863950509 0 5.8129411863950509 22.040586855869606 0 0 0 0 -405.29066206244897 55.364289753430739 0 55.364289753430739 15.671820243446291 0 0 0 0 -531.54643750827017 -152.17959075168301 0 -152.17959075168301 -0.17955865405565419 0 0 0 0 -521.38620696980433 -254.8309246911524 0 -254.8309246911524 -228.78190211930223 0 0 0 0 -818.87922008916212 -1.6768862688395529 0 -1.6768862688395529 7.8165016445572064 0 0 0 0 -1.8574507720892868 -0.93603731384412114 0 -0.93603731384412114 -2.9831163005301446 0 0 0 0 -489.17802950547411 82.882425146263586 0 82.882425146263586 -273.19370216371772 0 0 0 0 -618.96792561367693 -277.49501414415636 0 -277.49501414415636 -76.414775874471616 0 0 0 0 -346.62123979936223 3.7937207526797465 0 3.7937207526797465 -60.577611785167733 0 0 0 0 -359.92776858753132 -83.72687500607276 0 -83.72687500607276 -67.587651780934721 0 0 0 0 -230.30405239447555 -45.46122422680412 0 -45.46122422680412 -46.642632459269407 0 0 0 0 -252.9368613759043 -66.074610366904324 0 -66.074610366904324 -3.5704619944335718 0 0 0 0 -268.83201232620922 -124.12010383723532 0 -124.12010383723532 -110.90457203322552 0 0 0 0 -256.4943534675549 -100.30657506840703 0 -100.30657506840703 -45.309019491639447 0 0 0 0 -142.7289972833405 -41.275379337767163 0 -41.275379337767163 -30.518188176460171 0 0 0 0 -259.21695871307384 -45.040800879707376 0 -45.040800879707376 10.09506131305443 0 0 0 0 -167.77827557246928 27.40699614165419 0 27.40699614165419 17.682262771751539 0 0 0 0 -214.8039002614023 -80.943429812582963 0 -80.943429812582963 -19.611207932107391 0 0 0 0 -91.455154201579717 26.221495236648025 0 26.221495236648025 48.130246284722261 0 0 0 0 -6.9562536362791434 132.42591650083659 0 132.42591650083659 105.56733183002143 0 0 0 0 -71.277856324268214 78.622417776322209 0 78.622417776322209 99.646552461624651 0 0 0 0 3.5503777368867304 104.17082286140339 0 104.17082286140339 111.879845310989 0 0 0 0 -2.3487716867821291 80.974166824760232 0 80.974166824760232 52.28133584425359 0 0 0 0 10.206903154122301 42.121071480081923 0 42.121071480081923 112.49609418135788 0 0 0 0 25.085720213767672 85.207345061040314 0 85.207345061040314 22.759234362700226 0 0 0 0 -7.2765753515054712 83.857747476621512 0 83.857747476621512 63.648091048053175 0 0 0 0 -89.738562847614958 9.7230595971525418 0 9.7230595971525418 74.892543642531109 0 0 0 0 -146.91767869076767 39.702834065870263 0 39.702834065870263 56.680937448067198 0 0 0 0 -97.870755026411643 35.649124285520429 0 35.649124285520429 -0.10531317996537837 0 0 0 0 -148.74394373571704 -32.90107829305407 0 -32.90107829305407 -10.739759963988263 0 0 0 0 -160.10611542215156 -31.314999668042674 0 -31.314999668042674 -71.849033676052613 0 0 0 0 -166.62566794222403 -35.203918300962755 0 -35.203918300962755 -8.4379948874685908 0 0 0 0 -94.733153654029593 47.206151795480878 0 47.206151795480878 -32.028501456457889 0 0 0 0 -88.826704916196832 17.942340192244615 0 17.942340192244615 21.382005971825492 0 0 0 0 -120.64045643358168 -1.1687554621806839 0 -1.1687554621806839 -68.488424420262163 0 0 0 0 -194.94699471139756 14.143029061727361 0 14.143029061727361 -69.49468477966002 0 0 0 0 -268.99121780977157 -37.074232500329913 0 -37.074232500329913 -48.861987809348193 0 0 0 0 -229.52010948782845 -53.35047120100387 0 -53.35047120100387 -69.268457474634602 0 0 0 0 -130.28003189672927 128.68484000119872 0 128.68484000119872 -46.376939605719144 0 0 0 0 -47.186554419209642 231.29665582814795 0 231.29665582814795 -282.29739726640184 0 0 0 0 -60.053111928554245 163.47479534362935 0 163.47479534362935 -149.84786997722995 0 0 0 0 -128.4589991526118 57.175228940928264 0 57.175228940928264 -93.181979056723208 0 0 0 0 -71.924827075303256 85.036260575267534 0 85.036260575267534 -80.416667862780287 0 0 0 0 20.625930847090785 36.033434420553931 0 36.033434420553931 -55.567357796958959 0 0 0 0 -2.6471483278832011 228.14220065379973 0 228.14220065379973 20.953937163811815 0 0 0 0 296.88644603253306 227.57296945086273 0 227.57296945086273 -20.175113451579932 0 0 0 0 -366.05475017258505 -90.609184670168816 0 -90.609184670168816 -29.726110963700194 0 0 0 0 0.27632808106040585 -0.49849189562215557 0 -0.49849189562215557 1.4565735748040272 0 0 0 0 -206.71410560096774 -109.56191772563852 0 -109.56191772563852 -49.063577913653944 0 0 0 0 94.905846544896121 32.909880930815689 0 32.909880930815689 120.55781149387985 0 0 0 0 98.745949630290852 18.782175569596575 0 18.782175569596575 68.601193540118402 0 0 0 0 95.838464208409277 114.65252616128282 0 114.65252616128282 79.725985671386525 0 0 0 0 171.53009387107704 148.66576247622856 0 148.66576247622856 78.254014534595626 0 0 0 0 315.58608309637202 148.24753767103903 0 148.24753767103903 59.256281716792728 0 0 0 0 0.12431127020168731 -0.090080154212341057 0 -0.090080154212341057 5.1980942982962297 0 0 0 0 88.660214508698118 118.7079653660162 0 118.7079653660162 185.71196917748489 0 0 0 0 -224.67279499309006 -29.051942488616533 0 -29.051942488616533 84.892497557444585 0 0 0 0 -249.20772836193646 -91.372103091111967 0 -91.372103091111967 16.565677793069426 0 0 0 0 -191.47771692231618 -51.724501976115789 0 -51.724501976115789 -16.172789415953048 0 0 0 0 -214.08606764976139 -70.14362350506758 0 -70.14362350506758 -4.3325366634762759 0 0 0 0 -180.37755783378452 3.2893505415495383 0 3.2893505415495383 -3.5576364381107908 0 0 0 0 -139.11505868316817 1.9323239850291429 0 1.9323239850291429 43.739126707248943 0 0 0 0 -200.7303516352913 5.4019901251622287 0 5.4019901251622287 85.122469396445922 0 0 0 0 37.949346034387418 204.1288340507972 0 204.1288340507972 168.43484684025543 0 0 0 0 -110.38404986401679 119.99501131684406 0 119.99501131684406 216.20560144622596 0 0 0 0 -169.93027696836543 20.973199898430721 0 20.973199898430721 123.34260677510611 0 0 0 0 -77.425909306381072 63.277087908523754 0 63.277087908523754 91.589262130598399 0 0 0 0 -233.33267512016937 19.730647821274488 0 19.730647821274488 89.910230697858879 0 0 0 0 -67.503656639277324 23.259617839648854 0 23.259617839648854 50.951107878569928 0 0 0 0 -123.78310071113083 17.836966464615671 0 17.836966464615671 145.29497335282394 0 0 0 0 95.012939885093942 382.40664134621295 0 382.40664134621295 204.05699119506698 0 0 0 0 36.498692621178407 57.177303958492132 0 57.177303958492132 -24.133758820436924 0 0 0 0 210.61171810725136 -3.1312695412907487 0 -3.1312695412907487 -174.57655037238965 0 0 0 0 -142.56000552575824 157.43308595763074 0 157.43308595763074 -64.206617723793897 0 0 0 0 -326.51036576085608 -22.336802999548127 0 -22.336802999548127 -0.11025070420954819 0 0 0 0 -114.5401862819981 39.057272460531749 0 39.057272460531749 3.3981154304046868 0 0 0 0 -1970.1412454942856 -161.49943214608035 0 -161.49943214608035 372.02082125039402 0 0 0 0 -2293.1846413249509 -130.76248285080615 0 -130.76248285080615 379.59303118492352 0 0 0 0 -903.77796931692285 -348.40827363842448 0 -348.40827363842448 -25.949073907140303 0 0 0 0 -1186.7845008005438 -159.7105902594617 0 -159.7105902594617 8.3019327692781175 0 0 0 0 -1500.0902331916072 -637.05914269100253 0 -637.05914269100253 -189.80966051415396 0 0 0 0 -2768.571786079694 -806.79011118726817 0 -806.79011118726817 -180.63562116773537 0 0 0 0 -16.168584239137221 16.046039137848062 0 16.046039137848062 -14.140207302228061 0 0 0 0 -2501.3811610753037 -378.40804373190917 0 -378.40804373190917 96.190414748255449 0 0 0 0 -2567.9769688179249 -79.385495309647979 0 -79.385495309647979 -421.73649358118661 0 0 0 0 -2494.5146497017399 -319.56925576019887 0 -319.56925576019887 -822.24329275989112 0 0 0 0 407.10276293709558 195.53174368040999 0 195.53174368040999 -745.89374941843266 0 0 0 0 -7.2280852796828663 5.6320924697680761 0 5.6320924697680761 -5.9499780801147111 0 0 0 0 -250.64083287052563 674.64909258493253 0 674.64909258493253 -852.0438317867488 0 0 0 0 251.33952080312156 99.351371748127718 0 99.351371748127718 -449.10372195346099 0 0 0 0 -133.74023779001163 296.89565604496858 0 296.89565604496858 140.67351030400164 0 0 0 0 222.12140308369999 403.62121539093317 0 403.62121539093317 -520.8794282567286 0 0 0 0 147.89166250404014 294.50083375847407 0 294.50083375847407 87.954083016856771 0 0 0 0 -289.24973960468742 447.94180363401063 0 447.94180363401063 40.727561557786544 0 0 0 0 -1983.4913726823461 422.14606302614806 0 422.14606302614806 -44.178748308262193 0 0 0 0 -242.46056444740145 118.89839396046357 0 118.89839396046357 -51.276667302138762 0 0 0 0 -538.08610490603587 -1028.284955129765 0 -1028.284955129765 199.74268802005443 0 0 0 0 -2131.9371534612046 -999.84423655415105 0 -999.84423655415105 264.73694226565067 0 0 0 0 -330.46223967640799 369.70490264320654 0 369.70490264320654 -634.73070947466192 0 0 0 0 -327.90822010828833 63.18918452759425 0 63.18918452759425 -236.16455713830237 0 0 0 0 -330.21244147964535 230.62661425820215 0 230.62661425820215 24.885798568633618 0 0 0 0 -399.09165780707553 21.168583322312088 0 21.168583322312088 -116.40030512350563 0 0 0 0 -38.613270691843354 329.73953100630342 0 329.73953100630342 -572.89758898108494 0 0 0 0 478.81344521841311 369.61340185942515 0 369.61340185942515 -576.28615141448313 0 0 0 0 899.78705005646225 182.0153782505563 0 182.0153782505563 -526.70942628140062 0 0 0 0 -0.24705874570915398 0.73136464401689594 0 0.73136464401689594 -3.1362189710583368 0 0 0 0 -1041.3676636430368 231.62273607743657 0 231.62273607743657 4.766013010638062 0 0 0 0 375.69669367283041 91.143352146470107 0 91.143352146470107 81.658718154725761 0 0 0 0 149.24022695419444 443.99835359168492 0 443.99835359168492 139.14772241659736 0 0 0 0 -375.44580087451322 190.13918564046693 0 190.13918564046693 -49.737529624682793 0 0 0 0 -320.42537914206514 288.58278579891339 0 288.58278579891339 -119.2934373945061 0 0 0 0 -327.43222087122558 132.70128149844425 0 132.70128149844425 1.9414778904707077 0 0 0 0 -210.93914164908529 100.22957022389885 0 100.22957022389885 -62.520534615060214 0 0 0 0 -284.00630220555649 203.95159487997199 0 203.95159487997199 -92.565888757319158 0 0 0 0 -238.36284380866891 163.51279918259877 0 163.51279918259877 -61.555905635500494 0 0 0 0 -303.9604870480598 129.98302196819742 0 129.98302196819742 -57.053082502880329 0 0 0 0 -4.9262912242171515 3.2902618556879979 0 3.2902618556879979 -6.2187858586078386 0 0 0 0 278.72610376890589 305.25541213461554 0 305.25541213461554 287.2402819748595 0 0 0 0 -6.9419501769900975 3.2857826520834266 0 3.2857826520834266 1.6677784310561217 0 0 0 0 -293.11331017316843 125.24534450935866 0 125.24534450935866 -55.667542141983176 0 0 0 0 -34.898913868443742 -4.5695611751492322 0 -4.5695611751492322 4.5388711832429181 0 0 0 0 -15.593037933369395 -5.2994562546036619 0 -5.2994562546036619 -2.0847013509455521 0 0 0 0 -67.75847122203777 48.169878283166213 0 48.169878283166213 11.401729114029024 0 0 0 0 -11.603749369652935 12.276602031305224 0 12.276602031305224 -3.6101041691021551 0 0 0 0 -196.33453015719556 170.07539655232381 0 170.07539655232381 -110.39591155157495 0 0 0 0 -2497.3637405517566 1400.50535132082 0 1400.50535132082 -545.78248380662228 0 0 0 0 -9.3761913974401239 -1.6351343922206265 0 -1.6351343922206265 1.6783961439429902 0 0 0 0 48.740554077863635 353.39489967715849 0 353.39489967715849 262.14395262814264 0 0 0 0 -44.338290330753352 -5.3393067746620773 0 -5.3393067746620773 234.0186497826154 0 0 0 0 -177.02056683534829 281.68772165011512 0 281.68772165011512 346.43109356509035 0 0 0 0 -1265.4228320386137 296.33826324167478 0 296.33826324167478 -83.914030488182632 0 0 0 0 -21.151741809934933 -3.0790666498675741 0 -3.0790666498675741 5.3063760489304403 0 0 0 0 -1296.2310304771536 641.60275791414017 0 641.60275791414017 -86.941519167168792 0 0 0 0 -2499.9441494498797 629.25436717018226 0 629.25436717018226 228.31675490619162 0 0 0 0 -1733.0770355415079 153.37524379719829 0 153.37524379719829 237.69877455405273 0 0 0 0 -1068.2083872571893 392.61244949301908 0 392.61244949301908 -173.62523911997937 0 0 0 0 -2167.9909333855408 39.993531124052978 0 39.993531124052978 272.24885092446095 0 0 0 0 -1.9755865905147232 1.9105170300599816 0 1.9105170300599816 2.1728592493542571 0 0 0 0 -11.044728251345077 50.057530853487464 0 50.057530853487464 99.816063136677712 0 0 0 0 -0.53736904114785489 -1.1597095931642798 0 -1.1597095931642798 -1.4631697078247439 0 0 0 0 -10.867655788514725 -5.9656269343583368 0 -5.9656269343583368 -1.7046266848050602 0 0 0 0 -149.89354866669601 139.31536242204879 0 139.31536242204879 51.544275236781687 0 0 0 0 -6.7391136309302055 -62.021892774371906 0 -62.021892774371906 -3.9941769334727724 0 0 0 0 -4.5712457196641481 -5.1276764506649215 0 -5.1276764506649215 0.33207646413484326 0 0 0 0 -8.1108081359644686 -1.4072370280131103 0 -1.4072370280131103 -1.8246399599276613 0 0 0 0 -7.3655118885853312 3.9113088230359345 0 3.9113088230359345 6.5121862084829383 0 0 0 0 -35.182732544355531 -9.1313871766490706 0 -9.1313871766490706 8.1486832545253947 0 0 0 0 -38.339441789317789 -75.907797329093341 0 -75.907797329093341 97.628585485105987 0 0 0 0 -34.015875362478255 5.0644086485414732 0 5.0644086485414732 11.890533348250074 0 0 0 0 -4.858047767922443 -16.809842131018836 0 -16.809842131018836 -37.363145967259697 0 0 0 0 -40.301008207195991 -95.294908441267239 0 -95.294908441267239 -21.02307166075434 0 0 0 0 -8.0794407385892555 67.383265729341247 0 67.383265729341247 -12.310602610256183 0 0 0 0 63.484089493268584 -144.86424185900876 0 -144.86424185900876 -98.541006701088463 0 0 0 0 -92.002435846457956 17.808064545928119 0 17.808064545928119 30.090801019548337 0 0 0 0 -233.43533513718387 177.9762220906189 0 177.9762220906189 -175.78533159475296 0 0 0 0 -338.21785184102555 252.5661373823753 0 252.5661373823753 -213.25987867256745 0 0 0 0 -250.82462177078924 207.69583613516221 0 207.69583613516221 -214.67796468086581 0 0 0 0 -307.63325423797141 156.20412917681236 0 156.20412917681236 -141.81403220582058 0 0 0 0 -322.94970568651524 195.17082086362788 0 195.17082086362788 -156.45234662372496 0 0 0 0 -7.7521675102005432 -3.9611756103490414 0 -3.9611756103490414 -1.4144886380964969 0 0 0 0 -579.42466967109976 355.94027581175482 0 355.94027581175482 -250.7040365147011 0 0 0 0 -346.42295297737473 98.009232014423219 0 98.009232014423219 -135.71202294660264 0 0 0 0 -527.34587679423885 79.322875616981847 0 79.322875616981847 -89.075747909118036 0 0 0 0 -354.70043591091599 40.559399947114741 0 40.559399947114741 -68.62233510190282 0 0 0 0 -401.49382679941664 116.17610648661056 0 116.17610648661056 -101.82101603709259 0 0 0 0 -330.42068324718639 180.22835417593637 0 180.22835417593637 -167.08943412597165 0 0 0 0 -276.77930699922399 70.846898065279532 0 70.846898065279532 -90.888487272765531 0 0 0 0 -297.18072242739436 90.376548456830875 0 90.376548456830875 -103.85360117035555 0 0 0 0 -311.73786513310915 33.395654028074318 0 33.395654028074318 -86.885387884038778 0 0 0 0 -315.64479527364438 26.745340129056814 0 26.745340129056814 -71.940435478394193 0 0 0 0 -186.44359146567604 8.705858562018534 0 8.705858562018534 -84.611970217048565 0 0 0 0 -297.86976497320393 -29.42902433274179 0 -29.42902433274179 -53.147139252705301 0 0 0 0 -263.93441204082774 10.405723843001738 0 10.405723843001738 -75.062192864509512 0 0 0 0 -213.51532544531074 75.94969596450801 0 75.94969596450801 -109.71792002547687 0 0 0 0 -214.24289250205311 74.70475519394131 0 74.70475519394131 -106.1609769423618 0 0 0 0 -254.33176814016406 8.3243474159062316 0 8.3243474159062316 -84.607723992002775 0 0 0 0 -134.31257939308489 70.565159322248064 0 70.565159322248064 -113.34673140348264 0 0 0 0 -198.90061751445683 173.69988917902708 0 173.69988917902708 -138.24457326585454 0 0 0 0 -159.60958597672743 148.95393040356799 0 148.95393040356799 -138.03854379341271 0 0 0 0 -167.8202496926433 203.96790306055948 0 203.96790306055948 -134.91221166362402 0 0 0 0 -216.7358628901784 248.65231918548386 0 248.65231918548386 -103.92011124854878 0 0 0 0 -204.39900301182752 200.87950878873664 0 200.87950878873664 -170.13677780408233 0 0 0 0 -227.10392141153716 189.12583538535057 0 189.12583538535057 -137.65972915351563 0 0 0 0 -233.96253534059178 207.99350838599059 0 207.99350838599059 -169.90614361132015 0 0 0 0 -215.09076312484467 194.700615265625 0 194.700615265625 -168.27631150530772 0 0 0 0 -244.49626203351727 149.63392778321042 0 149.63392778321042 -146.48718503811142 0 0 0 0 -252.86160683689923 150.22396013882872 0 150.22396013882872 -135.27871573895857 0 0 0 0 -14.294541974533786 -7.8357445457478434 0 -7.8357445457478434 -13.24725584679129 0 0 0 0 -3.9893834149063423 -5.7168863337677749 0 -5.7168863337677749 -21.211393224320773 0 0 0 0 -13.692459322373907 -15.618226560774204 0 -15.618226560774204 -14.694082029890236 0 0 0 0 -12.330314900592384 -2.457493874268927 0 -2.457493874268927 -8.1513042284286534 0 0 0 0 -48.247969681210634 -16.367865418041902 0 -16.367865418041902 -13.416279351891603 0 0 0 0 -49.418805396343828 -11.54037871109584 0 -11.54037871109584 2.1741649735085957 0 0 0 0 -88.474042689766975 -15.909872083833875 0 -15.909872083833875 9.1133921421727564 0 0 0 0 -90.926164274520488 -39.660347495203496 0 -39.660347495203496 -5.4579543691788732 0 0 0 0 -86.186518820075435 -31.055771803136963 0 -31.055771803136963 -5.4505166477850624 0 0 0 0 -17.387619287911548 -15.035767103608237 0 -15.035767103608237 -27.846984194451352 0 0 0 0 -13.957397716773812 -4.2697386282736716 0 -4.2697386282736716 -24.563525810281646 0 0 0 0 -26.921159155994246 -33.699199535647153 0 -33.699199535647153 -56.724194614471344 0 0 0 0 -90.763176425756683 -115.012910836429 0 -115.012910836429 434.53296504273749 0 0 0 0 -3.4083353591841181 -1.7467538896340198 0 -1.7467538896340198 1.0015585868428083 0 0 0 0 -12.547652565591989 -6.7978107697978203 0 -6.7978107697978203 -20.495937438589635 0 0 0 0 -22.101983298824052 -23.556020206479388 0 -23.556020206479388 131.0320358531352 0 0 0 0 147.10900609345481 -19.308591422346581 0 -19.308591422346581 69.421217445205684 0 0 0 0 -5.09711625299426 -1.0599292492917902 0 -1.0599292492917902 0.72315642503041877 0 0 0 0 -38.855334826945182 19.950539670627336 0 19.950539670627336 64.112123456694235 0 0 0 0 -11.424919357331873 32.049078872221344 0 32.049078872221344 61.279898734658673 0 0 0 0 4.0039938500473227 16.137862363077943 0 16.137862363077943 52.203452321212126 0 0 0 0 66.087813358107269 -132.85091874069599 0 -132.85091874069599 75.101721299786504 0 0 0 0 -1.6932958473890412 -0.92520842657655322 0 -0.92520842657655322 3.1634985033057039 0 0 0 0 -98.519074757297858 -91.735689931752063 0 -91.735689931752063 155.82628036282961 0 0 0 0 -12.016208628108302 19.806560592512085 0 19.806560592512085 -4.6025914630083662 0 0 0 0 -6.7459272279970719 -5.1975088124187607 0 -5.1975088124187607 -12.265298108885872 0 0 0 0 -9.8422563275323682 -8.3175004102289307 0 -8.3175004102289307 -0.085418288700566336 0 0 0 0 -1.0791118203051155 -8.0353287138483438 0 -8.0353287138483438 -16.515522229360556 0 0 0 0 -5.009015878513992 -6.4207296591498562 0 -6.4207296591498562 -13.997026492579607 0 0 0 0 -3.2670498432969453 -13.453612658301319 0 -13.453612658301319 0.67506952248880481 0 0 0 0 0.80839427400042041 -10.059270274021516 0 -10.059270274021516 -14.822638719059047 0 0 0 0 -11.378722674776327 -14.399433712797872 0 -14.399433712797872 25.187173514161032 0 0 0 0 -6.8738900554992028 -8.2249676255255437 0 -8.2249676255255437 -0.084706389780194513 0 0 0 0 -7.8448280673985238 -6.1215059831938561 0 -6.1215059831938561 5.338681235885133 0 0 0 0 55.244846678162276 0.66015903638844975 0 0.66015903638844975 -85.565103376419074 0 0 0 0 0.51843275229710106 0.47712471279661761 0 0.47712471279661761 -0.35763749992405569 0 0 0 0 -42.48073138043128 -44.918768925109816 0 -44.918768925109816 29.053081213622789 0 0 0 0 -9.5686223050472279 -3.7636717011441281 0 -3.7636717011441281 0.5136783159529541 0 0 0 0 27.935172323345455 -2.9509047872326448 0 -2.9509047872326448 -58.636029776818532 0 0 0 0 -9.4829315463487092 -7.3703988469181763 0 -7.3703988469181763 -3.3875825396170889 0 0 0 0 7.6279486685359643 -13.843800568745943 0 -13.843800568745943 -3.5314580401604125 0 0 0 0 -55.718434081012674 1.1953425437997538 0 1.1953425437997538 14.767843926818841 0 0 0 0 -66.232331231887656 -28.076194921533727 0 -28.076194921533727 11.486630940361721 0 0 0 0 -40.083957950983631 7.1406877948504359 0 7.1406877948504359 46.833927270471122 0 0 0 0 -7.1484692816063049 -3.7640250975759346 0 -3.7640250975759346 0.50523898305229775 0 0 0 0 -43.145176957221338 -135.70140663651307 0 -135.70140663651307 -147.40487120390711 0 0 0 0 -8.898415016630679 -115.65171974847158 0 -115.65171974847158 -148.24008901739103 0 0 0 0 2.3852819155793314 -0.15907737313862547 0 -0.15907737313862547 -0.56609657402044788 0 0 0 0 -21.122771731297121 -26.412259508332994 0 -26.412259508332994 -3.0097442712217912 0 0 0 0 -8.4758182967971152 32.880262712790454 0 32.880262712790454 -64.497290039760884 0 0 0 0 -145.56070721327615 62.486078844220174 0 62.486078844220174 89.954893177904069 0 0 0 0 -324.20011232231354 -71.568071231104454 0 -71.568071231104454 -51.985281760433281 0 0 0 0 -0.59928275975851975 -1.3665011457449545 0 -1.3665011457449545 -0.47177444513516531 0 0 0 0 3.143868517865485 -121.41764617232934 0 -121.41764617232934 -467.36129728146534 0 0 0 0 -81.171233192671934 -25.088090227545308 0 -25.088090227545308 -235.32409823753824 0 0 0 0 9.8724152984432294 -76.600875725332571 0 -76.600875725332571 -38.272300179547017 0 0 0 0 -82.127816440572133 -9.0073416861029045 0 -9.0073416861029045 -86.523180088671097 0 0 0 0 -18.674262906940839 -61.715900407174161 0 -61.715900407174161 -57.982769536391856 0 0 0 0 -90.693367616211617 -98.523420089342778 0 -98.523420089342778 -76.008744860334332 0 0 0 0 -11.02666569998155 -26.916762061184645 0 -26.916762061184645 -30.792979869759264 0 0 0 0 -59.094544227438746 -50.110616375652967 0 -50.110616375652967 -12.931835042407414 0 0 0 0 -107.48698800065722 -67.95920517196555 0 -67.95920517196555 -16.983323743238572 0 0 0 0 -107.99543269117385 -37.671374267751105 0 -37.671374267751105 4.4379593280193035 0 0 0 0 -119.16735265358875 -36.885368011122182 0 -36.885368011122182 6.6800586308340826 0 0 0 0 -105.28650888662924 -9.9728663765042711 0 -9.9728663765042711 13.092358757404313 0 0 0 0 -147.35953323603644 -13.841514197986612 0 -13.841514197986612 13.255698029018692 0 0 0 0 -49.383721214383513 8.8110371284988673 0 8.8110371284988673 -34.241238922440971 0 0 0 0 -357.80698437301726 233.22832534824829 0 233.22832534824829 203.72608800357716 0 0 0 0 -277.08465209633732 -151.80196612943178 0 -151.80196612943178 -80.583102086713552 0 0 0 0 -92.328790953377393 -82.723599868870963 0 -82.723599868870963 -116.51945222483306 0 0 0 0 -183.80794079555744 -163.50231344862277 0 -163.50231344862277 -173.62095607991569 0 0 0 0 -129.10245524280344 -49.325970759867715 0 -49.325970759867715 -1.2070720009414799 0 0 0 0 -214.64912385744174 -72.388910857034148 0 -72.388910857034148 20.42375673660888 0 0 0 0 -53.478181287259645 -25.967049166818015 0 -25.967049166818015 6.1135829137456312 0 0 0 0 -34.282522338018957 -8.0142012405600553 0 -8.0142012405600553 10.554165443360944 0 0 0 0 29.294491281057162 20.772030782361227 0 20.772030782361227 -31.408011573342719 0 0 0 0 -37.24096137284937 -5.71077644776733 0 -5.71077644776733 17.843344667813653 0 0 0 0 -28.943346519879366 -6.9403583390849164 0 -6.9403583390849164 13.373931487530854 0 0 0 0 -11.878211618291971 -23.018006396947328 0 -23.018006396947328 -37.482736964760306 0 0 0 0 -24.978299062749102 -21.35249098377966 0 -21.35249098377966 -15.483538878987247 0 0 0 0 -29.037452144483641 -7.2523894878164024 0 -7.2523894878164024 13.506766678684331 0 0 0 0 -20.939233149871598 -34.11062047059233 0 -34.11062047059233 -26.166600133533734 0 0 0 0 -17.762314976584094 -39.667712280010619 0 -39.667712280010619 3.999196263234353 0 0 0 0 -20.877109996632043 -27.75279945511808 0 -27.75279945511808 -10.15061590576147 0 0 0 0 -12.356300476089928 -64.276947349506599 0 -64.276947349506599 98.681897361794654 0 0 0 0 -31.708749924067888 -15.707943059896479 0 -15.707943059896479 20.651625122641804 0 0 0 0 -36.566537974340463 -22.261028931242777 0 -22.261028931242777 58.696250928247082 0 0 0 0 -41.07337774110394 -9.6037297675664774 0 -9.6037297675664774 -0.89202410383755115 0 0 0 0 -36.037600559476914 -28.834534994419215 0 -28.834534994419215 51.338851550647632 0 0 0 0 -81.058324153636022 -29.315428269535118 0 -29.315428269535118 15.563565418514372 0 0 0 0 -86.539908774828291 -18.576561181940519 0 -18.576561181940519 13.348350675271831 0 0 0 0 -95.007284761075425 -23.018788439496291 0 -23.018788439496291 16.847460823724987 0 0 0 0 -92.250339759244525 -34.385799798792505 0 -34.385799798792505 3.5912550544850337 0 0 0 0 -84.7587465627239 -24.718888754006457 0 -24.718888754006457 3.5438946504428115 0 0 0 0 -88.374496576502793 -16.780395205440552 0 -16.780395205440552 10.572039229043185 0 0 0 0 -103.83337965447208 -21.202853400484855 0 -21.202853400484855 16.712107546125708 0 0 0 0 -94.475192742242143 -24.646779622206282 0 -24.646779622206282 12.578099644591703 0 0 0 0 -100.71610816941711 -39.758935277320631 0 -39.758935277320631 7.050917176252824 0 0 0 0 -37.320014911838371 -32.877700562694542 0 -32.877700562694542 -9.707646831704551 0 0 0 0 -56.841682521169787 -36.942927643578287 0 -36.942927643578287 -4.8430445705374723 0 0 0 0 -62.134847976611127 -26.72315654605336 0 -26.72315654605336 9.6138465695651121 0 0 0 0 -23.243757731368532 -40.820736567254585 0 -40.820736567254585 -28.104442908095308 0 0 0 0 -14.03783494041636 -51.348233225216063 0 -51.348233225216063 14.679489836130415 0 0 0 0 -18.900199272664395 -22.004369764295461 0 -22.004369764295461 -0.60160450295961709 0 0 0 0 -52.412288015229024 -12.45293716953438 0 -12.45293716953438 20.603603755268523 0 0 0 0 -42.298736509200353 -28.115175543976534 0 -28.115175543976534 28.126860551160462 0 0 0 0 14.256488438224551 6.0689076506414494 0 6.0689076506414494 48.395428459092727 0 0 0 0 -79.040644535529282 37.909020231511704 0 37.909020231511704 182.40657728357701 0 0 0 0 -166.66025388913386 -52.524712018373521 0 -52.524712018373521 89.380218246641562 0 0 0 0 -1.4578696416323886 -1.2534175464546946 0 -1.2534175464546946 0.73215323836849056 0 0 0 0 74.474578768466017 -41.009715113204948 0 -41.009715113204948 358.28749427243565 0 0 0 0 -64.435564285411601 -93.492892211859726 0 -93.492892211859726 -107.21303414679244 0 0 0 0 -81.345836574128043 -1.4379649556028653 0 -1.4379649556028653 38.267921376816048 0 0 0 0 -147.47272715319377 -106.79030267905503 0 -106.79030267905503 -0.19661284015228375 0 0 0 0 -116.7756440377816 -31.827561583249462 0 -31.827561583249462 27.584176168705199 0 0 0 0 -95.498601651884201 -42.02421933136236 0 -42.02421933136236 -10.724199996132484 0 0 0 0 115.25373079019664 111.47772836081504 0 111.47772836081504 332.06490997246863 0 0 0 0 -196.50114485755694 -70.972045962972516 0 -70.972045962972516 236.63719883683689 0 0 0 0 -33.729989463325182 -51.513794508115154 0 -51.513794508115154 46.678610815998269 0 0 0 0 -47.673682123161086 -11.910999131876856 0 -11.910999131876856 3.3918061409501985 0 0 0 0 -34.043846883962033 -57.934654059796301 0 -57.934654059796301 7.2636104275667321 0 0 0 0 -15.525301570211013 -44.734026241506854 0 -44.734026241506854 -0.62902067350123048 0 0 0 0 -38.086761110133011 -34.45238323773961 0 -34.45238323773961 19.945869368373508 0 0 0 0 -4.4526060217089123 -17.239776780728018 0 -17.239776780728018 19.618838180969952 0 0 0 0 -14.879267536289262 -32.855906263556278 0 -32.855906263556278 13.67509637859547 0 0 0 0 -34.20171987260801 -34.686508637704435 0 -34.686508637704435 78.988013852447011 0 0 0 0 -93.233205928567259 -22.14395545303131 0 -22.14395545303131 182.65029183018078 0 0 0 0 -45.246859603168105 -9.6142399938904219 0 -9.6142399938904219 -1.4253205982845292 0 0 0 0 -65.480864112365452 -57.541126887146504 0 -57.541126887146504 121.71836918158725 0 0 0 0 -133.39541849324269 -133.86844996201643 0 -133.86844996201643 26.97239501762391 0 0 0 0 -0.48616480320924893 -63.434984700135743 0 -63.434984700135743 -158.59250899017269 0 0 0 0 -0.47841818685046178 -0.85242139985352061 0 -0.85242139985352061 -0.70996827448542299 0 0 0 0 -95.643102678403011 -134.62884811563089 0 -134.62884811563089 247.37170034544232 0 0 0 0 85.12490257735044 -55.311892090083717 0 -55.311892090083717 83.098787474249121 0 0 0 0 -84.954279216834038 -170.43830797184816 0 -170.43830797184816 96.170603072680478 0 0 0 0 -2.8665975352541864 -21.175431378678098 0 -21.175431378678098 3.9975213565367227 0 0 0 0 -1.091239069516174 -14.363678501607836 0 -14.363678501607836 14.870372610078025 0 0 0 0 2.6722461668578035 -37.716426679240982 0 -37.716426679240982 0.85685005592208707 0 0 0 0 0.14952136276828298 -3.8061392269282397 0 -3.8061392269282397 0.19284202425541849 0 0 0 0 57.285718130809983 -91.044542711814643 0 -91.044542711814643 67.90501661414271 0 0 0 0 -3.541412518481593 -27.727293733952166 0 -27.727293733952166 -13.197141340094447 0 0 0 0 -53.776871083599417 -27.851025663179428 0 -27.851025663179428 18.127212594677985 0 0 0 0 -76.887224749349116 -1.068573028125229 0 -1.068573028125229 2.0999857733095268 0 0 0 0 -8.5998204422077364 2.0325342043325438 0 2.0325342043325438 -0.12752426399095462 0 0 0 0 -18.930116716007284 -16.045519675447814 0 -16.045519675447814 13.969373187878881 0 0 0 0 -36.095248755054854 -8.6994445301008909 0 -8.6994445301008909 15.063357368952893 0 0 0 0 -17.243135101959695 -17.970518216358158 0 -17.970518216358158 19.596231970199369 0 0 0 0 -43.407076596029583 -20.630819704689657 0 -20.630819704689657 19.507787452444589 0 0 0 0 -44.546234422785346 -8.6187024041028053 0 -8.6187024041028053 28.845877229925577 0 0 0 0 -25.542636313355615 -34.543790187956347 0 -34.543790187956347 28.884269689067878 0 0 0 0 -37.104971049589949 -26.012242868047906 0 -26.012242868047906 43.093034410293512 0 0 0 0 -29.159472752997317 -31.658680303295569 0 -31.658680303295569 25.326680881385187 0 0 0 0 -52.784897127601425 -17.752973387965 0 -17.752973387965 27.144980040131486 0 0 0 0 -42.176804642820571 -17.317259895944972 0 -17.317259895944972 28.194799716492525 0 0 0 0 -35.693057026351198 -19.945820636051394 0 -19.945820636051394 14.009134707906014 0 0 0 0 -26.337067759758156 -30.443721032547785 0 -30.443721032547785 21.39341673920444 0 0 0 0 -28.562836745548339 -30.860016115477038 0 -30.860016115477038 24.96665015808685 0 0 0 0 -16.918580172468864 -33.75521783119575 0 -33.75521783119575 19.993017401047382 0 0 0 0 -25.674966114604103 4.754761203753219 0 4.754761203753219 167.72207925173848 0 0 0 0 -25.167987155433821 -29.446617098223896 0 -29.446617098223896 21.946621116430833 0 0 0 0 -15.188045460329448 -21.111322530207492 0 -21.111322530207492 -1.6247727001022176 0 0 0 0 -7.2128219632500699 -9.4273835676851068 0 -9.4273835676851068 -0.95840752713360899 0 0 0 0 61.292975973778383 -21.079764475750352 0 -21.079764475750352 41.131058250804472 0 0 0 0 0.52169084096840379 -36.1842695774817 0 -36.1842695774817 -11.165752642406005 0 0 0 0 -11.134431250856096 16.112525969931994 0 16.112525969931994 57.640463774833961 0 0 0 0 -11.482028105468229 -18.414856345099153 0 -18.414856345099153 -5.4520387856108048 0 0 0 0 -15.791318356664704 -41.186144358014843 0 -41.186144358014843 24.455090748550901 0 0 0 0 5.3356762854077715 -44.740667227889389 0 -44.740667227889389 3.7093059260078007 0 0 0 0 4.6790440917357827 -12.105324678912538 0 -12.105324678912538 -19.504707082054665 0 0 0 0 -29.967716062658837 -71.613278890994252 0 -71.613278890994252 70.708552936589058 0 0 0 0 50.161691324379717 -62.170699210599651 0 -62.170699210599651 -1.0926635405365914 0 0 0 0 35.298051694803689 -28.514261017948911 0 -28.514261017948911 5.0785722728051041 0 0 0 0 -26.142420735289761 -37.437684668946702 0 -37.437684668946702 25.401529718437814 0 0 0 0 -27.919569704230526 -42.715817010395767 0 -42.715817010395767 38.382429306184349 0 0 0 0 -42.868671205545979 -17.270036705270854 0 -17.270036705270854 73.441451814875222 0 0 0 0 71.843991829973675 -150.31757756923457 0 -150.31757756923457 131.08726465867198 0 0 0 0 207.40832390729793 -71.986701623750378 0 -71.986701623750378 10.186230716867613 0 0 0 0 -106.48967533913947 37.746439225922586 0 37.746439225922586 241.35117723825897 0 0 0 0 -0.69869878177385969 1.9711541161679014 0 1.9711541161679014 3.2253352013451373 0 0 0 0 -121.22856309596682 -22.876872173013908 0 -22.876872173013908 297.36975714964365 0 0 0 0 -6.749193239899796 5.9282517677052056 0 5.9282517677052056 9.9213861164807895 0 0 0 0 20.362685124272048 -38.12280269036637 0 -38.12280269036637 2.2109168335773575 0 0 0 0 -4.489262589899603 -4.8348085541963819 0 -4.8348085541963819 5.4368696590062164 0 0 0 0 -9.2687568913982652 -19.154323380279727 0 -19.154323380279727 -21.382307050402879 0 0 0 0 -23.919807802576088 -77.137856611842835 0 -77.137856611842835 8.9312427112626338 0 0 0 0 -9.5048382867425971 -58.241806963927658 0 -58.241806963927658 -16.954504709046887 0 0 0 0 -60.934789696957523 19.376322121598406 0 19.376322121598406 -36.30750536267692 0 0 0 0 100.18180338839238 -177.91952815489151 0 -177.91952815489151 217.19676178181089 0 0 0 0 -184.36345932208405 -18.722088256383728 0 -18.722088256383728 15.607357689560857 0 0 0 0 -9.1727647258132787 -11.671967134838702 0 -11.671967134838702 -14.580528998892893 0 0 0 0 -167.41097875125706 -161.39611548780363 0 -161.39611548780363 263.98417482596733 0 0 0 0 -184.05229203837314 -73.531226830998946 0 -73.531226830998946 -49.087024728100303 0 0 0 0 -382.57441496984893 70.412638498246992 0 70.412638498246992 -26.218888267532634 0 0 0 0 -412.99679382191971 -189.6020633061618 0 -189.6020633061618 -17.348398896512734 0 0 0 0 -320.89475432014478 -218.48404445568116 0 -218.48404445568116 -90.735919428102079 0 0 0 0 -235.19221760768551 -123.37824146410522 0 -123.37824146410522 4.0134304600646633 0 0 0 0 -236.3737931351634 -146.47868908605903 0 -146.47868908605903 -127.56464486631555 0 0 0 0 -221.57106727725386 -105.98219405695244 0 -105.98219405695244 -56.578468286452335 0 0 0 0 -202.74258750045919 -10.769360604012405 0 -10.769360604012405 10.756461153595126 0 0 0 0 -256.28022533214244 -65.957053097125424 0 -65.957053097125424 21.944126524750175 0 0 0 0 -269.89401158677902 -27.83365958565679 0 -27.83365958565679 -82.091622449729698 0 0 0 0 -182.07060573776107 -65.515753443646418 0 -65.515753443646418 13.813823448122122 0 0 0 0 -281.54288481315234 -101.51831318398737 0 -101.51831318398737 55.003321676411588 0 0 0 0 -283.88268396048625 -87.564533507226855 0 -87.564533507226855 47.126530195262546 0 0 0 0 -172.31680187905113 -75.119665031050218 0 -75.119665031050218 12.587784986156009 0 0 0 0 -96.76150173705264 -60.963565959109133 0 -60.963565959109133 8.5571202368402908 0 0 0 0 -32.379032114858092 -5.3613946638421339 0 -5.3613946638421339 14.0001026392585 0 0 0 0 -22.241624368929934 -17.249363427758681 0 -17.249363427758681 -25.512653277779009 0 0 0 0 8.8408815767775195 -37.718579528796667 0 -37.718579528796667 -25.373518135872217 0 0 0 0 -17.842834153083231 -81.734603485922889 0 -81.734603485922889 81.339863194424197 0 0 0 0 -0.59249236173004804 -15.99510786185844 0 -15.99510786185844 2.3460263821024805 0 0 0 0 12.299049553167833 -80.593414930070708 0 -80.593414930070708 183.67522382873835 0 0 0 0 92.153815912108712 -138.33921995044761 0 -138.33921995044761 -64.415813008326381 0 0 0 0 0.92931025844331572 -2.6295063381327894 0 -2.6295063381327894 -4.8106220074764829 0 0 0 0 -1.621215434862096 -13.713471754107303 0 -13.713471754107303 -22.296247217269475 0 0 0 0 -67.857158499667094 -13.784498830672504 0 -13.784498830672504 -7.7345681195095892 0 0 0 0 -147.92193605565717 -56.867367931566207 0 -56.867367931566207 -5.274315036639905 0 0 0 0 -61.704965018857365 -34.610466005505941 0 -34.610466005505941 -32.047115262892731 0 0 0 0 -24.377922258487615 -21.237526683041835 0 -21.237526683041835 -10.00818891571771 0 0 0 0 -25.490932067075391 -26.38378469462512 0 -26.38378469462512 -21.064846918884825 0 0 0 0 -18.459674233512033 -23.250014096793507 0 -23.250014096793507 -17.966597839677661 0 0 0 0 -21.668404069194139 -19.001419521988396 0 -19.001419521988396 -12.249765388836295 0 0 0 0 -17.336808619321417 -9.9775427291437779 0 -9.9775427291437779 3.1380700070802918 0 0 0 0 -7.7626104348286926 -4.7162434317864292 0 -4.7162434317864292 -3.646391097401688 0 0 0 0 -20.496306268300586 -14.855429437949812 0 -14.855429437949812 -10.865200615863191 0 0 0 0 -26.854681603424069 -12.252870624606544 0 -12.252870624606544 -10.047908027013818 0 0 0 0 -30.708570252243135 -23.609740008509903 0 -23.609740008509903 -10.659896127882803 0 0 0 0 -76.987232771404706 -26.586351336875055 0 -26.586351336875055 9.4304257972362393 0 0 0 0 -13.93357610917217 -1.9894483246403656 0 -1.9894483246403656 3.8673795200685399 0 0 0 0 -30.171700010389941 -20.825947762632918 0 -20.825947762632918 -11.258695629405505 0 0 0 0 -47.160646336132231 -43.079408885233988 0 -43.079408885233988 -24.199176310845814 0 0 0 0 -48.766089626087705 -52.593659346337063 0 -52.593659346337063 -79.705938387325659 0 0 0 0 -115.715746975402 -38.084970115946504 0 -38.084970115946504 -17.729738200293781 0 0 0 0 -92.235579170814162 -19.2112746020739 0 -19.2112746020739 26.696355183978085 0 0 0 0 -38.906346618433389 1.6266740649088951 0 1.6266740649088951 17.434594353216216 0 0 0 0 -378.03300694171321 -101.65341840950676 0 -101.65341840950676 -1.8437594057994673 0 0 0 0 -6.7951544984308008 2.744798679322777 0 2.744798679322777 4.5406808390853275 0 0 0 0 -145.25913105533164 -178.90190016413325 0 -178.90190016413325 -155.50889838081497 0 0 0 0 -362.61279964518008 -97.095161135332873 0 -97.095161135332873 47.966934949188612 0 0 0 0 -270.08097321503192 -97.490990927533858 0 -97.490990927533858 42.226931771294119 0 0 0 0 -246.97399259630038 -65.295559959297108 0 -65.295559959297108 48.720573732266757 0 0 0 0 -289.06968192294335 -91.032122524145464 0 -91.032122524145464 72.941607195125812 0 0 0 0 -313.57153948790256 -52.426635594114856 0 -52.426635594114856 46.436403988117391 0 0 0 0 -153.16955008938294 -108.65254392966142 0 -108.65254392966142 -27.16519952353184 0 0 0 0 -96.429478253876368 -45.940644947260409 0 -45.940644947260409 -3.6479827896831658 0 0 0 0 -100.11756126037403 -13.196697326754581 0 -13.196697326754581 -6.5371747050895692 0 0 0 0 -64.432585408586419 -41.025367064110334 0 -41.025367064110334 -49.995435270260941 0 0 0 0 -24.943337094390699 -20.09852603925583 0 -20.09852603925583 -9.194022939314209 0 0 0 0 -16.53485928785085 2.7443741659187992 0 2.7443741659187992 -24.514556636809488 0 0 0 0 -4.2499874716181978 -3.1348846440537859 0 -3.1348846440537859 10.214337509246736 0 0 0 0 -38.236215441743298 -42.627374888647282 0 -42.627374888647282 -16.778787229603495 0 0 0 0 -25.13942669142142 -27.224938766577509 0 -27.224938766577509 -5.269961066198448 0 0 0 0 -3.4339703357809412 -16.703445919207326 0 -16.703445919207326 -3.2528137633652321 0 0 0 0 -5.3170090365498517 -13.002603006853263 0 -13.002603006853263 11.450135554570025 0 0 0 0 -24.37652947632705 -25.642222891247002 0 -25.642222891247002 -3.8887316924860897 0 0 0 0 -45.087168669839571 -60.38989342232945 0 -60.38989342232945 100.4372405150848 0 0 0 0 1.064009473513579 -55.395051371912473 0 -55.395051371912473 29.958604417672859 0 0 0 0 9.8040129510200131 -47.446070461362808 0 -47.446070461362808 -0.46853767524837053 0 0 0 0 -20.989074615617938 -35.457207354865261 0 -35.457207354865261 90.442726422652868 0 0 0 0 -17.558097617061748 -15.785368884613137 0 -15.785368884613137 -4.6997776771871917 0 0 0 0 -36.147466432256351 -4.9256499173926755 0 -4.9256499173926755 15.241395187688454 0 0 0 0 -100.22300948463726 -38.227150182138047 0 -38.227150182138047 35.332995837964631 0 0 0 0 -13.014952864885768 -8.9914981441756687 0 -8.9914981441756687 -6.7931746641669655 0 0 0 0 -9.6211622442442604 -115.25667334821503 0 -115.25667334821503 101.43824331803489 0 0 0 0 -4.5648981819368046 -3.5521942901971855 0 -3.5521942901971855 -2.880612095754846 0 0 0 0 -309.84953518317161 88.730282137742364 0 88.730282137742364 17.613620302324421 0 0 0 0 -166.65834334260626 4.8264168338570244 0 4.8264168338570244 11.812699230124508 0 0 0 0 -97.197055057909324 -23.884565506381168 0 -23.884565506381168 12.103903003722166 0 0 0 0 -455.02673107574174 -162.82399378530934 0 -162.82399378530934 57.216496649879332 0 0 0 0 -308.00129496893442 -100.43588599913241 0 -100.43588599913241 82.595430959703549 0 0 0 0 -618.56073913758587 -335.80759477672694 0 -335.80759477672694 -126.36116715440835 0 0 0 0 -718.04175658023178 90.835915593868719 0 90.835915593868719 23.552570274225616 0 0 0 0 -311.32541659637991 -146.94651569493956 0 -146.94651569493956 -13.182925808465882 0 0 0 0 -155.92696366418932 -164.08476521973017 0 -164.08476521973017 -599.65872294623193 0 0 0 0 -726.03619442772992 -274.36891311554888 0 -274.36891311554888 -23.813981732032708 0 0 0 0 -598.75540419911317 221.0172014421216 0 221.0172014421216 -89.384934954705386 0 0 0 0 -263.90560380787429 -160.3586088775678 0 -160.3586088775678 -0.87526860618004321 0 0 0 0 -182.55787673214763 37.542532312590197 0 37.542532312590197 -49.702808250797602 0 0 0 0 -247.44153651314627 57.81117121835814 0 57.81117121835814 -24.198797814334512 0 0 0 0 -396.91864771731071 -44.10520512725958 0 -44.10520512725958 39.357335619769856 0 0 0 0 -270.96350311129663 -182.49943152652543 0 -182.49943152652543 -66.659749452732967 0 0 0 0 -75.040438832425934 -262.81109326653996 0 -262.81109326653996 -232.86802442087608 0 0 0 0 -92.280034506204174 -334.34412190242682 0 -334.34412190242682 -353.58828276695647 0 0 0 0 50.507709751987022 -100.07799311645667 0 -100.07799311645667 -183.8325675235443 0 0 0 0 2.0819810324464925 -129.07200734953665 0 -129.07200734953665 -152.57071799471441 0 0 0 0 5.469628724433278 -41.238995251124862 0 -41.238995251124862 23.004267135116066 0 0 0 0 -23.329227619283756 -148.79421126497817 0 -148.79421126497817 -127.47591347453186 0 0 0 0 -44.355003963215495 -94.150019576503979 0 -94.150019576503979 21.141151547701199 0 0 0 0 -0.35126597599058462 -5.6094544325879134 0 -5.6094544325879134 0.19778012718746041 0 0 0 0 68.078439681900818 -61.941582635487208 0 -61.941582635487208 35.168712998445081 0 0 0 0 -1.5309390966676801 -5.159454933865967 0 -5.159454933865967 0.69105734162519861 0 0 0 0 59.726272488810537 20.373010645963006 0 20.373010645963006 19.165912191350827 0 0 0 0 -7.3201479305387238 -9.8125432632408547 0 -9.8125432632408547 -3.0798396664255279 0 0 0 0 -8.9832143810519423 -2.6177525150525005 0 -2.6177525150525005 1.4671896988989728 0 0 0 0 -4.5947224052599722 -7.3247129877819361 0 -7.3247129877819361 -0.86808578989069929 0 0 0 0 -69.413387282401914 0.83431698351947148 0 0.83431698351947148 19.788914489553918 0 0 0 0 3.5910657066364147 -11.024826918080983 0 -11.024826918080983 2.1765282685152818 0 0 0 0 -21.189954032180594 -5.4586412477328849 0 -5.4586412477328849 -25.195546457184605 0 0 0 0 -24.901026400914816 45.736564856310338 0 45.736564856310338 -3.106261009958132 0 0 0 0 21.102771691897487 -42.519092496086159 0 -42.519092496086159 43.053574431158722 0 0 0 0 35.057603231855865 -11.259087563410098 0 -11.259087563410098 -21.186655467394985 0 0 0 0 -41.058910793286145 -88.172633298033375 0 -88.172633298033375 -20.885502769819482 0 0 0 0 81.237184519118841 -103.089124096104 0 -103.089124096104 -27.162811878364209 0 0 0 0 -200.37068536032257 -115.54277457082623 0 -115.54277457082623 18.094113482651665 0 0 0 0 -179.88515303073109 -141.89252181533473 0 -141.89252181533473 18.822377246415329 0 0 0 0 -66.632002736381082 -118.55551873587825 0 -118.55551873587825 -6.2163389937030615 0 0 0 0 -73.649413937250756 -76.059638506879651 0 -76.059638506879651 -0.72981060576626078 0 0 0 0 -201.23049800610806 -112.74730662894245 0 -112.74730662894245 45.453861071185429 0 0 0 0 -309.88453738596945 -154.99911219920304 0 -154.99911219920304 42.6928313898037 0 0 0 0 -179.47968159425545 -144.32336138182777 0 -144.32336138182777 -14.057097066117308 0 0 0 0 -300.87371463899672 -205.28330882781049 0 -205.28330882781049 -35.024185976912293 0 0 0 0 -110.57346398096161 -125.80585232777844 0 -125.80585232777844 -210.94780822643963 0 0 0 0 -42.499101118743056 -77.70504292670114 0 -77.70504292670114 71.072675900019419 0 0 0 0 -38.894534149747415 -105.86611890460537 0 -105.86611890460537 -70.04139080189077 0 0 0 0 -114.64786787857975 -82.061342272969227 0 -82.061342272969227 -15.666225021124319 0 0 0 0 105.64429095245578 -2.5076829855232177 0 -2.5076829855232177 -33.133035366958495 0 0 0 0 -0.65859837809117039 -30.628880574391893 0 -30.628880574391893 -12.268258253006479 0 0 0 0 -1.0855411097757894 -43.259578862121877 0 -43.259578862121877 -102.38723211939009 0 0 0 0 -78.306511260690968 5.8325664252610352 0 5.8325664252610352 -33.864770257257533 0 0 0 0 4.4538302975233819 2.1379991963129044 0 2.1379991963129044 -72.561149747473166 0 0 0 0 4.5558896149647126 6.0869874436011697 0 6.0869874436011697 14.831433020273266 0 0 0 0 108.65089681191785 -39.967830310340617 0 -39.967830310340617 -49.270828039885714 0 0 0 0 -166.92179140466942 -35.866465535199353 0 -35.866465535199353 -97.114151259745938 0 0 0 0 -95.24819928363695 -44.199133767311011 0 -44.199133767311011 -132.13115646220118 0 0 0 0 -180.59982924234646 -5.6009606100958536 0 -5.6009606100958536 -22.628200910583018 0 0 0 0 1.3659942609636317 1.1007472784660992 0 1.1007472784660992 0.10450191745848514 0 0 0 0 -100.68004934377223 73.453720401154385 0 73.453720401154385 -85.110486794277222 0 0 0 0 -221.93779691179952 10.200565963441704 0 10.200565963441704 10.335032899853559 0 0 0 0 -96.617213420836606 50.783713496604307 0 50.783713496604307 8.1655755593068307 0 0 0 0 -24.85168832276122 35.153939143054515 0 35.153939143054515 -26.981914357724236 0 0 0 0 -2.0436181598834082 78.662415293020189 0 78.662415293020189 55.956061708335369 0 0 0 0 99.181735840469628 63.824765104295011 0 63.824765104295011 -44.990338175007082 0 0 0 0 116.85818668566208 98.872566666938155 0 98.872566666938155 17.772950824228019 0 0 0 0 168.18981271096072 131.27532897335368 0 131.27532897335368 101.94198251632292 0 0 0 0 66.550308713318373 48.798456163305218 0 48.798456163305218 47.273681691099227 0 0 0 0 58.733824824743351 29.806785054427053 0 29.806785054427053 2.4223480602980771 0 0 0 0 39.369650825570716 -35.770928118508209 0 -35.770928118508209 0.62410138928402148 0 0 0 0 177.10420287794841 2.0521614107524329 0 2.0521614107524329 -51.824444184037247 0 0 0 0 241.46315853702254 42.213881296040029 0 42.213881296040029 -28.990008767189238 0 0 0 0 174.40463658106137 -73.444210805698134 0 -73.444210805698134 9.968482988739197 0 0 0 0 81.27271431727786 1.6080576397407285 0 1.6080576397407285 -10.521507745207355 0 0 0 0 94.267799505305447 -51.992006752605569 0 -51.992006752605569 151.50689763130569 0 0 0 0 1.9134924746866906 -3.9140939013324352 0 -3.9140939013324352 -2.5002344811897435 0 0 0 0 222.20869372789457 -29.014212822031084 0 -29.014212822031084 -27.611138856310504 0 0 0 0 129.77242827728878 6.5959321045658896 0 6.5959321045658896 -13.871778003448753 0 0 0 0 122.00962227962555 -39.541175546524585 0 -39.541175546524585 -32.554592141309627 0 0 0 0 -7.5663158915090207 -8.8338388197797073 0 -8.8338388197797073 0.55195124332934142 0 0 0 0 -9.3832371269161285 -6.1088365059869716 0 -6.1088365059869716 4.2137981414443573 0 0 0 0 -10.411315886941027 -3.2284179871245886 0 -3.2284179871245886 0.96136111452430462 0 0 0 0 -125.68047133051914 -33.212068237961489 0 -33.212068237961489 112.36105591102762 0 0 0 0 -70.466422610295922 -71.2787381235147 0 -71.2787381235147 131.81245453028924 0 0 0 0 -9.7217101667468313 -7.6919140603108431 0 -7.6919140603108431 -83.042571351601509 0 0 0 0 -0.7264931670470105 34.574579730966434 0 34.574579730966434 -122.2660241235958 0 0 0 0 -2.6097780150157339 1.6045463571666021 0 1.6045463571666021 -0.16889330124412716 0 0 0 0 -151.48051144623946 -137.31846330476804 0 -137.31846330476804 -171.92229809289893 0 0 0 0 -15.877102652602275 -16.663538022806861 0 -16.663538022806861 -25.594867792668083 0 0 0 0 -3.9907585032366115 -4.764949817109235 0 -4.764949817109235 -9.8670988073182802 0 0 0 0 -18.091462881326208 -5.5697875712281331 0 -5.5697875712281331 -3.7400131214922112 0 0 0 0 -25.591769990816829 -3.8397709256094004 0 -3.8397709256094004 2.7055913008881589 0 0 0 0 37.224406356108375 -19.492271209527189 0 -19.492271209527189 -112.93733049386242 0 0 0 0 -13.019374687687858 1.9692392594745769 0 1.9692392594745769 0.98768833022276659 0 0 0 0 38.183177618677291 -14.455601725217548 0 -14.455601725217548 -111.13508737127194 0 0 0 0 107.02250782422198 -11.52323935562697 0 -11.52323935562697 -132.6058273893733 0 0 0 0 119.47642877855196 46.018602413507551 0 46.018602413507551 -83.169273240906477 0 0 0 0 32.676210465177064 24.683223791334285 0 24.683223791334285 -73.805501334233213 0 0 0 0 66.386725350859706 56.275546628608367 0 56.275546628608367 -46.400972203900665 0 0 0 0 -26.110076883587681 88.890539095013537 0 88.890539095013537 -32.141632013456643 0 0 0 0 -16.252922326683802 -5.2531350958387293 0 -5.2531350958387293 -15.349640078358334 0 0 0 0 0.35322658916812166 3.8090870898785862 0 3.8090870898785862 1.5135698866453673 0 0 0 0 -63.641147659224771 71.386621407676103 0 71.386621407676103 -40.112141673906763 0 0 0 0 -47.76202669344093 11.378433275766156 0 11.378433275766156 -73.535724852188608 0 0 0 0 -74.049117429266516 48.649687268381172 0 48.649687268381172 3.7345194512342914 0 0 0 0 -242.58246737958234 -44.145166933211158 0 -44.145166933211158 14.063406657416635 0 0 0 0 427.48753909485276 -339.73997875344412 0 -339.73997875344412 -27.354166689125123 0 0 0 0 -42.785121009781847 25.423617163553125 0 25.423617163553125 14.561242448699431 0 0 0 0 -2.4485150328061707 -0.48139716257132648 0 -0.48139716257132648 0.3774007729708555 0 0 0 0 -45.092046713174881 -26.565650299929729 0 -26.565650299929729 0.37085942438352504 0 0 0 0 -0.099049493408529088 0.23829663366905152 0 0.23829663366905152 40.869031994883926 0 0 0 0 -6.2418752308135517 2.2786248141302821 0 2.2786248141302821 0.87289594645787627 0 0 0 0 -173.07202520374631 169.83965119188906 0 169.83965119188906 161.48947012268081 0 0 0 0 -11.493883657589327 7.3298046773628673 0 7.3298046773628673 8.28870292001724 0 0 0 0 -62.715384452935552 -11.24599870936072 0 -11.24599870936072 0.52472251722036845 0 0 0 0 -26.389756360509637 -15.957465022570915 0 -15.957465022570915 -71.099497265086043 0 0 0 0 -29.424091096825578 2.6967593533452145 0 2.6967593533452145 32.588782212617161 0 0 0 0 -107.2971001310143 -97.528910802372366 0 -97.528910802372366 174.20404287407064 0 0 0 0 -65.187956772562757 -45.116220373857033 0 -45.116220373857033 0.92680109435055158 0 0 0 0 107.31093104356478 -51.131003067494817 0 -51.131003067494817 19.617951170315337 0 0 0 0 -48.833194961232948 -246.16071413241343 0 -246.16071413241343 -15.067942770047239 0 0 0 0 -365.2743611480837 -139.79486305762111 0 -139.79486305762111 39.038945132362187 0 0 0 0 -91.665471753276506 6.8759074626669872 0 6.8759074626669872 1.4555248398974925 0 0 0 0 -3.3704581931469733 -1.6751574308664772 0 -1.6751574308664772 0.35567309845782907 0 0 0 0 -163.05361598720083 -142.71230887509574 0 -142.71230887509574 -45.734807155216004 0 0 0 0 22.054248962513157 -158.41475145838146 0 -158.41475145838146 -306.07180317920728 0 0 0 0 3.2239551562140178 -4.2995249031059011 0 -4.2995249031059011 2.3990084339573841 0 0 0 0 -43.852344517741585 -83.6025708789156 0 -83.6025708789156 -56.760137197131371 0 0 0 0 -1.8732809621680104 -1.3451173775951268 0 -1.3451173775951268 -0.9020411832037446 0 0 0 0 12.201663483159791 -9.3533311434993038 0 -9.3533311434993038 0.41710182917941552 0 0 0 0 -3.0339777638000669 -11.729904855669247 0 -11.729904855669247 -7.3310567721392772 0 0 0 0 0.52612918670638464 -17.576214023418288 0 -17.576214023418288 7.5195279544441291 0 0 0 0 -1.9330997498285569 -7.4629782646914755 0 -7.4629782646914755 -2.2407660730719527 0 0 0 0 4.1975605406332761 -7.5701614574963969 0 -7.5701614574963969 1.0218795273570436 0 0 0 0 -27.630751270422479 3.7536095147037258 0 3.7536095147037258 -4.9963957371205652 0 0 0 0 -27.986288679248446 0.72733097741793173 0 0.72733097741793173 -25.570939117205057 0 0 0 0 -24.55551848753003 -0.33549591651450328 0 -0.33549591651450328 4.7800311943074316 0 0 0 0 29.25159511177867 -3.402512286158867 0 -3.402512286158867 40.897882063331053 0 0 0 0 -13.414097335997212 7.8850065905821509 0 7.8850065905821509 -5.0515981718850753 0 0 0 0 -51.091107983666006 -28.831973423823115 0 -28.831973423823115 4.3483678729517123 0 0 0 0 -15.866041293210628 -5.7591677875127445 0 -5.7591677875127445 0.092582957673153055 0 0 0 0 -14.00038032480489 4.6238839994279601 0 4.6238839994279601 -3.3526516806045086 0 0 0 0 -0.76429333767737262 -4.6046561866710363 0 -4.6046561866710363 -3.9203374947600196 0 0 0 0 0.12753593603445523 -0.28604186896123807 0 -0.28604186896123807 -0.26964868332505476 0 0 0 0 -17.07142632186094 -9.4936229709513675 0 -9.4936229709513675 6.0856850998879395 0 0 0 0 -20.727191420010271 -6.0487624270686426 0 -6.0487624270686426 3.0411471529747187 0 0 0 0 -89.170570033798867 5.5136897800383053 0 5.5136897800383053 33.056764123540745 0 0 0 0 -24.854200509878865 -11.808195168612144 0 -11.808195168612144 1.8526491151270648 0 0 0 0 -20.286037946391634 -5.1938962926744985 0 -5.1938962926744985 8.6670868961223899 0 0 0 0 -45.751479289836425 -50.009703297176202 0 -50.009703297176202 23.20793087654738 0 0 0 0 -16.094353189093681 -9.5419857720484202 0 -9.5419857720484202 0.61852025220871454 0 0 0 0 3.547775356870261 -70.576755428773481 0 -70.576755428773481 -15.246838436444477 0 0 0 0 -24.881792337046921 -15.442438288628484 0 -15.442438288628484 -4.0789805769265737 0 0 0 0 -17.794238817323397 -8.3761308172835136 0 -8.3761308172835136 -3.8985927866794898 0 0 0 0 -21.687702373765205 -14.322184682334751 0 -14.322184682334751 -1.5242242416450154 0 0 0 0 14.712078174721682 -25.34232210782676 0 -25.34232210782676 -26.139981072046339 0 0 0 0 -48.489019431514862 -77.158317912883035 0 -77.158317912883035 -168.25380327797211 0 0 0 0 2.5784598380469106 -170.39266612833228 0 -170.39266612833228 -185.81894399648161 0 0 0 0 -24.543379434757298 -174.41583035574672 0 -174.41583035574672 -140.78589645450904 0 0 0 0 -53.275945749268146 -8.920227940560352 0 -8.920227940560352 0.21283775812848282 0 0 0 0 -35.673285382253198 -133.64453926946408 0 -133.64453926946408 -44.339599369191546 0 0 0 0 -90.981875950251833 166.63854623700945 0 166.63854623700945 49.623231253796803 0 0 0 0 62.740881609955977 -88.899213656753432 0 -88.899213656753432 -95.824332591195798 0 0 0 0 -109.43801515713039 -125.6771514793594 0 -125.6771514793594 -102.60903560253973 0 0 0 0 -120.97887676602568 -118.9581274804201 0 -118.9581274804201 -48.505382121926004 0 0 0 0 -242.17855030812279 -9.1168551503606068 0 -9.1168551503606068 50.73769445093285 0 0 0 0 -256.74349147772409 -22.611093822072462 0 -22.611093822072462 40.179237453874777 0 0 0 0 -63.094177490471886 -9.808103566920078 0 -9.808103566920078 0.14201389387314653 0 0 0 0 -264.66982552568516 -129.88146342988125 0 -129.88146342988125 -22.911855716681657 0 0 0 0 -344.58202551321301 4.340392784877622 0 4.340392784877622 49.814057458276665 0 0 0 0 -600.80293427332072 -26.373843195764493 0 -26.373843195764493 92.258964693014093 0 0 0 0 -192.16989880284382 166.71839310152041 0 166.71839310152041 221.34406559595993 0 0 0 0 -194.32801518117049 2.721297097344177 0 2.721297097344177 382.73226994762859 0 0 0 0 -32.979875070058824 -7.5499616736007411 0 -7.5499616736007411 -8.7550690554817265 0 0 0 0 -41.993889997116639 -75.332245169004068 0 -75.332245169004068 42.229822969987026 0 0 0 0 -81.311462522480724 -193.91716726289042 0 -193.91716726289042 -167.80283964588671 0 0 0 0 -132.8821602608532 126.49592529580053 0 126.49592529580053 -255.00064369749589 0 0 0 0 -34.469717399901128 -124.98819811767714 0 -124.98819811767714 -84.512045409468783 0 0 0 0 24.00484871079243 -101.89855221745074 0 -101.89855221745074 -56.042009842276457 0 0 0 0 36.413838159359329 -139.36457510275687 0 -139.36457510275687 -90.523397006245659 0 0 0 0 -18.868808405284653 -156.62881212770571 0 -156.62881212770571 -21.670760386013797 0 0 0 0 36.587033794317378 -21.630085300787339 0 -21.630085300787339 111.34173879279854 0 0 0 0 36.221193392986606 -133.72172334483207 0 -133.72172334483207 146.9712638468319 0 0 0 0 -66.52350495797873 -114.41036075677687 0 -114.41036075677687 436.17936051156448 0 0 0 0 18.232365901778394 -171.71955367451062 0 -171.71955367451062 69.918543070723786 0 0 0 0 52.050272528855203 -136.1326141963807 0 -136.1326141963807 -93.191344276297741 0 0 0 0 -195.3386599357691 -156.92976555750684 0 -156.92976555750684 171.40066793834274 0 0 0 0 -39.907384831265517 -141.2162447644975 0 -141.2162447644975 127.08574038885354 0 0 0 0 -12.999470888244105 -189.72772907054332 0 -189.72772907054332 -171.79415242635298 0 0 0 0 25.920057990089845 37.933048677375325 0 37.933048677375325 282.84653599247997 0 0 0 0 40.932304056736029 -173.10775893539844 0 -173.10775893539844 133.35975690998737 0 0 0 0 -153.46088129745476 160.56302123871092 0 160.56302123871092 -251.95093626969469 0 0 0 0 -31.390132802138396 -1.4907951393302028 0 -1.4907951393302028 -275.95679627973868 0 0 0 0 -98.786939255975085 93.23797467232805 0 93.23797467232805 -393.9557875238047 0 0 0 0 -113.77826001214407 -147.40693348278057 0 -147.40693348278057 -312.34898413235942 0 0 0 0 -40.844359097922279 -50.192109342470303 0 -50.192109342470303 -185.48695377371305 0 0 0 0 0.57924762209040637 -145.87954218473956 0 -145.87954218473956 -216.92909886008692 0 0 0 0 7.5720857562264428 -94.321956981600806 0 -94.321956981600806 -98.576266312013104 0 0 0 0 39.788711355440682 -150.12083612123496 0 -150.12083612123496 -117.34591102115837 0 0 0 0 9.0615881878256914 -72.511325078907589 0 -72.511325078907589 -191.04670555560324 0 0 0 0 6.2810267174390901 -55.279706241596955 0 -55.279706241596955 -146.40895050885433 0 0 0 0 -12.886453032628197 6.5889828176730134 0 6.5889828176730134 -214.36441899858005 0 0 0 0 -22.491746904466709 10.835306877458606 0 10.835306877458606 -262.19885341132192 0 0 0 0 -18.929720337659091 -16.65537920192105 0 -16.65537920192105 -94.481721680431889 0 0 0 0 0.43166151134985853 -0.44659671479115204 0 -0.44659671479115204 0.29574146367750487 0 0 0 0 -12.514380299417098 -16.93231266107091 0 -16.93231266107091 -116.17563029181667 0 0 0 0 -5.6528892677015392 -70.721339101390299 0 -70.721339101390299 -89.770323249934336 0 0 0 0 -2.9436228775448399 -56.760869759219986 0 -56.760869759219986 -165.00205051820672 0 0 0 0 24.756281787553235 -106.32674445585388 0 -106.32674445585388 -126.0119475718966 0 0 0 0 -11.788328866678057 -120.94908578128423 0 -120.94908578128423 -96.111738901055105 0 0 0 0 -52.878085736090725 -87.261257113077107 0 -87.261257113077107 -35.269304064393282 0 0 0 0 1.5520338832264002 -1.6775576274892501 0 -1.6775576274892501 1.75023442468434 0 0 0 0 -43.482641124035581 -96.457346207163482 0 -96.457346207163482 -86.813869188033891 0 0 0 0 -13.119328669861716 -123.82343224584918 0 -123.82343224584918 -69.939717088814064 0 0 0 0 -56.742869065263221 -152.70903474841623 0 -152.70903474841623 -73.646762104069694 0 0 0 0 -102.04822674127718 -109.43207355376796 0 -109.43207355376796 -29.530471485802764 0 0 0 0 -93.874803681464982 32.30158792278803 0 32.30158792278803 -2.6912500314507497 0 0 0 0 41.520263025558961 -58.137221325424775 0 -58.137221325424775 -15.602405537821596 0 0 0 0 -28.465902925105183 -104.88507074526206 0 -104.88507074526206 39.74704943046504 0 0 0 0 -59.392206046726642 -46.031737371989607 0 -46.031737371989607 26.483930709528067 0 0 0 0 -44.506214468379767 -22.062087025377423 0 -22.062087025377423 15.493541138288492 0 0 0 0 -16.38486547426146 -28.853816020801332 0 -28.853816020801332 0.99746526212709341 0 0 0 0 -8.819039463516674 -43.822767020724768 0 -43.822767020724768 2.0197836858842493 0 0 0 0 -6.9635377819568021 -34.181625956595866 0 -34.181625956595866 -15.67885925768951 0 0 0 0 -11.742426206925302 -20.446328370712763 0 -20.446328370712763 -20.772219278574312 0 0 0 0 -23.798547090207649 10.181790777529272 0 10.181790777529272 -40.367788216678491 0 0 0 0 -15.25804915207118 -18.375959492914376 0 -18.375959492914376 -17.780154282845615 0 0 0 0 -16.679762100648077 -12.725022499622128 0 -12.725022499622128 -25.326638615435513 0 0 0 0 -21.533297318259429 -20.696689885773139 0 -20.696689885773139 -10.921165220751845 0 0 0 0 -19.254362017731182 -18.302237219921608 0 -18.302237219921608 -9.4649445032653148 0 0 0 0 -11.24678455972753 -12.259324632833795 0 -12.259324632833795 -22.991880605093684 0 0 0 0 -20.64678664845087 -12.525321041383819 0 -12.525321041383819 -21.124693076850235 0 0 0 0 -0.46558320834900258 -0.08570034661690773 0 -0.08570034661690773 -0.070366317241148058 0 0 0 0 -21.485084801737685 -9.4468163648621157 0 -9.4468163648621157 -29.970911141435863 0 0 0 0 241.77383107350033 32.613550924195579 0 32.613550924195579 -78.704640940372656 0 0 0 0 -51.75230523472419 -1.9224080219055395 0 -1.9224080219055395 -27.472084141974847 0 0 0 0 -63.659979152696906 17.861647305858469 0 17.861647305858469 -30.278307563903581 0 0 0 0 -41.07597381686719 12.61543610725073 0 12.61543610725073 -33.051386915758485 0 0 0 0 -36.805866343420348 -9.0823629700184938 0 -9.0823629700184938 -27.572168703538047 0 0 0 0 -20.097278616990934 -6.0189085457069496 0 -6.0189085457069496 -31.321442276888774 0 0 0 0 -29.386851430914248 -12.643866060883283 0 -12.643866060883283 -22.09640472319461 0 0 0 0 -53.656733439616801 14.351906959114615 0 14.351906959114615 -41.963458071024888 0 0 0 0 -216.51839399988239 -5.6543086333872452 0 -5.6543086333872452 -49.037529213822381 0 0 0 0 -53.842080430324131 21.197776151492974 0 21.197776151492974 -45.423051401310431 0 0 0 0 -55.144314834127726 14.458115260901877 0 14.458115260901877 -30.838019564263504 0 0 0 0 -95.822068215777108 19.326525239868033 0 19.326525239868033 -24.214137614669994 0 0 0 0 -1.988115996207398 0.30585827551718126 0 0.30585827551718126 -0.14046298038181027 0 0 0 0 -40.065770898139817 30.063629269213038 0 30.063629269213038 -33.402937713256506 0 0 0 0 22.396758587176009 12.676559315822061 0 12.676559315822061 -29.745188865492082 0 0 0 0 -5.1465445356225246 -2.6158659279107042 0 -2.6158659279107042 -33.70353081546682 0 0 0 0 -123.57505339597265 152.08186717719821 0 152.08186717719821 -114.3831298094849 0 0 0 0 -108.54964186696452 41.93369986513801 0 41.93369986513801 -35.262104443968838 0 0 0 0 -137.41504809454273 125.28026356604721 0 125.28026356604721 -161.00679927983356 0 0 0 0 -85.010316197360225 25.669429923079406 0 25.669429923079406 -175.82328263992108 0 0 0 0 -157.8738993810075 141.36715388301195 0 141.36715388301195 -100.94363130880674 0 0 0 0 -223.94286744081182 102.84463892052304 0 102.84463892052304 -33.228421953822362 0 0 0 0 -264.19272726139025 73.700211756659883 0 73.700211756659883 -40.44098259772727 0 0 0 0 -201.1737854916646 147.32582768760335 0 147.32582768760335 -158.45563680541909 0 0 0 0 -115.17974327418597 108.23941289621528 0 108.23941289621528 -187.4697589182324 0 0 0 0 -195.25760312521015 124.88662008739948 0 124.88662008739948 -90.254128659809453 0 0 0 0 -187.89803663656858 142.40600623303112 0 142.40600623303112 -157.57948190855495 0 0 0 0 1.6781163160776487 -8.4356771912467252 0 -8.4356771912467252 -15.615414587507871 0 0 0 0 4.2236956179222034 -4.6341787513772488 0 -4.6341787513772488 -9.9383937338333226 0 0 0 0 3.6981504819289057 -0.24196602457803351 0 -0.24196602457803351 -6.210838908632013 0 0 0 0 -0.15381932992712599 -5.0501742267920591 0 -5.0501742267920591 -3.6386682501087071 0 0 0 0 -20.632022741428955 -18.298145457345157 0 -18.298145457345157 -4.1697409035814417 0 0 0 0 -32.028088603583456 -15.690905268923416 0 -15.690905268923416 -0.42741416335857707 0 0 0 0 -0.54297561812203377 -4.5882209048440785 0 -4.5882209048440785 -8.2144638619645214 0 0 0 0 -10.958353566846199 -18.394960284024169 0 -18.394960284024169 -34.988853293797106 0 0 0 0 12.23911092742992 3.8826005412896745 0 3.8826005412896745 -17.211824936233427 0 0 0 0 -4.9666605079401052 -11.131506355015773 0 -11.131506355015773 -7.2830232331243678 0 0 0 0 -2.8720613690638856 -10.147185545166622 0 -10.147185545166622 -7.1454883615687095 0 0 0 0 -2.8249541231748481 -10.721927207019121 0 -10.721927207019121 -8.5590486923033495 0 0 0 0 -1.9349793485998816 -11.247040821995824 0 -11.247040821995824 -8.3471503432115242 0 0 0 0 -2.307092837140317 -9.8139377783996622 0 -9.8139377783996622 -8.3204389916809305 0 0 0 0 18.031086600354683 -6.4063579347287032 0 -6.4063579347287032 -56.647967950589987 0 0 0 0 -0.80875268065521766 -0.35085167296994868 0 -0.35085167296994868 -0.22487360810335444 0 0 0 0 -29.540575206228823 -11.545587372244881 0 -11.545587372244881 21.891606724519079 0 0 0 0 -3.5631981932456256 -11.464561488091022 0 -11.464561488091022 -9.3021094113482832 0 0 0 0 -3.9890155045723077 -9.995411308643952 0 -9.995411308643952 -8.3367139051802326 0 0 0 0 8.6185215262357815 -12.824599763675678 0 -12.824599763675678 -5.7037490744555726 0 0 0 0 13.237841871510682 -5.4041612565899868 0 -5.4041612565899868 -10.263460466315337 0 0 0 0 4.1592148104900843 8.0770623960164016 0 8.0770623960164016 10.203928635732609 0 0 0 0 -19.320327109169739 -13.0718810180216 0 -13.0718810180216 14.518699259868754 0 0 0 0 -9.0929830571112689 -8.4093413261489331 0 -8.4093413261489331 -10.304681806751432 0 0 0 0 -9.3344638069102075 -10.402837571415148 0 -10.402837571415148 -9.4615336899601061 0 0 0 0 -11.46877126761683 -13.266602742555278 0 -13.266602742555278 -12.07907268252211 0 0 0 0 -54.038632515614154 -11.155262421851603 0 -11.155262421851603 -59.708444440229187 0 0 0 0 -4.4607651369005907 -9.2981903383117697 0 -9.2981903383117697 -32.402733115014371 0 0 0 0 -0.23379648744594306 -3.7352169026132742 0 -3.7352169026132742 -25.228707137270703 0 0 0 0 -0.82091669880173868 1.413602085632192 0 1.413602085632192 -10.605868013522198 0 0 0 0 5.5830403372892761 0.99632062440923619 0 0.99632062440923619 -19.626367804570464 0 0 0 0 19.682616325764684 13.80966325506779 0 13.80966325506779 -55.182370939826541 0 0 0 0 -1.5026361767494762 0.30624904792171792 0 0.30624904792171792 -0.063100347174434579 0 0 0 0 -3.2290379893902355 -8.0628540268087079 0 -8.0628540268087079 -3.4197196854070171 0 0 0 0 -0.73338692147808615 1.103709461543076 0 1.103709461543076 -11.027978247327582 0 0 0 0 -43.114505109282618 24.876805866473887 0 24.876805866473887 -0.07970350587162045 0 0 0 0 1.1976185450112098 -6.7220038746092996 0 -6.7220038746092996 -10.944102825731534 0 0 0 0 -2.6270325267360022 -4.6629623767399835 0 -4.6629623767399835 -3.5677008534994457 0 0 0 0 -2.7640999063420963 -0.95563889999641738 0 -0.95563889999641738 -0.37617598344884651 0 0 0 0 -1.6279647021474375 -12.371756424822706 0 -12.371756424822706 7.7152552687084608 0 0 0 0 -1.4597606608452054 -2.2445966362580592 0 -2.2445966362580592 -0.87738577984463206 0 0 0 0 5.419414279404009 -15.174507430212884 0 -15.174507430212884 -28.573622581167911 0 0 0 0 0.40935960264049243 -1.5416338984695734 0 -1.5416338984695734 -0.65185355803415379 0 0 0 0 -32.981322228104546 -6.0483636703257844 0 -6.0483636703257844 0.88425547565907436 0 0 0 0 -39.254564782662783 -18.728845469763087 0 -18.728845469763087 48.335531619541598 0 0 0 0 -1.782462291309348 -5.9604707298016848 0 -5.9604707298016848 -1.2756210229569529 0 0 0 0 12.690712833220459 0.1304487343548999 0 0.1304487343548999 -5.0801290828414949 0 0 0 0 -13.930313058411201 -0.29778087679307252 0 -0.29778087679307252 0.37264089689366409 0 0 0 0 -2.4149660626557914 -0.31159750062109737 0 -0.31159750062109737 0.082297340713100908 0 0 0 0 -69.239587036834564 -57.749962292588179 0 -57.749962292588179 17.840212081956679 0 0 0 0 20.216482732776058 17.737138582639545 0 17.737138582639545 -26.618677230449748 0 0 0 0 -26.517433306453313 16.924825980541584 0 16.924825980541584 47.810664512605172 0 0 0 0 -9.5089457682436915 0.31968687529478945 0 0.31968687529478945 0.0028281519779844166 0 0 0 0 -9.04922847331909 -28.124176709937956 0 -28.124176709937956 20.145095684029343 0 0 0 0 -29.065704810731404 17.186698448585673 0 17.186698448585673 -2.2880964862550286 0 0 0 0 -18.055814794544858 -12.031880325518614 0 -12.031880325518614 -9.6393629172608826 0 0 0 0 -34.318398614890611 -22.422707646594858 0 -22.422707646594858 -16.006929614102319 0 0 0 0 -39.700350687809987 -10.131868678437286 0 -10.131868678437286 4.1887383862564036 0 0 0 0 -52.186081814325007 -18.552334651964884 0 -18.552334651964884 2.9800776360508507 0 0 0 0 -61.369427081219328 77.083637359339377 0 77.083637359339377 -53.094654386657794 0 0 0 0 -65.658544569268997 -62.560439021129582 0 -62.560439021129582 -70.624625080831038 0 0 0 0 -3.3550440656056537 0.10394493469758137 0 0.10394493469758137 -0.076319354901940695 0 0 0 0 -9.3847775208912481 25.541506477382114 0 25.541506477382114 -4.2082715954613832 0 0 0 0 -7.2663129707470944 -1.7140793624089383 0 -1.7140793624089383 5.709577388770299 0 0 0 0 -21.631613241934247 14.675552763066008 0 14.675552763066008 -11.138402036655634 0 0 0 0 -64.093476268609038 -45.414839540976317 0 -45.414839540976317 71.031219440320228 0 0 0 0 -56.851600008129026 24.688137734596239 0 24.688137734596239 -1.6485399829847154 0 0 0 0 -42.582191695593792 19.963407707145876 0 19.963407707145876 -11.76051692502898 0 0 0 0 -41.288532888967893 17.267932797686811 0 17.267932797686811 -14.535936969995362 0 0 0 0 -23.306871639385413 -8.6271837285191211 0 -8.6271837285191211 2.3586371873169361 0 0 0 0 -28.633867867883964 -2.6819308394718178 0 -2.6819308394718178 13.843242715242013 0 0 0 0 -22.870362430664283 -9.326696466862602 0 -9.326696466862602 -2.4577982042609245 0 0 0 0 -20.922201890934957 -20.125482359825583 0 -20.125482359825583 49.897381337689808 0 0 0 0 -38.310811495965027 -10.860456673071269 0 -10.860456673071269 -2.2143509234384737 0 0 0 0 -33.314278412468411 -18.593688627443157 0 -18.593688627443157 -6.9419136651630993 0 0 0 0 -55.234138318934129 -5.8143234268951574 0 -5.8143234268951574 -0.19975689962092957 0 0 0 0 -33.787723098356764 4.6826311453743656 0 4.6826311453743656 -7.7733559507272503 0 0 0 0 -46.226646947718109 24.383147396057794 0 24.383147396057794 -24.414764593958836 0 0 0 0 -84.970390861017222 12.991521278913723 0 12.991521278913723 -7.4191665524970176 0 0 0 0 -22.517974260983465 -20.831492489565761 0 -20.831492489565761 -33.518700607500286 0 0 0 0 -69.55136685227626 -28.716503064884417 0 -28.716503064884417 -17.481812669585729 0 0 0 0 -37.549662856865325 -7.1753081102900751 0 -7.1753081102900751 -4.4452082929905341 0 0 0 0 -28.886021904923993 -0.56736366588949316 0 -0.56736366588949316 3.7163121099717404 0 0 0 0 -1.0958860770218877 0.026816251969949967 0 0.026816251969949967 -1.7153696080159162 0 0 0 0 -60.045967269303219 -51.556561292533843 0 -51.556561292533843 57.496713975726834 0 0 0 0 31.409948406653712 63.776871962047494 0 63.776871962047494 -32.772062399919207 0 0 0 0 -17.094712443766184 -48.230909881093567 0 -48.230909881093567 20.71171239515661 0 0 0 0 -20.476860326225353 -12.306880760396831 0 -12.306880760396831 4.5545152901914046 0 0 0 0 -60.341407832631376 131.05147905672493 0 131.05147905672493 -114.76870543277619 0 0 0 0 -77.283588847192732 -29.648228334075156 0 -29.648228334075156 20.109048182284369 0 0 0 0 -76.205392410723107 -5.3980869284122264 0 -5.3980869284122264 8.3693089165253696 0 0 0 0 -13.893545690034308 -7.6505753924258775 0 -7.6505753924258775 5.5244988496154352 0 0 0 0 -137.6562026090869 1.3520484760033469 0 1.3520484760033469 19.317801827099402 0 0 0 0 -10.087384494482535 -0.57275803778145473 0 -0.57275803778145473 4.3994883010599306 0 0 0 0 9.5546413990450674 -110.11665343320215 0 -110.11665343320215 47.885229085432002 0 0 0 0 178.84602346027623 -172.35138993899068 0 -172.35138993899068 -166.45715980486057 0 0 0 0 1.5782483473684898 -0.41021160717191307 0 -0.41021160717191307 -2.8813993216711689 0 0 0 0 144.60883004903371 -110.65403226322996 0 -110.65403226322996 -90.93257471076663 0 0 0 0 -134.34815165258937 95.655948999269953 0 95.655948999269953 -8.341643322940854 0 0 0 0 143.93489084727707 -109.15671158761688 0 -109.15671158761688 -66.733207172098446 0 0 0 0 -141.47546610077552 -71.088971182513433 0 -71.088971182513433 -35.486070270371982 0 0 0 0 -37.857800092091622 -5.357572796576493 0 -5.357572796576493 2.4476235457004827 0 0 0 0 -77.007694894004089 8.8143295324969131 0 8.8143295324969131 41.477607792561912 0 0 0 0 -23.552576154613064 61.232780256613609 0 61.232780256613609 -45.418677897284851 0 0 0 0 -8.8571899563725154 0.66955192452272172 0 0.66955192452272172 -2.5126557301766921 0 0 0 0 -18.510675379662644 -100.9320194856964 0 -100.9320194856964 109.20451603583706 0 0 0 0 -10.893703191875147 -29.483197294586304 0 -29.483197294586304 58.430271109506975 0 0 0 0 -78.861022586652325 18.422495220353539 0 18.422495220353539 63.180134041378807 0 0 0 0 -125.46200227545523 -54.094076143564962 0 -54.094076143564962 133.92620083355678 0 0 0 0 -7.3034848849902119 -6.5288420260071689 0 -6.5288420260071689 36.180270775205827 0 0 0 0 -12.168316958431205 -19.729419939755871 0 -19.729419939755871 30.868108208411513 0 0 0 0 -3.2944934680107423 -2.5460791178076523 0 -2.5460791178076523 -0.83647094044100478 0 0 0 0 -2.3124207884400008 -2.10077803088965 0 -2.10077803088965 0.083507704343937894 0 0 0 0 -22.825856658550947 10.369185271020797 0 10.369185271020797 18.169480741347115 0 0 0 0 252.32419114914956 -178.65657687187468 0 -178.65657687187468 -261.79815396127015 0 0 0 0 -175.67747971722565 17.567370125402704 0 17.567370125402704 -21.791573268358661 0 0 0 0 -9.9738112099075806 -26.607641572293232 0 -26.607641572293232 -132.9159486120891 0 0 0 0 -7.6678829616546409 -16.069015829277191 0 -16.069015829277191 40.415065420967039 0 0 0 0 -41.86759025714673 46.879287308070616 0 46.879287308070616 66.266990800816529 0 0 0 0 -27.2196831002002 27.26293282996312 0 27.26293282996312 -8.457538987938733 0 0 0 0 -1.3061112157083699 22.41446050504851 0 22.41446050504851 27.748026301062055 0 0 0 0 -25.514428770718727 -8.4729221480478358 0 -8.4729221480478358 14.698003950261345 0 0 0 0 -42.951894883257751 -25.742718344749349 0 -25.742718344749349 -7.3568732465223547 0 0 0 0 -36.707413719959789 -55.375125523789151 0 -55.375125523789151 -63.354058616273505 0 0 0 0 -33.322693875956247 -27.78347792651698 0 -27.78347792651698 -23.585776623113361 0 0 0 0 -24.568022249528894 -26.460777150743525 0 -26.460777150743525 -23.390157237102358 0 0 0 0 -25.072601793631293 -23.977053402741149 0 -23.977053402741149 -30.131645444101878 0 0 0 0 -3.0011415053217601 0.35973461538433504 0 0.35973461538433504 -1.3450905092028171 0 0 0 0 -26.410657752526276 -18.051111035103077 0 -18.051111035103077 -14.466460356620537 0 0 0 0 -22.726174111553828 -12.82822040149853 0 -12.82822040149853 12.707355260818145 0 0 0 0 3.7923464537398104 12.962929837460251 0 12.962929837460251 42.874593517081848 0 0 0 0 -117.78952711517735 4.6305574164039172 0 4.6305574164039172 24.677037806394765 0 0 0 0 -31.78762222655299 -8.7624463415858713 0 -8.7624463415858713 9.9334849354154358 0 0 0 0 -30.819845818904213 -3.4798009158820093 0 -3.4798009158820093 -13.910544881164697 0 0 0 0 -27.985911711419703 -18.481938311509566 0 -18.481938311509566 6.6922865441088106 0 0 0 0 -29.989094237243535 -14.726935246991616 0 -14.726935246991616 49.679242184832447 0 0 0 0 -28.541359339900076 -7.4821515333858617 0 -7.4821515333858617 13.82236198646234 0 0 0 0 -65.722832599195726 -50.101809422808628 0 -50.101809422808628 24.574024616488714 0 0 0 0 -110.60199008264499 -101.11302750287859 0 -101.11302750287859 -11.023491315846513 0 0 0 0 -39.57420642989473 -47.832195459653349 0 -47.832195459653349 21.807660009783831 0 0 0 0 -140.16301429813666 14.988551528260359 0 14.988551528260359 29.893120832850286 0 0 0 0 55.747794389251794 -10.137628584034928 0 -10.137628584034928 -17.151718210032584 0 0 0 0 11.051260317885635 -70.374687515851861 0 -70.374687515851861 -46.580129352480526 0 0 0 0 -3.8805756380089562 -1.9051078382089734 0 -1.9051078382089734 0.19424260434314727 0 0 0 0 -4.8569570550325807 -19.163581948117326 0 -19.163581948117326 4.3533955555841928 0 0 0 0 -165.07786206383616 10.26471815408695 0 10.26471815408695 81.340636812620687 0 0 0 0 -430.32506757515876 291.32318148268132 0 291.32318148268132 -170.99418057961884 0 0 0 0 -7.5274525058884763 -12.391330287807833 0 -12.391330287807833 22.586207540793112 0 0 0 0 -11.852838327605781 -24.954671681455899 0 -24.954671681455899 20.843520479919107 0 0 0 0 -13.378730931252221 -17.039942269285518 0 -17.039942269285518 12.921348962808793 0 0 0 0 -1.6901101696663252 -1.4715207045167853 0 -1.4715207045167853 0.079178390857293945 0 0 0 0 -32.258429813276706 38.064626691262333 0 38.064626691262333 5.2926971313836475 0 0 0 0 -28.279826472918103 -50.689542678142516 0 -50.689542678142516 -63.065829138083927 0 0 0 0 -121.10570281854302 -30.198694670373044 0 -30.198694670373044 19.191026799583256 0 0 0 0 -21.357169996060119 -30.562020065894416 0 -30.562020065894416 15.785076204611357 0 0 0 0 -40.537795473363303 -43.365033659589528 0 -43.365033659589528 79.279001856144532 0 0 0 0 -143.85935971972322 -87.531362282869324 0 -87.531362282869324 98.534608590794548 0 0 0 0 -33.328474621984498 -10.584819002205105 0 -10.584819002205105 -3.088933553433729 0 0 0 0 -15.015971612570866 -37.03055208710208 0 -37.03055208710208 50.544994463265539 0 0 0 0 -29.468092203655829 -8.7519266360721719 0 -8.7519266360721719 -2.5749156888931872 0 0 0 0 -10.625735801559131 -40.333969035613222 0 -40.333969035613222 4.7792333200543737 0 0 0 0 -46.484899656779817 72.333937862309881 0 72.333937862309881 -23.256915463464182 0 0 0 0 -19.08472598717799 -7.5274709735058849 0 -7.5274709735058849 -9.6710447690415435 0 0 0 0 -28.184471268517882 8.7781478347341704 0 8.7781478347341704 66.649105803741037 0 0 0 0 24.883464918933896 -7.6465544040208897 0 -7.6465544040208897 -11.466497641756774 0 0 0 0 -20.255470359734669 -14.835303313236416 0 -14.835303313236416 -2.5057223259829757 0 0 0 0 23.761007579492343 10.501159905471408 0 10.501159905471408 -120.42328190115452 0 0 0 0 -22.21418213099858 -17.098703871093903 0 -17.098703871093903 -5.4847926308772852 0 0 0 0 -9.0927334024745505 -102.73630626728675 0 -102.73630626728675 -5.3703334855777598 0 0 0 0 -102.8907203812596 -108.85478430211475 0 -108.85478430211475 -3.3434088273831684 0 0 0 0 -86.113042193072033 -3.5511597589036228 0 -3.5511597589036228 35.884988628993597 0 0 0 0 80.776030655364593 -15.855244773865252 0 -15.855244773865252 -158.32043721960054 0 0 0 0 -292.60428930495982 21.382303276893481 0 21.382303276893481 148.56990193780985 0 0 0 0 0.1062655453933985 163.19628450254572 0 163.19628450254572 -352.757027288892 0 0 0 0 -214.42664125507872 27.118991524629109 0 27.118991524629109 -12.041248087076383 0 0 0 0 11.879627511433682 -50.488922475652068 0 -50.488922475652068 -6.1297537495923962 0 0 0 0 21.077148111487986 -3.9724957461238546 0 -3.9724957461238546 -113.86895337486425 0 0 0 0 -1.1610846065826834 -1.744211588310411 0 -1.744211588310411 -1.1843321444495134 0 0 0 0 -162.08312688156366 -25.007677079608101 0 -25.007677079608101 42.126163983969946 0 0 0 0 -88.979706348575746 64.892491176913268 0 64.892491176913268 -50.333453588907645 0 0 0 0 -13.573363827130379 -9.6599011400380164 0 -9.6599011400380164 21.279370104346185 0 0 0 0 -16.126354200758271 28.673849411468062 0 28.673849411468062 8.3674894683165348 0 0 0 0 -17.570290207922881 -2.1539445170312774 0 -2.1539445170312774 -3.6686190687078124 0 0 0 0 -29.147287026964477 -2.2073268535743864 0 -2.2073268535743864 10.792200600297519 0 0 0 0 -73.540153340567485 21.170348556363308 0 21.170348556363308 42.5427800366094 0 0 0 0 -33.96366093720826 7.9514727227573303 0 7.9514727227573303 15.111021642194146 0 0 0 0 -26.572316326870435 -0.19756475418411057 0 -0.19756475418411057 4.3129198775135418 0 0 0 0 -24.67601410426505 1.253443873500828 0 1.253443873500828 5.4852360922357093 0 0 0 0 -16.068620685838972 -0.23693881800705441 0 -0.23693881800705441 3.276898571245229 0 0 0 0 -45.048032046139269 7.8256120877731519 0 7.8256120877731519 4.4635750483462289 0 0 0 0 -18.41103722637019 -0.93941431551265708 0 -0.93941431551265708 4.6722102611073275 0 0 0 0 -31.123888595862809 5.4234019785376404 0 5.4234019785376404 10.692439614885188 0 0 0 0 -39.460897288091928 -11.678741824902431 0 -11.678741824902431 -2.1580199279658245 0 0 0 0 -25.081017255892014 2.2685636353310343 0 2.2685636353310343 9.7857849073133352 0 0 0 0 -18.23954941234075 -6.0611351586779563 0 -6.0611351586779563 5.3622873407958842 0 0 0 0 -30.438459829219937 -5.2920088203818523 0 -5.2920088203818523 8.9577848330764027 0 0 0 0 -29.362017842654637 7.4748376212659338 0 7.4748376212659338 7.6904760452928009 0 0 0 0 -49.25426255651837 4.2759538918464841 0 4.2759538918464841 0.71666459876905719 0 0 0 0 -46.344819277670467 -2.2368328543282701 0 -2.2368328543282701 2.2097118818523995 0 0 0 0 -40.849126165121561 1.9169301929237008 0 1.9169301929237008 0.6464582546290103 0 0 0 0 -44.371395621412375 -2.2331057213136773 0 -2.2331057213136773 3.4171877890894393 0 0 0 0 -41.139225571350835 -1.7568045107145736 0 -1.7568045107145736 3.2318497203777952 0 0 0 0 -17.116809090718164 -7.8491501974838016 0 -7.8491501974838016 1.8287166755103037 0 0 0 0 -33.127400183569989 -2.8186509070706052 0 -2.8186509070706052 0.063642050807629857 0 0 0 0 -28.332848018597119 3.149684890935827 0 3.149684890935827 6.5887471319028359 0 0 0 0 -48.666589772205043 -11.402092051609003 0 -11.402092051609003 10.009645794223898 0 0 0 0 -41.411314992932603 -3.8997676303117714 0 -3.8997676303117714 2.5148235181227392 0 0 0 0 -39.791295090130006 -3.857983473612876 0 -3.857983473612876 2.111885309459467 0 0 0 0 -35.027897603715246 11.229387044911874 0 11.229387044911874 6.755813572951638 0 0 0 0 -34.550584941276611 9.435320397903979 0 9.435320397903979 13.289038407733301 0 0 0 0 -41.134073519293452 1.4298459383335285 0 1.4298459383335285 11.429509111300035 0 0 0 0 -51.584442046842014 -2.9899747970221711 0 -2.9899747970221711 11.195576795829538 0 0 0 0 -59.462636367042251 -2.6516162185445467 0 -2.6516162185445467 18.064758925828301 0 0 0 0 -46.668775957907201 11.015417127872524 0 11.015417127872524 11.937564604421596 0 0 0 0 -62.416660833511742 6.8480330027957166 0 6.8480330027957166 13.429024484567663 0 0 0 0 -76.489562951384869 20.371526200835092 0 20.371526200835092 16.093228704928833 0 0 0 0 -84.812565373432335 -4.1065190489188126 0 -4.1065190489188126 18.866667075180885 0 0 0 0 -46.697098146904807 12.866909032627532 0 12.866909032627532 9.1569693879748684 0 0 0 0 -30.327630541753024 12.470563329767174 0 12.470563329767174 5.9821204226259397 0 0 0 0 -24.963980883259239 18.135087727309362 0 18.135087727309362 10.80355587044869 0 0 0 0 -32.982237750315107 6.444636279498809 0 6.444636279498809 3.4556913254654091 0 0 0 0 11.734625617551501 -75.456174051071912 0 -75.456174051071912 29.275526106500365 0 0 0 0 38.06875455428235 -65.931828635419379 0 -65.931828635419379 -21.499765858564842 0 0 0 0 3.3252531524340156 34.553972911505753 0 34.553972911505753 30.170616648012128 0 0 0 0 -24.790707457912504 -6.59508011266621 0 -6.59508011266621 -15.663689738372341 0 0 0 0 -6.5595394562951128 -7.7344439642829581 0 -7.7344439642829581 3.4255963528521702 0 0 0 0 -42.995204158298293 7.9916788079585217 0 7.9916788079585217 15.497922997603382 0 0 0 0 -38.906831613669056 12.524046061800163 0 12.524046061800163 18.843274208351886 0 0 0 0 -11.125901599097652 0.38925500142790881 0 0.38925500142790881 3.1855170088369884 0 0 0 0 -5.9272077691148297 -27.921303237750749 0 -27.921303237750749 42.57532867698319 0 0 0 0 -47.759582799862073 20.530775008547039 0 20.530775008547039 6.0763028132109866 0 0 0 0 -100.39792630606826 27.301209351060152 0 27.301209351060152 7.5742015847557695 0 0 0 0 -91.119203914760874 5.0146374523319537 0 5.0146374523319537 -15.691614402320283 0 0 0 0 -59.958950258729601 -17.070985236094032 0 -17.070985236094032 2.0515900842601695 0 0 0 0 -182.09654020029302 -44.351834296723837 0 -44.351834296723837 -5.4113577518769489 0 0 0 0 -130.34363889970336 -44.60407867880167 0 -44.60407867880167 -8.6763647938760187 0 0 0 0 4.2475731367921981 -16.704108585533504 0 -16.704108585533504 -43.04816417695497 0 0 0 0 -27.666859309920255 -13.957957385741281 0 -13.957957385741281 3.3293247519695797 0 0 0 0 -65.517809826160374 -27.334451826005761 0 -27.334451826005761 -1.0836155173750512 0 0 0 0 -77.343627663045481 43.377205605239965 0 43.377205605239965 29.291054370140337 0 0 0 0 5.7125121255321574 -42.807448223094013 0 -42.807448223094013 -55.80096199681293 0 0 0 0 -5.9936694249481661 26.173296081268631 0 26.173296081268631 -70.475596231464635 0 0 0 0 -3.4110575633631015 -5.0921108815742571 0 -5.0921108815742571 -18.115874353067511 0 0 0 0 3.0679403099347837 2.5856982937614816 0 2.5856982937614816 -9.5292892584099036 0 0 0 0 -7.3344442127308866 -10.441104159189194 0 -10.441104159189194 -3.1827470258158428 0 0 0 0 -64.351179836898154 16.868255806744287 0 16.868255806744287 34.599121791810944 0 0 0 0 -41.823815270119667 35.831531190098985 0 35.831531190098985 -53.397919004596815 0 0 0 0 -24.007567934741928 -44.355521988050953 0 -44.355521988050953 72.445836704387943 0 0 0 0 -15.292612364446384 -7.1691598809579737 0 -7.1691598809579737 -3.0841573201839769 0 0 0 0 -23.118363445328214 -5.3296825563285779 0 -5.3296825563285779 19.652064916130144 0 0 0 0 -41.140703173550719 20.557318133544641 0 20.557318133544641 -26.434302277783218 0 0 0 0 -19.771987975725978 -10.356300467823221 0 -10.356300467823221 -5.2226828396248042 0 0 0 0 -46.026686111287745 21.431055556174556 0 21.431055556174556 -15.627440365275106 0 0 0 0 -41.34668653706467 14.203363625400698 0 14.203363625400698 -29.84267321422567 0 0 0 0 -56.883395884102015 -15.852332494022685 0 -15.852332494022685 17.621115608330456 0 0 0 0 -57.451986648105958 -2.2705719617527507 0 -2.2705719617527507 16.550045954805455 0 0 0 0 -24.800987004004128 -26.433808395307494 0 -26.433808395307494 29.369349480373032 0 0 0 0 -29.590412312019907 -11.168410839955783 0 -11.168410839955783 12.391200767366911 0 0 0 0 -48.281844363231357 -9.0770350427069957 0 -9.0770350427069957 13.877276692189398 0 0 0 0 -28.184425226472754 -11.109899303249435 0 -11.109899303249435 -3.9917086327836384 0 0 0 0 -30.012184185692533 4.0815559406932564 0 4.0815559406932564 -1.6435007413475553 0 0 0 0 -45.162479903941858 1.4423603861662286 0 1.4423603861662286 -7.6221291920721796 0 0 0 0 -45.959384095397127 11.067866457777242 0 11.067866457777242 -16.717245030500635 0 0 0 0 -39.798817460871277 5.6392843153563064 0 5.6392843153563064 5.5592489666970017 0 0 0 0 -93.050544595647807 32.875775858660404 0 32.875775858660404 96.539734049883009 0 0 0 0 -42.763857732162364 2.7199256729834307 0 2.7199256729834307 0.24693489773508864 0 0 0 0 374.02010459997109 -17.201048037620694 0 -17.201048037620694 -255.04447321512453 0 0 0 0 -46.254968819514033 -7.4164852518367752 0 -7.4164852518367752 8.2333649635697839 0 0 0 0 -37.504967998873326 5.9660102461384668 0 5.9660102461384668 -7.654524699732292 0 0 0 0 -43.801847552891559 17.326352848956958 0 17.326352848956958 -5.4505121943839185 0 0 0 0 -23.498258223417281 9.5317865610816135 0 9.5317865610816135 3.4515618328303912 0 0 0 0 -40.090724697162784 9.9789393843420946 0 9.9789393843420946 0.69454472593885208 0 0 0 0 -45.848941418444156 10.505900910039145 0 10.505900910039145 22.51619308830476 0 0 0 0 -31.590736585461741 1.7044228797963132 0 1.7044228797963132 1.3609423734003818 0 0 0 0 -31.655207199430151 9.9371898323825008 0 9.9371898323825008 10.276122995110654 0 0 0 0 -47.297483054193435 6.1233081599573325 0 6.1233081599573325 8.8735449701648577 0 0 0 0 -26.090460284889559 2.2021756755345905 0 2.2021756755345905 19.220375411571922 0 0 0 0 75.672622721933294 49.704828721439753 0 49.704828721439753 -5.5103498144725904 0 0 0 0 -3.0839572692157162 2.2223054880678674 0 2.2223054880678674 16.891063853326614 0 0 0 0 30.719393297427814 -81.582884302294815 0 -81.582884302294815 -53.45012459599684 0 0 0 0 -3.6377179217643061 5.4962907922450981 0 5.4962907922450981 11.044036160145197 0 0 0 0 -32.666225623828154 11.353796812958358 0 11.353796812958358 2.2031479630955375 0 0 0 0 -37.800316945293162 11.561777699115368 0 11.561777699115368 13.916421438492762 0 0 0 0 -22.763366248575039 37.139412973417279 0 37.139412973417279 41.683598228444112 0 0 0 0 -20.941665036327322 27.571574823733158 0 27.571574823733158 25.389546159358019 0 0 0 0 -27.421279183371553 33.28700712191106 0 33.28700712191106 9.8596664234232776 0 0 0 0 -31.873121530021308 5.7587989134638065 0 5.7587989134638065 9.9526722982345746 0 0 0 0 -38.25149018724764 9.1144578019496763 0 9.1144578019496763 -1.0005577193057182 0 0 0 0 -32.62289202386637 8.5387584623774799 0 8.5387584623774799 -0.2726125155384822 0 0 0 0 -181.10642066301079 -63.149442671544875 0 -63.149442671544875 12.133711996905731 0 0 0 0 -55.753188022539973 -7.1434817110670963 0 -7.1434817110670963 -0.71597784341255455 0 0 0 0 -9.8607481455619279 -4.2392514197378475 0 -4.2392514197378475 2.4150380802063705 0 0 0 0 -38.351231882404136 13.495809222819602 0 13.495809222819602 13.180195041485035 0 0 0 0 -39.158640379470313 6.4529471034494037 0 6.4529471034494037 1.3339846817763954 0 0 0 0 -19.246851794664138 8.8590286189209664 0 8.8590286189209664 2.7389407235086782 0 0 0 0 -34.068757490575081 57.65275464108322 0 57.65275464108322 -10.83006487962848 0 0 0 0 -50.683366897239466 27.050604117012313 0 27.050604117012313 42.977386387551917 0 0 0 0 -74.390146868201555 22.034185508964583 0 22.034185508964583 112.41199375367148 0 0 0 0 -59.272519903483044 31.825689137654479 0 31.825689137654479 64.140675329681358 0 0 0 0 -76.543400989698057 33.534231026745189 0 33.534231026745189 92.185527703771299 0 0 0 0 -161.82316180029011 -46.513208338146342 0 -46.513208338146342 9.3808409512334947 0 0 0 0 -68.751676182888332 30.461986306455174 0 30.461986306455174 22.227400786418912 0 0 0 0 -227.53084205504274 16.008600321285485 0 16.008600321285485 27.773991749428546 0 0 0 0 72.744342980346119 53.467570738233917 0 53.467570738233917 -28.051107161755908 0 0 0 0 -62.406266456320736 36.174136129213707 0 36.174136129213707 -24.055092650590723 0 0 0 0 -25.596692609273305 100.78276190805529 0 100.78276190805529 -82.131990330365284 0 0 0 0 -67.482172560761683 -13.937567798259362 0 -13.937567798259362 -1.9529765562068315 0 0 0 0 -99.585831321412115 -45.706704291117319 0 -45.706704291117319 296.94805222987833 0 0 0 0 -66.829386368161067 -117.60389304326054 0 -117.60389304326054 -54.753593309819053 0 0 0 0 -162.8316334539486 26.887887460854245 0 26.887887460854245 23.464545867429479 0 0 0 0 46.798229970831017 -24.548524888781458 0 -24.548524888781458 -139.66104524895309 0 0 0 0 16.427532450201397 27.188147314649086 0 27.188147314649086 -5.9811366132348667 0 0 0 0 -79.985795982065838 -19.12384590764071 0 -19.12384590764071 -3.881454113939411 0 0 0 0 -9.5250288003603458 -3.2081430381076004 0 -3.2081430381076004 -6.2417470252485172 0 0 0 0 -18.91348738198576 9.0454437627112725 0 9.0454437627112725 -14.930162527739085 0 0 0 0 9.6248445232122322 -128.64012615778842 0 -128.64012615778842 59.803156051647647 0 0 0 0 -14.500043108044338 -100.89820623961177 0 -100.89820623961177 74.909467806792463 0 0 0 0 4.3655108865623333 -57.731408280183246 0 -57.731408280183246 -10.550386585205615 0 0 0 0 70.487138169461105 -75.334683640287039 0 -75.334683640287039 85.360305290661017 0 0 0 0 5.1987363401713083 18.814225542314034 0 18.814225542314034 1.0313312967932688 0 0 0 0 49.751610126375454 -99.538248853507866 0 -99.538248853507866 11.132002572456713 0 0 0 0 -42.378303777200927 -21.224590286148441 0 -21.224590286148441 138.14433179911703 0 0 0 0 -41.702119567911723 -4.7294405630891561 0 -4.7294405630891561 -4.5742454044689111 0 0 0 0 -40.606950774392317 1.7263285203550822 0 1.7263285203550822 -15.938951426751373 0 0 0 0 -7.2746198645909317 -94.580327749733442 0 -94.580327749733442 167.18205012828025 0 0 0 0 -36.083152523085005 -11.561234487231822 0 -11.561234487231822 -0.32612197032149393 0 0 0 0 -41.52763531178789 -4.6073489669902301 0 -4.6073489669902301 -15.473329470783938 0 0 0 0 -41.240137259475887 -1.4897455019672634 0 -1.4897455019672634 -10.598260284764365 0 0 0 0 -47.269336789337103 -7.1457892757262016 0 -7.1457892757262016 -8.9840122934729152 0 0 0 0 -47.269336789438967 -7.1457892756934598 0 -7.1457892756934598 -8.9840122934638202 0 0 0 0 -15.40667732643378 10.052436163623348 0 10.052436163623348 -5.4767682642604836 0 0 0 0 -6.9081646381091559 18.552716166234404 0 18.552716166234404 -18.78676778124111 0 0 0 0 -43.298535416904997 0.46011052086942072 0 0.46011052086942072 -7.995254266061238 0 0 0 0 -9.9455131093636737 10.779676500224468 0 10.779676500224468 -26.315526340905308 0 0 0 0 -38.595128442233545 -4.6372160608161721 0 -4.6372160608161721 -4.7614536568735275 0 0 0 0 -13.704518573604005 5.6153187121803114 0 5.6153187121803114 1.8227666374238591 0 0 0 0 -33.668299277025653 1.3389241174211293 0 1.3389241174211293 1.3642752802547875 0 0 0 0 -45.800567966522067 -2.4921367967913284 0 -2.4921367967913284 -3.3459282620833619 0 0 0 0 -41.496178766836238 -3.2805162279992146 0 -3.2805162279992146 -3.2447939788225995 0 0 0 0 -41.483979325390465 -0.33268529448957906 0 -0.33268529448957906 2.166859260363708 0 0 0 0 -31.677934717205062 2.7484634498945297 0 2.7484634498945297 -1.2241976663590322 0 0 0 0 -42.762601669150172 5.2793485234257389 0 5.2793485234257389 8.2386003668943886e-05 0 0 0 0 -37.206573147050221 10.420230892311793 0 10.420230892311793 -3.3704423054905419 0 0 0 0 -31.674172283797816 1.8486779076908988 0 1.8486779076908988 5.4705809126448912 0 0 0 0 -28.033784428450346 -2.6575585648139963 0 -2.6575585648139963 1.5001961224104852 0 0 0 0 -571.16247200902581 -170.46502125668599 0 -170.46502125668599 207.868214273597 0 0 0 0 -32.022375241729719 -5.5602297281144999 0 -5.5602297281144999 -0.19246967013806776 0 0 0 0 -35.045378667011391 -2.3838951832567545 0 -2.3838951832567545 16.177102582548741 0 0 0 0 -48.665115028357832 1.509479678338721 0 1.509479678338721 0.015459322195614078 0 0 0 0 -53.111395175714279 102.20343675429172 0 102.20343675429172 34.483878965304484 0 0 0 0 -47.269336789358931 -7.1457892757857735 0 -7.1457892757857735 -8.9840122934947431 0 0 0 0 -25.991001581838646 -2.9656833251128134 0 -2.9656833251128134 0.42862755777678174 0 0 0 0 -120.70303158378738 56.806856252515445 0 56.806856252515445 71.404605336443979 0 0 0 0 -116.84619043689963 26.868485013058148 0 26.868485013058148 56.804838897637239 0 0 0 0 -57.851934316266124 34.647913902188066 0 34.647913902188066 39.547807912876067 0 0 0 0 -115.11460032420172 96.166155152428018 0 96.166155152428018 26.765722729554 0 0 0 0 -51.080847862329392 62.181504103626821 0 62.181504103626821 -86.342007902885854 0 0 0 0 -86.450523875385443 67.578295555788586 0 67.578295555788586 -86.84727625035589 0 0 0 0 -197.35225435715108 120.70294771063959 0 120.70294771063959 -42.601591466615901 0 0 0 0 -106.98663512924759 139.49399087978611 0 139.49399087978611 -111.84046925945677 0 0 0 0 -304.35785884496727 -10.48996701638589 0 -10.48996701638589 -107.16638587825821 0 0 0 0 -23.854904610445374 -108.72897289673915 0 -108.72897289673915 -6.9414292023321877 0 0 0 0 -387.38490957860813 132.42855648855073 0 132.42855648855073 -110.09854113113443 0 0 0 0 -190.13988894546856 17.795035783062076 0 17.795035783062076 -2.118981115162569 0 0 0 0 -1.2534631023142424 -0.15772401593804375 0 -0.15772401593804375 0.3214144600582296 0 0 0 0 -77.987353343934046 104.031208304446 0 104.031208304446 -67.919734310121385 0 0 0 0 -255.4395506257606 114.87145301688963 0 114.87145301688963 -62.136185496819053 0 0 0 0 -2.0733547671209891 -0.089457525025160578 0 -0.089457525025160578 0.95838629968889144 0 0 0 0 -121.03705667316171 90.265297774534474 0 90.265297774534474 -2.6264177308983108 0 0 0 0 -114.56769940709273 47.572146778337242 0 47.572146778337242 19.285331078950776 0 0 0 0 -52.637609804267413 135.07824029052176 0 135.07824029052176 -283.13362115933654 0 0 0 0 -32.066514482190541 55.40328526661051 0 55.40328526661051 -50.802734392330422 0 0 0 0 3.3392446422367357 72.068671418588565 0 72.068671418588565 -55.58562926421655 0 0 0 0 -15.39787173658533 70.504342509320708 0 70.504342509320708 -51.244009422794079 0 0 0 0 -40.216674126721045 6.7891335636127224 0 6.7891335636127224 -125.05827776867636 0 0 0 0 -52.346748479387315 39.450492336482512 0 39.450492336482512 -56.887329840732491 0 0 0 0 -13.840097921791312 70.470511605962656 0 70.470511605962656 -122.73375075931739 0 0 0 0 -14.593770250561647 96.52246751361281 0 96.52246751361281 -56.796689452227383 0 0 0 0 -23.931370451966359 90.012432852433335 0 90.012432852433335 -14.433257050142856 0 0 0 0 -14.604479063229519 53.483639379046963 0 53.483639379046963 -87.338032664423736 0 0 0 0 -108.54463535008927 110.12692750207466 0 110.12692750207466 -65.138170930747947 0 0 0 0 -0.58118442968095962 0.34256469118925992 0 0.34256469118925992 1.2821987237721224 0 0 0 0 -110.53982241771155 89.300985424321311 0 89.300985424321311 -56.73377163806208 0 0 0 0 -137.09007982336425 96.559983990537972 0 96.559983990537972 -52.844100254468231 0 0 0 0 -130.34895498020342 119.28991583526931 0 119.28991583526931 -65.076020124958191 0 0 0 0 -1.5539301542032007 0.42534816936172604 0 0.42534816936172604 1.3455327929609986 0 0 0 0 -15.027270942715404 44.166181286059782 0 44.166181286059782 -13.54130192783181 0 0 0 0 -66.241513853366996 89.173769287553085 0 89.173769287553085 -16.475320078432333 0 0 0 0 -120.05244301626226 29.619695027279931 0 29.619695027279931 -64.472333243686762 0 0 0 0 -204.24560241923609 203.29016234373103 0 203.29016234373103 -124.59334464010237 0 0 0 0 0.59550823738179304 1.2102421477280174 0 1.2102421477280174 3.4824816507675145 0 0 0 0 -0.74674610478351156 0.34122978040452523 0 0.34122978040452523 0.76176636321292346 0 0 0 0 -93.115305150880886 129.36629385675042 0 129.36629385675042 -154.66948326976694 0 0 0 0 -256.07488116951572 97.237662411717565 0 97.237662411717565 0.3483896367295074 0 0 0 0 6.6531791262796105 -23.013126772279733 0 -23.013126772279733 7.7838769224122188 0 0 0 0 -30.446712768651196 6.7682061834852902 0 6.7682061834852902 -1.0363749090788588 0 0 0 0 0.081296753744027228 19.640166647675244 0 19.640166647675244 -0.99786233167469618 0 0 0 0 -35.6936006621263 -6.6667930627106671 0 -6.6667930627106671 24.569632732349419 0 0 0 0 -23.291244437752539 25.419954408168906 0 25.419954408168906 -15.812361112283725 0 0 0 0 -52.189455303574505 21.689499063579206 0 21.689499063579206 -12.441974505467897 0 0 0 0 -10.395691275218269 29.482023268938747 0 29.482023268938747 -1.1768064306668293 0 0 0 0 24.792603430592862 -28.541427074377452 0 -28.541427074377452 -2.0260364644841502 0 0 0 0 -24.491393626049103 24.532551266747532 0 24.532551266747532 32.402442689050758 0 0 0 0 -5.0722558061206655 15.400752641509371 0 15.400752641509371 -68.893428362466238 0 0 0 0 -34.056943244751892 42.506090311662206 0 42.506090311662206 -43.442004637854552 0 0 0 0 -5.6682761518729308 0.22810271758954492 0 0.22810271758954492 0.06017248715370016 0 0 0 0 -11.97030510858167 67.547727356709402 0 67.547727356709402 -43.794074226996145 0 0 0 0 10.224155684118159 95.428659213750507 0 95.428659213750507 -30.483874029407616 0 0 0 0 24.546925094837206 58.171836594823503 0 58.171836594823503 -96.168323783047526 0 0 0 0 3.5054282472337945 60.088300450759107 0 60.088300450759107 -45.700181081814435 0 0 0 0 15.245334855018882 67.028813842377531 0 67.028813842377531 -61.858128780912381 0 0 0 0 -19.886333254129568 35.451909594341259 0 35.451909594341259 -54.310773233796908 0 0 0 0 -19.047860933116681 37.042817846271532 0 37.042817846271532 -82.178589346063745 0 0 0 0 38.435560498255654 84.817477955625236 0 84.817477955625236 -85.672020636510069 0 0 0 0 43.693096819133643 83.843469442539345 0 83.843469442539345 -100.32263716218949 0 0 0 0 100.31495424313471 -10.277422688952356 0 -10.277422688952356 -253.96342357087269 0 0 0 0 80.661534063983709 -32.954318601710838 0 -32.954318601710838 -277.12496492067658 0 0 0 0 120.3403398343653 180.14539997789598 0 180.14539997789598 -56.24397571699501 0 0 0 0 2.5331929629464867 74.498117337038366 0 74.498117337038366 -62.008583614246163 0 0 0 0 13.76801285307738 88.859132770299766 0 88.859132770299766 -45.569262126275589 0 0 0 0 -130.72406705509638 110.79912461347124 0 110.79912461347124 -107.7110868533473 0 0 0 0 -4.9570592102145383 -0.60942148004963315 0 -0.60942148004963315 0.00051228561015470575 0 0 0 0 -3.2355882521039945 -1.4158279169112582 0 -1.4158279169112582 -0.57291836804226381 0 0 0 0 -60.827664409320278 93.305622215766789 0 93.305622215766789 -127.16813471674277 0 0 0 0 21.250383803810109 -66.478894823505698 0 -66.478894823505698 136.76328356195518 0 0 0 0 -7.2231340003345395 -75.899760677571066 0 -75.899760677571066 135.91299540622163 0 0 0 0 1.6216216531938699 7.9173037960090369 0 7.9173037960090369 -40.085141450316314 0 0 0 0 -321.46630936465226 -199.54765384149869 0 -199.54765384149869 87.27545677465605 0 0 0 0 -130.64806352512096 -25.64814927566772 0 -25.64814927566772 -125.07050266256829 0 0 0 0 -421.00930827087723 -191.39316016849398 0 -191.39316016849398 -134.92948491746688 0 0 0 0 532.18598518002182 -103.44227049930953 0 -103.44227049930953 -421.13928860248416 0 0 0 0 462.96782351724687 183.04277393786106 0 183.04277393786106 -261.84112714308139 0 0 0 0 -143.2429879348565 70.560848892736658 0 70.560848892736658 -60.010342232020321 0 0 0 0 -74.821061647191527 4.7341161674980867 0 4.7341161674980867 -95.765267614859113 0 0 0 0 -56.882162784255343 26.787570026746153 0 26.787570026746153 -88.308636247834329 0 0 0 0 -74.187764470203547 40.719635235517444 0 40.719635235517444 -48.540363263255131 0 0 0 0 -94.586664687441953 12.799225754556574 0 12.799225754556574 -56.915319563005824 0 0 0 0 -59.462271087206318 62.485133754793878 0 62.485133754793878 -80.130738877349359 0 0 0 0 -41.833760410474497 2.9276667959961742 0 2.9276667959961742 -23.602680789894748 0 0 0 0 -46.928399923061988 47.912800057545937 0 47.912800057545937 -47.679041727767981 0 0 0 0 -52.610592938333866 43.195233636934859 0 43.195233636934859 -57.757913410895071 0 0 0 0 -44.446837513332866 51.007571300020572 0 51.007571300020572 -111.32638163340698 0 0 0 0 34.559481020893145 -62.133235367138468 0 -62.133235367138468 133.39813517461084 0 0 0 0 0.00039414436287188437 3.6048102396211448 0 3.6048102396211448 57.762881565208772 0 0 0 0 6.9113554551149718 -43.188293586637428 0 -43.188293586637428 46.429216628939685 0 0 0 0 54.341541022266028 -18.231034497016481 0 -18.231034497016481 -83.173786261401119 0 0 0 0 24.884838238314842 -30.036128737088802 0 -30.036128737088802 -14.288191698569221 0 0 0 0 -1.2996438044432637 -0.45727425026711188 0 -0.45727425026711188 -0.14480772187821045 0 0 0 0 25.441538405866595 24.674302811336929 0 24.674302811336929 -42.679838365522755 0 0 0 0 -9.4065258509241261 -4.3768506833066461 0 -4.3768506833066461 -1.8710991736497862 0 0 0 0 -43.119929321910604 57.449582327757525 0 57.449582327757525 -76.561133902273014 0 0 0 0 -0.55714795302628772 -67.300895001538493 0 -67.300895001538493 66.733369840650766 0 0 0 0 10.983797486573167 -65.696190508908956 0 -65.696190508908956 15.92412378142285 0 0 0 0 -38.20590540007106 33.437844827853496 0 33.437844827853496 -69.199949015309812 0 0 0 0 -46.634654680583481 26.671190859626563 0 26.671190859626563 -31.923174507255681 0 0 0 0 -44.10649440758425 46.996468350183022 0 46.996468350183022 -56.074605945492976 0 0 0 0 -37.268434663012158 24.441263636713757 0 24.441263636713757 -23.427144911955111 0 0 0 0 -50.336275069075782 35.739701987414719 0 35.739701987414719 -20.329724236974926 0 0 0 0 -30.29303021292435 16.950571260155357 0 16.950571260155357 17.780468705243493 0 0 0 0 -41.515480398873478 28.391902653055467 0 28.391902653055467 -2.8065684818293448 0 0 0 0 -35.257179353771789 8.5086519368278459 0 8.5086519368278459 5.1187201869734054 0 0 0 0 -40.288575887121624 20.886691008933667 0 20.886691008933667 -7.3315924149201237 0 0 0 0 -44.522085630690071 12.483869256005221 0 12.483869256005221 -11.097219967041383 0 0 0 0 -44.128016888833372 30.140963317046499 0 30.140963317046499 -29.16443456193474 0 0 0 0 -48.150010086625116 20.373993732947383 0 20.373993732947383 -5.792526376177193 0 0 0 0 -43.928934224335535 5.3268138512416954 0 5.3268138512416954 5.4034056098528254 0 0 0 0 -45.805308999319095 17.359225449965379 0 17.359225449965379 1.2801746430995991 0 0 0 0 -36.6595112581781 12.30683508018501 0 12.30683508018501 7.8964837826097209 0 0 0 0 -39.979313650124823 7.9929875601205822 0 7.9929875601205822 2.343286150671247 0 0 0 0 -29.514263503384427 0.93194077570024092 0 0.93194077570024092 15.408488821236006 0 0 0 0 -23.51652226682927 -1.8662669638365514 0 -1.8662669638365514 10.474487268409575 0 0 0 0 -20.766553595945879 8.1886340619653311 0 8.1886340619653311 4.699834938182903 0 0 0 0 -41.319689431678853 12.554953517777903 0 12.554953517777903 18.248181871538691 0 0 0 0 -33.098960306152435 1.0146785036592139 0 1.0146785036592139 0.87328507859524995 0 0 0 0 -29.634020168424314 7.2126715482836907 0 7.2126715482836907 4.7058467943672682 0 0 0 0 -21.412721609558503 -4.9064621631764567 0 -4.9064621631764567 28.907251102144983 0 0 0 0 -39.433206871502264 25.047938505660028 0 25.047938505660028 4.7264220030903328 0 0 0 0 -30.065240130921865 5.7734816747412125 0 5.7734816747412125 0.67950004130820241 0 0 0 0 -19.794756982053514 42.03883755606762 0 42.03883755606762 -58.939255218444686 0 0 0 0 -126.22667018297943 6.003193844506086 0 6.003193844506086 20.208887141281252 0 0 0 0 -172.43416142743808 -34.32474577256221 0 -34.32474577256221 21.015394684427747 0 0 0 0 -13.783546546757862 -2.5234552063395768 0 -2.5234552063395768 -38.861827166571402 0 0 0 0 -46.799404162964493 18.243925680336019 0 18.243925680336019 -29.956937473427161 0 0 0 0 -9.6695994842665272 3.2842702162236037 0 3.2842702162236037 -2.8932113795785441 0 0 0 0 -144.13132325321931 63.266131573595999 0 63.266131573595999 0.90593699766043301 0 0 0 0 -29.348850110252272 12.685524104931439 0 12.685524104931439 -0.22422942040383198 0 0 0 0 -155.69426822686364 146.37561055950709 0 146.37561055950709 76.280788155910813 0 0 0 0 -5.8805275553604588 -19.157662535565464 0 -19.157662535565464 -22.336236768831213 0 0 0 0 -35.062470731470967 32.924086800352597 0 32.924086800352597 31.448880628797269 0 0 0 0 -24.518888235914346 -34.091199420056739 0 -34.091199420056739 17.361862802023779 0 0 0 0 -42.373399395110027 -10.391202213345082 0 -10.391202213345082 -3.2341836834566493 0 0 0 0 -40.441401861840859 -14.73770643945079 0 -14.73770643945079 -3.568082340035744 0 0 0 0 -46.859889041439686 1.3924804534931734 0 1.3924804534931734 -8.7886047566023535 0 0 0 0 -53.723602699494222 -2.8058141957894804 0 -2.8058141957894804 -11.345227599470832 0 0 0 0 -70.503923577605747 -3.9874420331017291 0 -3.9874420331017291 -0.20791262511249897 0 0 0 0 -52.681329921068482 -10.614960406886098 0 -10.614960406886098 -0.63684498376323972 0 0 0 0 -56.593515549102449 -6.3899001367674373 0 -6.3899001367674373 -0.94703662142595135 0 0 0 0 -56.079519424209138 -9.2531279921092278 0 -9.2531279921092278 14.711808131346288 0 0 0 0 -75.641498343022249 -19.738923132449372 0 -19.738923132449372 -1.7492104953362286 0 0 0 0 -74.69611996945514 -14.837192712088417 0 -14.837192712088417 -1.6806294010259535 0 0 0 0 -71.489678560523316 -0.59312167078260813 0 -0.59312167078260813 6.2912861900365442 0 0 0 0 -54.768275013797393 0.45920379661322386 0 0.45920379661322386 -2.0351195814038192 0 0 0 0 -63.511454080412136 3.8624981497486153 0 3.8624981497486153 1.1592463058378568 0 0 0 0 -138.2379197364935 98.205566169307076 0 98.205566169307076 93.365422284606097 0 0 0 0 -73.976948241945138 12.118444258280874 0 12.118444258280874 112.96063383578871 0 0 0 0 -9.0222774194046167 2.6286279148514264 0 2.6286279148514264 -0.32646294827370248 0 0 0 0 -24.857272451819881 41.806583028994055 0 41.806583028994055 8.4173743963551715 0 0 0 0 -2.6146908276203646 5.9016850478042926 0 5.9016850478042926 4.7318259923754553 0 0 0 0 -23.608688383698393 -16.240280912936988 0 -16.240280912936988 47.001034152502598 0 0 0 0 -2.1506065178920153 -0.24205569675694605 0 -0.24205569675694605 -0.11013458272045096 0 0 0 0 136.64822342556363 236.59638223320474 0 236.59638223320474 -289.1830970732658 0 0 0 0 -277.77612981912534 -53.155222294262785 0 -53.155222294262785 253.07880888744603 0 0 0 0 -92.131222607102245 18.096553967951877 0 18.096553967951877 123.60698636495226 0 0 0 0 -22.77166569824476 42.121360156286983 0 42.121360156286983 57.661859491006908 0 0 0 0 -47.327219989721925 42.895266230760399 0 42.895266230760399 59.090985275764524 0 0 0 0 -79.397483160089905 58.012197148217751 0 58.012197148217751 88.122040932196569 0 0 0 0 -13.036844230191946 -28.875933384869555 0 -28.875933384869555 127.12763142291033 0 0 0 0 -71.126316520139454 1.9232028394567515 0 1.9232028394567515 0.063533062498004597 0 0 0 0 -77.113520586892264 -1.4509603064465182 0 -1.4509603064465182 10.879066880842949 0 0 0 0 -270.69347818606639 -69.631730831953007 0 -69.631730831953007 250.61661682401245 0 0 0 0 -85.086334232328227 -1.1859956011466579 0 -1.1859956011466579 8.5011565539348339 0 0 0 0 -104.6899011216592 1.7684929031009915 0 1.7684929031009915 9.7203470567071122 0 0 0 0 -88.562030404626967 16.814518391589033 0 16.814518391589033 0.4363908565460406 0 0 0 0 -75.422382720622409 20.775608790859621 0 20.775608790859621 1.4205799704085962 0 0 0 0 -77.89601885756565 11.233619040246481 0 11.233619040246481 2.6032434030495324 0 0 0 0 -70.349528296654171 5.5556270846653888 0 5.5556270846653888 -0.81081820764188706 0 0 0 0 -76.440712931631424 15.199470949605654 0 15.199470949605654 -6.5813632684521508 0 0 0 0 -72.670894416361989 14.185331445673114 0 14.185331445673114 -9.0248986277504173 0 0 0 0 -84.012900864450785 0.45184425723891763 0 0.45184425723891763 -4.1891648621257787 0 0 0 0 -75.43398916694423 20.398189199562637 0 20.398189199562637 -7.8464025068049068 0 0 0 0 -72.245712099698721 17.493786740775988 0 17.493786740775988 -5.3278933513579432 0 0 0 0 -70.687205760084908 15.710977176142535 0 15.710977176142535 -7.9453204921032921 0 0 0 0 -32.088312863255851 -8.7047775834668073 0 -8.7047775834668073 -10.693797988529241 0 0 0 0 -3.0916345562657419 -4.6940321957918485 0 -4.6940321957918485 -11.082701142314875 0 0 0 0 -36.830607387339114 -1.0484325932470711 0 -1.0484325932470711 -19.777449206450115 0 0 0 0 -33.220000719262316 -9.1811032861930926 0 -9.1811032861930926 -10.417562331364479 0 0 0 0 -45.297522550768917 1.7556671615507184 0 1.7556671615507184 2.6297503868579497 0 0 0 0 -35.758961041067494 1.5669328796274158 0 1.5669328796274158 2.4084956479380897 0 0 0 0 -33.667129829082114 -10.885170177124564 0 -10.885170177124564 -1.1703179895553149 0 0 0 0 -42.625957480566285 0.60784160051639446 0 0.60784160051639446 -2.854600282406409 0 0 0 0 -41.378251368478232 -0.43273436175400093 0 -0.43273436175400093 -1.9937138961831806 0 0 0 0 -106.55062747668126 -22.540571694912614 0 -22.540571694912614 251.1771994439552 0 0 0 0 -53.709611374773218 2.3882579438514595 0 2.3882579438514595 -1.4293005843435265 0 0 0 0 -20.497154379961245 8.5390365634085157 0 8.5390365634085157 -4.0493214921173202 0 0 0 0 -78.537177874528425 7.9875917394118687 0 7.9875917394118687 4.0327444665808798 0 0 0 0 -98.131493529930594 9.569235133624943 0 9.569235133624943 235.12483884772479 0 0 0 0 -74.468365193988149 0.72769599741353286 0 0.72769599741353286 0.88549738407934353 0 0 0 0 -103.0802069632955 41.278130495670212 0 41.278130495670212 155.03410966356569 0 0 0 0 -56.739716721691366 31.020140352159615 0 31.020140352159615 151.14761236617869 0 0 0 0 -98.048778777236976 -0.89466504318458817 0 -0.89466504318458817 145.967367997162 0 0 0 0 -48.241555888852417 -25.258584828154113 0 -25.258584828154113 196.62487906645401 0 0 0 0 -70.340341847535456 10.119643611654055 0 10.119643611654055 148.60974706651166 0 0 0 0 -38.228122085267387 -8.7682575795531648 0 -8.7682575795531648 -2.5001409140465967 0 0 0 0 -51.21069702503155 -6.6481101342564273 0 -6.6481101342564273 4.0570622307725728 0 0 0 0 -46.033525954277138 -8.2930825762371967 0 -8.2930825762371967 0.67579644132240446 0 0 0 0 -7.2764219618593469 -9.6406304268437282 0 -9.6406304268437282 -1.4358025284742539 0 0 0 0 -40.958592977607623 -5.9934875628496229 0 -5.9934875628496229 -1.0656556385282556 0 0 0 0 -39.857214317918988 -3.2566935098785734 0 -3.2566935098785734 -2.3802342758249324 0 0 0 0 -11.118242142655026 -4.2531666338132226 0 -4.2531666338132226 -0.27534338381043666 0 0 0 0 -52.339964415412396 -2.1840117632104352 0 -2.1840117632104352 3.6393058578978241 0 0 0 0 -46.004036641319544 -1.028518696055718 0 -1.028518696055718 0.84974351607494436 0 0 0 0 110.06659781256167 -86.192173992293249 0 -86.192173992293249 -116.96348592994207 0 0 0 0 -3.3064062705961987 -97.881394164220069 0 -97.881394164220069 141.59040598158452 0 0 0 0 -40.76752140292956 -0.091352520317158792 0 -0.091352520317158792 1.0151202406669171 0 0 0 0 -19.830696807096263 -11.889230105908837 0 -11.889230105908837 1.0886043966637091 0 0 0 0 -98.366211430664407 30.248550404050434 0 30.248550404050434 29.741341381694042 0 0 0 0 -27.438806995282903 -9.3376207395798669 0 -9.3376207395798669 -0.32719866374566209 0 0 0 0 -18.190860636583579 -8.7677575041686993 0 -8.7677575041686993 0.91382671928596748 0 0 0 0 -29.290714241666137 -8.9450695446004147 0 -8.9450695446004147 0.80322982998450243 0 0 0 0 -26.744559711809984 -8.657957951798263 0 -8.657957951798263 -0.2917222922754813 0 0 0 0 -42.459980731589894 -11.222635095036537 0 -11.222635095036537 -0.38691138767501343 0 0 0 0 -28.944821618162678 -10.032032551150337 0 -10.032032551150337 -0.38126817701720483 0 0 0 0 -22.514900148630389 -3.2455301666887522 0 -3.2455301666887522 1.5082376700319464 0 0 0 0 -30.622916888256441 -6.3346859818122994 0 -6.3346859818122994 4.1778178623742406 0 0 0 0 -30.758198620169424 -9.6195544144658243 0 -9.6195544144658243 0.76564494668537009 0 0 0 0 -23.711397947052319 -8.7669466190434377 0 -8.7669466190434377 5.6989485384121963 0 0 0 0 -7.1582707073993301 0.42441780660175255 0 0.42441780660175255 0.060272712580669241 0 0 0 0 -30.667147239015321 -2.2785735005412562 0 -2.2785735005412562 1.606611460328395 0 0 0 0 -14.681126328912796 -8.8642912311712507 0 -8.8642912311712507 -2.4463627884129693 0 0 0 0 -27.478758900510002 -0.43213382128567446 0 -0.43213382128567446 -9.7058324553654529 0 0 0 0 -29.570670454217179 6.2583278889508165 0 6.2583278889508165 -13.129750626519694 0 0 0 0 -0.33726382286300804 -3.3569259707392392 0 -3.3569259707392392 -0.22096570578562624 0 0 0 0 -1.8473973002379411 -5.1011598351755367 0 -5.1011598351755367 -2.1091103055106375 0 0 0 0 -24.043460527130719 7.7621601000064331 0 7.7621601000064331 -17.222585232331426 0 0 0 0 -23.933830749541812 -2.8565845681342807 0 -2.8565845681342807 3.0904467348641447 0 0 0 0 -22.680014422632667 152.64108029758225 0 152.64108029758225 -71.844506994482799 0 0 0 0 -395.74809865475981 263.29681848831473 0 263.29681848831473 -83.01199969615601 0 0 0 0 32.566763353119313 9.9793185293245301 0 9.9793185293245301 -35.543655745907472 0 0 0 0 -68.662179550476139 50.397466447221746 0 50.397466447221746 -40.186859538673147 0 0 0 0 -96.41587411857472 33.459318287830342 0 33.459318287830342 -0.83427767387161111 0 0 0 0 -105.32212288794108 34.227070704004632 0 34.227070704004632 -0.22748161995309601 0 0 0 0 -102.22736390487262 6.4546845110945696 0 6.4546845110945696 16.698894390837268 0 0 0 0 -178.9919115108205 15.361117169243585 0 15.361117169243585 17.420012179158562 0 0 0 0 -120.54884521948406 49.672673829939413 0 49.672673829939413 9.6671265802365269 0 0 0 0 -136.45785265191444 -41.225363564562485 0 -41.225363564562485 2.2215003470450938 0 0 0 0 -5.78610279703895 1.5765299639630186 0 1.5765299639630186 -1.2891261038738329 0 0 0 0 -244.33587664980587 -123.50691634681465 0 -123.50691634681465 -81.406527447678059 0 0 0 0 -219.55513450359285 -38.929474432649613 0 -38.929474432649613 3.9884822272996416 0 0 0 0 -271.85962774933432 53.59492369163786 0 53.59492369163786 10.22880649003487 0 0 0 0 -181.2294074819074 -7.1452225975990586 0 -7.1452225975990586 1.5695229086272775 0 0 0 0 -447.30280646488245 -13.521564782959956 0 -13.521564782959956 9.1811934334909182 0 0 0 0 -39.881837877426676 9.1330698458703274 0 9.1330698458703274 0.26481007970657944 0 0 0 0 -21.067656591505511 17.936840910143545 0 17.936840910143545 7.5340073520913364 0 0 0 0 -842.28524831331742 185.76114844696588 0 185.76114844696588 174.88607496123052 0 0 0 0 326.15432378819969 319.82391601316897 0 319.82391601316897 -299.10768843477791 0 0 0 0 213.01316538147512 -222.56847785564457 0 -222.56847785564457 0.90630911446828577 0 0 0 0 -46.760205615551968 -0.38811882779765483 0 -0.38811882779765483 5.9112515897830917 0 0 0 0 -32.749494543255423 10.290664809223358 0 10.290664809223358 7.6592613061787063 0 0 0 0 -25.740936952936437 9.4916535954964729 0 9.4916535954964729 2.1836493291047789 0 0 0 0 -25.441122169897426 53.058822679923651 0 53.058822679923651 32.396474439332266 0 0 0 0 -32.500305724585616 7.5736515495095915 0 7.5736515495095915 3.191127550409226 0 0 0 0 -53.377924061831436 16.760276245288054 0 16.760276245288054 8.811280409332845 0 0 0 0 -58.051670321103302 39.367892784425123 0 39.367892784425123 35.203637308146966 0 0 0 0 -73.588304934237385 55.306491032386816 0 55.306491032386816 12.652424204119178 0 0 0 0 -116.42876365325174 51.968058777026471 0 51.968058777026471 -7.3618722886668024 0 0 0 0 -129.98989944480127 -26.346994081806997 0 -26.346994081806997 -24.818119733709963 0 0 0 0 -92.864880815584911 45.640366322273529 0 45.640366322273529 21.576340351431668 0 0 0 0 -80.681137624538678 -5.7948910914285037 0 -5.7948910914285037 0.21785837394531882 0 0 0 0 -76.956119835318532 30.825345074872757 0 30.825345074872757 21.206745825606276 0 0 0 0 -6.1445133970555617 48.173025116599547 0 48.173025116599547 13.576381497192244 0 0 0 0 223.47550724410394 -80.941874665368289 0 -80.941874665368289 -14.458733540122608 0 0 0 0 -52.437323222928711 20.47826451469065 0 20.47826451469065 0.22086365971254662 0 0 0 0 -47.217995044353302 93.001312892550857 0 93.001312892550857 29.491222809166814 0 0 0 0 -61.496423761345795 28.016022761242453 0 28.016022761242453 73.937145234581294 0 0 0 0 1.5749876176399766 16.146501045596459 0 16.146501045596459 -0.76568286674964225 0 0 0 0 -128.59278946161794 181.51500988973385 0 181.51500988973385 112.57966036447715 0 0 0 0 12.648789341830707 -11.720209242427359 0 -11.720209242427359 -47.533959813186243 0 0 0 0 -71.806432345489156 -86.805198877878411 0 -86.805198877878411 -76.751741317474966 0 0 0 0 -93.795427654033119 -18.551570616901245 0 -18.551570616901245 -1.6725306412824921 0 0 0 0 -73.133476686431095 -35.691348502657888 0 -35.691348502657888 -27.4152982458927 0 0 0 0 -46.352728125151771 3.8392537066510783 0 3.8392537066510783 -6.9523877877994664 0 0 0 0 -33.98021132145368 -5.5564831939941541 0 -5.5564831939941541 -8.4766527355665744 0 0 0 0 -61.430217344721314 49.77011196444505 0 49.77011196444505 51.432823130711427 0 0 0 0 -24.452723365324346 23.615830030741904 0 23.615830030741904 -2.6843583886028455 0 0 0 0 -10.592322885148519 12.881251025556811 0 12.881251025556811 -3.025958663570679 0 0 0 0 -50.481384702266951 13.099792477505098 0 13.099792477505098 5.8756933054231535 0 0 0 0 95.289245715539437 39.15436853650408 0 39.15436853650408 31.373639712240902 0 0 0 0 -59.240775587051758 7.615400100816089 0 7.615400100816089 51.229624776193305 0 0 0 0 -96.695958159762085 -6.3595964124896227 0 -6.3595964124896227 24.881223855712904 0 0 0 0 -48.811572613216413 21.629160507078396 0 21.629160507078396 12.240024898076626 0 0 0 0 -47.120862939307699 6.2386038156100199 0 6.2386038156100199 0.054550417925781858 0 0 0 0 -35.323417004833516 8.7815240615121368 0 8.7815240615121368 3.1631452811420084 0 0 0 0 -48.162564990518149 6.1957365423385227 0 6.1957365423385227 47.601836404987182 0 0 0 0 -41.4442535496255 2.9069137145483808 0 2.9069137145483808 -16.101084557318245 0 0 0 0 -71.315795155169326 18.495987694663086 0 18.495987694663086 23.956577362932251 0 0 0 0 -31.117809096116872 13.847115309394383 0 13.847115309394383 1.1719758749264786 0 0 0 0 -1.7042187881888822 35.68611338843607 0 35.68611338843607 30.15273969904456 0 0 0 0 -1.4939702073725982 2.7243745554492449 0 2.7243745554492449 -1.0565185372197405 0 0 0 0 -104.55925502306491 -19.375811924001482 0 -19.375811924001482 14.469335568975907 0 0 0 0 60.187658578037372 64.771205210870704 0 64.771205210870704 32.247349320336241 0 0 0 0 -88.090390142093383 -1.7698648566889688 0 -1.7698648566889688 -6.2031111542692088 0 0 0 0 -163.20128125997144 -47.57481324891711 0 -47.57481324891711 0.61144336454458603 0 0 0 0 -118.56801141236792 9.2096898500992239 0 9.2096898500992239 1.6995051282396503 0 0 0 0 44.457299693931418 18.665514476837878 0 18.665514476837878 12.658624566820667 0 0 0 0 -1.6018422513391357 1.8613128343788361 0 1.8613128343788361 -0.47705658982771126 0 0 0 0 91.775233963802748 67.594065962294678 0 67.594065962294678 23.681888800782602 0 0 0 0 64.842335452118277 5.8129837103006388 0 5.8129837103006388 10.924446619890233 0 0 0 0 126.11729628358444 98.783474834769322 0 98.783474834769322 -8.3175636337239354 0 0 0 0 -0.60677580919542606 0.66298686336868684 0 0.66298686336868684 -0.1648997472509045 0 0 0 0 -296.57638103774661 -32.986697209094999 0 -32.986697209094999 6.8418287992080593 0 0 0 0 -44.191440632297599 95.421006790374292 0 95.421006790374292 -5.3859810654755016 0 0 0 0 13.050416604986822 38.904579134620512 0 38.904579134620512 4.2218759382498128 0 0 0 0 7.8866862263494113 20.83489741121257 0 20.83489741121257 -24.680158527488036 0 0 0 0 -28.804808156070067 24.870006267656496 0 24.870006267656496 -21.384708437006243 0 0 0 0 -53.76604874698387 17.898252001102612 0 17.898252001102612 -0.0069832858634983098 0 0 0 0 -105.60070293291574 16.847559065386854 0 16.847559065386854 3.3274667136084091 0 0 0 0 -58.384116651155637 21.540387948669551 0 21.540387948669551 2.934713571735859 0 0 0 0 -65.433487839669397 15.951187702190829 0 15.951187702190829 0.016543710734695662 0 0 0 0 -49.625783957126259 2.3985643413747635 0 2.3985643413747635 0.78584863479976974 0 0 0 0 -67.011735072559532 6.6705858590427862 0 6.6705858590427862 -1.6336074575271837 0 0 0 0 -64.470419464283623 10.924542317319279 0 10.924542317319279 -29.04323727308531 0 0 0 0 -140.98236657888629 45.175343634158253 0 45.175343634158253 -27.651230584235499 0 0 0 0 -54.814912102629023 7.63253134276124 0 7.63253134276124 -33.314254491862783 0 0 0 0 -48.634120622182309 25.752047126661203 0 25.752047126661203 -3.7726509916281827 0 0 0 0 -12.222006311640143 16.399694300956241 0 16.399694300956241 -5.6212279222352919 0 0 0 0 -5.5693963040976087 15.057235040665283 0 15.057235040665283 -3.5036043279869702 0 0 0 0 -7.0018647359138413 39.996368543377798 0 39.996368543377798 20.927923609532741 0 0 0 0 -22.488464882218977 5.2047996088488944 0 5.2047996088488944 -20.134178987653922 0 0 0 0 -20.01018871080305 18.693768291021215 0 18.693768291021215 -0.92413913674722181 0 0 0 0 -32.498635229392676 9.4554336874139349 0 9.4554336874139349 -5.1193938409184341 0 0 0 0 -32.726881439220961 12.683063698759817 0 12.683063698759817 0.4187211334825065 0 0 0 0 -29.173156180982915 15.38462440388038 0 15.38462440388038 -0.0058876240882187727 0 0 0 0 -5.7874359347042628 9.0272396458240181 0 9.0272396458240181 -3.7233532958110125 0 0 0 0 -5.173921502831945 6.2561962578522374 0 6.2561962578522374 3.5424188801743242 0 0 0 0 -5.2717527856002562 10.465141257569321 0 10.465141257569321 -10.480184573236627 0 0 0 0 -5.2094153562775318 11.345232502367372 0 11.345232502367372 1.8077595342013737 0 0 0 0 14.56045845724293 2.9444148960022112 0 2.9444148960022112 -4.3169224796789401 0 0 0 0 26.227071820634592 10.386056148541201 0 10.386056148541201 -7.9369038864559522 0 0 0 0 0.55573332495044525 0.24127975984831096 0 0.24127975984831096 0.12354301231506201 0 0 0 0 10.838045413373038 2.4861218384302344 0 2.4861218384302344 0.02034203555576751 0 0 0 0 9.1912426943308674 16.885110543341113 0 16.885110543341113 2.0728429782071234 0 0 0 0 -28.336675432713491 -3.7865984564701578 0 -3.7865984564701578 -1.8144950115333245 0 0 0 0 -34.964633556752233 -5.7547798892906128 0 -5.7547798892906128 1.4476118810015526 0 0 0 0 -36.68393947322329 -1.2264251363779319 0 -1.2264251363779319 -0.92209892471008637 0 0 0 0 -35.030479264831229 -8.4453058284328684 0 -8.4453058284328684 -5.3155866408222749 0 0 0 0 -4.0257723360702542 -0.56388272793158478 0 -0.56388272793158478 0.088412734086052547 0 0 0 0 -41.300420678853698 -8.8669285098755601 0 -8.8669285098755601 1.6661879504743453 0 0 0 0 -37.461771752336062 -1.9976915125578003 0 -1.9976915125578003 2.2064894310920664 0 0 0 0 -39.867417958674196 -4.9975316950966722 0 -4.9975316950966722 -4.1725210084711364 0 0 0 0 -36.238152624900977 -2.3603729342900515 0 -2.3603729342900515 0.002942976796795449 0 0 0 0 -41.832530716666952 -5.7569421848760953 0 -5.7569421848760953 -2.8084127860934416 0 0 0 0 -42.959968507580925 -7.5023233282742865 0 -7.5023233282742865 -3.0526522146661534 0 0 0 0 -18.134208647207231 3.6009489476926433 0 3.6009489476926433 2.5019724393625689 0 0 0 0 -1.3238794486169354 11.511345754828916 0 11.511345754828916 -1.3950471153244735 0 0 0 0 -6.4002530279447427 -0.33820727284012264 0 -0.33820727284012264 0.52423144612178807 0 0 0 0 -48.298958073355607 -0.30807209177487493 0 -0.30807209177487493 0.36568130712157654 0 0 0 0 -4.275679121327812 22.279202227122255 0 22.279202227122255 8.9451709642737569 0 0 0 0 -7.4547593702142398 -5.0014606231566745 0 -5.0014606231566745 -0.9756158432824833 0 0 0 0 -26.015198184264307 7.7243839873376032 0 7.7243839873376032 3.5971498084101547 0 0 0 0 -36.511878778524988 -4.7034495237643341 0 -4.7034495237643341 -1.5163329107700747 0 0 0 0 -37.882750421529636 -5.6157718283310381 0 -5.6157718283310381 -1.934988092499907 0 0 0 0 -1.5391844677929463 -9.8771614247149984 0 -9.8771614247149984 -3.3007034930868775 0 0 0 0 -50.878843773389235 -10.22695849448823 0 -10.22695849448823 0.31904422848032254 0 0 0 0 -72.232072655839147 74.034421964999581 0 74.034421964999581 -189.77542009798663 0 0 0 0 -185.41261347355612 5.1484824377599381 0 5.1484824377599381 -125.73392003120333 0 0 0 0 -84.901752052392112 -13.634091032496714 0 -13.634091032496714 -71.572223682646964 0 0 0 0 -88.287946249096422 -3.8926066972033304 0 -3.8926066972033304 -97.268305350562017 0 0 0 0 -130.37293064709229 -76.126558768890135 0 -76.126558768890135 -196.09032229411474 0 0 0 0 -553.83482922682015 -215.88480367291032 0 -215.88480367291032 -102.59715483730292 0 0 0 0 -405.92286056865123 -54.900273418150789 0 -54.900273418150789 -86.701903166924282 0 0 0 0 -473.43932020426291 -19.756210366824746 0 -19.756210366824746 -20.24884775981343 0 0 0 0 -169.81803476797359 -100.83541773142692 0 -100.83541773142692 -439.80761585539005 0 0 0 0 -241.69494136884168 168.41132225821477 0 168.41132225821477 -263.88164811432762 0 0 0 0 -243.66586505001396 81.069216363186456 0 81.069216363186456 87.298059805332628 0 0 0 0 -511.9117129846054 -71.248117007421087 0 -71.248117007421087 123.2769794297177 0 0 0 0 -66.701529285695869 8.2051499798971008 0 8.2051499798971008 137.34756244673224 0 0 0 0 -195.27789861778911 -131.43126388485854 0 -131.43126388485854 485.42750247466211 0 0 0 0 -62.899704648112674 31.47135050684831 0 31.47135050684831 95.098631177749894 0 0 0 0 -139.69891981579713 78.728863678083485 0 78.728863678083485 191.32146465188498 0 0 0 0 -100.20709276682828 43.2044430176947 0 43.2044430176947 1.3650054671049929 0 0 0 0 -57.788493355576065 82.362658059754381 0 82.362658059754381 -2.1024660881835402 0 0 0 0 -83.868725058920973 62.262885433047472 0 62.262885433047472 99.750626025224619 0 0 0 0 -67.399488623126672 72.185264491953518 0 72.185264491953518 28.796424383163298 0 0 0 0 -46.499634950683685 61.757072902738003 0 61.757072902738003 29.204171065856713 0 0 0 0 -61.054423516325187 53.592786575889875 0 53.592786575889875 66.300335829641668 0 0 0 0 -29.088132922232035 48.115886506908765 0 48.115886506908765 25.838494070888466 0 0 0 0 -47.773753779201797 71.34637125216365 0 71.34637125216365 -2.991295425763667 0 0 0 0 -63.469494697681512 50.109475219291284 0 50.109475219291284 21.535226277198191 0 0 0 0 -46.435698064320604 -14.974745085990207 0 -14.974745085990207 4.9415647506338019 0 0 0 0 10.762699044775218 46.245571007066673 0 46.245571007066673 24.25324176066556 0 0 0 0 -8.3752750237540283 2.2114572236769732 0 2.2114572236769732 -1.4880533783658638 0 0 0 0 2.7032142242242116 35.903394535525479 0 35.903394535525479 27.897421325556934 0 0 0 0 -18.756564213901584 50.960094954529609 0 50.960094954529609 27.70648974098458 0 0 0 0 -27.338544377504149 43.416929210647083 0 43.416929210647083 40.331702931822903 0 0 0 0 -21.023495448287576 60.047132585970076 0 60.047132585970076 18.239030351201677 0 0 0 0 3.4332862300561828 43.53009590880994 0 43.53009590880994 21.277860827513223 0 0 0 0 1.9369009343645303 38.753161660712976 0 38.753161660712976 31.840714290852077 0 0 0 0 44.709795849783404 31.156678723722564 0 31.156678723722564 5.4981884831271657 0 0 0 0 5.1567765951040201 51.730586513960844 0 51.730586513960844 21.602918914641549 0 0 0 0 -1.6630165727401618 33.238951876534074 0 33.238951876534074 0.27861318729856066 0 0 0 0 -20.529293121951923 -3.8908376715306101 0 -3.8908376715306101 -31.795708956693677 0 0 0 0 42.018841055643861 28.138935422761548 0 28.138935422761548 -11.847993321853245 0 0 0 0 -72.26132374307781 82.014096124493179 0 82.014096124493179 -30.561525789935502 0 0 0 0 -39.089429970808851 39.659253517997868 0 39.659253517997868 -66.70118466113297 0 0 0 0 -49.651606036524754 20.023390339358258 0 20.023390339358258 -98.357720645536375 0 0 0 0 -22.873807870164455 51.615760814058106 0 51.615760814058106 -5.8391267247098284 0 0 0 0 -40.585486212265096 31.144732485887786 0 31.144732485887786 -7.4220459689524265 0 0 0 0 -77.040600165099022 4.8625916825035427 0 4.8625916825035427 -38.836759229541244 0 0 0 0 -46.082631452634814 -9.4743395549465976 0 -9.4743395549465976 -70.437602693402411 0 0 0 0 -41.217960141962976 13.283050392776413 0 13.283050392776413 -38.445332823421253 0 0 0 0 -33.991177802179664 -11.524429060047732 0 -11.524429060047732 -33.695729924732646 0 0 0 0 -76.970359179264051 -20.318143794989204 0 -20.318143794989204 -19.98108109504728 0 0 0 0 -100.37824167156577 -25.794640766055615 0 -25.794640766055615 -40.271663386404583 0 0 0 0 -87.412323036907765 -42.622030937626818 0 -42.622030937626818 -45.515534043530678 0 0 0 0 15.24302070318663 -3.7805924176955967 0 -3.7805924176955967 -30.563645012463731 0 0 0 0 -9.0523498902402935 27.275336253761743 0 27.275336253761743 12.897318035776003 0 0 0 0 -36.96034539147513 1.5374983606304016 0 1.5374983606304016 -14.562001140234313 0 0 0 0 -21.98691307232184 -3.9761354606528774 0 -3.9761354606528774 -19.942788853287748 0 0 0 0 -50.721539441445202 -1.6295735208539286 0 -1.6295735208539286 -0.032689083347519646 0 0 0 0 -112.95373155671587 -41.900225798876576 0 -41.900225798876576 -20.981437136610467 0 0 0 0 -58.35765544998776 -30.678721387046256 0 -30.678721387046256 -24.949649884939006 0 0 0 0 -100.49280061476384 -13.034387401502853 0 -13.034387401502853 -0.014388971260129439 0 0 0 0 -154.42926786025055 -23.732776405189551 0 -23.732776405189551 -0.0092977547661955342 0 0 0 0 -0.41715476095747306 -0.21581629417219972 0 -0.21581629417219972 -0.13947156167527153 0 0 0 0 -181.08979745467695 -41.467801158948767 0 -41.467801158948767 -4.7725462432422177 0 0 0 0 -156.87586300995463 -29.219798847588841 0 -29.219798847588841 -13.297942012407006 0 0 0 0 -154.82750229599333 -47.650769241300665 0 -47.650769241300665 -15.28822621480672 0 0 0 0 -0.39002524077889689 -0.29984350281559102 0 -0.29984350281559102 -0.530732061511487 0 0 0 0 -204.4668297490789 -50.749261073095468 0 -50.749261073095468 -16.559350298553746 0 0 0 0 -298.46510929949727 -125.65993411709522 0 -125.65993411709522 -81.033898724616748 0 0 0 0 -181.41694218660996 -42.789946634127034 0 -42.789946634127034 -26.7919426196259 0 0 0 0 -150.80146490927291 -80.179320374807588 0 -80.179320374807588 -82.177398521097217 0 0 0 0 -387.75130335604081 -102.54920013371336 0 -102.54920013371336 -5.4417667870327477 0 0 0 0 -204.55779110480216 4.0039585008785679 0 4.0039585008785679 -123.75137346783546 0 0 0 0 -0.36568391299924485 -0.10380476472697353 0 -0.10380476472697353 -0.38808380665553144 0 0 0 0 -229.71139539790966 -68.911452500206053 0 -68.911452500206053 -8.6309583464179127 0 0 0 0 -255.81976832240616 -91.244773391906733 0 -91.244773391906733 -10.565003080078156 0 0 0 0 -348.36284413031535 -131.67099625484849 0 -131.67099625484849 -27.535560326285548 0 0 0 0 -342.72897740034387 -65.859964326045059 0 -65.859964326045059 27.420900579875308 0 0 0 0 -472.06420541819534 -8.2318829815440751 0 -8.2318829815440751 46.207951240547459 0 0 0 0 -258.71213648425328 13.503327072353443 0 13.503327072353443 43.879124632587548 0 0 0 0 -240.73006480290496 -33.319749292030465 0 -33.319749292030465 13.771852807338846 0 0 0 0 -240.41806277192745 -2.5517993197028201 0 -2.5517993197028201 31.145911401349196 0 0 0 0 -263.62112169605098 -35.599884169226719 0 -35.599884169226719 37.305908449689781 0 0 0 0 -268.57489502568205 -57.159355530055031 0 -57.159355530055031 -6.8538167716563052 0 0 0 0 -284.19793995066539 -38.725221637693828 0 -38.725221637693828 16.733011475266125 0 0 0 0 -252.75077919665637 -42.526881270559059 0 -42.526881270559059 0.0046819803033012405 0 0 0 0 -223.47226416538615 -16.523688842753508 0 -16.523688842753508 18.508612896855418 0 0 0 0 -226.68283493733907 -12.113196371840738 0 -12.113196371840738 16.825125156579702 0 0 0 0 -156.91653630034125 -24.769878944853151 0 -24.769878944853151 0.016646569293248346 0 0 0 0 -118.42255270776513 1.7683298214296066 0 1.7683298214296066 -4.7508161919263756 0 0 0 0 -7.6088066574884579 -0.04749387428541535 0 -0.04749387428541535 0.70061887253019839 0 0 0 0 -6.3189858206096687 -0.093570575107251863 0 -0.093570575107251863 -0.00059163143805335782 0 0 0 0 -0.19677784456789027 0.068000780375072623 0 0.068000780375072623 0.097956569794465542 0 0 0 0 -42.9019353697513 6.6082063718968982 0 6.6082063718968982 -21.2582546509461 0 0 0 0 -1.5973801392213716 -0.80996136040009503 0 -0.80996136040009503 -0.049277175909549616 0 0 0 0 -7.0345278562890599 -1.9696961125778898 0 -1.9696961125778898 1.3913746346545477 0 0 0 0 -48.667896049228148 -6.3729861984668901 0 -6.3729861984668901 7.2356089230129328 0 0 0 0 -78.949641189028625 34.537782918486329 0 34.537782918486329 -0.31248974246852868 0 0 0 0 -157.78258869729325 -1.5366857960436562 0 -1.5366857960436562 14.965520481982452 0 0 0 0 -170.3531311879633 15.10569099793365 0 15.10569099793365 22.055418484334126 0 0 0 0 -145.62386878192046 13.779219891553858 0 13.779219891553858 9.4973546927538166 0 0 0 0 -163.26924956715084 -18.24250414756898 0 -18.24250414756898 14.552203069293277 0 0 0 0 -93.702135225350503 -23.243807264012673 0 -23.243807264012673 8.3739923302631567 0 0 0 0 -6.8597171977889957 2.5458425709143815 0 2.5458425709143815 0.0086309511659213439 0 0 0 0 -8.1179764178377809 1.2944412272628574 0 1.2944412272628574 3.7434843985974893 0 0 0 0 -7.6530037565389648 0.27526311366933576 0 0.27526311366933576 2.6058298932113697 0 0 0 0 -8.100846297616954 -2.081419509354423 0 -2.081419509354423 2.7103281534330761 0 0 0 0 -8.9459637634281535 -2.3249788661408926 0 -2.3249788661408926 2.6548536844410768 0 0 0 0 -9.1464614666911075 -1.3925033611509963 0 -1.3925033611509963 2.6165248839106638 0 0 0 0 -10.623411633365322 -2.4895577206177948 0 -2.4895577206177948 3.7635788530960284 0 0 0 0 -9.7255683945404598 0.32118806819298445 0 0.32118806819298445 5.5749695456800614 0 0 0 0 -9.5387998438673094 -0.998315877750791 0 -0.998315877750791 3.8684609210909318 0 0 0 0 -9.2606918164819945 0.99969851527204812 0 0.99969851527204812 3.6774929486081129 0 0 0 0 -10.176366684871027 -0.98332030869275977 0 -0.98332030869275977 7.3162310722438786 0 0 0 0 -11.314723215102276 -1.3269761185007523 0 -1.3269761185007523 5.51187925328614 0 0 0 0 -9.3055076667806134 0.758909163255296 0 0.758909163255296 7.1309695671530804 0 0 0 0 -10.625367079890566 -0.043419386750729316 0 -0.043419386750729316 8.6606867839020936 0 0 0 0 -9.2860336025769357 1.7650549301499963 0 1.7650549301499963 6.6804121384463313 0 0 0 0 -9.2538420224373112 1.7953083416211175 0 1.7953083416211175 6.2481460989391735 0 0 0 0 -7.7955716371943709 -1.0640716321468631 0 -1.0640716321468631 7.0233733162327781 0 0 0 0 -7.4409090972777392 -0.92709230754227256 0 -0.92709230754227256 1.6044575201922018 0 0 0 0 -8.1992603232777128 1.8418672320074165 0 1.8418672320074165 5.2495997570503388 0 0 0 0 -6.4130038070253761 -4.7613676151973721 0 -4.7613676151973721 0.72695999671178013 0 0 0 0 -1.4205248089672864 -0.76752442196334414 0 -0.76752442196334414 0.053078495587387829 0 0 0 0 -8.7020934573499176 -3.2230968075458453 0 -3.2230968075458453 -0.010787432642731836 0 0 0 0 -9.4617667801916525 -6.4245704759258757 0 -6.4245704759258757 -2.2268108240006583 0 0 0 0 -8.7184395662843599 -3.4991380201445281 0 -3.4991380201445281 2.1382504427283493 0 0 0 0 -10.042206431018712 -6.7748184867316468 0 -6.7748184867316468 -2.2124108398295448 0 0 0 0 -10.331134210486198 -7.5810498690711938 0 -7.5810498690711938 0.89572411430958709 0 0 0 0 -9.629176618240308 -3.3683919059708263 0 -3.3683919059708263 2.579480045423896 0 0 0 0 -9.2127200302956282 -10.823999769695439 0 -10.823999769695439 -3.5826557051154846 0 0 0 0 -3.7457400330604287 -13.7026667710943 0 -13.7026667710943 -25.086602358218364 0 0 0 0 -9.6020376905653393 -6.7595214207630079 0 -6.7595214207630079 -3.0652495695267135 0 0 0 0 -4.7156053341426798 -11.180576085432072 0 -11.180576085432072 -9.8284734861011014 0 0 0 0 -14.698934392356023 -5.6273246740688592 0 -5.6273246740688592 -14.709150189610682 0 0 0 0 -13.215821814665105 -8.8236731451474952 0 -8.8236731451474952 0.14406949293106663 0 0 0 0 -14.245554051048202 -13.596142894789892 0 -13.596142894789892 -6.6050071021850272 0 0 0 0 -20.952916914815432 -25.511962438548721 0 -25.511962438548721 -17.002088335231861 0 0 0 0 -19.602601076796418 19.426553857279828 0 19.426553857279828 -54.339476145729563 0 0 0 0 -244.26686241776042 4.469043962817409 0 4.469043962817409 30.267956690670545 0 0 0 0 -143.15140026943118 77.744413385222387 0 77.744413385222387 -42.340778973706733 0 0 0 0 -68.993002248447738 -9.6320581240208014 0 -9.6320581240208014 3.7352168822195608 0 0 0 0 -21.549092691857368 10.713687438285149 0 10.713687438285149 -47.544253714724391 0 0 0 0 -0.25388288008589655 -4.9161026439826543 0 -4.9161026439826543 -5.073839231689111 0 0 0 0 -11.272315762529615 -7.3812419934785112 0 -7.3812419934785112 -0.80766979539134809 0 0 0 0 -5.9251586322388903 -5.4242303843187187 0 -5.4242303843187187 -20.728550710430454 0 0 0 0 -13.802696801896673 -14.44511994355608 0 -14.44511994355608 2.0643933140579911 0 0 0 0 -0.033239385310224634 -1.4688970560762149 0 -1.4688970560762149 -0.76906983577039367 0 0 0 0 10.744437783461763 -27.156740298311377 0 -27.156740298311377 -24.150265716112457 0 0 0 0 4.5594737442952464 -1.3962074768561337 0 -1.3962074768561337 -31.946947072051614 0 0 0 0 -4.3827340534568862 -1.9896859372245608 0 -1.9896859372245608 -3.0291669643573305 0 0 0 0 -20.866644939669641 -13.699609531165407 0 -13.699609531165407 12.876120517779214 0 0 0 0 -3.9808037967618759 -8.9776755671420858 0 -8.9776755671420858 -9.9994720520323561 0 0 0 0 -0.74025776924099773 -8.419436427693654 0 -8.419436427693654 -2.8150811397867415 0 0 0 0 -13.601115826804772 -12.063548021810689 0 -12.063548021810689 -10.941778878450938 0 0 0 0 -204.27664490589086 150.26055956992408 0 150.26055956992408 -82.409300096469337 0 0 0 0 -1.7575033675845475 0.64135384613541935 0 0.64135384613541935 -0.0055239037007569804 0 0 0 0 3.702344384524622 74.307675977697073 0 74.307675977697073 -45.06255493521752 0 0 0 0 -3.1403362433337634 -3.0885834373595031 0 -3.0885834373595031 -3.1571234556609857 0 0 0 0 20.288442584351287 65.344660993430921 0 65.344660993430921 -471.52619052740789 0 0 0 0 -2.4730173052230384 -229.66206476541248 0 -229.66206476541248 -480.63630171136919 0 0 0 0 -11.112358254031278 -115.33112331565223 0 -115.33112331565223 -156.96816553484589 0 0 0 0 8.5706456539774081 -132.63989611171974 0 -132.63989611171974 -166.11216859659083 0 0 0 0 -11.660212640614191 -21.039054109870278 0 -21.039054109870278 -145.31264999665564 0 0 0 0 -35.808659620270191 -47.095713280948587 0 -47.095713280948587 -89.238294900650544 0 0 0 0 -8.9261590331674654 -7.8600995747641846 0 -7.8600995747641846 -8.6456502887560998 0 0 0 0 -38.864809538485133 -45.64621294328299 0 -45.64621294328299 -52.635029709135324 0 0 0 0 -8.2984530903486302 7.1283747686771903 0 7.1283747686771903 -70.375331999276113 0 0 0 0 -4.1280238790193238 0.8377700560287451 0 0.8377700560287451 -6.9764572506882949 0 0 0 0 -4.3080157997246715 -20.243952036176665 0 -20.243952036176665 -13.505134029135661 0 0 0 0 1.126963413968042 -9.8269768634058892 0 -9.8269768634058892 -22.232722793732137 0 0 0 0 -15.027591697533353 -15.08410876209598 0 -15.08410876209598 -15.959117112687636 0 0 0 0 46.542323147848947 -12.8682596442045 0 -12.8682596442045 -12.547158758929754 0 0 0 0 21.725173323298804 -12.85119208305548 0 -12.85119208305548 -1.4360968246530774 0 0 0 0 -1.042960983301441 2.4344061306629783 0 2.4344061306629783 -1.0453384131540864 0 0 0 0 109.19028552898089 -285.23503216926855 0 -285.23503216926855 -68.418638001276918 0 0 0 0 -276.58561019808621 -258.71063987141639 0 -258.71063987141639 -19.068319132417059 0 0 0 0 19.595879352251359 7.5636481949364907 0 7.5636481949364907 97.634433741509838 0 0 0 0 3.0342984950890468 -78.695614210811357 0 -78.695614210811357 -91.175618758777091 0 0 0 0 3.4420432289371092 -110.71450322368889 0 -110.71450322368889 -44.524670864253039 0 0 0 0 -93.164852200577556 -25.415634462499284 0 -25.415634462499284 -6.3173672453109173 0 0 0 0 -401.28255684667965 -244.46427310802642 0 -244.46427310802642 152.22521266345223 0 0 0 0 -89.966897007259831 -32.354389705326867 0 -32.354389705326867 262.32278941667789 0 0 0 0 43.148692504852079 106.70902518913255 0 106.70902518913255 -209.44736716845841 0 0 0 0 -315.21037406209507 -319.14953430130896 0 -319.14953430130896 96.135970786089047 0 0 0 0 -150.19541266835586 -280.93630328455856 0 -280.93630328455856 491.62456308166742 0 0 0 0 -9.9541408482109546 -292.99649598217144 0 -292.99649598217144 161.67958673757812 0 0 0 0 -90.009472307861785 -24.012454811353557 0 -24.012454811353557 -5.4958057709476309 0 0 0 0 -89.816039950121194 -114.30833288007148 0 -114.30833288007148 72.073790092962682 0 0 0 0 -275.2379154655282 -348.58620441414405 0 -348.58620441414405 -195.17873306786242 0 0 0 0 -15.31112765744183 -253.51284777163946 0 -253.51284777163946 -106.21602580173243 0 0 0 0 1.3546064169640886 -47.4726147170324 0 -47.4726147170324 191.05053384118133 0 0 0 0 -363.9263508537224 -38.396932804139965 0 -38.396932804139965 354.45198838147422 0 0 0 0 -140.10100341648649 165.62463766863772 0 165.62463766863772 -43.434923623736722 0 0 0 0 -87.830897119909423 76.967584696161907 0 76.967584696161907 106.93788324953675 0 0 0 0 -82.910808613555233 -22.301062237741018 0 -22.301062237741018 -5.5236276304034098 0 0 0 0 -26.584124753808283 -218.91469747331672 0 -218.91469747331672 -204.67639625980132 0 0 0 0 -102.5490704155709 -186.33735981493658 0 -186.33735981493658 278.96884922344697 0 0 0 0 46.425541555261589 -35.684928572000793 0 -35.684928572000793 -19.555417895641384 0 0 0 0 -90.367829543567694 -23.506246707001047 0 -23.506246707001047 -5.6136427715613921 0 0 0 0 -62.665622111913763 5.331245123484166 0 5.331245123484166 -3.5843301248409034 0 0 0 0 -29.573624355097763 29.192190175282661 0 29.192190175282661 16.75848173889608 0 0 0 0 -30.402294121420709 -49.167610945180286 0 -49.167610945180286 -5.1862265429163017 0 0 0 0 -83.5687362955141 -24.730353262489984 0 -24.730353262489984 6.6845194131865355 0 0 0 0 -10.513025341282628 -22.920247253201751 0 -22.920247253201751 -5.6169824543158029 0 0 0 0 -28.96792246295081 -28.544672319256733 0 -28.544672319256733 5.7579760408016227 0 0 0 0 -23.819081041088793 -21.447849702977692 0 -21.447849702977692 9.5379674113253898 0 0 0 0 -36.958695273628109 -25.482486157132371 0 -25.482486157132371 9.4932363532661839 0 0 0 0 -48.295893535818323 -40.16220545881788 0 -40.16220545881788 -45.390922846767268 0 0 0 0 -94.832787228020607 28.597610811002596 0 28.597610811002596 25.386685419467597 0 0 0 0 -167.52825474450765 -23.723353310061384 0 -23.723353310061384 30.872693546418304 0 0 0 0 -139.52390297557577 -97.164387523042706 0 -97.164387523042706 -42.512734738709455 0 0 0 0 -2.9646221479972894 0.20370835177135405 0 0.20370835177135405 2.6022977793419244 0 0 0 0 -129.92568956631294 0.063089699294778256 0 0.063089699294778256 9.5702242432193998 0 0 0 0 -54.131347651637043 -11.159538241741757 0 -11.159538241741757 20.756463150114541 0 0 0 0 -79.423217731043565 -10.804275465065629 0 -10.804275465065629 -0.36332708745096021 0 0 0 0 -81.13288324558016 -46.371270651353143 0 -46.371270651353143 -19.032508262564079 0 0 0 0 -44.749051200287795 19.497638197812933 0 19.497638197812933 19.004952237733505 0 0 0 0 -37.33930875378428 13.46871244030126 0 13.46871244030126 -30.305754121474251 0 0 0 0 -347.80582673910976 -102.55772946622545 0 -102.55772946622545 103.66457315796038 0 0 0 0 -61.149639724337234 5.8193552121822165 0 5.8193552121822165 12.963452312721989 0 0 0 0 98.675536326656584 49.348200464906341 0 49.348200464906341 -227.86302138078952 0 0 0 0 2.1424353498152016 2.3836175145804503 0 2.3836175145804503 -1.6008960081551886 0 0 0 0 -366.25526694855216 -298.44152534029922 0 -298.44152534029922 -109.61736961298152 0 0 0 0 226.04316267906802 304.89823935383089 0 304.89823935383089 -74.330879343098047 0 0 0 0 233.36565432742918 34.090588720590013 0 34.090588720590013 -5.7119517969803155 0 0 0 0 -48.181970568607085 5.4948650169858695 0 5.4948650169858695 13.423157236718792 0 0 0 0 9.8547719599446282 -82.184910746634216 0 -82.184910746634216 107.92741918732926 0 0 0 0 -438.38400791323511 -83.257062124527266 0 -83.257062124527266 306.04468780182003 0 0 0 0 -13.258000241417903 152.44728287929968 0 152.44728287929968 -60.233856573911083 0 0 0 0 34.651608053100063 163.65055158005498 0 163.65055158005498 23.949012402810567 0 0 0 0 -73.498691663466161 40.614445080271373 0 40.614445080271373 301.68670295847164 0 0 0 0 0.71135652851424425 10.236662533464083 0 10.236662533464083 2.8097758179444354 0 0 0 0 -183.36771451981622 205.9306244799258 0 205.9306244799258 77.142930768474429 0 0 0 0 -7.2078865578107241 0.6402852502506442 0 0.6402852502506442 -0.062465698864765606 0 0 0 0 -43.844382382405456 180.68102107381119 0 180.68102107381119 -252.65974572567282 0 0 0 0 -19.633800551237073 20.883671120918912 0 20.883671120918912 63.936623025042501 0 0 0 0 11.135466461317264 -5.2421362260560613 0 -5.2421362260560613 -39.277969598298739 0 0 0 0 -186.93546703120228 234.75869554353326 0 234.75869554353326 -15.996118419964539 0 0 0 0 19.846398588822922 88.751841039771804 0 88.751841039771804 1.9001025077820302 0 0 0 0 17.125002723856596 71.593792573472498 0 71.593792573472498 -57.538013231672558 0 0 0 0 20.218041521071427 92.857243846144073 0 92.857243846144073 -4.9492584651553955 0 0 0 0 52.239390080649173 -160.18769621621874 0 -160.18769621621874 -267.54526060196355 0 0 0 0 -17.222094434357132 311.27598984293456 0 311.27598984293456 19.974303180115811 0 0 0 0 -3.0565406116627116 0.36426727793434743 0 0.36426727793434743 -0.091243028684039898 0 0 0 0 -55.353742177223467 75.508043370801971 0 75.508043370801971 -71.470558222329231 0 0 0 0 -140.98746140162257 -101.11103606119175 0 -101.11103606119175 -49.239038960026306 0 0 0 0 -15.6716885339589 -8.0508382755606505 0 -8.0508382755606505 1.0421744126259964 0 0 0 0 -23.783929115656065 -10.864466588700452 0 -10.864466588700452 -16.05381504631805 0 0 0 0 -21.690033608989324 -62.11938967217089 0 -62.11938967217089 -46.430846583957447 0 0 0 0 -41.071135200363983 -10.963687091474929 0 -10.963687091474929 5.1608723726046497 0 0 0 0 -61.08292940838146 -30.2032071425418 0 -30.2032071425418 27.061694536059875 0 0 0 0 -58.515211677582556 -34.294677859112198 0 -34.294677859112198 -3.9362059202130695 0 0 0 0 -8.9247642851161402 -3.3102276091985203 0 -3.3102276091985203 -0.87636064970141092 0 0 0 0 -7.3985960941219275 -4.5471622740459026 0 -4.5471622740459026 -1.5368329213741532 0 0 0 0 26.318370566124941 170.0636834995139 0 170.0636834995139 97.84508874607053 0 0 0 0 46.527442574413726 -25.674807059666968 0 -25.674807059666968 41.181519789204302 0 0 0 0 13.17144870174161 95.798419778842529 0 95.798419778842529 127.09090402049682 0 0 0 0 75.366042890527751 18.95160714956441 0 18.95160714956441 -69.345685535250283 0 0 0 0 58.639363387615958 103.14932043756356 0 103.14932043756356 80.099637282334328 0 0 0 0 0.3509775701436979 0.23074714123609397 0 0.23074714123609397 -1.0197503883180106 0 0 0 0 -15.400142285503676 -5.1130452899492411 0 -5.1130452899492411 4.6139056533840499 0 0 0 0 -9.7688909247065396 0.68456894653405564 0 0.68456894653405564 0.5104872906959893 0 0 0 0 23.645745142013766 -12.896474919323964 0 -12.896474919323964 23.997507299092263 0 0 0 0 -12.125773524399847 3.3249746784968082 0 3.3249746784968082 22.637278436230137 0 0 0 0 -32.383658092076075 44.867300361705013 0 44.867300361705013 -3.1273658584085808 0 0 0 0 -102.39820484176744 9.1632052979451259 0 9.1632052979451259 54.838310874514235 0 0 0 0 -143.28999735665275 -103.87495161488049 0 -103.87495161488049 -29.679194276498812 0 0 0 0 -130.33177162469929 70.289760481078062 0 70.289760481078062 22.65952272470895 0 0 0 0 -2.7925121548953769 1.2670749271366191 0 1.2670749271366191 1.8015092473131358 0 0 0 0 -6.9150217487185728 10.306642657205831 0 10.306642657205831 19.667320186780735 0 0 0 0 -10.639100267799222 2.7296258421907114 0 2.7296258421907114 8.5659139928256671 0 0 0 0 -9.9462991554755718 -2.0117868595815054 0 -2.0117868595815054 13.902086836537535 0 0 0 0 -10.391470665865199 4.0418143586089457 0 4.0418143586089457 13.951910299020426 0 0 0 0 -4.5364702016522642 9.9132983566439385 0 9.9132983566439385 5.3948619848287303 0 0 0 0 -8.5417549886624329 6.5477550578443342 0 6.5477550578443342 11.907578190565426 0 0 0 0 4.6138422928052023 5.8071644980429369 0 5.8071644980429369 11.933788562925848 0 0 0 0 -0.96434127513202839 -5.2075529272130208 0 -5.2075529272130208 27.614639061101514 0 0 0 0 -6.0364749502332415 13.58837901362763 0 13.58837901362763 14.616281754061607 0 0 0 0 2.1883739693366806 1.5539809986885977 0 1.5539809986885977 -3.5238533909392231 0 0 0 0 -9.1540195736743044 5.2990376925599536 0 5.2990376925599536 -0.018989281036928957 0 0 0 0 -27.680021997963195 -4.5590496397652878 0 -4.5590496397652878 2.2599560884419767 0 0 0 0 -6.7684030168602476 3.2345284463840742 0 3.2345284463840742 1.7162380106018906 0 0 0 0 -6.8630982768372633 4.3840227487410841 0 4.3840227487410841 4.4879453819331223 0 0 0 0 -248.1067908652185 -38.987264048214961 0 -38.987264048214961 -5.760060303998749 0 0 0 0 -118.06440136853416 -55.407119772160101 0 -55.407119772160101 -26.821488115256113 0 0 0 0 -108.23502519316389 -82.120978187206163 0 -82.120978187206163 -25.545510611499612 0 0 0 0 -287.87319170628325 -94.261621824472059 0 -94.261621824472059 -9.3305636060836434 0 0 0 0 57.444983537279768 -19.391071663922439 0 -19.391071663922439 -51.169545639036834 0 0 0 0 21.683269845714676 49.193572808795437 0 49.193572808795437 15.073890021699455 0 0 0 0 0.79983340593753383 -3.8299609992848467 0 -3.8299609992848467 -25.006951597766012 0 0 0 0 -7.1712375048955437 -9.3111595539872951 0 -9.3111595539872951 -13.978620170824925 0 0 0 0 -20.492070724969381 -35.588669494962708 0 -35.588669494962708 -29.679805309707991 0 0 0 0 -122.80078897580825 -9.494620631862551 0 -9.494620631862551 -0.038274579597911147 0 0 0 0 -171.3449567802927 -74.578459409702987 0 -74.578459409702987 -6.459771747004762 0 0 0 0 -255.77595418905912 -12.818100490985172 0 -12.818100490985172 0.063654329802204354 0 0 0 0 -346.61184141651029 -59.700562574859944 0 -59.700562574859944 31.010605596605483 0 0 0 0 -323.48831092376349 38.345822778207051 0 38.345822778207051 -69.835368305938403 0 0 0 0 -311.92886769940378 -7.9562088404721862 0 -7.9562088404721862 -56.852887895038862 0 0 0 0 -314.43898472201545 -23.835547434470644 0 -23.835547434470644 9.4059925436557741 0 0 0 0 -253.51619366183877 1.0498664842644025 0 1.0498664842644025 -60.608273433133164 0 0 0 0 -289.01401471771533 32.688570046501276 0 32.688570046501276 9.6199927959473825 0 0 0 0 -234.74424812007055 22.873977784486144 0 22.873977784486144 8.3678753616797472 0 0 0 0 -257.52964884493849 -7.7829864353303115 0 -7.7829864353303115 13.232574816690317 0 0 0 0 -254.42643238178789 25.812713104092371 0 25.812713104092371 22.270955745477004 0 0 0 0 -187.25008572769002 5.1662504407440988 0 5.1662504407440988 0.003580838597744513 0 0 0 0 -121.46973684359546 8.777498472559877 0 8.777498472559877 -9.5991507611318649 0 0 0 0 -46.631912975441082 37.928322906334792 0 37.928322906334792 -35.021322747574857 0 0 0 0 -0.92096000567710234 -1.4144102323548431 0 -1.4144102323548431 0.68467974590807723 0 0 0 0 -168.42993981993641 -15.25502616532388 0 -15.25502616532388 9.4832908103403053 0 0 0 0 -228.9164911902044 40.422136622493234 0 40.422136622493234 7.2148742918601876 0 0 0 0 5.2569697046565125 13.348747010049696 0 13.348747010049696 10.47639415209113 0 0 0 0 3.2992398753922316 11.560724483854402 0 11.560724483854402 9.5628633561101832 0 0 0 0 10.527611597754003 15.045356961062193 0 15.045356961062193 -0.021244025229869162 0 0 0 0 -1.7431313578142351 0.53678081664595823 0 0.53678081664595823 -0.048175157084786424 0 0 0 0 -5.6767508511648543 1.8568426951832002 0 1.8568426951832002 -0.26361344213804422 0 0 0 0 -4.2246637952957826 0.95542313564119752 0 0.95542313564119752 2.7010046527540226 0 0 0 0 -12.772802058054367 -6.0739922073296384 0 -6.0739922073296384 13.782590572501363 0 0 0 0 -27.616608228599944 -0.51755980021647474 0 -0.51755980021647474 41.911161092341445 0 0 0 0 -9.1195619905596459 2.3364467713669868 0 2.3364467713669868 -0.084890677255239577 0 0 0 0 -168.91446741449181 64.087205562120204 0 64.087205562120204 24.647828912009064 0 0 0 0 -155.65763609367423 79.34705259812489 0 79.34705259812489 27.763075617757352 0 0 0 0 -254.88377203549408 14.805237507550947 0 14.805237507550947 33.610484717146662 0 0 0 0 -2.5901386271127933 -3.4948696013221365 0 -3.4948696013221365 2.1229711129258506 0 0 0 0 -15.560452721198089 2.354035719603548 0 2.354035719603548 -7.1843961631263085 0 0 0 0 -10.06524704756913 -0.38396118407970903 0 -0.38396118407970903 1.625974630155774 0 0 0 0 -9.7102817723825865 0.82577943914992602 0 0.82577943914992602 13.531042534931885 0 0 0 0 -5.3904907038651544 -7.4351332339223859 0 -7.4351332339223859 4.0445450652898538 0 0 0 0 -34.890781371752382 34.607118482185228 0 34.607118482185228 -55.613424061940123 0 0 0 0 -3.6819995802849519 -0.53773931264618113 0 -0.53773931264618113 1.5181089102793854 0 0 0 0 1.3708088638187519 -1.9055948679744574 0 -1.9055948679744574 -1.0377655673766899 0 0 0 0 4.988596112045343 -8.6528165923961922 0 -8.6528165923961922 -107.47355267403361 0 0 0 0 7.7138214967227157 -6.3915566075779537 0 -6.3915566075779537 1.7883888627929416 0 0 0 0 -36.51558321473567 -35.401627048323931 0 -35.401627048323931 2.733054999026165 0 0 0 0 -36.76119053063303 -7.433136530742134 0 -7.433136530742134 19.765378372175991 0 0 0 0 -2.3993760286830366 -22.762002445190546 0 -22.762002445190546 31.746262331894513 0 0 0 0 -13.292294422339182 -26.360659911966309 0 -26.360659911966309 34.517405451221578 0 0 0 0 -6.496242100781501 -6.6664468435015038 0 -6.6664468435015038 0.85562437866518981 0 0 0 0 -130.04493526686565 -168.23700126630047 0 -168.23700126630047 -107.84631207994947 0 0 0 0 -289.68112463103898 -93.865377811884571 0 -93.865377811884571 109.50878481229761 0 0 0 0 -260.24455132156436 59.040639029985634 0 59.040639029985634 41.261713438202079 0 0 0 0 -235.60003682773095 -22.268622805443869 0 -22.268622805443869 -12.634443342367035 0 0 0 0 -296.07370191460359 -158.23382922254461 0 -158.23382922254461 -194.75782300635859 0 0 0 0 -227.98424991441425 -61.49183003453112 0 -61.49183003453112 49.727990295352356 0 0 0 0 -146.6645095088752 90.372087879841246 0 90.372087879841246 57.745141286723069 0 0 0 0 69.186978503188584 -31.706465295440978 0 -31.706465295440978 117.86496258701413 0 0 0 0 -189.87308144850249 72.40462699397375 0 72.40462699397375 120.59493283433005 0 0 0 0 61.815151678558323 116.30806350873897 0 116.30806350873897 26.335664611844834 0 0 0 0 -239.42741221964388 -141.48771199255174 0 -141.48771199255174 -160.90625799802103 0 0 0 0 -352.06085168023128 87.599707006470965 0 87.599707006470965 37.654939033931775 0 0 0 0 -280.62197542533977 -44.734644816796262 0 -44.734644816796262 -202.36271799800235 0 0 0 0 -453.3430958580575 -82.429628532896913 0 -82.429628532896913 -35.328420999364937 0 0 0 0 -336.41069191019778 -16.833797382029985 0 -16.833797382029985 -2.1498366459582883 0 0 0 0 -216.87220464840175 -0.29852505568797127 0 -0.29852505568797127 45.362338227093773 0 0 0 0 -188.96710999528295 -37.892290397873523 0 -37.892290397873523 50.162121185791449 0 0 0 0 -279.7056817177654 16.160001354155348 0 16.160001354155348 62.379167789836316 0 0 0 0 -208.05456040594072 -31.76892171623933 0 -31.76892171623933 55.818585636577779 0 0 0 0 -162.10899286227504 37.515313536051679 0 37.515313536051679 -0.3290933639930993 0 0 0 0 -291.89907254646823 -7.8913709119677904 0 -7.8913709119677904 63.39052245002847 0 0 0 0 -56.436728974932066 4.4946015966492077 0 4.4946015966492077 16.881612160128562 0 0 0 0 -55.269320413062815 -24.617294406201445 0 -24.617294406201445 4.1561344841375814 0 0 0 0 -89.240086412901292 -49.562275980761072 0 -49.562275980761072 43.615010833129318 0 0 0 0 6.2054665050673066 -45.395267490273369 0 -45.395267490273369 2.6160935024033165 0 0 0 0 51.76443224047398 19.778448678169692 0 19.778448678169692 -5.6750705805650341 0 0 0 0 -101.73525066042203 3.6635197297159721 0 3.6635197297159721 10.619076972653701 0 0 0 0 1.3933344042598037 40.015046650247612 0 40.015046650247612 67.597986185683851 0 0 0 0 19.050423668784788 54.489534570006157 0 54.489534570006157 28.735484534383019 0 0 0 0 20.081294175732182 -12.470200469749727 0 -12.470200469749727 15.020986478843412 0 0 0 0 -4.3510006320596233 1.4444859480538845 0 1.4444859480538845 -0.41104444591792577 0 0 0 0 -0.52910816334042465 28.44838860242313 0 28.44838860242313 0.075019493279126534 0 0 0 0 19.445344137697248 15.851623192142416 0 15.851623192142416 7.3728647313539151 0 0 0 0 12.865395856104442 23.359290535675161 0 23.359290535675161 15.576721676241833 0 0 0 0 12.649175577433198 21.459700085734035 0 21.459700085734035 7.9974097092042458 0 0 0 0 7.9241709492634982 11.118290322957467 0 11.118290322957467 11.279624439403079 0 0 0 0 2.6485274286314962 10.410705382169049 0 10.410705382169049 -8.1507052023354731 0 0 0 0 7.9488504314940656 12.06943245743075 0 12.06943245743075 25.190920237749893 0 0 0 0 31.459765831430559 -8.1629087844463584 0 -8.1629087844463584 23.663978666153639 0 0 0 0 -13.240056945157136 3.0150395875428142 0 3.0150395875428142 25.183939342566418 0 0 0 0 14.191643570000451 37.055973617965975 0 37.055973617965975 39.779525716790204 0 0 0 0 -49.252739136980381 8.0918885799545706 0 8.0918885799545706 54.933446330505603 0 0 0 0 -13.491226485173684 -22.243738070970664 0 -22.243738070970664 6.2844425582740016 0 0 0 0 -5.248235000493878 -9.843231437582574 0 -9.843231437582574 -14.641663794693748 0 0 0 0 -64.85749008624407 -36.213869484089685 0 -36.213869484089685 -17.564208889635331 0 0 0 0 -42.059405315347249 -35.027502345941599 0 -35.027502345941599 -3.9617265483127539 0 0 0 0 -23.54492167373246 13.096994759518395 0 13.096994759518395 -68.829889615313107 0 0 0 0 -44.607192535069771 37.088269420231029 0 37.088269420231029 104.69726422098313 0 0 0 0 -5.2871128857846657 2.5838810527270439 0 2.5838810527270439 -1.1025133219656293 0 0 0 0 -41.795478709726012 -22.114705815441368 0 -22.114705815441368 78.567103990669125 0 0 0 0 -28.78106863037101 16.091003543335091 0 16.091003543335091 11.493093193458037 0 0 0 0 48.174308074289002 91.070432137210844 0 91.070432137210844 -76.641137782724968 0 0 0 0 -91.583821680324036 31.340093925493107 0 31.340093925493107 -13.807668511920374 0 0 0 0 -91.374616086352034 43.326013310437389 0 43.326013310437389 -16.61157374407469 0 0 0 0 -1.7352031668329744 1.1924030854241821 0 1.1924030854241821 -0.6045911484988582 0 0 0 0 31.864560963822441 -2.612156116780568 0 -2.612156116780568 -16.041802341959681 0 0 0 0 23.778893295027956 26.244927334357612 0 26.244927334357612 25.255616668762656 0 0 0 0 -10.617117162357317 68.21901175250018 0 68.21901175250018 -22.638271444860933 0 0 0 0 -92.59890963824364 37.241608886158915 0 37.241608886158915 24.527328012899645 0 0 0 0 -65.330427431910778 -6.3982035153437735 0 -6.3982035153437735 2.1773796076013157 0 0 0 0 -42.65031730953342 91.464903883953951 0 91.464903883953951 82.069996204734252 0 0 0 0 -3.5363393682346214 -75.410297834546782 0 -75.410297834546782 110.12375950133651 0 0 0 0 16.818419960996835 154.23258241435391 0 154.23258241435391 47.528796965108299 0 0 0 0 9.1155464564708382 -40.626897812250718 0 -40.626897812250718 397.69770352219211 0 0 0 0 36.205758431411596 -88.515797734338662 0 -88.515797734338662 61.530965033880875 0 0 0 0 84.541165131697198 211.48428751541664 0 211.48428751541664 -71.342248729808261 0 0 0 0 -144.77676625494496 165.27866766183774 0 165.27866766183774 -12.958959709403331 0 0 0 0 -1.8588637875566008 0.52086351044636103 0 0.52086351044636103 -0.11684002215925104 0 0 0 0 -191.73064752803475 71.960453448093119 0 71.960453448093119 -10.256781650964342 0 0 0 0 -156.414572043097 142.65520909056147 0 142.65520909056147 -196.93395745471625 0 0 0 0 -289.15114976287077 145.03263381342728 0 145.03263381342728 95.989267723490457 0 0 0 0 -148.99097103837903 150.59957629405028 0 150.59957629405028 51.296085093307283 0 0 0 0 -192.33409948064946 115.21257104677943 0 115.21257104677943 87.421311961995116 0 0 0 0 29.695645240932208 103.17732294412062 0 103.17732294412062 -2.9052970234679378 0 0 0 0 77.184834063111339 -48.442016141841094 0 -48.442016141841094 48.037449054933631 0 0 0 0 -135.49696735181169 34.001540152816624 0 34.001540152816624 141.11279905921265 0 0 0 0 -147.07274473327561 82.173207793066922 0 82.173207793066922 63.7857364273911 0 0 0 0 -83.26587689934604 -130.62275940816343 0 -130.62275940816343 268.01592137395824 0 0 0 0 -164.77093988047727 -37.099508945577945 0 -37.099508945577945 210.04526056708175 0 0 0 0 -116.51843528878817 -8.5802440169838405 0 -8.5802440169838405 225.07309240060897 0 0 0 0 -18.988352921163113 -9.410878293815216 0 -9.410878293815216 -4.3209096737633601 0 0 0 0 91.571412825556763 -133.95897329180121 0 -133.95897329180121 159.79006878205143 0 0 0 0 -188.68493263538039 -122.39508668825623 0 -122.39508668825623 201.1701994686257 0 0 0 0 -131.79864714729774 -82.531889416478748 0 -82.531889416478748 144.853132154099 0 0 0 0 -251.33634669827552 25.830666896306241 0 25.830666896306241 77.550970381773652 0 0 0 0 -197.10081342831836 65.340618246810934 0 65.340618246810934 106.33229033627327 0 0 0 0 -312.74964023314533 191.91953875412631 0 191.91953875412631 -93.319350376410029 0 0 0 0 -346.95127327603404 -20.409339284339694 0 -20.409339284339694 182.82622784434574 0 0 0 0 -96.470947140429416 63.291386643417191 0 63.291386643417191 -50.50094897313339 0 0 0 0 312.86218889161682 -240.87295806642857 0 -240.87295806642857 156.29618806088064 0 0 0 0 -25.394130220738589 -172.65592380885741 0 -172.65592380885741 -66.19196589175229 0 0 0 0 437.11650875025953 163.67580055868382 0 163.67580055868382 158.19984073453023 0 0 0 0 16.14267610686511 -344.88665202684228 0 -344.88665202684228 434.6437947980736 0 0 0 0 -5.7054205728832983 -4.5104987987887952 0 -4.5104987987887952 1.264175333798355 0 0 0 0 -12.992769716220209 60.041172427268293 0 60.041172427268293 616.78062854007226 0 0 0 0 -140.99417317967163 -241.30004912544558 0 -241.30004912544558 370.10385557250731 0 0 0 0 56.808848292826951 -186.28290058138396 0 -186.28290058138396 145.68467251743687 0 0 0 0 -59.470729892254894 -19.357581081879744 0 -19.357581081879744 69.363554031554486 0 0 0 0 -31.617778557185432 -13.849806064022609 0 -13.849806064022609 -3.6375723419185837 0 0 0 0 -49.761493233605648 0.28939185319341476 0 0.28939185319341476 4.883738131666755 0 0 0 0 -40.322806871634384 -17.833273813489996 0 -17.833273813489996 44.48589603241453 0 0 0 0 -47.977480975124621 -4.6830305654923876 0 -4.6830305654923876 15.851913562922169 0 0 0 0 -39.903099282819312 53.547323020683962 0 53.547323020683962 -36.585328727058823 0 0 0 0 -84.879347317921201 -12.423065358028055 0 -12.423065358028055 60.844083832139404 0 0 0 0 -112.75382379101939 118.70368520016137 0 118.70368520016137 -38.304663108829025 0 0 0 0 -74.800953481393663 -175.63153380246837 0 -175.63153380246837 -36.95384584871374 0 0 0 0 -2.2616621283316931 1.0086525324460602 0 1.0086525324460602 2.5843115117837141 0 0 0 0 9.8593563831709616 -10.465978247342852 0 -10.465978247342852 283.77160436513964 0 0 0 0 102.52980582275632 -289.61286913378609 0 -289.61286913378609 2.0624013081983321 0 0 0 0 -7.5771166371793015 2.4872644361200429 0 2.4872644361200429 0.61703296995365076 0 0 0 0 5.0418479049694724 81.079086805861124 0 81.079086805861124 136.42394476005234 0 0 0 0 -26.966893842269201 -9.0751050335896544 0 -9.0751050335896544 131.90727978848867 0 0 0 0 -86.350363268018555 -393.41547227287253 0 -393.41547227287253 -165.6509630192694 0 0 0 0 -246.7217365720353 -303.82376005138133 0 -303.82376005138133 27.752576375379221 0 0 0 0 -18.317547418446338 -47.459611481698182 0 -47.459611481698182 14.068574160363649 0 0 0 0 -12.513627108855871 42.093192830603797 0 42.093192830603797 2.9199161046812065 0 0 0 0 59.562563480772951 -8.7616047705218065 0 -8.7616047705218065 37.496397595672278 0 0 0 0 -2.8939518374396016 -0.20494664651993588 0 -0.20494664651993588 0.4477865401148709 0 0 0 0 -39.096134662513577 139.7609750206166 0 139.7609750206166 85.418501143090822 0 0 0 0 -56.36609077158937 -101.59614457566735 0 -101.59614457566735 -415.19756535353855 0 0 0 0 42.343557250809681 127.11063109055205 0 127.11063109055205 -195.50645573132812 0 0 0 0 -364.96085536803002 -188.13790688136271 0 -188.13790688136271 -409.38333534930837 0 0 0 0 -553.90843647813017 -55.185707131403525 0 -55.185707131403525 -78.581726196532998 0 0 0 0 -635.66470858093089 212.21508276703958 0 212.21508276703958 0.83719443821556183 0 0 0 0 -239.04982894384011 74.848212214600437 0 74.848212214600437 64.99935082839292 0 0 0 0 -337.62949930455943 -69.151555594700923 0 -69.151555594700923 -9.739726539950766 0 0 0 0 -326.42916437545864 11.467215192338195 0 11.467215192338195 -17.126685771260178 0 0 0 0 -151.52927589067258 -150.99987427963313 0 -150.99987427963313 -96.537262182440983 0 0 0 0 -342.1541197324259 432.90732704935283 0 432.90732704935283 -357.14227342888211 0 0 0 0 -22.035235325303802 -255.83621665168988 0 -255.83621665168988 164.14998807253841 0 0 0 0 -3.1099721096856001 -0.021631141440494162 0 -0.021631141440494162 0.61648402021531146 0 0 0 0 -147.71449329610914 -34.802551557501232 0 -34.802551557501232 80.314333385376415 0 0 0 0 -166.35515553181176 -95.249771755889881 0 -95.249771755889881 22.862090317903942 0 0 0 0 -135.03518325384357 25.613851696158193 0 25.613851696158193 130.28682357005599 0 0 0 0 -97.280396526787285 -7.5419039341141385 0 -7.5419039341141385 2.0432548048112289 0 0 0 0 -8.3152581882948908 -3.6745247928662153 0 -3.6745247928662153 1.8329394946140913 0 0 0 0 -84.224657629043577 -73.999999301801367 0 -73.999999301801367 4.8962217070883867 0 0 0 0 -97.396728928604716 35.934978071026556 0 35.934978071026556 114.11641776856217 0 0 0 0 -76.832406259018171 110.41501002422213 0 110.41501002422213 128.46536447316939 0 0 0 0 -32.167725816770599 -3.041895867230636 0 -3.041895867230636 -4.5654834317035302 0 0 0 0 -135.96226670990291 48.337690172368966 0 48.337690172368966 193.14646268247904 0 0 0 0 -219.4367615645715 -2.7391161798304284 0 -2.7391161798304284 125.51867389267707 0 0 0 0 -234.26020643874654 54.601510611329651 0 54.601510611329651 132.57590114142639 0 0 0 0 -135.09027583707939 62.142926809480585 0 62.142926809480585 129.89768218236989 0 0 0 0 -181.0423461094033 12.00149429506267 0 12.00149429506267 129.35096711591098 0 0 0 0 -181.92205510225904 11.236018271755627 0 11.236018271755627 128.75057390203295 0 0 0 0 -155.38013415399473 71.10886473811567 0 71.10886473811567 274.70464954717647 0 0 0 0 -24.069248425886315 -18.609450885780042 0 -18.609450885780042 14.64870781081104 0 0 0 0 -178.24443987457198 11.871056963824588 0 11.871056963824588 126.93167993334848 0 0 0 0 -179.41392067489505 10.869511018175805 0 10.869511018175805 126.12974753291887 0 0 0 0 -180.83083806504146 -98.223416976891187 0 -98.223416976891187 176.71312517193826 0 0 0 0 -76.788685676703466 -12.047842040486795 0 -12.047842040486795 -3.8190719693617816 0 0 0 0 -103.17871597064368 -41.418506536440454 0 -41.418506536440454 118.42391956536775 0 0 0 0 -29.75972625126451 -55.230888084219302 0 -55.230888084219302 17.054545819210801 0 0 0 0 -80.613301218244601 -14.439685229805104 0 -14.439685229805104 0.37552911648430204 0 0 0 0 -214.80510062517715 -30.160112966987526 0 -30.160112966987526 149.36242236652186 0 0 0 0 -37.870365889684763 -85.324427724286664 0 -85.324427724286664 20.820522708415837 0 0 0 0 -190.24983090232854 41.944362308413375 0 41.944362308413375 36.352514380982214 0 0 0 0 -126.49022370140301 30.587770679743699 0 30.587770679743699 -135.94890284907208 0 0 0 0 -243.83185392629821 76.320497870926488 0 76.320497870926488 71.994527359658406 0 0 0 0 -217.88041272084229 -71.925698225759305 0 -71.925698225759305 -237.59563965182997 0 0 0 0 -24.654592159679311 -4.0437960954571821 0 -4.0437960954571821 -0.42191954483902716 0 0 0 0 -96.529503827201552 66.304266520279782 0 66.304266520279782 99.407299234578545 0 0 0 0 -86.310312799498206 -118.99109678618822 0 -118.99109678618822 -36.845618635431912 0 0 0 0 -52.690268661513983 44.324281664310568 0 44.324281664310568 33.095626677681594 0 0 0 0 -187.04324384828215 29.784941057957639 0 29.784941057957639 55.811190547407278 0 0 0 0 -54.587471855556942 -25.474663645413969 0 -25.474663645413969 89.902815071962806 0 0 0 0 -95.216459192197362 41.011888820631775 0 41.011888820631775 -13.919446037578354 0 0 0 0 -117.33504576967243 -61.792126725787547 0 -61.792126725787547 2.8617371468080819 0 0 0 0 61.881804032991568 53.459836330076129 0 53.459836330076129 36.198796285988152 0 0 0 0 50.506212789448909 3.8747264210273613 0 3.8747264210273613 28.223766680418834 0 0 0 0 -48.145130643890298 -39.41960629578989 0 -39.41960629578989 34.685635163202022 0 0 0 0 -23.642778477762477 22.580836130393507 0 22.580836130393507 63.635019634279161 0 0 0 0 13.866098265636538 17.338599869862382 0 17.338599869862382 21.468086416479455 0 0 0 0 -145.98874848179184 -66.532121466660726 0 -66.532121466660726 11.976191294433189 0 0 0 0 -25.527739343146479 22.969290871313291 0 22.969290871313291 7.4372505680098131 0 0 0 0 -143.86278100636264 -93.701365038643345 0 -93.701365038643345 -16.197260917215065 0 0 0 0 -56.499300269500964 -20.842443082159992 0 -20.842443082159992 -6.24131460437453 0 0 0 0 -101.29841987008876 39.113116056135937 0 39.113116056135937 0.67195617008746922 0 0 0 0 -148.14148215779278 -24.289314220050102 0 -24.289314220050102 -38.693009646965109 0 0 0 0 -44.310516597943327 15.283050215822918 0 15.283050215822918 11.128070608669033 0 0 0 0 -136.98296799908712 7.7867570923295304 0 7.7867570923295304 37.065687754084109 0 0 0 0 -17.956504514972039 28.034971004990041 0 28.034971004990041 -10.441228992827121 0 0 0 0 -5.8839681094132175 11.014226886814981 0 11.014226886814981 11.343203583675916 0 0 0 0 26.628495554146866 62.610434055614832 0 62.610434055614832 23.231526158070665 0 0 0 0 -28.755390293285018 29.341444300891652 0 29.341444300891652 0.98692842901901656 0 0 0 0 -44.465818491084065 -4.122960797309986 0 -4.122960797309986 -8.5591496573729273 0 0 0 0 -61.896394994788352 -19.283971036109428 0 -19.283971036109428 -3.9289808298683511 0 0 0 0 -61.785248152937129 -13.323676754933395 0 -13.323676754933395 -56.958853255992054 0 0 0 0 -49.251057458139258 -56.213301660465419 0 -56.213301660465419 -49.584524802491877 0 0 0 0 -51.110211739404804 -62.966796855524741 0 -62.966796855524741 -25.469107280187558 0 0 0 0 -30.384774109348371 24.725849071703038 0 24.725849071703038 3.3519603523143768 0 0 0 0 -64.26187182024114 -13.950329267444822 0 -13.950329267444822 -0.42524824505358083 0 0 0 0 -45.020127678683821 35.313317520111831 0 35.313317520111831 -4.7929937703729593 0 0 0 0 -74.540374165546382 -5.0172613796375458 0 -5.0172613796375458 9.9408660801352653 0 0 0 0 -29.880432110825943 27.558250995357554 0 27.558250995357554 -1.3037283017069368 0 0 0 0 -19.480680493856198 11.017186688678947 0 11.017186688678947 14.4556644747456 0 0 0 0 -14.177655930900571 11.375743537447253 0 11.375743537447253 -7.7627537400747775 0 0 0 0 -97.036332544415927 93.840260852651227 0 93.840260852651227 63.281626176602757 0 0 0 0 11.062081940835924 60.893677279114023 0 60.893677279114023 27.424856741299095 0 0 0 0 -100.08434768859297 62.837191349121227 0 62.837191349121227 -41.105088659628791 0 0 0 0 -108.06170618817487 47.451297917810074 0 47.451297917810074 -69.818220588775944 0 0 0 0 -129.4272692258819 40.702080312218456 0 40.702080312218456 -1.7667164800182604 0 0 0 0 -123.07856579673535 40.593128545600166 0 40.593128545600166 -34.600977205485634 0 0 0 0 -151.74360176407936 37.394501315147266 0 37.394501315147266 -31.432236080782189 0 0 0 0 -37.197575214363496 -74.650217483593522 0 -74.650217483593522 -111.41020127421795 0 0 0 0 -158.46869106821396 -34.655711062359153 0 -34.655711062359153 -118.56811903770544 0 0 0 0 -184.85835795606181 44.785800922656215 0 44.785800922656215 -7.7075273131024176 0 0 0 0 -144.9603252773959 8.3517320847171277 0 8.3517320847171277 9.2613998620050708 0 0 0 0 -149.53755903577257 65.083551414091914 0 65.083551414091914 -9.9041629110019187 0 0 0 0 -152.99467880989641 56.627056703787353 0 56.627056703787353 -26.378282797656027 0 0 0 0 -139.07129891893055 62.924780528918504 0 62.924780528918504 -25.949003529687417 0 0 0 0 -160.50529900685797 15.798163835557077 0 15.798163835557077 -3.440560447554347 0 0 0 0 -73.016741816453759 13.103790545070627 0 13.103790545070627 -10.55407109031394 0 0 0 0 -89.914510137627076 91.794200706982309 0 91.794200706982309 -0.10219161085116468 0 0 0 0 -68.366830533122993 -46.98063294745328 0 -46.98063294745328 -39.846899470240047 0 0 0 0 -62.215439948653511 14.117980444298908 0 14.117980444298908 -17.547052083148827 0 0 0 0 -160.28812597697788 16.829236265001946 0 16.829236265001946 -5.318378779905288 0 0 0 0 117.00057676824508 137.15100468864927 0 137.15100468864927 -155.73231436347925 0 0 0 0 -149.86344488988107 -81.574013609358559 0 -81.574013609358559 32.083848014410194 0 0 0 0 70.926267297648337 -206.95358655317551 0 -206.95358655317551 -679.21523080234806 0 0 0 0 -709.2371243266025 -174.70019868992853 0 -174.70019868992853 409.72689193106385 0 0 0 0 -490.85048687679227 115.22097518862635 0 115.22097518862635 -18.57654789694891 0 0 0 0 -12.324173953437452 -1.99635258800636 0 -1.99635258800636 0.37298343632839615 0 0 0 0 -50.527519804229087 53.194345852401511 0 53.194345852401511 -150.50287145814559 0 0 0 0 -482.30575812149618 -316.52290827044999 0 -316.52290827044999 -30.994338361955215 0 0 0 0 -81.142973625872401 74.18078766752069 0 74.18078766752069 -150.08036715240314 0 0 0 0 -148.7295215123886 128.14296039421052 0 128.14296039421052 -176.95766817301441 0 0 0 0 -98.742963259199314 40.665498336445424 0 40.665498336445424 -74.169837496470109 0 0 0 0 -158.41892546152667 65.311026722835322 0 65.311026722835322 -22.430501891638045 0 0 0 0 -229.06947739625321 121.72452554765944 0 121.72452554765944 -61.561950078021596 0 0 0 0 -205.60437210530654 17.34666531194307 0 17.34666531194307 14.974259387751218 0 0 0 0 -154.57495958422078 84.963386012355059 0 84.963386012355059 -41.968755798922587 0 0 0 0 -134.04426684488135 65.907589550775356 0 65.907589550775356 -24.898435075551269 0 0 0 0 -88.126590640145878 55.776298231335829 0 55.776298231335829 -54.621560023288964 0 0 0 0 -136.82080910849618 56.865607760363218 0 56.865607760363218 -52.836430244349913 0 0 0 0 -120.02310216408659 91.703213385558215 0 91.703213385558215 -73.881455797276431 0 0 0 0 -87.458733562089037 -8.5882389772082206 0 -8.5882389772082206 -9.8171969658574767 0 0 0 0 -14.252027856595557 1.0920289727025221 0 1.0920289727025221 -0.11806351729453191 0 0 0 0 63.171370255968213 -118.91501225986983 0 -118.91501225986983 -72.26987687644089 0 0 0 0 -29.459869954034318 -12.522630699245255 0 -12.522630699245255 -0.75047219928501674 0 0 0 0 -40.552439393548411 37.64399682079312 0 37.64399682079312 -100.08199595382325 0 0 0 0 -48.392726396257785 -33.664124537024406 0 -33.664124537024406 -22.406030194894413 0 0 0 0 -31.362896405644477 -18.45407500338073 0 -18.45407500338073 -3.9188985067597777 0 0 0 0 -42.533733306547219 -65.002814796223674 0 -65.002814796223674 83.983058901403098 0 0 0 0 -45.374095991627826 28.269840207313504 0 28.269840207313504 -11.479773918175646 0 0 0 0 -63.515120380039662 72.682494150545324 0 72.682494150545324 -47.003954552590756 0 0 0 0 -186.47244636886899 19.96348323016673 0 19.96348323016673 77.148754464082941 0 0 0 0 -43.249817060805071 -3.8305426861965799 0 -3.8305426861965799 -31.244431729303386 0 0 0 0 -127.49489865073701 28.91197780476756 0 28.91197780476756 -3.3618781862537901 0 0 0 0 -13.145213315494289 -4.1910296209954865 0 -4.1910296209954865 2.1191611247041626 0 0 0 0 -22.49560820199973 -9.9204338246424442 0 -9.9204338246424442 -3.2609415024571051 0 0 0 0 4.4542261783262802 -62.866159200495076 0 -62.866159200495076 -12.429235267629338 0 0 0 0 -50.994668462466507 -21.83806532296876 0 -21.83806532296876 -6.9379576077421916 0 0 0 0 -166.32802680751047 -105.49747144482444 0 -105.49747144482444 68.101354515484218 0 0 0 0 -39.404755441941234 -34.415800965513256 0 -34.415800965513256 -41.692875895471118 0 0 0 0 -66.217672397222486 -37.053114839311206 0 -37.053114839311206 -20.789631927794005 0 0 0 0 -1.7588450506477926 -0.29915906375321799 0 -0.29915906375321799 -1.5629656654907658 0 0 0 0 -99.539932144043632 48.33643460049781 0 48.33643460049781 5.7306055664723772 0 0 0 0 24.586155482421418 -125.68351956758134 0 -125.68351956758134 -116.99762585332428 0 0 0 0 -205.27332741304417 97.906439495168343 0 97.906439495168343 2.037791463022586 0 0 0 0 -49.354926600774625 10.390933264903657 0 10.390933264903657 0.53918230961098423 0 0 0 0 -27.358880477134452 -31.646408820130326 0 -31.646408820130326 5.5929439014462732 0 0 0 0 -10.059284134327527 -44.115800222159535 0 -44.115800222159535 -30.808164463704088 0 0 0 0 4.4189448187120703 -6.771129544259221 0 -6.771129544259221 -6.4263276613341365 0 0 0 0 -146.98768105815543 -30.300975166447643 0 -30.300975166447643 20.423704199061831 0 0 0 0 -317.38367713560365 99.338572852672314 0 99.338572852672314 -68.410633798573599 0 0 0 0 -159.53077341199241 -52.212801456580564 0 -52.212801456580564 11.609196836074716 0 0 0 0 -220.83835794708284 -264.50056645849031 0 -264.50056645849031 60.125081482543465 0 0 0 0 -80.663857561578396 -14.051515312690874 0 -14.051515312690874 5.4372391627522596 0 0 0 0 -263.49221928280895 76.055123840174929 0 76.055123840174929 77.100421843392724 0 0 0 0 -27.464962431806214 9.4276289908651236 0 9.4276289908651236 -1.3068617074426996 0 0 0 0 16.88947892851138 95.112159755375842 0 95.112159755375842 -8.0107981874934922 0 0 0 0 -425.5081296267017 116.3859826552706 0 116.3859826552706 264.67006311179443 0 0 0 0 9.7847761560744146 -2.6487890591652175 0 -2.6487890591652175 -4.1605668753129761 0 0 0 0 -62.719781353574945 -150.32934251446204 0 -150.32934251446204 119.16927234689865 0 0 0 0 -236.4772850596346 -35.653272990808262 0 -35.653272990808262 -124.15401211196706 0 0 0 0 -61.048379647138063 25.030439377187918 0 25.030439377187918 8.5802142300758533 0 0 0 0 -39.269753119571646 27.659778996056154 0 27.659778996056154 2.7472296513546377 0 0 0 0 -39.884630248341423 14.32692341349737 0 14.32692341349737 3.7702601178859174 0 0 0 0 -60.599676613888732 29.892093576424941 0 29.892093576424941 4.3024488105891123 0 0 0 0 -26.937513132684558 10.573834019261135 0 10.573834019261135 -1.9690458856226023 0 0 0 0 -61.685453302674432 30.164240325470018 0 30.164240325470018 -12.01585192510538 0 0 0 0 -47.412802200077891 30.750068133620175 0 30.750068133620175 -6.6283645637877271 0 0 0 0 -67.730282472572071 23.000915044629437 0 23.000915044629437 11.295226166059365 0 0 0 0 -16.998085591455208 5.5842783706131307 0 5.5842783706131307 -0.055470146546063859 0 0 0 0 -77.416200336891052 68.525088141712331 0 68.525088141712331 -2.3214478804807186 0 0 0 0 -75.711269921986968 29.697616734788426 0 29.697616734788426 82.830531742112612 0 0 0 0 -178.57207554421984 145.59752849136203 0 145.59752849136203 78.053939258679748 0 0 0 0 -51.154981913805386 37.016170813269127 0 37.016170813269127 -152.4925479030826 0 0 0 0 -19.440679974585315 -1.1576810877834873 0 -1.1576810877834873 2.4068408969620272 0 0 0 0 -52.525914538224242 6.8560918715666048 0 6.8560918715666048 -85.665603273082525 0 0 0 0 -55.791468221937976 5.1428316995215937 0 5.1428316995215937 -48.905705947590832 0 0 0 0 -55.637719448899588 35.203899485015427 0 35.203899485015427 -98.542271451606211 0 0 0 0 -56.910727158086956 51.292418697240464 0 51.292418697240464 2.9541778604257161 0 0 0 0 -6.8609556685508419 7.5944839349127911 0 7.5944839349127911 -9.9012959463330148 0 0 0 0 -183.62760989770322 -8.7671339688999979 0 -8.7671339688999979 37.737081057863179 0 0 0 0 -158.66961382652948 76.222562504073892 0 76.222562504073892 -246.02483321793261 0 0 0 0 -148.82276159316098 8.9969267006490554 0 8.9969267006490554 21.737441528402996 0 0 0 0 -212.64055834068131 30.846228679717569 0 30.846228679717569 2.2969847009517252 0 0 0 0 -321.74524781967193 442.51545277787591 0 442.51545277787591 -263.93523872520018 0 0 0 0 -158.75039153538455 0.59196972679183091 0 0.59196972679183091 18.685931070357583 0 0 0 0 -67.023472013452192 24.882736049960613 0 24.882736049960613 -26.416752335695492 0 0 0 0 -88.27885692320524 -6.2925234908561833 0 -6.2925234908561833 6.4450649142090697 0 0 0 0 -143.53675434968409 36.510279144506057 0 36.510279144506057 -20.807437104493147 0 0 0 0 -94.582691567178699 13.269265547775831 0 13.269265547775831 -32.628784146957969 0 0 0 0 -93.562855657077307 19.786467443555011 0 19.786467443555011 -17.895898689437672 0 0 0 0 -33.283243250795522 54.729907237166231 0 54.729907237166231 40.613612136752636 0 0 0 0 -145.66644787624546 -1.1127547589511551 0 -1.1127547589511551 33.611423163341897 0 0 0 0 -131.31186614623948 9.4693658345639733 0 9.4693658345639733 24.365665098826867 0 0 0 0 46.892412395713109 -32.947821150274194 0 -32.947821150274194 -416.52264298482169 0 0 0 0 56.387739112149575 -97.916444198670433 0 -97.916444198670433 -94.155238346721319 0 0 0 0 -704.76969860495228 106.73538868159903 0 106.73538868159903 -14.807402123679822 0 0 0 0 -79.060771957989346 -78.842667735385021 0 -78.842667735385021 58.745873100488694 0 0 0 0 -252.76164642101503 41.485099272748812 0 41.485099272748812 -7.3836398614375867 0 0 0 0 -12.966180852632505 13.817907881906361 0 13.817907881906361 -11.841552256503981 0 0 0 0 27.845649782153487 241.27890711307236 0 241.27890711307236 -110.76002474029065 0 0 0 0 -14.183897253555187 50.626963185314253 0 50.626963185314253 14.845007159715747 0 0 0 0 -42.372151865252818 13.472355183391755 0 13.472355183391755 12.622481904301139 0 0 0 0 -59.460629062421503 29.411906425266125 0 29.411906425266125 -1.5009125130537768 0 0 0 0 -64.478195248375414 28.178731465833607 0 28.178731465833607 9.6836742633303743 0 0 0 0 -28.132125857735076 10.003821927875723 0 10.003821927875723 -8.8767837852302467 0 0 0 0 38.278101877696827 -94.751323761587855 0 -94.751323761587855 35.744807075148856 0 0 0 0 -94.558914939823396 -3.7683848563870761 0 -3.7683848563870761 1.4480911706229449 0 0 0 0 -133.67968069660537 12.488932326105669 0 12.488932326105669 20.50315110882002 0 0 0 0 -107.63478490577654 39.792964594086698 0 39.792964594086698 -13.944772789513081 0 0 0 0 -55.985398618711557 28.116588512242682 0 28.116588512242682 -12.405089590386474 0 0 0 0 -127.24272165525053 39.446600531824515 0 39.446600531824515 -18.327012433046548 0 0 0 0 -139.35787389295547 46.758364442870516 0 46.758364442870516 -10.972959008758608 0 0 0 0 -156.67721109903323 32.809278850869305 0 32.809278850869305 9.7339792841380586 0 0 0 0 -104.44068515044773 -11.900487826995459 0 -11.900487826995459 -4.682962102622696 0 0 0 0 -324.252304073907 -449.0747089649858 0 -449.0747089649858 378.86765695290273 0 0 0 0 -792.61873749333608 -96.038335056538017 0 -96.038335056538017 264.25308134428633 0 0 0 0 -102.99696699453138 -9.9666721263929894 0 -9.9666721263929894 5.5076275235620571 0 0 0 0 -129.83713126580733 -48.117195618141523 0 -48.117195618141523 -0.47530801798848188 0 0 0 0 -176.54710729935687 -45.318163722900863 0 -45.318163722900863 -27.107550466027533 0 0 0 0 -501.02988835122596 115.13543205164206 0 115.13543205164206 315.30128480959229 0 0 0 0 -102.89034655325887 -12.891618463871545 0 -12.891618463871545 5.9491287806464932 0 0 0 0 -25.976697734399096 -1.9742112310005382 0 -1.9742112310005382 -4.4721276570979782 0 0 0 0 -19.252854223970644 -121.69803966210657 0 -121.69803966210657 93.226220965076209 0 0 0 0 -373.19788433066424 776.03534087076514 0 776.03534087076514 -76.780187165732059 0 0 0 0 -248.37775488437183 -37.604132637608018 0 -37.604132637608018 194.77849605439724 0 0 0 0 -3.6909008330389383 -1.6689606891912057 0 -1.6689606891912057 -1.0682659214459491 0 0 0 0 7.750336562301527 -34.936504440828685 0 -34.936504440828685 -68.588059639390849 0 0 0 0 -89.183736675266118 -125.0123671752317 0 -125.0123671752317 -88.124736890148597 0 0 0 0 -658.94346635009924 597.65931452726431 0 597.65931452726431 -187.32732224222309 0 0 0 0 420.42367031562753 -386.41966641675936 0 -386.41966641675936 -656.46510717757701 0 0 0 0 -1.3500411279481952 -3.7232887800124743 0 -3.7232887800124743 -3.7294983755147548 0 0 0 0 13.570618486947751 323.68893075106257 0 323.68893075106257 -383.48656832633787 0 0 0 0 -249.56024015755975 -153.83831546140482 0 -153.83831546140482 -124.95746680931825 0 0 0 0 -359.80522947241843 -247.80804366057691 0 -247.80804366057691 -90.479427728776045 0 0 0 0 -233.62958059776793 -116.44204481206089 0 -116.44204481206089 -46.327068873481039 0 0 0 0 -211.01668869508285 -144.01978482696722 0 -144.01978482696722 -44.084572979136283 0 0 0 0 -139.42200740730914 -85.290073493101772 0 -85.290073493101772 -39.784190062564448 0 0 0 0 -122.31308656658075 -111.71987937544145 0 -111.71987937544145 -63.209626512483737 0 0 0 0 -155.90714050712268 -78.456911579834923 0 -78.456911579834923 -24.048881497921684 0 0 0 0 -127.5548883565607 -89.103253794540251 0 -89.103253794540251 -55.586026330376626 0 0 0 0 -199.69695813732687 -141.39524430141046 0 -141.39524430141046 -83.110815769439796 0 0 0 0 -212.35852022629115 -126.12077559548288 0 -126.12077559548288 -43.319915326056616 0 0 0 0 -278.59459293766122 -179.03719029218064 0 -179.03719029218064 -35.585985525528486 0 0 0 0 -238.74691058568351 -130.19341299884672 0 -130.19341299884672 -7.6342990253069729 0 0 0 0 -247.84983411016583 -120.09285002094657 0 -120.09285002094657 -10.144858096506141 0 0 0 0 -313.98830414626718 -138.41098321558593 0 -138.41098321558593 -4.4299072359071943 0 0 0 0 -327.81810095476249 -192.27483973629205 0 -192.27483973629205 -13.72814993081829 0 0 0 0 -373.53323352203552 -192.62007448338306 0 -192.62007448338306 55.714099261650517 0 0 0 0 -285.41113218732062 -173.90733043429691 0 -173.90733043429691 -25.242353893843756 0 0 0 0 24.825837956712348 -14.587403080251534 0 -14.587403080251534 34.960571718116626 0 0 0 0 0.44240906261984492 -13.782854680203855 0 -13.782854680203855 24.628210508253687 0 0 0 0 11.953801715364534 -31.481774246205077 0 -31.481774246205077 27.553037988025608 0 0 0 0 13.566541601445351 -13.645309560421993 0 -13.645309560421993 26.519636981793155 0 0 0 0 -6.1545043716905639 -31.417743750043428 0 -31.417743750043428 24.794268046762227 0 0 0 0 98.174519355103257 -25.638145730440556 0 -25.638145730440556 0.026215712599878316 0 0 0 0 30.456847356806975 -34.03342373704254 0 -34.03342373704254 21.74155855315621 0 0 0 0 60.855038896450424 -3.0629859508608206 0 -3.0629859508608206 23.11143216588971 0 0 0 0 -214.29174451113431 -57.02471156337424 0 -57.02471156337424 -26.853195006454371 0 0 0 0 -130.22583647431384 60.87567949609047 0 60.87567949609047 -97.34617770164823 0 0 0 0 0.23824372695417217 -0.095902246132290259 0 -0.095902246132290259 -0.76949580141810614 0 0 0 0 -283.35773977482313 -88.115104589942348 0 -88.115104589942348 -16.363950014499522 0 0 0 0 -208.48917467337742 -85.182812494186692 0 -85.182812494186692 -16.515109444892516 0 0 0 0 -221.92071880656295 -59.197051349958883 0 -59.197051349958883 -7.5270847685515037 0 0 0 0 -20.662814291186805 -1.9574162373091895 0 -1.9574162373091895 -32.209536280872271 0 0 0 0 -112.33269696304342 26.652792348066214 0 26.652792348066214 42.043994110377753 0 0 0 0 -154.28522829034227 23.471383022623741 0 23.471383022623741 87.600686268479876 0 0 0 0 -42.117937038903619 10.260751265772342 0 10.260751265772342 -39.430957739186852 0 0 0 0 1.1600314398869358 0.10786471165614842 0 0.10786471165614842 -3.147777668527084 0 0 0 0 44.538346105415258 -31.638289417923261 0 -31.638289417923261 12.906593422301739 0 0 0 0 31.790539974655985 0.83267772444355614 0 0.83267772444355614 8.893571963561044 0 0 0 0 -59.279245702229673 16.489402229742154 0 16.489402229742154 33.267523306851217 0 0 0 0 -9.5737658969553792 0.22401835469052145 0 0.22401835469052145 -3.7436878395977118 0 0 0 0 -31.598823825184809 -65.763954086771719 0 -65.763954086771719 -40.331468765976751 0 0 0 0 -66.89705774405229 10.428937323817081 0 10.428937323817081 14.033269352488787 0 0 0 0 -4.9308150495983529 0.48527651182064346 0 0.48527651182064346 1.4099919435273023 0 0 0 0 -32.628975411693318 15.305969690180291 0 15.305969690180291 42.733530647385123 0 0 0 0 -100.54430437065457 104.12505193244942 0 104.12505193244942 -86.913024209158721 0 0 0 0 -12.409204873869854 -3.5764556235255505 0 -3.5764556235255505 -2.0716057060284161 0 0 0 0 -91.744997593941662 16.185553916554454 0 16.185553916554454 16.936005910894437 0 0 0 0 -17.344891049514928 1.7709570700551325 0 1.7709570700551325 1.9365017562166571 0 0 0 0 -129.71261497920568 8.0291627808255726 0 8.0291627808255726 60.949298746927525 0 0 0 0 -45.569957912426617 -4.6195727862618696 0 -4.6195727862618696 -4.3440875455401056 0 0 0 0 -35.842999822258989 -4.8125230826470116 0 -4.8125230826470116 1.2588769012525223 0 0 0 0 -62.602259746192431 -2.6475033841613822 0 -2.6475033841613822 0.042716677498447098 0 0 0 0 -35.288047833303253 -11.202091934555416 0 -11.202091934555416 -0.041760072704363438 0 0 0 0 -36.995815542423045 -10.959537174920776 0 -10.959537174920776 5.8211492217619245 0 0 0 0 -39.455787974373379 -6.9438074088257054 0 -6.9438074088257054 11.187472546816934 0 0 0 0 -30.111546966058821 -11.326767795308832 0 -11.326767795308832 7.7568623177660108 0 0 0 0 -54.961698491431889 -6.1700850525103306 0 -6.1700850525103306 9.6425704096727713 0 0 0 0 -23.490651949899174 2.7190624623495196 0 2.7190624623495196 17.144529928223427 0 0 0 0 -49.166412821570702 -25.814175674399849 0 -25.814175674399849 -8.4282920978021139 0 0 0 0 -66.283300280341791 -30.880973348870384 0 -30.880973348870384 -5.3073779029928119 0 0 0 0 -26.35007294647221 -25.216479665049064 0 -25.216479665049064 -16.597210189191173 0 0 0 0 -78.571500630059745 19.311125089312554 0 19.311125089312554 25.041264409419455 0 0 0 0 -50.792674318290665 -34.324340756921629 0 -34.324340756921629 -19.360785270108863 0 0 0 0 -8.6334552788446786 0.70089341182502096 0 0.70089341182502096 -0.12132030534804272 0 0 0 0 -30.727740689992061 -5.744324070908533 0 -5.744324070908533 3.7665820059260113 0 0 0 0 -25.527493712739115 1.7482651665167843 0 1.7482651665167843 7.2969720963769866 0 0 0 0 -36.282068047210487 -3.0534675747896927 0 -3.0534675747896927 12.574749676281499 0 0 0 0 -40.223129690923088 -4.7434839379502591 0 -4.7434839379502591 8.134266618392985 0 0 0 0 -40.736808378662317 -5.2303992538898001 0 -5.2303992538898001 9.8879189345370833 0 0 0 0 -33.479972933988861 -7.5092799390270777 0 -7.5092799390270777 3.1982803557720141 0 0 0 0 -35.141152608131961 -5.5131866378123959 0 -5.5131866378123959 6.8445153767834199 0 0 0 0 -32.348274824096734 -0.49246531203266386 0 -0.49246531203266386 -0.36580338366320575 0 0 0 0 -75.488630085848854 -30.314223060677705 0 -30.314223060677705 0.33241733875274804 0 0 0 0 -51.97188775372706 -5.4245976550073465 0 -5.4245976550073465 8.2165371847645474 0 0 0 0 -17.495757045408311 10.284186681459914 0 10.284186681459914 13.85414559889875 0 0 0 0 -72.951495788191096 -13.123009997588269 0 -13.123009997588269 3.0627148172061425 0 0 0 0 -70.767035777724232 -8.440172148073998 0 -8.440172148073998 10.36809337226714 0 0 0 0 -78.58356897210615 -7.5501181494923912 0 -7.5501181494923912 16.034023860875095 0 0 0 0 -69.420032832028483 1.1790544686631392 0 1.1790544686631392 7.8781418535099874 0 0 0 0 -48.497335058538738 -5.0457675429761366 0 -5.0457675429761366 0.86775142805061023 0 0 0 0 -22.030531534541595 13.347369329646114 0 13.347369329646114 8.7797244529571685 0 0 0 0 -58.215302051219624 -21.049076859655543 0 -21.049076859655543 28.104757698285994 0 0 0 0 -35.790477906397427 -29.057134708135891 0 -29.057134708135891 24.440946531989539 0 0 0 0 -34.615543677711685 -17.611421097942184 0 -17.611421097942184 29.848693497478962 0 0 0 0 -63.955645470307445 -48.819658321965306 0 -48.819658321965306 10.195485260817804 0 0 0 0 -72.587193422012206 -22.763061382842352 0 -22.763061382842352 6.3240725905652653 0 0 0 0 -60.947698814547039 -31.777792239950941 0 -31.777792239950941 13.12363795082274 0 0 0 0 -74.522380875265299 -17.051219349299572 0 -17.051219349299572 22.353515500126377 0 0 0 0 -74.694435081997653 -18.40911917157382 0 -18.40911917157382 16.161611804134736 0 0 0 0 -83.471522366293357 -11.672537406086121 0 -11.672537406086121 19.934745263934019 0 0 0 0 -76.609348055644659 -13.783630969919614 0 -13.783630969919614 18.439446639944435 0 0 0 0 -77.720339963896549 -16.05273329296142 0 -16.05273329296142 24.603513784193638 0 0 0 0 -61.002479107533873 -18.75241892915983 0 -18.75241892915983 19.898602072643371 0 0 0 0 -45.119807841372676 -16.51366689358656 0 -16.51366689358656 22.291679769074108 0 0 0 0 -59.500128846633743 -24.151459394389121 0 -24.151459394389121 29.775332877898109 0 0 0 0 -28.83021775312227 -28.625457367948911 0 -28.625457367948911 30.177378992333615 0 0 0 0 -40.483589506606222 -16.413351647670424 0 -16.413351647670424 25.362739346083799 0 0 0 0 -21.376703683141386 -14.979828109550908 0 -14.979828109550908 26.51539955904218 0 0 0 0 -39.258445968778688 -27.196428955203373 0 -27.196428955203373 24.531575513539792 0 0 0 0 -42.392882023916172 -14.163162246813044 0 -14.163162246813044 23.484980967754382 0 0 0 0 -24.819788773318578 -30.931453582309587 0 -30.931453582309587 14.939469346039914 0 0 0 0 -39.713916988104756 -19.730266210795435 0 -19.730266210795435 8.2160722312437429 0 0 0 0 -38.398432776579284 -21.978579794753841 0 -21.978579794753841 -12.549274433078608 0 0 0 0 -49.35519431209832 -11.9851010830007 0 -11.9851010830007 0.34218974894429266 0 0 0 0 -64.319142294785706 -22.601519882666253 0 -22.601519882666253 12.376350911105874 0 0 0 0 -44.050239406642504 -18.423104370606779 0 -18.423104370606779 12.542186096488877 0 0 0 0 -64.983098470792356 -19.941795503731498 0 -19.941795503731498 24.355472052100595 0 0 0 0 -79.307063269268838 -16.519321010688145 0 -16.519321010688145 18.691181748735744 0 0 0 0 -64.577374215622967 -14.931974069441367 0 -14.931974069441367 17.982168678512608 0 0 0 0 -78.180823028684244 -12.220505953931934 0 -12.220505953931934 14.921397603937294 0 0 0 0 -87.444450591632631 -12.403801835675949 0 -12.403801835675949 20.263930919497852 0 0 0 0 -80.38410642024246 -14.327926183555519 0 -14.327926183555519 6.0513024408378442 0 0 0 0 -90.88728747699497 -17.727309982088173 0 -17.727309982088173 12.578289644667166 0 0 0 0 -83.257871763664298 -22.539181442301015 0 -22.539181442301015 5.1148641304134799 0 0 0 0 -63.642187731501963 -14.446206419967467 0 -14.446206419967467 8.3527958618051343 0 0 0 0 -76.334387887188313 -33.596225725624123 0 -33.596225725624123 -24.174874746555361 0 0 0 0 -75.302928532386431 -26.583907249613731 0 -26.583907249613731 -17.786759427436209 0 0 0 0 -103.49895403321716 -28.546934254604366 0 -28.546934254604366 -1.2946246885235269 0 0 0 0 -94.662956652246066 -43.383301203193923 0 -43.383301203193923 -25.674173325581705 0 0 0 0 -92.780220275992178 -38.636991455124416 0 -38.636991455124416 -13.940923816312534 0 0 0 0 -43.48532424034056 -31.097674727471713 0 -31.097674727471713 -69.101955506585682 0 0 0 0 -47.288686890540703 -24.621528081768929 0 -24.621528081768929 -41.300379864168917 0 0 0 0 -36.127407162300017 -8.5460309007530206 0 -8.5460309007530206 -34.440673545230311 0 0 0 0 -50.358672583373846 -28.905323266390951 0 -28.905323266390951 -16.307114459790682 0 0 0 0 -62.09993667028175 -19.234901247848939 0 -19.234901247848939 -3.5210120318952249 0 0 0 0 -61.46440183789673 -20.64705009184172 0 -20.64705009184172 -16.549304646855489 0 0 0 0 -63.835398816008819 14.775942900485006 0 14.775942900485006 9.7290341764028199 0 0 0 0 -32.015286656067474 4.8353938190816734 0 4.8353938190816734 12.187770682262453 0 0 0 0 -8.9939597239022078 1.518144462263102 0 1.518144462263102 2.2995837800813206 0 0 0 0 -77.182655043536215 9.1202224966582435 0 9.1202224966582435 5.2833362946455509 0 0 0 0 -104.77706342002784 2.0457722748546985 0 2.0457722748546985 20.822724347522183 0 0 0 0 -80.04454143242765 6.5861303894607772 0 6.5861303894607772 19.782074593255857 0 0 0 0 -90.767221814516233 -3.6350428161449599 0 -3.6350428161449599 16.973606961516566 0 0 0 0 -84.814269653295923 -7.7557997640324174 0 -7.7557997640324174 17.277852855528181 0 0 0 0 -95.350540396924771 -11.299428475978402 0 -11.299428475978402 10.78983499201604 0 0 0 0 -93.229576894899765 -6.6009586749263462 0 -6.6009586749263462 17.12129133590679 0 0 0 0 -96.191671702426902 -9.7133302090853135 0 -9.7133302090853135 9.4344878663405325 0 0 0 0 -137.20244904725405 -25.61340440623826 0 -25.61340440623826 3.813778460991216 0 0 0 0 -115.65336744717206 -13.459115558568556 0 -13.459115558568556 -4.0204228624443203 0 0 0 0 -65.1891131725788 18.056763033173866 0 18.056763033173866 3.0306017368293396 0 0 0 0 -61.70747071482765 12.577280209387482 0 12.577280209387482 1.3683208577986079 0 0 0 0 -132.21696985617746 35.979290883050226 0 35.979290883050226 -1.992574040141335 0 0 0 0 -61.257713269689702 9.8569300494659728 0 9.8569300494659728 8.4778630894052185 0 0 0 0 -24.204120778325887 2.1108068776592575 0 2.1108068776592575 -19.681384737234595 0 0 0 0 -33.193335372423462 27.048957059671864 0 27.048957059671864 -34.770179028987513 0 0 0 0 -152.57659954416886 85.007812715183036 0 85.007812715183036 -44.928904929961476 0 0 0 0 -166.09974666216476 -37.73190836056196 0 -37.73190836056196 -27.345515184700844 0 0 0 0 -157.08368479804631 -14.861738024420447 0 -14.861738024420447 0.35580212955602519 0 0 0 0 -170.79098496507868 -72.400740957113214 0 -72.400740957113214 -27.694012008896607 0 0 0 0 -325.92794123436761 -21.542136639397768 0 -21.542136639397768 -18.291147314688885 0 0 0 0 -236.64046106613205 -169.78176458892065 0 -169.78176458892065 -119.0816318207992 0 0 0 0 32.020780876224762 -55.735089482324867 0 -55.735089482324867 -50.119306447584108 0 0 0 0 -247.58479009832809 72.28799712642433 0 72.28799712642433 -42.031925400364017 0 0 0 0 -0.48328343917353322 -3.3359006240259745 0 -3.3359006240259745 -3.3648246730218796 0 0 0 0 -30.827791706655262 -49.988381981203645 0 -49.988381981203645 -121.46748200706062 0 0 0 0 -14.682418989215876 -21.531257106026999 0 -21.531257106026999 -76.192539060006766 0 0 0 0 -48.811786845923052 -51.921410785822047 0 -51.921410785822047 -69.817684624261588 0 0 0 0 -63.192187352455221 -46.400016298381615 0 -46.400016298381615 -69.821684307714804 0 0 0 0 -68.981867401016643 -85.170258789827955 0 -85.170258789827955 -76.742509846576041 0 0 0 0 14.08658554086287 -137.57383116283768 0 -137.57383116283768 -270.72421842179301 0 0 0 0 -29.215200225106855 -28.32657673970391 0 -28.32657673970391 -36.514463735478103 0 0 0 0 -11.498051603834028 -61.641762685451795 0 -61.641762685451795 -118.45602145194866 0 0 0 0 -17.589056575296127 -41.065840282076977 0 -41.065840282076977 -83.063691876997382 0 0 0 0 -36.246321056289162 -74.581923712306661 0 -74.581923712306661 -140.58114647465362 0 0 0 0 -39.461031265949714 12.050859734654068 0 12.050859734654068 -73.240289284368828 0 0 0 0 -13.619155808431969 -14.823962860015023 0 -14.823962860015023 -147.40940808244727 0 0 0 0 -473.0097339664535 29.865946918248824 0 29.865946918248824 -61.855638960723923 0 0 0 0 -65.016145825065905 -87.896707783436341 0 -87.896707783436341 -53.74355772796298 0 0 0 0 -99.54235279500881 90.10930887481706 0 90.10930887481706 -230.88875124045967 0 0 0 0 -5.0356978946884965 2.7199291102407344 0 2.7199291102407344 -0.66857693989408284 0 0 0 0 45.781065960709384 82.261168660181966 0 82.261168660181966 -117.52207441129303 0 0 0 0 -17.132851877229768 21.573897101869221 0 21.573897101869221 7.4424224048349288 0 0 0 0 -224.69357656843931 -65.882954003658824 0 -65.882954003658824 -45.179357778479925 0 0 0 0 -10.374612648926316 7.6693728162493073 0 7.6693728162493073 -4.5655318233211588 0 0 0 0 -586.0855342983823 -212.99939610232826 0 -212.99939610232826 -89.146166146647261 0 0 0 0 -375.149977573863 -179.0195931233286 0 -179.0195931233286 -87.36631840239852 0 0 0 0 -519.32644974473806 -213.56140056729782 0 -213.56140056729782 -21.400936761337562 0 0 0 0 -390.98899218445331 -73.603614200246511 0 -73.603614200246511 -18.329082415613811 0 0 0 0 -326.91234861218982 -142.18241539076371 0 -142.18241539076371 -7.2509902559329475 0 0 0 0 -341.69281646221498 -132.90190399069479 0 -132.90190399069479 74.813188942075385 0 0 0 0 -179.97270270284571 -118.64344290789199 0 -118.64344290789199 -13.446696433762554 0 0 0 0 -431.12085375592869 -63.282898755370525 0 -63.282898755370525 5.0455884446200798 0 0 0 0 -369.71876545069972 -143.78084909045356 0 -143.78084909045356 5.2378761191728245 0 0 0 0 -299.2261685104495 -159.02661269310011 0 -159.02661269310011 22.142160030483865 0 0 0 0 -339.8719291919133 -126.80216777155283 0 -126.80216777155283 6.1583336778021476 0 0 0 0 -285.84877728705032 -91.764535968879954 0 -91.764535968879954 8.0093642848878517 0 0 0 0 -342.19590795035765 -92.658499897388538 0 -92.658499897388538 12.918146614375473 0 0 0 0 0.73773467131479009 0.83458171197643338 0 0.83458171197643338 -1.619770715443277 0 0 0 0 -139.46587028045906 175.71958711850311 0 175.71958711850311 472.35085746440018 0 0 0 0 104.25361011963832 -70.935416389865168 0 -70.935416389865168 -2.6420470544508134 0 0 0 0 -314.66083939121745 4.8453760703526996 0 4.8453760703526996 -29.533195349065863 0 0 0 0 -231.05864948852104 -28.425977669947997 0 -28.425977669947997 -27.65827811422605 0 0 0 0 -388.06108690894689 12.371031729921015 0 12.371031729921015 -29.885581976850517 0 0 0 0 25.251196213648655 -50.17189331382724 0 -50.17189331382724 31.094006322545255 0 0 0 0 47.333094791516487 -82.110594917108756 0 -82.110594917108756 33.021818857863423 0 0 0 0 58.225647097839101 -59.815349565139513 0 -59.815349565139513 5.3193953713271185 0 0 0 0 46.120819030431448 -48.647592544489271 0 -48.647592544489271 13.392127601700849 0 0 0 0 34.175226692241267 -21.154205867510427 0 -21.154205867510427 16.051370066353229 0 0 0 0 21.555356072785798 -49.7863267985731 0 -49.7863267985731 14.959507644460246 0 0 0 0 42.456878615179448 -39.655316474398205 0 -39.655316474398205 7.3961929610823063 0 0 0 0 -1.0652188792446395 -16.812365309328015 0 -16.812365309328015 17.895030617292832 0 0 0 0 9.1010046205847175 -38.657159722337383 0 -38.657159722337383 17.520898228422084 0 0 0 0 13.998142491022008 -27.909313691771786 0 -27.909313691771786 9.1045202745863207 0 0 0 0 -20.815493120098836 -17.270246274579222 0 -17.270246274579222 6.2717851687402799 0 0 0 0 -6.8968381585509633 -36.121372097274161 0 -36.121372097274161 9.9537099410026713 0 0 0 0 -5.542685745327617 -22.242234552692025 0 -22.242234552692025 -0.30473702746257914 0 0 0 0 24.592494031370734 -57.202311602985901 0 -57.202311602985901 25.378458943065198 0 0 0 0 24.725209754731623 -38.717528274952201 0 -38.717528274952201 5.4279216422637546 0 0 0 0 -0.7535446817491902 -45.398858173381996 0 -45.398858173381996 9.7966100162566363 0 0 0 0 23.611003579368116 -35.982987761166441 0 -35.982987761166441 6.0181322831040234 0 0 0 0 -27.819797857013327 -44.904778231998421 0 -44.904778231998421 -5.9312801752439555 0 0 0 0 24.250244282469794 -39.847521100203721 0 -39.847521100203721 -8.2102634772681995 0 0 0 0 -16.291665211567306 -12.131338555105231 0 -12.131338555105231 -21.016180613867618 0 0 0 0 -20.571064044794184 -33.907993403341607 0 -33.907993403341607 -9.0321908864189027 0 0 0 0 -35.767366805862821 -30.832128363690007 0 -30.832128363690007 -37.606983460685115 0 0 0 0 41.195804121947731 -157.4264334059726 0 -157.4264334059726 -385.68175659346161 0 0 0 0 66.210341192281703 -42.609118356806562 0 -42.609118356806562 -39.047836097764048 0 0 0 0 -0.28836033767579039 1.0824248575218718 0 1.0824248575218718 -0.87167298813938032 0 0 0 0 -669.6656855801848 -41.956441097262086 0 -41.956441097262086 58.513804180698571 0 0 0 0 49.085886484695948 -62.787434772094912 0 -62.787434772094912 -59.841696315475474 0 0 0 0 -87.406581651026499 257.18849293802748 0 257.18849293802748 -15.785104177588323 0 0 0 0 136.62802421764354 -160.13904171259458 0 -160.13904171259458 -896.68739907756003 0 0 0 0 -6.7041839818127755 0.83639580053923623 0 0.83639580053923623 3.2480856787805972 0 0 0 0 -2373.5705307348981 789.93924607582414 0 789.93924607582414 240.52463041138125 0 0 0 0 -13.301014505117763 -6.2147839759071175 0 -6.2147839759071175 -4.6502546846834409 0 0 0 0 -243.42863280678284 -750.56319416054498 0 -750.56319416054498 -1569.0161382839078 0 0 0 0 -204.1679457325663 225.84013508331327 0 225.84013508331327 -315.26905105165599 0 0 0 0 -2497.2963269054708 1235.1674319715535 0 1235.1674319715535 -392.64587710304261 0 0 0 0 -293.86544807165774 186.07075935363196 0 186.07075935363196 -100.80171523194838 0 0 0 0 -8.2942539941696509 0.20155216631523842 0 0.20155216631523842 7.1714893889797349 0 0 0 0 -73.216903882675979 71.251887490726517 0 71.251887490726517 -151.67830704873222 0 0 0 0 -318.60769786091987 16.919865978218468 0 16.919865978218468 -27.07059556142076 0 0 0 0 78.234338713489706 118.7889605672749 0 118.7889605672749 108.47098874467883 0 0 0 0 -12.038800222372778 -3.4294353107243722 0 -3.4294353107243722 1.6740479917260505 0 0 0 0 14.80521004190814 29.871549976564438 0 29.871549976564438 -144.62489251209263 0 0 0 0 -193.16017708232539 20.473396335989662 0 20.473396335989662 8.6946260818281189 0 0 0 0 -128.2905313235824 94.17521719828062 0 94.17521719828062 -38.925112341075419 0 0 0 0 -30.176087202216308 -4.4327074599366654 0 -4.4327074599366654 3.3640849486344351 0 0 0 0 -72.946160357445478 40.534821292986635 0 40.534821292986635 251.62288814409612 0 0 0 0 -636.51481477192283 410.79912735230198 0 410.79912735230198 -69.623171329964634 0 0 0 0 -1179.5497637700464 516.42549455401559 0 516.42549455401559 212.46505378776146 0 0 0 0 125.80077130261634 120.32638178352744 0 120.32638178352744 -58.022998580664193 0 0 0 0 -9.9097079702335371 2.3281870123855271 0 2.3281870123855271 3.4161490850916323 0 0 0 0 -856.82250976991054 -227.57898866936762 0 -227.57898866936762 -2349.8950000914192 0 0 0 0 -36.965822550923377 -14.908353770520755 0 -14.908353770520755 -3.4438842017241384 0 0 0 0 -112.62050033615378 -56.490138953164887 0 -56.490138953164887 285.99059124427072 0 0 0 0 -237.21496672380454 -288.377925792837 0 -288.377925792837 -562.19211872507776 0 0 0 0 -58.939056837087264 14.517469725453225 0 14.517469725453225 -171.26937206641287 0 0 0 0 -140.71154613854014 247.35457259299619 0 247.35457259299619 66.906070904561147 0 0 0 0 -498.01780220036744 -126.58933579321399 0 -126.58933579321399 308.30762761795842 0 0 0 0 -519.51984321678174 -463.07149230780556 0 -463.07149230780556 -266.25544085629554 0 0 0 0 -401.43011701002979 979.19984765917434 0 979.19984765917434 322.45389136282415 0 0 0 0 -20.00498715053601 7.0663025082960615 0 7.0663025082960615 -2.1601346991647299 0 0 0 0 -847.83389798882854 856.70859714594008 0 856.70859714594008 288.87525216118593 0 0 0 0 -3073.111803952168 -712.1519715817584 0 -712.1519715817584 2960.3253977313093 0 0 0 0 -1718.5552149535215 -702.7356317696499 0 -702.7356317696499 -207.42239675971086 0 0 0 0 -1739.7685452523074 -58.965602864340624 0 -58.965602864340624 338.26637653898729 0 0 0 0 -0.94479051549795656 3.6799891247824235 0 3.6799891247824235 -5.7493575244030257 0 0 0 0 -594.26082792425768 -712.55009432399243 0 -712.55009432399243 -460.64888689728241 0 0 0 0 -487.46132531847979 -394.54171072951453 0 -394.54171072951453 -502.51754854181996 0 0 0 0 -642.01965931290761 -428.79899809736543 0 -428.79899809736543 -18.019610867906067 0 0 0 0 -1517.4046895251013 -768.03056431426512 0 -768.03056431426512 -275.1130118259855 0 0 0 0 -2496.9193463881493 -1295.2758112890986 0 -1295.2758112890986 -77.082937701247189 0 0 0 0 -650.42303809232544 -400.42634335030402 0 -400.42634335030402 -259.31117577383384 0 0 0 0 -496.515407199935 -425.86269507522775 0 -425.86269507522775 -386.68729471368954 0 0 0 0 -1015.0934179610194 -1007.4597998577344 0 -1007.4597998577344 -682.29684803498026 0 0 0 0 -804.79037409150624 -1396.391289847734 0 -1396.391289847734 -1280.3138103747776 0 0 0 0 -1661.9974866920329 -520.9334047457686 0 -520.9334047457686 27.021200736625474 0 0 0 0 -1757.0366163370636 -467.42593706152047 0 -467.42593706152047 71.892199046143801 0 0 0 0 -2498.1881122782456 -321.84905303683075 0 -321.84905303683075 205.46046053197622 0 0 0 0 -1840.2765877632482 -105.66997195447189 0 -105.66997195447189 0.48983352494578936 0 0 0 0 -1427.0468797478079 -247.14831766494692 0 -247.14831766494692 104.87618422778402 0 0 0 0 -1426.975725179851 -285.38699687732952 0 -285.38699687732952 -78.79652700531733 0 0 0 0 -886.4189094926478 -240.1923612640484 0 -240.1923612640484 -66.29728548872535 0 0 0 0 -1428.217968691255 -206.11220919491095 0 -206.11220919491095 2.7578862666578203 0 0 0 0 -1668.2530845682659 -154.63412028209163 0 -154.63412028209163 10.00595186038916 0 0 0 0 -1419.8492331198067 -183.4812200656653 0 -183.4812200656653 -182.5392806067843 0 0 0 0 -872.68876671804173 -217.7425054529082 0 -217.7425054529082 -250.17658242947468 0 0 0 0 -1180.6115607200773 233.21683844314975 0 233.21683844314975 -291.01550252450608 0 0 0 0 -699.83388093291433 -374.88556218764018 0 -374.88556218764018 -328.05919026845777 0 0 0 0 8.6190712388779502 -55.574711796072052 0 -55.574711796072052 -147.46104509618112 0 0 0 0 -251.30387377613806 -101.05531468476816 0 -101.05531468476816 -58.050157087517547 0 0 0 0 -510.35939823594526 -199.05090058325155 0 -199.05090058325155 -122.47084368823943 0 0 0 0 -97.71833412261185 79.260365509418151 0 79.260365509418151 -109.5708433322219 0 0 0 0 -376.99360755437374 39.000994627386035 0 39.000994627386035 -136.33054657795145 0 0 0 0 -538.67061851997278 -80.94670188994229 0 -80.94670188994229 -29.832900613047798 0 0 0 0 -965.47673402694636 -136.68579402519742 0 -136.68579402519742 -0.49544070976969473 0 0 0 0 -880.87826306539046 -107.84473583725449 0 -107.84473583725449 55.625857891421049 0 0 0 0 0.46588048500291279 -0.61382848024054226 0 -0.61382848024054226 -1.1467171442308963 0 0 0 0 -93.242691379680764 -42.093369516939504 0 -42.093369516939504 -25.022913407193982 0 0 0 0 -201.03925005514611 78.748085207921449 0 78.748085207921449 -47.672607469405818 0 0 0 0 -553.70700553079587 -72.16310835549919 0 -72.16310835549919 68.925304110040372 0 0 0 0 -3.3728509111970197 0.97996389496492231 0 0.97996389496492231 -0.003700727671581226 0 0 0 0 9.4465269403735874 15.74528232030525 0 15.74528232030525 -117.16541588920978 0 0 0 0 -592.56491470951005 193.30703395655127 0 193.30703395655127 -33.556335701106732 0 0 0 0 -1.5513452988105314 0.086561632621311446 0 0.086561632621311446 -0.093114311358916291 0 0 0 0 -907.19413771893596 -203.56753802911373 0 -203.56753802911373 67.81687989235931 0 0 0 0 -5.7924630975612672 11.597900177366228 0 11.597900177366228 -15.600662942512827 0 0 0 0 -8.4027660770801731 4.9750264257640353 0 4.9750264257640353 -0.025067306929988042 0 0 0 0 -8.9734044673969038 3.7462545302716799 0 3.7462545302716799 0.00011832463320969122 0 0 0 0 -7.700026521772088 5.8357675924990531 0 5.8357675924990531 -10.248660406008867 0 0 0 0 -0.14179812866495922 1.9607612473619156 0 1.9607612473619156 -15.841405301956001 0 0 0 0 -15.918596293857263 3.6231557161172381 0 3.6231557161172381 4.5203540972967815 0 0 0 0 -8.2572639725855765 3.1725517154765868 0 3.1725517154765868 1.4049232442521256 0 0 0 0 -8.2994708257876937 4.7597766835521611 0 4.7597766835521611 -0.98795822318036963 0 0 0 0 -2.7935178436502497 -0.0900054300864781 0 -0.0900054300864781 1.9230150249992797 0 0 0 0 9.8379243935924023 4.2502815672196732 0 4.2502815672196732 -13.009771635880355 0 0 0 0 -10.282751083628682 3.4371231877203972 0 3.4371231877203972 0.017392791003670662 0 0 0 0 -3.8592536523558749 1.1599377156826876 0 1.1599377156826876 -3.0490983683536257 0 0 0 0 -5.8370919282606337 3.5423665610479045 0 3.5423665610479045 -2.6289403801958766 0 0 0 0 -8.1064425039585331 9.8993621473932762 0 9.8993621473932762 -13.73550408513529 0 0 0 0 -0.36515339178731665 4.3914827270908177 0 4.3914827270908177 -7.9002595860404199 0 0 0 0 -2.2329752105615057 5.4828062447876817 0 5.4828062447876817 -10.151705182574043 0 0 0 0 0.39156022854800199 0.54730239904890254 0 0.54730239904890254 -1.4580508047846479 0 0 0 0 -1.0327452225319576 -13.166029124266402 0 -13.166029124266402 -55.226164982974097 0 0 0 0 5.8352971158736864 -0.3055537894881013 0 -0.3055537894881013 -3.6691731487930621 0 0 0 0 -3.4339464329968905 9.422023999876842 0 9.422023999876842 -13.689391939880124 0 0 0 0 -11.191775896484614 10.712491165827942 0 10.712491165827942 -12.93837604516375 0 0 0 0 -5.7321410503172956 14.608129060302076 0 14.608129060302076 -10.274091585282804 0 0 0 0 6.1379178151359781 10.432830921140138 0 10.432830921140138 -0.84744742957228802 0 0 0 0 -11.553784554431331 16.495223621680452 0 16.495223621680452 -10.572453111098866 0 0 0 0 -0.080254003471054602 64.063796753041885 0 64.063796753041885 -13.418250184113617 0 0 0 0 2.7813042328198208 66.155470833594848 0 66.155470833594848 -27.419607701205337 0 0 0 0 4.0883286527532618 1.9891340497203913 0 1.9891340497203913 -123.35310235753354 0 0 0 0 34.367528777147527 53.353882809520144 0 53.353882809520144 -88.070339246050651 0 0 0 0 -10.836809106680448 2.9795130265056287 0 2.9795130265056287 -88.466173822811925 0 0 0 0 23.216281750414055 173.99674979767883 0 173.99674979767883 91.36855396855259 0 0 0 0 104.64105626549281 129.56654781589111 0 129.56654781589111 -90.203577093899185 0 0 0 0 -0.5285415359394392 51.50451047760248 0 51.50451047760248 -6.2392434926351825 0 0 0 0 -63.519247177820233 24.679425045623564 0 24.679425045623564 -6.1688448067124497 0 0 0 0 3.0177099058928434 51.944674762576938 0 51.944674762576938 -25.008647591553768 0 0 0 0 -15.177701105087721 -2.0291669951963769 0 -2.0291669951963769 5.0515037079325147 0 0 0 0 -51.994927144391113 108.98981775293964 0 108.98981775293964 446.34274161977646 0 0 0 0 -130.94115944290388 -145.12838884226653 0 -145.12838884226653 361.06008582850609 0 0 0 0 -115.93231124512386 -16.717848748778124 0 -16.717848748778124 492.66222973593722 0 0 0 0 -64.987262169142923 -62.146181669610087 0 -62.146181669610087 289.85102471607934 0 0 0 0 -234.74671628966462 -152.13462442665718 0 -152.13462442665718 266.49559593721784 0 0 0 0 -421.7121816270519 10.318934654779923 0 10.318934654779923 445.02455695125309 0 0 0 0 -14.582374801146216 118.18552165499852 0 118.18552165499852 377.55885750639072 0 0 0 0 -180.69071695350431 -166.20606991953986 0 -166.20606991953986 47.58577759239688 0 0 0 0 -151.87548788318236 -40.584363261557428 0 -40.584363261557428 485.96951273455943 0 0 0 0 -225.53911017029168 275.05307465141925 0 275.05307465141925 250.04741973205569 0 0 0 0 -50.487325708414858 16.597468962372005 0 16.597468962372005 -3.8414895525951955 0 0 0 0 -295.00143155414116 284.59516154442053 0 284.59516154442053 978.24742776378707 0 0 0 0 33.061002574308077 -360.59596224580037 0 -360.59596224580037 -184.99690169958376 0 0 0 0 219.83728330705344 50.692575977478214 0 50.692575977478214 299.60937721943094 0 0 0 0 -13.443914912830223 840.12173049898172 0 840.12173049898172 50.431240569870624 0 0 0 0 -343.68621736200839 -131.05894881841795 0 -131.05894881841795 77.526670700586465 0 0 0 0 -476.40249727635091 127.42072808178648 0 127.42072808178648 -225.24264201586288 0 0 0 0 -614.95990492320743 524.97612809759494 0 524.97612809759494 30.383923521473207 0 0 0 0 -342.17070506992604 415.77524745432413 0 415.77524745432413 -379.35874441786245 0 0 0 0 -471.89156092525081 613.37012241640628 0 613.37012241640628 -91.550443997465891 0 0 0 0 -450.60526039643446 581.26699978790987 0 581.26699978790987 -74.181003766674621 0 0 0 0 -1209.5964959872072 1031.6650452336435 0 1031.6650452336435 -803.07188873478822 0 0 0 0 -11.442644887206654 -0.89589331985658305 0 -0.89589331985658305 0.12077462226195967 0 0 0 0 -1192.9593410199668 -136.54135417328212 0 -136.54135417328212 -304.94734913369643 0 0 0 0 -541.4919683953085 -135.79605828884849 0 -135.79605828884849 -851.70409248735041 0 0 0 0 -483.53447133555892 32.941303844878121 0 32.941303844878121 -372.68027688940703 0 0 0 0 -32.473815575664048 -112.68983724911232 0 -112.68983724911232 -300.35007378030798 0 0 0 0 -182.68529739418955 -180.51125272849953 0 -180.51125272849953 -590.27372747204004 0 0 0 0 -105.3614129631751 -18.947272072693295 0 -18.947272072693295 -252.75339131566432 0 0 0 0 -104.40901069831307 -173.82375269640499 0 -173.82375269640499 19.207584114672841 0 0 0 0 -255.30249611007321 -255.01610946267132 0 -255.01610946267132 -14.958461706460639 0 0 0 0 -394.73909031965741 -292.22806020456085 0 -292.22806020456085 -273.02367428514958 0 0 0 0 -269.04169255469424 -82.954396789344145 0 -82.954396789344145 38.753715810995118 0 0 0 0 14.032753451043391 -139.09227330124429 0 -139.09227330124429 224.49331216580651 0 0 0 0 17.808774847777386 -91.952563668585299 0 -91.952563668585299 -20.647695647209616 0 0 0 0 -104.03576084284578 -198.3161895366834 0 -198.3161895366834 161.12909840307566 0 0 0 0 -33.9956473531347 -70.815316741002334 0 -70.815316741002334 -305.94959142793505 0 0 0 0 -27.528181980562749 -156.14798086077266 0 -156.14798086077266 -85.491965226925117 0 0 0 0 21.189857522869715 27.352094580220523 0 27.352094580220523 -146.47190801010942 0 0 0 0 59.358524561866943 -23.157311938788439 0 -23.157311938788439 -65.070689117323127 0 0 0 0 161.21928067990666 27.484552753314006 0 27.484552753314006 -41.739432511455988 0 0 0 0 164.46938054663769 -127.00422425648844 0 -127.00422425648844 28.269500648099438 0 0 0 0 45.795017534277576 -10.323625060720587 0 -10.323625060720587 -78.829256028808004 0 0 0 0 -95.800449050097086 85.461327265896415 0 85.461327265896415 169.32716753052773 0 0 0 0 -27.385573044652119 -63.440754645076709 0 -63.440754645076709 221.35869909022574 0 0 0 0 264.86356774562591 -228.58747130460972 0 -228.58747130460972 121.59085341487935 0 0 0 0 -74.441177144501125 74.904522853590208 0 74.904522853590208 43.018154564405904 0 0 0 0 -0.61176499196480449 -0.60028550994204011 0 -0.60028550994204011 3.3115034805219761 0 0 0 0 -54.411099202829064 17.538912205248153 0 17.538912205248153 -24.06867377730714 0 0 0 0 -82.104575351258973 17.900806195700369 0 17.900806195700369 91.233866805333832 0 0 0 0 -50.154883833245549 31.248529537779859 0 31.248529537779859 8.7581062488748103 0 0 0 0 -59.519966947409557 3.2191184620278364 0 3.2191184620278364 8.8446600348929678 0 0 0 0 -54.251151636126451 3.3038241520612246 0 3.3038241520612246 -7.095677501114551 0 0 0 0 -51.83466895337915 -0.0059090241272770072 0 -0.0059090241272770072 -4.1313961143559936 0 0 0 0 -50.845343670831426 3.3024871497000277 0 3.3024871497000277 -9.9690529090839846 0 0 0 0 -86.724174899238278 22.278623814379102 0 22.278623814379102 2.3122490735077008 0 0 0 0 -89.812426991215034 13.795682018854563 0 13.795682018854563 1.0205689747244833 0 0 0 0 -2.4773389150505594 1.6012802264602897 0 1.6012802264602897 7.1856021951388298 0 0 0 0 -61.019371506721654 8.4040797136591436 0 8.4040797136591436 -7.2796238260871178 0 0 0 0 -75.456903779428103 -0.11081683135671483 0 -0.11081683135671483 -5.3000512068510943 0 0 0 0 -64.209402801352553 3.1629645587163395 0 3.1629645587163395 -3.7635669371088625 0 0 0 0 -64.087690068481606 17.901134376239497 0 17.901134376239497 -6.1247553369621528 0 0 0 0 55.839555862687121 -118.11819256885747 0 -118.11819256885747 116.35714625365608 0 0 0 0 17.700277462157828 -68.658794744197166 0 -68.658794744197166 99.414643367666031 0 0 0 0 7.729211976609804 -142.36890991617048 0 -142.36890991617048 176.5323654349977 0 0 0 0 6.0157568089489359 -131.23867583460174 0 -131.23867583460174 114.78610410646547 0 0 0 0 -89.281260012925486 -138.09151615315068 0 -138.09151615315068 195.08078109852454 0 0 0 0 -135.68300084734074 -152.14868208315045 0 -152.14868208315045 190.88423613124405 0 0 0 0 -99.877009923744481 -151.42278316317788 0 -151.42278316317788 208.74385433839552 0 0 0 0 -53.160230056353612 -186.50008026253499 0 -186.50008026253499 163.31201792458319 0 0 0 0 -70.002235244610347 35.811434656927645 0 35.811434656927645 149.42975611578458 0 0 0 0 -74.284536964769359 -94.412263655272454 0 -94.412263655272454 284.84780249397591 0 0 0 0 -70.316667530234554 -94.920767572355544 0 -94.920767572355544 150.92850144934891 0 0 0 0 -34.533081651192333 -13.607505756055161 0 -13.607505756055161 88.194408647066666 0 0 0 0 -38.817765790556606 19.194324343215811 0 19.194324343215811 -3.0653076437783389 0 0 0 0 -27.486952289803952 16.328205071601111 0 16.328205071601111 -4.1449185671454751 0 0 0 0 -21.999726086985902 16.427162306552418 0 16.427162306552418 9.0362802913427913 0 0 0 0 -5.9120487762006277 9.030828694116579 0 9.030828694116579 0.18881138112230289 0 0 0 0 -18.845099908678094 8.90504457669158 0 8.90504457669158 -1.6023617705122888 0 0 0 0 -18.0563167307848 4.9097833164190376 0 4.9097833164190376 6.9090529873382049 0 0 0 0 -24.783263087429987 18.674731225578057 0 18.674731225578057 61.9905930594241 0 0 0 0 -38.292398784971738 20.897058623394742 0 20.897058623394742 0.051966188075311948 0 0 0 0 -2.8412500897279926 1.252114640341695 0 1.252114640341695 2.3161778357804614 0 0 0 0 -35.310840576381452 11.192250295532972 0 11.192250295532972 -0.28721431768644834 0 0 0 0 -40.461337075292249 25.771893267739188 0 25.771893267739188 7.8804828309105233 0 0 0 0 -35.744843155920535 10.854106876956735 0 10.854106876956735 3.849560967902562 0 0 0 0 -30.959189077080964 12.188984106981529 0 12.188984106981529 -2.7102566860348212 0 0 0 0 -13.62077965304772 1.5682463752785907 0 1.5682463752785907 0.8235123205384145 0 0 0 0 -16.937182405269084 7.4547614208164283 0 7.4547614208164283 -1.9083282653288847 0 0 0 0 -21.512518613140855 13.2589110414267 0 13.2589110414267 -2.0329412136831451 0 0 0 0 -12.022953589048484 15.143215198625541 0 15.143215198625541 -7.1364587752755142 0 0 0 0 -9.2431031830541457 13.431937466522626 0 13.431937466522626 -7.7013569604373746 0 0 0 0 -24.232692268589744 13.577257398241727 0 13.577257398241727 -2.0201410849658714 0 0 0 0 -21.960971914845828 20.189108384619445 0 20.189108384619445 -3.5643868630727651 0 0 0 0 -10.187551232879258 5.7267988036874016 0 5.7267988036874016 1.5983869776138728 0 0 0 0 -11.648419302917318 12.441221498098002 0 12.441221498098002 -7.2444792493627119 0 0 0 0 -9.8394654402218293 12.873432942853015 0 12.873432942853015 -7.8007824571041056 0 0 0 0 -21.585922948943335 3.3363359715451679 0 3.3363359715451679 7.0047026225984155 0 0 0 0 -38.996499506771215 5.666194633275154 0 5.666194633275154 -3.4183659002724198 0 0 0 0 -21.453594522255599 7.5071667665560256 0 7.5071667665560256 -4.4450705711876397 0 0 0 0 -34.289245772095455 10.561142833777922 0 10.561142833777922 -2.6292271343418179 0 0 0 0 -28.869178198185296 3.1187825304638217 0 3.1187825304638217 2.5378720438117686 0 0 0 0 -31.392297703989058 -1.2055542992802799 0 -1.2055542992802799 6.0418614209582095 0 0 0 0 -5.0628129846896286 -1.2120027103992896 0 -1.2120027103992896 0.53311384849382426 0 0 0 0 -18.486501475119439 3.3850510261211899 0 3.3850510261211899 0.00057337313599270783 0 0 0 0 -16.856125429774693 6.7714858305438383 0 6.7714858305438383 -0.75222805496105138 0 0 0 0 -15.456088616076158 5.7524796905896061 0 5.7524796905896061 -0.3820435502999544 0 0 0 0 -22.258394171192776 9.7870647859376732 0 9.7870647859376732 4.066500555469247 0 0 0 0 -11.849456960524549 3.1240394071095539 0 3.1240394071095539 0.0051489389838184655 0 0 0 0 -15.831488760821316 2.2431451925585044 0 2.2431451925585044 2.1729851258258632 0 0 0 0 -48.875474433370982 -7.8633582366020471 0 -7.8633582366020471 9.8255794096216196 0 0 0 0 -34.318301985753351 5.4565209325765647 0 5.4565209325765647 -0.0085423732479826785 0 0 0 0 -28.194559210726908 6.1625508099851771 0 6.1625508099851771 2.5071061496524805 0 0 0 0 -24.9333415388503 1.3083936009877384 0 1.3083936009877384 1.0820827300337099 0 0 0 0 -22.534769015430356 -1.6373837326236185 0 -1.6373837326236185 12.909631729972602 0 0 0 0 -28.193380153563339 8.9613243108024108 0 8.9613243108024108 11.709382373021072 0 0 0 0 -31.402992569521302 3.2453074631848722 0 3.2453074631848722 10.365571010614985 0 0 0 0 -44.074693119080621 -1.7220300495582705 0 -1.7220300495582705 24.471821803230796 0 0 0 0 -35.932037385522818 0.99874671581719809 0 0.99874671581719809 2.188905211429899 0 0 0 0 -40.288443284996902 7.5075777064669182 0 7.5075777064669182 4.5101576074900906 0 0 0 0 -27.59322355502016 -13.858437250171523 0 -13.858437250171523 7.7660860388660371 0 0 0 0 -53.673791112207255 5.844719639945879 0 5.844719639945879 14.950719704743278 0 0 0 0 -53.656193166942103 7.084462111111975 0 7.084462111111975 6.9778899207940412 0 0 0 0 -33.392182883076288 4.8150432564387771 0 4.8150432564387771 0.053873757652928234 0 0 0 0 -28.331290608926793 7.1691034467180543 0 7.1691034467180543 -0.75254207454190691 0 0 0 0 -40.952931250110851 2.3221237041734639 0 2.3221237041734639 4.8126100013123505 0 0 0 0 -33.782445423730678 15.098786523404897 0 15.098786523404897 -0.55169783010569518 0 0 0 0 -51.45914553179864 5.0582587032113793 0 5.0582587032113793 -3.6805801037744459 0 0 0 0 -55.221549384994432 6.8845617288127414 0 6.8845617288127414 -4.5669381805801095 0 0 0 0 -54.465087323900661 15.507402062627534 0 15.507402062627534 0.37460955852293409 0 0 0 0 -61.204864521903801 38.749903347330019 0 38.749903347330019 -8.3933235121430698 0 0 0 0 -55.706404723110609 13.03415317397986 0 13.03415317397986 -3.7271376143107773 0 0 0 0 -60.28627052421507 4.1507933136570045 0 4.1507933136570045 7.4944293352928071 0 0 0 0 -53.068934251030441 8.1283211713921446 0 8.1283211713921446 2.8332370912999068 0 0 0 0 -52.264389471216418 4.9820555754245106 0 4.9820555754245106 -2.6386698896621965 0 0 0 0 -55.822162980577559 4.8119548629969131 0 4.8119548629969131 -2.2615937818673046 0 0 0 0 -58.092165204037883 8.9992776450241081 0 8.9992776450241081 -7.7906579223381414 0 0 0 0 -79.47298457112629 20.233341366360492 0 20.233341366360492 -24.126517328963928 0 0 0 0 -66.661192120169289 3.0914309343704645 0 3.0914309343704645 -1.8647411879700826 0 0 0 0 -113.10890756748995 -4.7945093798221023 0 -4.7945093798221023 12.857771811835718 0 0 0 0 -71.995140311701107 -14.334862499057635 0 -14.334862499057635 12.310210319577209 0 0 0 0 -80.875712597859092 -4.166834267412014 0 -4.166834267412014 7.7988822135785085 0 0 0 0 -61.351609652949264 7.3413201955977456 0 7.3413201955977456 -1.468607474529307 0 0 0 0 3.776154728140682 34.984480283294943 0 34.984480283294943 -28.070782860427983 0 0 0 0 -89.604075316498893 -3.0135020899840654 0 -3.0135020899840654 113.39334619497913 0 0 0 0 4.0572537098196335 70.813029149670911 0 70.813029149670911 -39.753505376190333 0 0 0 0 -22.27005893966723 -5.1020112587097231 0 -5.1020112587097231 3.9531611162990128 0 0 0 0 -79.793406208966985 -18.435802530802292 0 -18.435802530802292 12.064911299886262 0 0 0 0 -49.82813360770524 -2.3077416681344403 0 -2.3077416681344403 7.8878799015056984 0 0 0 0 -66.039633721855353 -20.499810067861745 0 -20.499810067861745 9.5275804946736571 0 0 0 0 -50.858776549456536 -11.223602105527274 0 -11.223602105527274 1.3829110617559461 0 0 0 0 -59.558594398702553 2.6363408569120566 0 2.6363408569120566 11.182724492307898 0 0 0 0 -44.344010943981175 1.0218591143485227 0 1.0218591143485227 2.8896099432050821 0 0 0 0 -41.087449014961351 4.3595635949873497 0 4.3595635949873497 2.7161482950608122 0 0 0 0 -45.884479535710852 -7.3361644177068115 0 -7.3361644177068115 6.3627763230855408 0 0 0 0 -49.421822436823277 1.1522609641213535 0 1.1522609641213535 31.795473241634369 0 0 0 0 -20.008480592463521 -13.175210689603318 0 -13.175210689603318 1.0141968714412686 0 0 0 0 -46.535236074518139 -33.076230939944551 0 -33.076230939944551 -3.7525917829171078 0 0 0 0 -56.67190466941247 -1.7543231354787849 0 -1.7543231354787849 7.8089705100958327 0 0 0 0 -5.9669259097527849 -0.9220459788830766 0 -0.9220459788830766 -0.010266330966073642 0 0 0 0 -17.637776690127794 -4.8496764188369097 0 -4.8496764188369097 -0.69598733385625167 0 0 0 0 -42.038441826207418 1.4799558162037774 0 1.4799558162037774 2.8585024074497127 0 0 0 0 -35.36431265209103 1.3793686278439974 0 1.3793686278439974 0.011416665848540853 0 0 0 0 -239.74573004830017 -146.01134082368452 0 -146.01134082368452 -99.573179281592218 0 0 0 0 -0.94968578235807399 0.19950083291779208 0 0.19950083291779208 -0.050945282932389084 0 0 0 0 -5.3227447255339939 -1.3533543755878015 0 -1.3533543755878015 0.00065135176818794543 0 0 0 0 -4.504601911894099 -1.8898459787772168 0 -1.8898459787772168 -1.2115618419768097 0 0 0 0 -5.3224265869066585 -1.3659019702462252 0 -1.3659019702462252 -0.009926940408893279 0 0 0 0 -56.112994448376412 -27.831624654457382 0 -27.831624654457382 -28.65829683981633 0 0 0 0 -49.151962467440171 -54.276768027567215 0 -54.276768027567215 -31.771695230734807 0 0 0 0 -109.57017546487623 -36.617133588278932 0 -36.617133588278932 -13.494983771458834 0 0 0 0 -219.17387412847893 65.079007581575766 0 65.079007581575766 1.3441911404397047 0 0 0 0 -57.165096919226926 46.979569519415037 0 46.979569519415037 -16.659785046867825 0 0 0 0 -295.9143856569026 -34.565442212404889 0 -34.565442212404889 159.64784145382251 0 0 0 0 -35.701940042883507 -91.54230607610441 0 -91.54230607610441 66.547084290048247 0 0 0 0 15.447814404338715 -50.890656534002318 0 -50.890656534002318 -40.631073116535561 0 0 0 0 -82.526697552594413 -11.89713925415677 0 -11.89713925415677 3.3740836180909906 0 0 0 0 -75.228139065176947 80.93560402604362 0 80.93560402604362 261.7057067910996 0 0 0 0 450.07124940803624 356.94037118953474 0 356.94037118953474 -216.08894037577511 0 0 0 0 72.911340626335004 247.18810781968705 0 247.18810781968705 203.64217645967904 0 0 0 0 -53.213445804271032 -127.50178405530846 0 -127.50178405530846 -208.1185496607645 0 0 0 0 20.512682014021266 -51.738550140113603 0 -51.738550140113603 -135.74823558324533 0 0 0 0 11.257409075510623 34.874286590196249 0 34.874286590196249 -37.087096800456493 0 0 0 0 -548.35449150868226 -547.68842009501532 0 -547.68842009501532 256.10951105927506 0 0 0 0 -384.54344932829554 145.3097935783353 0 145.3097935783353 -14.286017066958493 0 0 0 0 -80.489169499882621 -9.6903756430104195 0 -9.6903756430104195 1.7311486317086044 0 0 0 0 -263.14370101739041 -257.44427294327693 0 -257.44427294327693 152.58621428639438 0 0 0 0 -6.8142009421484317 -2.9939454576178051 0 -2.9939454576178051 -1.1024974015054712 0 0 0 0 -751.85785251208472 -126.8922715205631 0 -126.8922715205631 17.553612896929735 0 0 0 0 689.2260090645359 -370.4542678167154 0 -370.4542678167154 -1145.1946089811954 0 0 0 0 -626.53447136608884 -551.1705192012264 0 -551.1705192012264 -298.80821619670678 0 0 0 0 -306.98959196032956 -12.802171020887727 0 -12.802171020887727 35.999871614414303 0 0 0 0 -488.7516129059004 -34.329045364861486 0 -34.329045364861486 43.111375853827667 0 0 0 0 -116.72811398372869 -304.59048534085196 0 -304.59048534085196 -201.7778192856922 0 0 0 0 -349.75510187893815 124.39406085883752 0 124.39406085883752 74.299802232707407 0 0 0 0 -193.04367533347977 127.319041950974 0 127.319041950974 65.770698780612122 0 0 0 0 -197.20846648528823 35.717318620957258 0 35.717318620957258 43.085983871983672 0 0 0 0 -229.893741081396 57.747929269840142 0 57.747929269840142 28.252150298112895 0 0 0 0 -116.24519310058531 77.358867246676368 0 77.358867246676368 -0.55505204381478279 0 0 0 0 -214.99229504328287 120.29779954542349 0 120.29779954542349 66.549051264219997 0 0 0 0 -167.81919324310729 121.85825978748892 0 121.85825978748892 8.2394510430337391 0 0 0 0 -165.83793759521723 121.44526508167252 0 121.44526508167252 8.0744567545832524 0 0 0 0 -7.7124409134305267 -0.38355999084008374 0 -0.38355999084008374 1.7740834083674242 0 0 0 0 -155.06629828938821 126.70897597140225 0 126.70897597140225 -37.42888611948419 0 0 0 0 -36.275577771644748 -18.520892252962199 0 -18.520892252962199 -22.367836456875011 0 0 0 0 -47.829054506608372 -32.373827813423887 0 -32.373827813423887 12.825434413650441 0 0 0 0 -8.8841104053690003 -1.6305268637203412 0 -1.6305268637203412 2.645691707984918 0 0 0 0 -202.43559703779647 -49.383870035322573 0 -49.383870035322573 -18.568572123190961 0 0 0 0 -1.9482252955670663 -5.3981599844939723 0 -5.3981599844939723 4.18853110788395 0 0 0 0 5.8196648073062534 29.663271530242355 0 29.663271530242355 -39.694445008172124 0 0 0 0 1.2316950297608855 30.908060077189077 0 30.908060077189077 -34.535306829394131 0 0 0 0 -41.865164140584966 -38.079880396210932 0 -38.079880396210932 -23.686487762932302 0 0 0 0 0.058783149436010262 -0.74424579152842796 0 -0.74424579152842796 0.79337019056752034 0 0 0 0 -115.88048005921883 61.760083401338534 0 61.760083401338534 -31.801167109522339 0 0 0 0 -75.282387328436016 -20.89828919491174 0 -20.89828919491174 -41.597166147442863 0 0 0 0 -138.25418220405845 -38.889328189799159 0 -38.889328189799159 17.662551655730113 0 0 0 0 -80.247319721849635 -2.2150147766610644 0 -2.2150147766610644 38.946037829019815 0 0 0 0 -92.223562852086616 -26.429196592420453 0 -26.429196592420453 35.644249857040109 0 0 0 0 -65.056843207559723 5.2499212639618236 0 5.2499212639618236 17.581395580860317 0 0 0 0 -77.410227815504186 21.637473436049106 0 21.637473436049106 81.469737363159197 0 0 0 0 -110.60525552574836 -31.41736168143143 0 -31.41736168143143 148.93437579472197 0 0 0 0 -109.42358981123834 39.021036963747406 0 39.021036963747406 131.90830538641694 0 0 0 0 -1.0396084909734782 33.667035089719093 0 33.667035089719093 162.69149591858428 0 0 0 0 -68.959299783178722 -6.9125119666680916 0 -6.9125119666680916 183.5441234096252 0 0 0 0 -1.6385019551877547 -0.55054514984652769 0 -0.55054514984652769 0.76048845186124403 0 0 0 0 -40.058738440740854 -19.95752486628362 0 -19.95752486628362 37.651495840373627 0 0 0 0 -98.064243790926412 72.597532849503409 0 72.597532849503409 209.91374465660152 0 0 0 0 -30.633935104189732 -22.096029824054249 0 -22.096029824054249 32.722628217513389 0 0 0 0 15.85974794030335 39.825690188864712 0 39.825690188864712 109.86483008600021 0 0 0 0 -120.05193492974649 -5.1779591241182743 0 -5.1779591241182743 95.303703592026878 0 0 0 0 -75.114958401080003 33.479893039825598 0 33.479893039825598 28.837244144527446 0 0 0 0 -96.634186064817186 79.121873842146485 0 79.121873842146485 127.80723768998618 0 0 0 0 -25.57727816909528 38.516197397642529 0 38.516197397642529 -108.84602689830979 0 0 0 0 4.4156979041945306 -48.549672835636557 0 -48.549672835636557 31.700512249445275 0 0 0 0 -24.380470840958878 26.268319231628823 0 26.268319231628823 -245.75246001906385 0 0 0 0 -254.80665192742163 30.0148779314747 0 30.0148779314747 22.901857346245954 0 0 0 0 -48.957976153182244 -118.73857086126394 0 -118.73857086126394 -246.57464386060144 0 0 0 0 -73.153473209116783 -97.230739281525075 0 -97.230739281525075 -30.585845236002925 0 0 0 0 -56.859065988446673 3.5550226734875032 0 3.5550226734875032 -185.8852888377572 0 0 0 0 -69.774374318974878 -130.69306218703869 0 -130.69306218703869 242.15866865218428 0 0 0 0 56.520454465587136 0.27270139235806568 0 0.27270139235806568 12.699724336404046 0 0 0 0 -60.281769889254065 25.075316269059797 0 25.075316269059797 96.387957640788073 0 0 0 0 -37.257069484541717 -2.374813798481 0 -2.374813798481 -10.957631065952 0 0 0 0 -24.297854323033889 7.3764083248243111 0 7.3764083248243111 -2.2778314447806451 0 0 0 0 -70.814518896615482 72.908810426538821 0 72.908810426538821 -45.851728075729852 0 0 0 0 -21.004223158988566 -10.93650812206976 0 -10.93650812206976 -4.3885544413193056 0 0 0 0 -77.535528160245121 -27.687876917338716 0 -27.687876917338716 -9.4698644223192332 0 0 0 0 -37.480188497509516 -1.5582870850591917 0 -1.5582870850591917 -7.9964856963736111 0 0 0 0 -19.112083744526899 24.790068601476065 0 24.790068601476065 -179.70105684744991 0 0 0 0 -4.119973470369743 -2.6764401854609545 0 -2.6764401854609545 -1.0731702401068579 0 0 0 0 -5.2007042847522769 -0.19269492739650218 0 -0.19269492739650218 -1.061326890359636 0 0 0 0 -209.9758480002929 -55.627241554423222 0 -55.627241554423222 -1.8863233904364733 0 0 0 0 -20.600430677914119 40.908486535647228 0 40.908486535647228 -304.05640912849873 0 0 0 0 -76.344144833856262 -117.09421616811619 0 -117.09421616811619 -251.10290676692637 0 0 0 0 -163.65898751707573 -145.91833193775756 0 -145.91833193775756 -148.8429029211884 0 0 0 0 -22.770032900640217 -47.644910286061645 0 -47.644910286061645 -164.10400532276981 0 0 0 0 44.1713111738718 -65.114917827320028 0 -65.114917827320028 -133.94577435625206 0 0 0 0 -3.2969051327600027 -83.755269810692766 0 -83.755269810692766 -108.90802177786787 0 0 0 0 -40.332060617896786 -50.396760680721627 0 -50.396760680721627 -66.934054103241124 0 0 0 0 -9.852963103869115 -73.646106450464913 0 -73.646106450464913 -125.69500608258534 0 0 0 0 -0.17270243707935151 0.8429143887962951 0 0.8429143887962951 -0.84315076864138394 0 0 0 0 -97.295101586423698 -112.8777551067999 0 -112.8777551067999 -62.713384213117479 0 0 0 0 -134.58195350781898 -102.68577779390102 0 -102.68577779390102 -95.175976104643496 0 0 0 0 -119.38767822640693 -117.35653350846849 0 -117.35653350846849 -25.34012014526661 0 0 0 0 -33.685783035522036 6.833359712102947 0 6.833359712102947 -9.635781057320628 0 0 0 0 -100.8660571622022 -87.746577102739593 0 -87.746577102739593 -36.45873800996219 0 0 0 0 -24.657187404643338 12.329360935239045 0 12.329360935239045 -4.3086979886860242 0 0 0 0 -90.261927867992199 -92.998031893306234 0 -92.998031893306234 -53.056876611952021 0 0 0 0 6.3743028052558657 5.698428941463817 0 5.698428941463817 -107.284846381639 0 0 0 0 -31.357510332600668 8.4644741671142967 0 8.4644741671142967 0.36476323998408589 0 0 0 0 -31.307858758254795 7.3145333208563077 0 7.3145333208563077 -1.8681402569896983 0 0 0 0 -58.103081570006907 -87.163774665963956 0 -87.163774665963956 -126.45168011811029 0 0 0 0 -34.960185575208811 11.196200858488716 0 11.196200858488716 -3.7734835798920248 0 0 0 0 -34.81454929872416 6.6755986554045421 0 6.6755986554045421 -9.5220894856906853 0 0 0 0 -36.734669181618898 0.87851507129919859 0 0.87851507129919859 0.69487626750570419 0 0 0 0 -31.729392205488693 5.7794230087725253 0 5.7794230087725253 -10.240381493042605 0 0 0 0 -38.804051970710489 2.2152114300688108 0 2.2152114300688108 -0.093310185037357454 0 0 0 0 -37.719123850130927 2.5339555826668629 0 2.5339555826668629 -14.801088375907284 0 0 0 0 -39.460043951359694 2.7554265839112304 0 2.7554265839112304 -9.9009030875747612 0 0 0 0 -37.300448356560082 0.45226348835342378 0 0.45226348835342378 -10.399538883707692 0 0 0 0 -32.058258412829673 4.0884665146234624 0 4.0884665146234624 -10.551223676095788 0 0 0 0 -30.604267663526116 -7.0371186502113687 0 -7.0371186502113687 -6.5524001948451769 0 0 0 0 -36.19920864753658 -0.014632550928581622 0 -0.014632550928581622 -9.1083455432245728 0 0 0 0 -37.324669755696959 -0.25597125775766472 0 -0.25597125775766472 -7.7056905082249614 0 0 0 0 -40.434930158753559 -3.2522698298262185 0 -3.2522698298262185 -7.0715850221591268 0 0 0 0 -25.237061141939833 6.5907178346503699 0 6.5907178346503699 -0.49714035589316374 0 0 0 0 -41.22044979650309 2.7124014690223248 0 2.7124014690223248 -9.0940397430095459 0 0 0 0 -24.715204778709449 -22.98372283966205 0 -22.98372283966205 -33.101019820311194 0 0 0 0 -21.61565697158585 2.650204424526919 0 2.650204424526919 -5.8392509559666905 0 0 0 0 -4.9860956221908026 -1.2002821846058858 0 -1.2002821846058858 -0.87933243372658287 0 0 0 0 -0.39301428914011893 1.5570179744521369 0 1.5570179744521369 -0.61220809688367961 0 0 0 0 -4.2324131667992333 -58.084033404679275 0 -58.084033404679275 51.058621988077533 0 0 0 0 -18.320380750010372 15.789297095023365 0 15.789297095023365 4.5268304905855796 0 0 0 0 168.30334337587738 -112.89956128302256 0 -112.89956128302256 -444.59989815400246 0 0 0 0 -47.957299184286967 -1.0681094627179846 0 -1.0681094627179846 -14.995681475880474 0 0 0 0 -6.4167171055778454 -1.8230791613630117 0 -1.8230791613630117 -16.932114929683394 0 0 0 0 -1.3927916627031962 3.8322855700528464 0 3.8322855700528464 -8.6992498080388394 0 0 0 0 -34.292779487822848 13.439822372741297 0 13.439822372741297 0.35695358584729142 0 0 0 0 -40.07660412261248 -22.338186356961614 0 -22.338186356961614 -6.958886180172243 0 0 0 0 -8.561317400453845 3.7977127821800423 0 3.7977127821800423 2.3942916745368166 0 0 0 0 -13.986784967342828 -7.3858088323922857 0 -7.3858088323922857 -30.773810705004962 0 0 0 0 -27.525496708045502 10.090792586615347 0 10.090792586615347 1.4383837783532911 0 0 0 0 -7.6636380681831753 53.819741407676489 0 53.819741407676489 6.4047418132495295 0 0 0 0 -4.0257614335896479 5.9378757983884185 0 5.9378757983884185 -16.116393694168892 0 0 0 0 3.285605885752318 29.940031484670953 0 29.940031484670953 -12.60972264792872 0 0 0 0 -25.138259466715681 28.919032931132278 0 28.919032931132278 7.8149270708726135 0 0 0 0 -65.496703150765825 17.098909443277989 0 17.098909443277989 3.7659637929336895 0 0 0 0 -14.682565152277675 26.054667674590746 0 26.054667674590746 -26.52682497133992 0 0 0 0 -63.796913361276893 32.188336319900145 0 32.188336319900145 -57.805506677339508 0 0 0 0 -30.583376944610791 -14.305574620898369 0 -14.305574620898369 -8.9074291529005336 0 0 0 0 -122.39290922608052 -1.9397583900722566 0 -1.9397583900722566 9.2529663471864296 0 0 0 0 21.536508243032586 21.725435979488793 0 21.725435979488793 -79.86796644126207 0 0 0 0 -5.736992768828463 18.762469128340673 0 18.762469128340673 -10.09156241748682 0 0 0 0 2.5790441681471208 0.98927405028211979 0 0.98927405028211979 -4.1855046613192872 0 0 0 0 -15.709523769711041 27.629701121471559 0 27.629701121471559 -48.233709926232223 0 0 0 0 -79.992814835673926 -1.1597887054359717 0 -1.1597887054359717 8.2929656866837149 0 0 0 0 -105.09624288580108 -29.356993741606459 0 -29.356993741606459 -11.193756722470425 0 0 0 0 -104.78927133816978 -16.299100209899152 0 -16.299100209899152 54.229024447105559 0 0 0 0 -9.757062946472729 2.1782797761708608 0 2.1782797761708608 -0.88805992231867559 0 0 0 0 66.845879665928805 1.7014986538977723 0 1.7014986538977723 -331.87811595955242 0 0 0 0 -51.033418599348806 56.05035200707826 0 56.05035200707826 4.2311422036522117 0 0 0 0 -147.92833794012404 -261.02321340922737 0 -261.02321340922737 -209.7993411667191 0 0 0 0 -463.98007643289748 -9.0451335955557397 0 -9.0451335955557397 1046.6331275786392 0 0 0 0 -0.61239271014372321 -0.77143790744898411 0 -0.77143790744898411 -0.566999484262253 0 0 0 0 -96.361200081199058 -453.0638929339284 0 -453.0638929339284 -2327.7751030764948 0 0 0 0 -147.16002936247969 303.68646771822819 0 303.68646771822819 -81.800418805016307 0 0 0 0 8.224430823372586 -55.31688423077884 0 -55.31688423077884 -880.42120140947054 0 0 0 0 -313.14458334546362 156.95960729854215 0 156.95960729854215 589.81857875076332 0 0 0 0 -343.35512154304161 35.133712568211578 0 35.133712568211578 -88.869326574896832 0 0 0 0 36.341865826127105 200.43472174652089 0 200.43472174652089 294.69648688780444 0 0 0 0 -294.4226900669637 232.75615278190045 0 232.75615278190045 338.56683444590192 0 0 0 0 -43.467694984067748 127.65875849920707 0 127.65875849920707 168.2102103785885 0 0 0 0 86.603063048849435 -49.803198573631391 0 -49.803198573631391 96.860075968570982 0 0 0 0 -16.24257616268369 38.892294258131187 0 38.892294258131187 6.7317505793613961 0 0 0 0 -3.0127102142723743 94.212330666274795 0 94.212330666274795 21.534279072612208 0 0 0 0 -13.719833394128344 -6.4705975002533833 0 -6.4705975002533833 7.7560649696176363 0 0 0 0 -80.680724631663907 53.182534643970257 0 53.182534643970257 0.8918727482508757 0 0 0 0 -47.909285882924451 6.6398026079708643 0 6.6398026079708643 0.7587078507100955 0 0 0 0 -40.347846761113033 19.298883475605521 0 19.298883475605521 -10.52014200323606 0 0 0 0 -65.65534070252761 15.650903212198955 0 15.650903212198955 -3.6507766648628603 0 0 0 0 -51.60277002787916 22.676924792346881 0 22.676924792346881 -14.601618258701592 0 0 0 0 -45.383755225608184 23.647367041843154 0 23.647367041843154 -14.491389954751867 0 0 0 0 -19.155666524809931 13.719411036568715 0 13.719411036568715 -10.792525696976554 0 0 0 0 -31.986441720340736 66.714031611604582 0 66.714031611604582 -20.306432371634855 0 0 0 0 -32.876398882071953 39.714631424371873 0 39.714631424371873 -39.645004512456239 0 0 0 0 -29.05771238738199 8.2629609382632569 0 8.2629609382632569 -2.7804640209535432 0 0 0 0 -91.237351754832162 -51.356818964760521 0 -51.356818964760521 14.456509434088957 0 0 0 0 -84.301639977909872 -65.079124222423388 0 -65.079124222423388 -6.9616937133209831 0 0 0 0 -371.02991525340985 -116.83853718043065 0 -116.83853718043065 18.280926649351841 0 0 0 0 -56.435533304023011 10.65543874996257 0 10.65543874996257 63.902155423328622 0 0 0 0 -54.668054932912128 -51.59742044563518 0 -51.59742044563518 -46.23971112648178 0 0 0 0 -62.997602795406237 16.065939042579657 0 16.065939042579657 5.4798982012280248 0 0 0 0 -72.180751484676875 9.2478110546685457 0 9.2478110546685457 55.233639761872837 0 0 0 0 -10.783479977383966 4.3062070995730011 0 4.3062070995730011 2.8275606419677271 0 0 0 0 168.66920335474788 84.164360610251606 0 84.164360610251606 -19.745866485173792 0 0 0 0 -240.66771720614133 333.48431366580769 0 333.48431366580769 3.4274459189073241 0 0 0 0 -49.290858908705275 13.124236012800667 0 13.124236012800667 -0.77874465206030474 0 0 0 0 -81.267061969665519 25.649079097279355 0 25.649079097279355 27.133933190168477 0 0 0 0 -117.21391488329118 50.746036579906729 0 50.746036579906729 83.856321353564681 0 0 0 0 -37.465747871460394 13.265722023193204 0 13.265722023193204 -0.0065716061086771305 0 0 0 0 -26.393042330268184 -0.56548597944314594 0 -0.56548597944314594 9.3377055899082748 0 0 0 0 -30.890114725678295 14.792811064910207 0 14.792811064910207 2.7837118320195984 0 0 0 0 -64.912850844591958 16.431373388937004 0 16.431373388937004 11.665119624883118 0 0 0 0 -26.650163298389998 12.754807246211527 0 12.754807246211527 5.8699095540371218 0 0 0 0 -38.610119984877201 17.905014117305974 0 17.905014117305974 5.2490402814271135 0 0 0 0 -12.942084944268004 11.069923700667516 0 11.069923700667516 1.3527695592882383 0 0 0 0 -145.95022662066913 7.5595243798070442 0 7.5595243798070442 11.601262934637816 0 0 0 0 -100.92054692425882 8.5038846970199984 0 8.5038846970199984 -4.8382983755150235 0 0 0 0 -81.044737369273207 69.487819775998673 0 69.487819775998673 -20.957179159678162 0 0 0 0 1.195066212753602 0.35904288767782333 0 0.35904288767782333 -0.43878636857531728 0 0 0 0 -51.730170644139434 4.6819417430272097 0 4.6819417430272097 12.402728189932532 0 0 0 0 -72.418258992940537 17.3002754044727 0 17.3002754044727 5.4096418980424232 0 0 0 0 -75.36651287953282 30.990207566320464 0 30.990207566320464 -33.704022503639635 0 0 0 0 -43.518096322266501 15.264423413575059 0 15.264423413575059 -16.714234668818108 0 0 0 0 -49.799123569770018 19.631446010012809 0 19.631446010012809 -10.076076716137266 0 0 0 0 -55.828971566872497 12.471242211595921 0 12.471242211595921 -15.450949802239492 0 0 0 0 -70.063168882785249 22.819816963667435 0 22.819816963667435 -0.21304316462487805 0 0 0 0 -74.868367539853352 17.389680661370733 0 17.389680661370733 -1.8094419871424634 0 0 0 0 -76.920160762529122 19.476570323355077 0 19.476570323355077 0.64902899114194668 0 0 0 0 -61.93901224428555 32.617335940299959 0 32.617335940299959 -13.717759021170309 0 0 0 0 -86.189340642387833 24.347653388314882 0 24.347653388314882 0.39805805332889577 0 0 0 0 -28.856618439236364 20.508166085592215 0 20.508166085592215 -5.1371862851309471 0 0 0 0 -74.301785882555123 22.510244649227729 0 22.510244649227729 -0.48588419562599938 0 0 0 0 -20.565836921175119 17.760577493203556 0 17.760577493203556 0.22776886902972127 0 0 0 0 8.8553808483848115 7.4259515973643033 0 7.4259515973643033 -4.1969559175586255 0 0 0 0 -3.1132279562179974 3.7808567909920185 0 3.7808567909920185 5.8262140647219098 0 0 0 0 -18.978335719199094 12.680754148611641 0 12.680754148611641 3.2180309251225481 0 0 0 0 -45.195915139302087 40.060832889905896 0 40.060832889905896 -62.875263339764388 0 0 0 0 -20.73249017695386 16.470492133916441 0 16.470492133916441 0.26270406233524568 0 0 0 0 -40.381738404757925 3.2055782281195206 0 3.2055782281195206 40.520709185465989 0 0 0 0 -27.420763289394017 41.459488380521918 0 41.459488380521918 -96.76026148737219 0 0 0 0 -44.941159928435809 49.64992455701713 0 49.64992455701713 -49.502137039388799 0 0 0 0 -104.78304288773506 114.79717560487165 0 114.79717560487165 -71.571396206327336 0 0 0 0 -124.32982125667513 86.909450457325988 0 86.909450457325988 -52.240992473401548 0 0 0 0 -78.41193579533865 1.2515628249566362 0 1.2515628249566362 -29.143693291552381 0 0 0 0 -160.13687446794211 115.68516131760089 0 115.68516131760089 -79.754156441922532 0 0 0 0 -105.54891701271663 110.67620618806785 0 110.67620618806785 -93.049194851779703 0 0 0 0 -89.853021091650589 119.45912587306611 0 119.45912587306611 -132.69620050867888 0 0 0 0 -257.45014604017342 110.20323032507235 0 110.20323032507235 29.975610875580514 0 0 0 0 -64.11177509912774 11.829265981789991 0 11.829265981789991 0.48355415513727767 0 0 0 0 -61.891414398414781 27.003187571611363 0 27.003187571611363 3.656667089471739 0 0 0 0 -151.35090926330304 136.75970637370301 0 136.75970637370301 -134.53141750629584 0 0 0 0 -11.982753237333569 -1.1285872732180877 0 -1.1285872732180877 3.6023324805707464 0 0 0 0 -132.15678760154697 12.857840140511485 0 12.857840140511485 42.775722315388123 0 0 0 0 23.608738991097198 21.412774306412302 0 21.412774306412302 -148.25873636752647 0 0 0 0 -65.27177285273406 10.692378947381874 0 10.692378947381874 0.1428816788985966 0 0 0 0 -8.6653801652500988 46.844782984403082 0 46.844782984403082 -135.96844361908256 0 0 0 0 -100.29098327731481 -41.09317010915629 0 -41.09317010915629 -20.735959731481671 0 0 0 0 -0.81156538118528943 1.4917539312884784 0 1.4917539312884784 -1.1827143261545348 0 0 0 0 -67.120713590094965 35.393111126904273 0 35.393111126904273 10.756676493608666 0 0 0 0 -0.071403168519424298 1.2236212945370681 0 1.2236212945370681 -1.0386589745295991 0 0 0 0 5.5559730181194027 13.522760257390701 0 13.522760257390701 -128.35174278826025 0 0 0 0 35.269618489861386 -10.933035504379859 0 -10.933035504379859 -110.86744470079475 0 0 0 0 7.5270026685466291 -42.760356373621619 0 -42.760356373621619 -121.43414622485489 0 0 0 0 40.791309567539429 -23.827573972616392 0 -23.827573972616392 -110.9725016748132 0 0 0 0 41.954231144789674 -29.516445698324617 0 -29.516445698324617 -124.28149656775122 0 0 0 0 73.736507115296263 -57.579240654378168 0 -57.579240654378168 -101.57414903703409 0 0 0 0 105.75083334063493 7.3860038485144912 0 7.3860038485144912 -146.71946525290832 0 0 0 0 84.264744220366993 18.230549924364311 0 18.230549924364311 -221.12085621287838 0 0 0 0 38.756169581822178 100.11341308913302 0 100.11341308913302 -390.6031876678785 0 0 0 0 41.61546455520147 70.500798140981942 0 70.500798140981942 -148.45184449597173 0 0 0 0 -28.727751997063024 159.52748681250716 0 159.52748681250716 -100.81927151638502 0 0 0 0 -202.41447227333992 175.06224766064383 0 175.06224766064383 -83.344685945070978 0 0 0 0 16.764199574681697 67.264318245265031 0 67.264318245265031 -122.63252855881819 0 0 0 0 -47.746789486358466 122.56919444664095 0 122.56919444664095 -163.55189609007789 0 0 0 0 -1.2102014974342694 0.85190640167219556 0 0.85190640167219556 -1.9772860770161316 0 0 0 0 -367.93427647663339 -140.42786495592759 0 -140.42786495592759 -115.62718627742333 0 0 0 0 -956.04699783170508 -25.55498154349425 0 -25.55498154349425 41.251434382905018 0 0 0 0 -187.58352001252933 108.31900152446985 0 108.31900152446985 -381.86002981618549 0 0 0 0 -40.221899365111312 -31.091277654909391 0 -31.091277654909391 -205.41256176561251 0 0 0 0 -229.54094965024706 332.34775323269969 0 332.34775323269969 -24.010329911082295 0 0 0 0 37.564281150960596 227.23291483822766 0 227.23291483822766 -240.46295340412894 0 0 0 0 -394.26384107969352 334.92666167015977 0 334.92666167015977 -535.16495472274073 0 0 0 0 -1380.411739756797 -191.87952928319055 0 -191.87952928319055 196.01252655468079 0 0 0 0 -879.65218831997481 572.67500964867804 0 572.67500964867804 -674.21700644131113 0 0 0 0 -73.66482377138891 35.436423600564694 0 35.436423600564694 -47.13247134116682 0 0 0 0 -512.83517353651405 -518.31869488939105 0 -518.31869488939105 53.774405643266391 0 0 0 0 -507.07393781322753 -140.88622898865037 0 -140.88622898865037 -100.28047148507176 0 0 0 0 -914.5652271946019 -229.08661807863984 0 -229.08661807863984 153.09370242553587 0 0 0 0 -756.63765364727442 29.538677470889411 0 29.538677470889411 16.229159065136628 0 0 0 0 -1207.5100699066679 77.420787506103352 0 77.420787506103352 13.461321313904079 0 0 0 0 -1020.1437356215247 -129.63989582662361 0 -129.63989582662361 63.076442085351573 0 0 0 0 -963.93825232541712 -307.96210277764408 0 -307.96210277764408 397.52672607747445 0 0 0 0 -708.64727894401585 -189.52300563480901 0 -189.52300563480901 -314.86819725057876 0 0 0 0 -2.7261343013129462 3.1035912250829654 0 3.1035912250829654 -2.9415882973692771 0 0 0 0 -586.64854562429537 67.792268439823374 0 67.792268439823374 -178.47178824401067 0 0 0 0 -343.62424715780071 644.39886497952102 0 644.39886497952102 -392.9534051208102 0 0 0 0 -994.44809554411768 -144.85458985912373 0 -144.85458985912373 -17.754093189940249 0 0 0 0 -1791.4405186730437 190.89752850000878 0 190.89752850000878 -35.142669293360967 0 0 0 0 -2059.0154796911902 492.05389537718412 0 492.05389537718412 28.190807840546768 0 0 0 0 -5.8051319012025715 -3.4498520476570036 0 -3.4498520476570036 0.08177738050523331 0 0 0 0 -1481.44173501982 291.75256343500723 0 291.75256343500723 -179.811114621868 0 0 0 0 -2.918660223201698 -1.7876928236759682 0 -1.7876928236759682 2.9208677001561885 0 0 0 0 -1042.2374109791526 -596.13990429389048 0 -596.13990429389048 306.4847023427219 0 0 0 0 81.03774919611169 -403.34347209717862 0 -403.34347209717862 139.0076305872542 0 0 0 0 -1341.2420681008443 -16.781845684210111 0 -16.781845684210111 113.45005118245808 0 0 0 0 -1675.9359914734468 -547.52934663814199 0 -547.52934663814199 -119.48243466036274 0 0 0 0 -292.74839289503143 -122.7766198616838 0 -122.7766198616838 -8.9413961123018453 0 0 0 0 -333.57536935433018 91.746552862967292 0 91.746552862967292 -6.7427886371197019 0 0 0 0 -545.59583621676938 -102.5841350223821 0 -102.5841350223821 98.549179111808826 0 0 0 0 352.49355705336529 12.178972624968196 0 12.178972624968196 -135.91999781883169 0 0 0 0 -124.00699764744786 -18.8197236265421 0 -18.8197236265421 -21.679056236202996 0 0 0 0 0.1341723876310148 0.19344399703216197 0 0.19344399703216197 1.9997322587082724 0 0 0 0 -9.3958203758083982 128.75595140823611 0 128.75595140823611 31.625585260500202 0 0 0 0 -19.859726396585756 98.477181932364601 0 98.477181932364601 29.990865246380508 0 0 0 0 7.9474390502291499 29.960818696092247 0 29.960818696092247 -39.115328617548926 0 0 0 0 -6.3239375335688237 57.644893114901151 0 57.644893114901151 95.521244371980259 0 0 0 0 0.65322271443028512 3.1903393437446761 0 3.1903393437446761 -0.019586259884696866 0 0 0 0 107.24273107243425 56.171740756288784 0 56.171740756288784 8.4207292102992142 0 0 0 0 -12.457587946570129 36.874481170916624 0 36.874481170916624 17.153466178631902 0 0 0 0 -9.4730677345796721 43.597462111450454 0 43.597462111450454 -11.181386173512465 0 0 0 0 63.384094587832806 67.307366141284433 0 67.307366141284433 -14.402671153335518 0 0 0 0 -55.308182010281598 -40.135403146972209 0 -40.135403146972209 -24.646795191086994 0 0 0 0 -203.82386495252285 73.210584734495114 0 73.210584734495114 15.913936587730504 0 0 0 0 72.950739838888694 -9.6559919758023796 0 -9.6559919758023796 -32.743023067166156 0 0 0 0 -259.86032933297247 -145.61546653636873 0 -145.61546653636873 103.66987223816017 0 0 0 0 -26.828252247428225 23.021033872878519 0 23.021033872878519 -0.6560707885053163 0 0 0 0 -36.289955575790373 15.62710763621385 0 15.62710763621385 5.944302381526029 0 0 0 0 -35.386523828761199 20.185934698047902 0 20.185934698047902 2.1754691746374792 0 0 0 0 -63.622215145056543 323.70049169165929 0 323.70049169165929 -178.30186550984467 0 0 0 0 -28.986539109086152 38.937315760206218 0 38.937315760206218 2.5496697230585141 0 0 0 0 -17.406633211550798 34.849963289228526 0 34.849963289228526 1.1735847418385674 0 0 0 0 -21.067941941599429 18.833448785821183 0 18.833448785821183 -3.2619417393925842 0 0 0 0 -64.865008746804961 37.803894371554179 0 37.803894371554179 39.823798515309022 0 0 0 0 -63.978813111589261 30.63770602132945 0 30.63770602132945 50.700314867269185 0 0 0 0 -38.044232703257727 17.571624120653645 0 17.571624120653645 -0.31919572762209469 0 0 0 0 -160.38134671603621 -164.06878539767149 0 -164.06878539767149 -151.81295046026992 0 0 0 0 -209.24404680215957 -87.258837775055113 0 -87.258837775055113 0.1137237852835824 0 0 0 0 -7.1415271212436835 4.5287478976850224 0 4.5287478976850224 -2.2697162810890497 0 0 0 0 -196.47690367071482 47.393203221904741 0 47.393203221904741 95.049484251651165 0 0 0 0 -218.60403491717443 -5.6223323752504601 0 -5.6223323752504601 -72.088794268039436 0 0 0 0 -224.58449692787963 -328.8184241659406 0 -328.8184241659406 -39.274111614181038 0 0 0 0 -3.9308119392603942 1.1966648466294529 0 1.1966648466294529 0.48541529069125211 0 0 0 0 -242.72076232774771 -271.52731384054431 0 -271.52731384054431 -141.77071313082078 0 0 0 0 -272.98829246898094 -274.76957938015528 0 -274.76957938015528 -128.67537230858971 0 0 0 0 -841.69553672526672 -189.61710614019898 0 -189.61710614019898 -54.813354425864844 0 0 0 0 -398.91369237204344 -321.18501891493156 0 -321.18501891493156 -106.15261890663344 0 0 0 0 -462.08573245001753 -303.19713891494837 0 -303.19713891494837 -38.111171287447746 0 0 0 0 -360.49691728519792 97.454783403831811 0 97.454783403831811 12.987637420991746 0 0 0 0 -538.85574987812288 -36.86110397844368 0 -36.86110397844368 -73.883849368301838 0 0 0 0 -2.346161119655477 2.3119208841367822 0 2.3119208841367822 -0.8696055405833496 0 0 0 0 -326.53947195157889 -5.7408907315357283 0 -5.7408907315357283 82.220674945231167 0 0 0 0 -1069.5181336515616 -208.67506561576113 0 -208.67506561576113 248.85197998071726 0 0 0 0 -600.40578961357096 -493.93734628066301 0 -493.93734628066301 150.66832490885031 0 0 0 0 -427.10553734722635 -305.60416783684241 0 -305.60416783684241 477.01183136321833 0 0 0 0 -297.7796197888747 -411.46649935755454 0 -411.46649935755454 96.299640871720726 0 0 0 0 -32.573988095762616 -265.45749206268897 0 -265.45749206268897 158.79172834592248 0 0 0 0 -544.42843287587675 -333.92530626377493 0 -333.92530626377493 182.35804482668118 0 0 0 0 -417.04987036833336 -444.91292740307284 0 -444.91292740307284 -149.28129966193262 0 0 0 0 -323.33686644981572 -515.69892857226478 0 -515.69892857226478 -106.79562475901344 0 0 0 0 -368.54722837780719 -450.76644825086044 0 -450.76644825086044 -159.87183061578952 0 0 0 0 -262.73610197295056 -387.28596728742201 0 -387.28596728742201 -286.87187233883503 0 0 0 0 -448.43615972381485 -453.68158482310542 0 -453.68158482310542 -328.62898324886856 0 0 0 0 -403.19107412858648 -522.79233689547368 0 -522.79233689547368 -302.28366759540717 0 0 0 0 -514.70128995331925 -480.97665646574654 0 -480.97665646574654 -273.57390212470898 0 0 0 0 -257.08304723148467 -453.08793227181172 0 -453.08793227181172 -506.60604936266895 0 0 0 0 -529.31406706330836 -408.22424322758553 0 -408.22424322758553 -308.12585243282501 0 0 0 0 -168.98460091391462 -288.83421572410339 0 -288.83421572410339 -276.80930398988539 0 0 0 0 -210.59574352418713 -290.50316866533154 0 -290.50316866533154 -238.10705239715378 0 0 0 0 -1049.6703099134174 -657.00772984279763 0 -657.00772984279763 -139.77021084195624 0 0 0 0 -1692.9605694372949 -1058.6933660427005 0 -1058.6933660427005 -380.64714835406966 0 0 0 0 -1040.7962797056971 -813.21557987700385 0 -813.21557987700385 -512.32423656406843 0 0 0 0 -1246.8125254538973 -543.02423169281178 0 -543.02423169281178 30.318015470475416 0 0 0 0 -2500.3722912896956 -762.57617832170888 0 -762.57617832170888 218.91301620313439 0 0 0 0 -1080.7235142191639 -43.919398934618926 0 -43.919398934618926 487.01360681503314 0 0 0 0 -1168.495957942825 53.750704073933662 0 53.750704073933662 480.17055220095853 0 0 0 0 -342.1587998604009 -200.20023523233851 0 -200.20023523233851 147.21916109517696 0 0 0 0 -332.13372149911447 -267.2024393385708 0 -267.2024393385708 776.54252028991232 0 0 0 0 63.128251990296121 60.043670315400277 0 60.043670315400277 313.16099442188795 0 0 0 0 -1153.4141738913895 50.055514543216646 0 50.055514543216646 348.11229593955852 0 0 0 0 -2494.9782389053908 465.25590674503871 0 465.25590674503871 1038.6791698213251 0 0 0 0 -866.54291250376264 1186.379471262632 0 1186.379471262632 1058.9293223639149 0 0 0 0 -2494.5905667726001 -1254.0453181355781 0 -1254.0453181355781 -204.62630809822755 0 0 0 0 -11.192386612689774 -0.10881113430289346 0 -0.10881113430289346 1.7952455876562965 0 0 0 0 -837.81533289257277 -146.03235800810845 0 -146.03235800810845 221.24629861803703 0 0 0 0 -804.34575353321998 -223.12405109344849 0 -223.12405109344849 76.720685047424425 0 0 0 0 -22.124146843021038 -1.0558553605412584 0 -1.0558553605412584 4.0862735820547247 0 0 0 0 -129.35253401270893 304.2892682571196 0 304.2892682571196 1242.8586238387825 0 0 0 0 -24.481477702422126 -164.81228381239325 0 -164.81228381239325 366.70231433119898 0 0 0 0 -249.17845964172011 -6.5693294330499157 0 -6.5693294330499157 703.29827903300793 0 0 0 0 -19.024834867454246 -5.3638795802023758 0 -5.3638795802023758 6.1390082468082943 0 0 0 0 -47.640885148583038 5.8753338682512606 0 5.8753338682512606 22.870017382440253 0 0 0 0 -5.0285573239609676 3.5820287754918922 0 3.5820287754918922 10.394349280151387 0 0 0 0 -66.558315661186498 62.351498279315962 0 62.351498279315962 -96.084322806642092 0 0 0 0 -406.57543983403957 -59.225511618834119 0 -59.225511618834119 25.415061209974766 0 0 0 0 -326.83724980161389 73.308011451909977 0 73.308011451909977 -255.21603145855352 0 0 0 0 -257.71589707289968 187.45071802247321 0 187.45071802247321 -199.39712559913085 0 0 0 0 -193.69638082841993 120.21744593598532 0 120.21744593598532 204.34300176865418 0 0 0 0 -191.49917549666861 89.191994516761724 0 89.191994516761724 -57.964300551648194 0 0 0 0 -79.428382484198664 229.96113931757543 0 229.96113931757543 31.243699839560577 0 0 0 0 -41.026189032978436 421.06526862570666 0 421.06526862570666 -129.19845441628877 0 0 0 0 -5.5462344572881079 1.2032086872851835 0 1.2032086872851835 8.1405397255689493 0 0 0 0 -136.33437788104493 -72.371553509602109 0 -72.371553509602109 -127.65227088755182 0 0 0 0 -1322.3450606254664 288.82753473197999 0 288.82753473197999 52.678050817644362 0 0 0 0 -2500.867846340243 212.69578649420569 0 212.69578649420569 468.01768170984133 0 0 0 0 -1355.2020236977423 538.65787374959109 0 538.65787374959109 -8.5403805837758302 0 0 0 0 -1547.3914702470684 -230.55179606794746 0 -230.55179606794746 223.55937296540881 0 0 0 0 -575.92377159363969 306.16548165936024 0 306.16548165936024 -163.66781450231377 0 0 0 0 -1634.9244135843692 945.41582216566849 0 945.41582216566849 -145.40662440148949 0 0 0 0 -1103.8665975973236 706.8457695224198 0 706.8457695224198 -143.84529257166568 0 0 0 0 -1087.6307574303971 577.48283981315672 0 577.48283981315672 -114.75739332592613 0 0 0 0 -811.36203945334637 657.96283897215721 0 657.96283897215721 -298.78927348042492 0 0 0 0 -1633.2649380744115 970.18829055806134 0 970.18829055806134 59.126978768026724 0 0 0 0 -2502.045485308121 779.17351591254612 0 779.17351591254612 291.45078981338554 0 0 0 0 -1443.2523126371016 292.46698139449393 0 292.46698139449393 237.83835243960664 0 0 0 0 -1778.9120659008913 420.7770722635625 0 420.7770722635625 245.14756710153463 0 0 0 0 -1466.2853684094007 768.00503134550399 0 768.00503134550399 -77.569492830565707 0 0 0 0 -1224.5315917252883 525.3940384160253 0 525.3940384160253 -26.818876879629215 0 0 0 0 -1079.7055589551601 646.54331225785313 0 646.54331225785313 -157.84575498350654 0 0 0 0 -1127.2419671113239 456.15225340559346 0 456.15225340559346 -14.53659386905268 0 0 0 0 -950.51880483507557 489.63636801301061 0 489.63636801301061 -262.79003947806666 0 0 0 0 -949.99080229516039 479.73330058199531 0 479.73330058199531 -158.47245362227946 0 0 0 0 -1001.2091426145653 554.1733232008886 0 554.1733232008886 -317.59474231829074 0 0 0 0 -985.44369013849064 498.29959462001602 0 498.29959462001602 -194.22466092212431 0 0 0 0 -915.00450435764651 506.45672237291956 0 506.45672237291956 -196.85726121631183 0 0 0 0 -949.95392676334814 552.37616116713934 0 552.37616116713934 -192.82729916944336 0 0 0 0 -973.65147006687039 527.32392249510838 0 527.32392249510838 -181.91008107605413 0 0 0 0 -1106.1127103302706 523.0553999953072 0 523.0553999953072 -147.02373844326561 0 0 0 0 -0.064956958189103631 0.58953159355419515 0 0.58953159355419515 -4.2980395594301006 0 0 0 0 -301.52515445612971 136.59583338478024 0 136.59583338478024 -78.62158579840343 0 0 0 0 514.24835493779392 -386.65886567222844 0 -386.65886567222844 462.9323426311073 0 0 0 0 0.078283452356036065 -0.43653556165723373 0 -0.43653556165723373 -2.5226558783572006 0 0 0 0 -228.20241917091334 14.613862765619615 0 14.613862765619615 -13.486132152946084 0 0 0 0 -222.28243906511943 57.3740582993006 0 57.3740582993006 -78.779572562573776 0 0 0 0 -233.92806156579172 22.957799712607994 0 22.957799712607994 -18.982951767994109 0 0 0 0 -270.63088312362379 52.894776678926064 0 52.894776678926064 -39.066145642959782 0 0 0 0 -214.91374089681813 96.512135791351739 0 96.512135791351739 -118.94823190092393 0 0 0 0 654.47044860919232 -254.81750388984528 0 -254.81750388984528 129.7266335002405 0 0 0 0 -186.29527872401832 194.7423642041723 0 194.7423642041723 -207.93624346651268 0 0 0 0 -82.601511802645291 38.207803987053239 0 38.207803987053239 -143.15465721031069 0 0 0 0 -94.658355574450979 94.834414596230999 0 94.834414596230999 -217.87470641183427 0 0 0 0 -141.73771836096057 75.212229799129091 0 75.212229799129091 -126.54659898259797 0 0 0 0 -172.43432319348358 98.061371910418075 0 98.061371910418075 -141.47707163160521 0 0 0 0 22.970077561662038 53.400806456490955 0 53.400806456490955 -188.22823195415367 0 0 0 0 -57.287648454087048 40.741693182748463 0 40.741693182748463 -159.22725734100277 0 0 0 0 -50.941592070063052 131.47045140296814 0 131.47045140296814 -262.51594181732708 0 0 0 0 -53.05582647088886 41.725474983266395 0 41.725474983266395 -159.97868760355777 0 0 0 0 333.12830374849182 204.71966760396822 0 204.71966760396822 -361.13851561426918 0 0 0 0 -601.86007900258119 334.98912318968598 0 334.98912318968598 -105.06303793847718 0 0 0 0 -801.18312947718368 507.92549386936821 0 507.92549386936821 -228.47652578159125 0 0 0 0 -1064.5344465315138 419.15134512248892 0 419.15134512248892 -53.783375876069456 0 0 0 0 -887.86841772699063 267.87450322876708 0 267.87450322876708 74.733699611986538 0 0 0 0 -720.26678891130723 143.35089695556195 0 143.35089695556195 81.232555482364333 0 0 0 0 -357.00626616275986 481.23063324496019 0 481.23063324496019 -187.2521370829229 0 0 0 0 1.2647957881640153 2.0799937562245461 0 2.0799937562245461 -9.7865851480884576 0 0 0 0 -120.98087243740156 157.94387255899721 0 157.94387255899721 -277.36117034005383 0 0 0 0 -318.3599264850709 98.114260257878982 0 98.114260257878982 107.33738622752844 0 0 0 0 67.852641934101484 -38.785632792152455 0 -38.785632792152455 -51.146716885065871 0 0 0 0 -35.627293863064551 17.751970981881641 0 17.751970981881641 64.087108116037143 0 0 0 0 -64.060294109465758 18.679829084760968 0 18.679829084760968 -12.634329913611509 0 0 0 0 -12.077777867500117 -18.852095760558996 0 -18.852095760558996 -82.629072456049471 0 0 0 0 -33.927003500682986 25.944456196993542 0 25.944456196993542 -25.093656204116087 0 0 0 0 -3.0626239837838511 75.814176677599335 0 75.814176677599335 15.220449370599454 0 0 0 0 -24.463434457073163 73.50380788063103 0 73.50380788063103 43.607645104333869 0 0 0 0 -34.256418887129257 55.405283308371509 0 55.405283308371509 13.652618256408459 0 0 0 0 -19.963702821918559 56.729540853751587 0 56.729540853751587 13.774854388397216 0 0 0 0 178.76470821804105 -75.739470938374325 0 -75.739470938374325 -149.10713075427157 0 0 0 0 30.397143174521261 23.804544982104062 0 23.804544982104062 -5.255518949144971 0 0 0 0 -0.34741677837513762 3.1126076599440076 0 3.1126076599440076 -7.21008778182469 0 0 0 0 -5.7277964667773631 -208.83123217850061 0 -208.83123217850061 -178.59689593325584 0 0 0 0 -199.9151733783001 54.884531695242231 0 54.884531695242231 -11.953355891533988 0 0 0 0 -407.29619453453051 144.19932573628228 0 144.19932573628228 -10.748571164993336 0 0 0 0 -202.10545353694397 -64.169485214404062 0 -64.169485214404062 -409.03999729979705 0 0 0 0 -236.13832964237008 406.28031384821668 0 406.28031384821668 -724.31768261587695 0 0 0 0 -776.97906604995842 690.83918992354984 0 690.83918992354984 -310.33075609354842 0 0 0 0 -687.39994823163579 802.78478017154305 0 802.78478017154305 -487.86501368366197 0 0 0 0 -459.06729373861162 373.8129949394953 0 373.8129949394953 -255.01209881969135 0 0 0 0 -1431.0337683831785 1725.4108705134465 0 1725.4108705134465 -1111.5193170995233 0 0 0 0 -2494.5790694875504 1346.249071086241 0 1346.249071086241 -96.277387705504736 0 0 0 0 297.47445315713412 372.50653894607649 0 372.50653894607649 -1705.0920522396364 0 0 0 0 -2486.3882127202328 181.79759355047253 0 181.79759355047253 29.015041299317261 0 0 0 0 -2.9312708623918056 3.4344234423399698 0 3.4344234423399698 -8.0482510027494705 0 0 0 0 -2418.1439986800797 -352.93334457391518 0 -352.93334457391518 -70.221728459465126 0 0 0 0 -3.5866757768835384 0.35733444362345779 0 0.35733444362345779 -1.352175362851316 0 0 0 0 -13.004055857752974 -99.858414521680999 0 -99.858414521680999 -143.64949159283583 0 0 0 0 -2496.6846452828936 -137.7236363851741 0 -137.7236363851741 372.78355800778161 0 0 0 0 -14.422295129558705 11.499116995434413 0 11.499116995434413 -14.434529887786132 0 0 0 0 2.1890053748132914 3.1458878573497913 0 3.1458878573497913 -3.65269934035482 0 0 0 0 52.124140487991099 133.86822908675185 0 133.86822908675185 36.869240588477624 0 0 0 0 -71.929071505604952 -25.009666995205407 0 -25.009666995205407 -46.631672145095308 0 0 0 0 -188.95007223702123 7.1671315296343892 0 7.1671315296343892 126.54370285571531 0 0 0 0 -77.08069422202243 203.89192624840325 0 203.89192624840325 -0.31496206440147034 0 0 0 0 -28.626323738881183 35.488292880786048 0 35.488292880786048 118.65636404636825 0 0 0 0 -22.09240322349963 14.491073986402094 0 14.491073986402094 -6.8267790641191075 0 0 0 0 1.2032405227582785 12.483623762707794 0 12.483623762707794 106.20241926295148 0 0 0 0 -15.055862410220918 7.2945745640194168 0 7.2945745640194168 -0.44495043951032898 0 0 0 0 -77.804102253016026 -78.908608713161811 0 -78.908608713161811 173.25252883987378 0 0 0 0 -20.830572859340464 1.9117520063309712 0 1.9117520063309712 -8.0485660901449592 0 0 0 0 -13.560205369146658 3.0763628319829479 0 3.0763628319829479 -8.7365065360830378 0 0 0 0 -18.878421323566727 8.5643293555888249 0 8.5643293555888249 -6.2880254533029074 0 0 0 0 -12.683905663811927 7.4980070809418784 0 7.4980070809418784 -5.1140752248317307 0 0 0 0 -15.886336434054101 6.444922013399264 0 6.444922013399264 -7.2070645720514221 0 0 0 0 -11.475895825860789 8.7077526465291157 0 8.7077526465291157 6.4161216954174733 0 0 0 0 -15.881546937427061 15.995252655256031 0 15.995252655256031 -7.6669628602067723 0 0 0 0 -14.491772766532193 -2.1154112939684495 0 -2.1154112939684495 -7.7752505691316713 0 0 0 0 -10.204909988198963 6.0002442321808402 0 6.0002442321808402 -5.3512000373190425 0 0 0 0 -2494.8859403363422 -140.32658006269438 0 -140.32658006269438 374.27832054679561 0 0 0 0 -6.7405808849725872 5.2791877583957501 0 5.2791877583957501 -16.774879591740337 0 0 0 0 -7.9744225944592557 -0.12505102139670399 0 -0.12505102139670399 -3.2352667496104428 0 0 0 0 -2290.1845072871729 404.87743524280887 0 404.87743524280887 -85.787663728154257 0 0 0 0 -116.63871753075728 -173.56774195348515 0 -173.56774195348515 -264.66659169967966 0 0 0 0 -2485.7232965879921 266.98096081641006 0 266.98096081641006 351.77129603737393 0 0 0 0 -7.7572629508592001 -6.1195530564894121 0 -6.1195530564894121 -5.5385112633954492 0 0 0 0 -22.302375364595022 -9.6717867511992033 0 -9.6717867511992033 -7.8671067349403376 0 0 0 0 -53.163495782318932 4.7458634013834438 0 4.7458634013834438 -20.741772984744912 0 0 0 0 -153.50697220739676 -156.22418641398053 0 -156.22418641398053 -197.20741494248705 0 0 0 0 -321.5018077413115 -143.92139976446424 0 -143.92139976446424 -196.66460952999296 0 0 0 0 23.095398999284953 17.048584011909725 0 17.048584011909725 -790.57700182743883 0 0 0 0 -61.166337381204357 -334.23158082056943 0 -334.23158082056943 -689.92862831833804 0 0 0 0 -93.957176125157275 -23.066429034206067 0 -23.066429034206067 -483.13178890460131 0 0 0 0 -178.38323867027066 -428.3433208936151 0 -428.3433208936151 -700.80022684998835 0 0 0 0 -196.82339176537425 -385.90182245136356 0 -385.90182245136356 -614.82667385669447 0 0 0 0 -370.07695325656823 -956.04385026570469 0 -956.04385026570469 -1573.9671829940251 0 0 0 0 -2495.9273478691794 -1879.3238410770073 0 -1879.3238410770073 -939.18073344771631 0 0 0 0 -394.8214898229653 -1031.9145332259968 0 -1031.9145332259968 -2738.1212487072548 0 0 0 0 -130.33555737183815 -56.76648183667271 0 -56.76648183667271 -180.26730780200614 0 0 0 0 -76.8930434511567 -177.36474112384349 0 -177.36474112384349 -449.01389514951734 0 0 0 0 -66.475247201196908 -25.114687296409102 0 -25.114687296409102 -11.773124488165195 0 0 0 0 -16.203846896729146 4.574800264664276 0 4.574800264664276 -5.2431904934563409 0 0 0 0 -145.64786081884813 -175.16285601708978 0 -175.16285601708978 -393.82856174036237 0 0 0 0 -255.26314684734098 -285.80943038846021 0 -285.80943038846021 -490.64708490358225 0 0 0 0 -116.33292324590002 -286.49333691205243 0 -286.49333691205243 -328.50074432110159 0 0 0 0 -58.375606113419053 -225.06686545548291 0 -225.06686545548291 -515.49135924846325 0 0 0 0 -6.8117913134194055 -0.31279363973798269 0 -0.31279363973798269 1.8350443007227497 0 0 0 0 -34.392032529140124 -21.576054496155621 0 -21.576054496155621 23.351958953329813 0 0 0 0 -23.911866448880829 2.1589020190121602 0 2.1589020190121602 -3.7028609254318727 0 0 0 0 -23.551621672464961 3.7331941174800396 0 3.7331941174800396 -3.119423170297706 0 0 0 0 -24.718508239787752 0.74799988471274759 0 0.74799988471274759 -4.438935819622202 0 0 0 0 -226.03826605521317 -161.67356313554592 0 -161.67356313554592 -90.189961444484652 0 0 0 0 85.637144874628575 144.71589051467504 0 144.71589051467504 -93.706318082377948 0 0 0 0 -26.010958169167637 4.3049548093819396 0 4.3049548093819396 -1.3508378354338699 0 0 0 0 -24.536709295520268 4.2455084964713024 0 4.2455084964713024 -3.5515576651578158 0 0 0 0 -24.134865516879103 9.5435390754879581 0 9.5435390754879581 -8.3163034311528072 0 0 0 0 -25.65345020784298 9.0667355161494925 0 9.0667355161494925 2.9948828616143146 0 0 0 0 -9.8215502714447211 12.818671574888867 0 12.818671574888867 -6.1979260728949157 0 0 0 0 -28.738717831758549 9.2772556592317414 0 9.2772556592317414 2.9925031224708363 0 0 0 0 -29.462742852571438 3.7782145036465096 0 3.7782145036465096 -4.6313566247584816 0 0 0 0 -2.2794642996958245 1.6974791816522554 0 1.6974791816522554 -0.54627656555291892 0 0 0 0 -43.664558632161061 10.900270128239299 0 10.900270128239299 -6.7581584957220002 0 0 0 0 -41.660553763511416 8.6259116373303186 0 8.6259116373303186 -5.994909768164689 0 0 0 0 -46.65429422174202 11.450967933999436 0 11.450967933999436 5.2197749543238388 0 0 0 0 -41.444472534760251 1.32325857762121 0 1.32325857762121 -2.139587253734716 0 0 0 0 -29.034109026382794 10.619938044128503 0 10.619938044128503 -2.3058554913686748 0 0 0 0 -28.040537919715632 3.3138163327154579 0 3.3138163327154579 1.5156651087252291 0 0 0 0 -20.674723532589269 10.446957711014875 0 10.446957711014875 -2.3363912056101981 0 0 0 0 -15.048255455402803 2.6466123173912273 0 2.6466123173912273 -1.2971292537175607 0 0 0 0 -30.678447835158295 9.2509854620657279 0 9.2509854620657279 0.010315577911569562 0 0 0 0 -27.814848468955695 8.8346159302582752 0 8.8346159302582752 -1.1316341896013369 0 0 0 0 -34.41232210414455 6.5830506029878961 0 6.5830506029878961 -3.8112454033844188 0 0 0 0 -31.407933988819423 9.9809440618937515 0 9.9809440618937515 -0.70489314895894495 0 0 0 0 -14.455576837655151 1.747039710980232 0 1.747039710980232 -2.3922537634365657 0 0 0 0 -43.896342230327718 24.429510465406565 0 24.429510465406565 16.294265396697483 0 0 0 0 -10.409007831842771 9.077544796512754 0 9.077544796512754 -7.5726561076154688 0 0 0 0 -13.377094672294334 11.220216278281896 0 11.220216278281896 -10.900989311007649 0 0 0 0 -26.480212621951068 13.292115332347748 0 13.292115332347748 -10.72858061880288 0 0 0 0 -4.590560822969266 3.6488247862077152 0 3.6488247862077152 -0.47968766251610262 0 0 0 0 -39.618102137403184 53.444018480137856 0 53.444018480137856 -26.321331668922539 0 0 0 0 -56.215820487352175 35.943043031307752 0 35.943043031307752 147.82878935109602 0 0 0 0 -35.716278587206034 10.329183864243532 0 10.329183864243532 11.604714025290946 0 0 0 0 -2.6333733856081381 16.466498978172467 0 16.466498978172467 35.078350725430937 0 0 0 0 -22.946271362874541 24.440703323470188 0 24.440703323470188 30.100051039615209 0 0 0 0 3.4923327054093534 45.746886625714524 0 45.746886625714524 42.924567237780138 0 0 0 0 -6.4259940155522628 0.51536487633376638 0 0.51536487633376638 4.0595362153571024 0 0 0 0 -25.681955581909278 34.504655720628762 0 34.504655720628762 1.7715422763803872 0 0 0 0 -18.334633900786685 47.998464349564074 0 47.998464349564074 -21.263622551316075 0 0 0 0 -48.913981603727734 40.791365193572346 0 40.791365193572346 12.144946611782871 0 0 0 0 -17.220066336638411 54.822741987080235 0 54.822741987080235 14.155553569624317 0 0 0 0 -11.524530892154871 36.368532454278466 0 36.368532454278466 1.4876597499169293 0 0 0 0 -19.300092869078071 35.514898737812928 0 35.514898737812928 40.966826892134122 0 0 0 0 -15.46026190345583 36.264277275471613 0 36.264277275471613 27.534470971019118 0 0 0 0 -32.245072321406042 46.022174541374625 0 46.022174541374625 29.928364202670537 0 0 0 0 -26.769215319580326 40.376573836202397 0 40.376573836202397 49.338719838220641 0 0 0 0 -23.090823538481345 27.04362140649755 0 27.04362140649755 72.234808475811406 0 0 0 0 -29.944719312057714 44.466815514328118 0 44.466815514328118 41.05755687601777 0 0 0 0 -19.022673262847093 34.43354888739259 0 34.43354888739259 22.196347097902617 0 0 0 0 -22.504464846402698 24.141334775543328 0 24.141334775543328 57.002423300062219 0 0 0 0 -0.32000059816709836 30.49396331232947 0 30.49396331232947 56.635332443370316 0 0 0 0 -21.299361771751137 16.669298779719611 0 16.669298779719611 63.064362799346782 0 0 0 0 59.000486844377519 -2.5770850436360888 0 -2.5770850436360888 53.746379427496322 0 0 0 0 -40.903874857944174 20.461147861328755 0 20.461147861328755 76.767369198012148 0 0 0 0 -20.751003396697342 45.706068816463812 0 45.706068816463812 -91.89483060483326 0 0 0 0 9.0349108406480809 -10.07100283672662 0 -10.07100283672662 64.555405443710242 0 0 0 0 1.2345944445008357 1.8160661337943242 0 1.8160661337943242 -0.18089303106136878 0 0 0 0 -26.401487688082852 -9.5863528370773565 0 -9.5863528370773565 149.61198177175356 0 0 0 0 -9.1139661377901575 42.15425387667824 0 42.15425387667824 -98.371109282737962 0 0 0 0 -9.0141542034307349 34.447743253187582 0 34.447743253187582 -58.813151515803838 0 0 0 0 -7.5109132610486995 33.94912195597044 0 33.94912195597044 -92.89923701907901 0 0 0 0 -16.712511497298692 57.136207816880869 0 57.136207816880869 -108.56688255400877 0 0 0 0 0.0029863355709665029 0.44163729426113818 0 0.44163729426113818 -0.2421323283372101 0 0 0 0 -14.121627483906195 70.552252700383178 0 70.552252700383178 -29.701660552084832 0 0 0 0 -19.768548972006101 51.354684983102743 0 51.354684983102743 -51.198459273292428 0 0 0 0 -19.652172953177796 64.432807227915873 0 64.432807227915873 -64.738937146285025 0 0 0 0 5.2060896087875221 9.3575251663149395 0 9.3575251663149395 -1.6622699877220573 0 0 0 0 -9.1257737661345857 7.2577465083859538 0 7.2577465083859538 -0.040533564693008894 0 0 0 0 1.3865375677705742 54.220744166686927 0 54.220744166686927 -27.056599384275614 0 0 0 0 -13.939333915274801 8.8082088332548665 0 8.8082088332548665 3.3464682533453924 0 0 0 0 -30.661836235828297 22.575993973492526 0 22.575993973492526 -5.5477427961138659 0 0 0 0 12.660105281694996 58.100770380754511 0 58.100770380754511 -29.020066809510581 0 0 0 0 -49.813362682303705 11.688921248348834 0 11.688921248348834 13.832631352687713 0 0 0 0 -48.959205932958866 3.8755775908259693 0 3.8755775908259693 -8.3178445839657797 0 0 0 0 -40.805218431822141 12.687829343854901 0 12.687829343854901 -7.290566493525148 0 0 0 0 -47.136378409706793 16.76447839607733 0 16.76447839607733 1.1805335434587647 0 0 0 0 -54.212738892219932 66.130491347359566 0 66.130491347359566 39.246554835125153 0 0 0 0 -3.2755543709845369 46.813591655446999 0 46.813591655446999 0.89507889577907918 0 0 0 0 -35.292829003530642 75.695903173447732 0 75.695903173447732 21.322596651456479 0 0 0 0 -35.296573361960327 75.574643937154178 0 75.574643937154178 32.634306339402428 0 0 0 0 -18.879024983736599 102.39130493396715 0 102.39130493396715 -25.954575871168345 0 0 0 0 116.06054379422494 143.32505120176847 0 143.32505120176847 114.1349590322825 0 0 0 0 -26.633544302165319 99.618166961715133 0 99.618166961715133 30.054890868575967 0 0 0 0 -40.8684515529294 82.650669258852304 0 82.650669258852304 118.27696761803236 0 0 0 0 -50.814716015062004 78.00911350027036 0 78.00911350027036 77.886428084796535 0 0 0 0 -51.685657873327472 26.710510163859134 0 26.710510163859134 3.9249997635738918 0 0 0 0 -40.362506972480332 27.756650925761278 0 27.756650925761278 9.5829418564208027 0 0 0 0 -85.983430959844554 87.565079567181328 0 87.565079567181328 34.278796287920159 0 0 0 0 -100.59956552848962 26.225641792595525 0 26.225641792595525 39.335913776349116 0 0 0 0 -43.611607314708479 22.153069476291549 0 22.153069476291549 0.70691242922562747 0 0 0 0 -8.0261669477282069 -0.60148328059535672 0 -0.60148328059535672 4.5988111011110266 0 0 0 0 -84.722092355739619 -34.397502470339006 0 -34.397502470339006 -33.437495252037479 0 0 0 0 -54.329145466004618 10.120500475821819 0 10.120500475821819 3.0499604579911095 0 0 0 0 -65.325864585982345 8.2628384786257811 0 8.2628384786257811 17.336936219365271 0 0 0 0 -95.295301972121592 -29.812629587524825 0 -29.812629587524825 33.224836687727475 0 0 0 0 -71.75171991300158 42.217832018593072 0 42.217832018593072 47.540662800474593 0 0 0 0 -81.818548633626051 38.148424416177477 0 38.148424416177477 65.263288208890117 0 0 0 0 -73.792153198035521 48.442076578808155 0 48.442076578808155 42.296536748740891 0 0 0 0 -41.065070197866589 29.619054850838893 0 29.619054850838893 15.140261649899912 0 0 0 0 2.9055599645562324 61.883574771989743 0 61.883574771989743 -58.732309735308263 0 0 0 0 1.3001633068067591 3.9505675736586547 0 3.9505675736586547 -1.716727881430836 0 0 0 0 -65.96864639823616 40.124058630296531 0 40.124058630296531 210.60416319679121 0 0 0 0 -36.49337336920469 17.838122163627531 0 17.838122163627531 -3.0678344255048806 0 0 0 0 -106.58032173365063 72.518090583987032 0 72.518090583987032 188.00575025664693 0 0 0 0 18.361272074045701 110.41773576436663 0 110.41773576436663 1.1174471193644422 0 0 0 0 -49.656468327859329 58.965540580539027 0 58.965540580539027 8.9534090116421794 0 0 0 0 -48.765525073726167 85.518918489664429 0 85.518918489664429 -57.62803791242186 0 0 0 0 -105.41586539114724 -18.773299458081965 0 -18.773299458081965 22.657290729012033 0 0 0 0 -149.9068247559735 -84.175481947636399 0 -84.175481947636399 -157.51197566532392 0 0 0 0 -199.25848064352431 31.15672712225205 0 31.15672712225205 -0.48845656014782435 0 0 0 0 -83.328340912536078 122.54847367778484 0 122.54847367778484 27.587280753717096 0 0 0 0 -1.7298294506931402 0.31064337473584303 0 0.31064337473584303 -1.8392816652724306 0 0 0 0 -407.83590390485551 -105.45948771505937 0 -105.45948771505937 -38.318449213652457 0 0 0 0 -415.39557821118615 -99.135541332749199 0 -99.135541332749199 -29.891554178448132 0 0 0 0 -210.69047980754749 41.058652782077615 0 41.058652782077615 -5.905605213405579 0 0 0 0 -279.86043177757892 -40.646263945967803 0 -40.646263945967803 -44.372867259402483 0 0 0 0 -101.20342328343031 56.412016538604803 0 56.412016538604803 -45.638824766743255 0 0 0 0 -85.158395926973753 53.688794316392432 0 53.688794316392432 -99.535005111684768 0 0 0 0 -263.43896178245268 71.080272516077457 0 71.080272516077457 -94.568473710671242 0 0 0 0 -200.31291892679292 21.839163459696465 0 21.839163459696465 -81.564776122311287 0 0 0 0 -8.4794238251643037 41.90628369353135 0 41.90628369353135 -106.10700388673104 0 0 0 0 -22.93346144428142 77.997824594631993 0 77.997824594631993 -116.70980076715932 0 0 0 0 -58.259964184197088 96.855253067803005 0 96.855253067803005 -143.09865335740142 0 0 0 0 -0.099146818991286523 0.73987643914519019 0 0.73987643914519019 0.56664397784443477 0 0 0 0 -246.42971240119368 18.809604358668366 0 18.809604358668366 -112.54849893671962 0 0 0 0 -183.6008744435203 87.648779644434399 0 87.648779644434399 -124.35965405184197 0 0 0 0 -199.22094492347969 -69.58219835221189 0 -69.58219835221189 114.0038425158391 0 0 0 0 -77.670115908444131 -128.78370298445316 0 -128.78370298445316 141.35352210820656 0 0 0 0 -528.64741307097574 -177.95808777717775 0 -177.95808777717775 -50.770281999555664 0 0 0 0 -563.25125494169333 27.772426752823776 0 27.772426752823776 -35.62996698158895 0 0 0 0 -335.21199996451651 137.24081035653444 0 137.24081035653444 -144.28822560090885 0 0 0 0 -358.02127450402622 -151.77198967799632 0 -151.77198967799632 -60.082374541803574 0 0 0 0 -517.18248448902887 141.42100626502452 0 141.42100626502452 -21.58055964901996 0 0 0 0 -0.41753891304374235 0.76744234495776231 0 0.76744234495776231 -2.0118758884889667 0 0 0 0 -322.92150612362821 3.1609322949127545 0 3.1609322949127545 -5.8597503329856409 0 0 0 0 -331.68530722215382 4.8465504284354211 0 4.8465504284354211 26.878508452770802 0 0 0 0 -1.3786682688579146 1.0603174145093774 0 1.0603174145093774 -5.0723251486068008 0 0 0 0 -264.68306076412955 -33.518723534161154 0 -33.518723534161154 -21.216008299587884 0 0 0 0 -206.09429760608145 43.568210542704264 0 43.568210542704264 -91.038299301796997 0 0 0 0 -105.94537446564937 -21.94654401299249 0 -21.94654401299249 -56.390689334412556 0 0 0 0 -80.328200172862125 5.8835611458534913 0 5.8835611458534913 -55.171879493934284 0 0 0 0 -196.85777879584253 -22.55476097626785 0 -22.55476097626785 11.721087093463211 0 0 0 0 -198.53709470108333 -87.128256155048803 0 -87.128256155048803 24.717345305647541 0 0 0 0 -229.69638489452336 -16.727000562937064 0 -16.727000562937064 24.579150473016853 0 0 0 0 -49.546202480119973 -43.25001559186876 0 -43.25001559186876 12.575670380900192 0 0 0 0 -78.172948314146197 -24.696947672986425 0 -24.696947672986425 52.063196666277236 0 0 0 0 -4.7781776621013705 18.591362721268979 0 18.591362721268979 6.7202520243736217 0 0 0 0 -36.087604293043114 26.786293589276056 0 26.786293589276056 -37.135876653605919 0 0 0 0 -75.433552139522362 -14.981278308871879 0 -14.981278308871879 -6.5849458338600471 0 0 0 0 -25.769800583479082 46.311010836934656 0 46.311010836934656 16.318713248465428 0 0 0 0 -27.454192024546501 23.974699027707175 0 23.974699027707175 14.283535894706802 0 0 0 0 -40.047625734598114 33.210311046767401 0 33.210311046767401 33.54274865251864 0 0 0 0 -52.025131583995972 29.281358346813704 0 29.281358346813704 13.350817495922001 0 0 0 0 -40.283680620956147 45.656994401811517 0 45.656994401811517 -9.2301922495807958 0 0 0 0 -49.584766192361712 40.965006260095834 0 40.965006260095834 15.42380010117563 0 0 0 0 -58.159283072418475 38.983901229819821 0 38.983901229819821 11.815786628705155 0 0 0 0 -31.442156932516809 55.741481886442671 0 55.741481886442671 6.0996528655596194 0 0 0 0 -47.283272781642154 17.191393279251201 0 17.191393279251201 -32.033848103577839 0 0 0 0 -53.076343638262188 30.3378451685453 0 30.3378451685453 -42.831223520464391 0 0 0 0 -65.692082173645758 -7.7909773368751303 0 -7.7909773368751303 -73.645353455040095 0 0 0 0 -51.150937606540538 22.553292329069791 0 22.553292329069791 -81.043496922668055 0 0 0 0 -71.917759144237607 -6.0291909821238505 0 -6.0291909821238505 -42.057251426575931 0 0 0 0 -76.783466471088104 19.268153919980705 0 19.268153919980705 -84.959149711282407 0 0 0 0 -72.696713810153597 -15.861728467401463 0 -15.861728467401463 -105.10703509653945 0 0 0 0 -92.460952702518625 1.167418300138479 0 1.167418300138479 -119.71528441750797 0 0 0 0 -73.624409334895859 -7.3814911805560826 0 -7.3814911805560826 -135.14213429752999 0 0 0 0 -63.983962856364087 15.01714689692335 0 15.01714689692335 -147.80096716355183 0 0 0 0 -84.485125931401853 36.032912207128902 0 36.032912207128902 -145.63961985967035 0 0 0 0 -49.850764824609769 -7.5593949497083486 0 -7.5593949497083486 -115.2587232020951 0 0 0 0 -57.171366035740903 10.544617744286256 0 10.544617744286256 -111.03787045750596 0 0 0 0 -79.044946483281819 -5.0282337475932763 0 -5.0282337475932763 -118.89885602812251 0 0 0 0 -73.430500576194902 1.2526870572213724 0 1.2526870572213724 -129.61724470365061 0 0 0 0 -112.80210203723618 26.817917570477675 0 26.817917570477675 -129.69531295622755 0 0 0 0 -128.58327203192312 71.89737437986696 0 71.89737437986696 -162.95448054274766 0 0 0 0 -101.27889956985382 23.257097280041762 0 23.257097280041762 -129.13985805872221 0 0 0 0 -165.84938597814016 30.648700177845171 0 30.648700177845171 -82.623708044451632 0 0 0 0 -161.63092334310932 46.76025956564672 0 46.76025956564672 -85.422433289501669 0 0 0 0 -104.86516105708506 4.8410084259608084 0 4.8410084259608084 -123.28706988660588 0 0 0 0 -126.63534285604692 -6.6034465678696961 0 -6.6034465678696961 -94.336887939077087 0 0 0 0 -131.63677600014125 -12.437721782445806 0 -12.437721782445806 -48.815385590242386 0 0 0 0 -177.50900292610459 26.759826851471189 0 26.759826851471189 -82.268228616338234 0 0 0 0 -176.92044841147435 19.149940415824403 0 19.149940415824403 -47.021553701407811 0 0 0 0 -80.819913100231133 -16.149645098628298 0 -16.149645098628298 -133.89572542134192 0 0 0 0 -85.668800807983644 -15.515489249868324 0 -15.515489249868324 -102.11429422141691 0 0 0 0 -64.469940917639178 45.825765176188042 0 45.825765176188042 -165.74489890993925 0 0 0 0 -105.21855659032917 -18.943818910799905 0 -18.943818910799905 -93.552323480190125 0 0 0 0 -114.6691531055435 8.485484505758734 0 8.485484505758734 -102.48541091637708 0 0 0 0 -0.11490845500024283 -0.33347610063535171 0 -0.33347610063535171 -1.7546645567723775 0 0 0 0 -419.47920235715685 48.942593291818014 0 48.942593291818014 -28.869069106042843 0 0 0 0 -257.33563586050968 96.735501287052102 0 96.735501287052102 -145.25432694867732 0 0 0 0 -86.483464014947458 11.037307031216642 0 11.037307031216642 -119.15968364719708 0 0 0 0 -87.534284489969195 20.675717835712135 0 20.675717835712135 -8.0767791089119783 0 0 0 0 55.797007185738551 12.912578344159201 0 12.912578344159201 -56.020435477706087 0 0 0 0 -18.429669765851941 67.907021458927488 0 67.907021458927488 -96.702470873270386 0 0 0 0 -163.0966285611039 124.90005257435246 0 124.90005257435246 -71.988755708965243 0 0 0 0 -134.90116523033794 34.013281827906781 0 34.013281827906781 -35.139840010935643 0 0 0 0 -18.689164231127506 -17.151147363368636 0 -17.151147363368636 -29.32719954579602 0 0 0 0 -41.670665177074625 -1.4600323883287274 0 -1.4600323883287274 -17.491825168152388 0 0 0 0 -45.81126940188642 -18.020715580677006 0 -18.020715580677006 -11.223289119484434 0 0 0 0 -58.646429524167615 -13.059420605956575 0 -13.059420605956575 -15.932245198536521 0 0 0 0 -49.986664119557645 -3.6578735561197959 0 -3.6578735561197959 -7.3020893868842904 0 0 0 0 -46.038172635951014 -5.8450850387157516 0 -5.8450850387157516 5.6962460111217297 0 0 0 0 -35.398019253322673 -7.8686864210667409 0 -7.8686864210667409 -6.9688613987281656 0 0 0 0 -19.660426918925623 -10.016706786202576 0 -10.016706786202576 -8.9540900698123096 0 0 0 0 -36.235583980724755 -10.594296287375983 0 -10.594296287375983 0.63663336779427482 0 0 0 0 -27.963567378778407 -10.906029570430405 0 -10.906029570430405 0.50568940640005167 0 0 0 0 -14.280018229799781 -11.081698368913985 0 -11.081698368913985 -1.1102196339737276 0 0 0 0 -118.93319738223545 -205.74232773196354 0 -205.74232773196354 -7.1038353849749001 0 0 0 0 -34.181231554521219 -1.5524213438222887 0 -1.5524213438222887 3.6920742116799374 0 0 0 0 -31.488376120658359 -0.23979842615926827 0 -0.23979842615926827 0.8197063032148435 0 0 0 0 -33.477971376320966 -0.024454642373711977 0 -0.024454642373711977 6.8892341705013678 0 0 0 0 -33.859338592325912 8.5822460970034626 0 8.5822460970034626 7.7020170960613541 0 0 0 0 -30.321198965273652 1.7867705494927577 0 1.7867705494927577 3.6634615291886803 0 0 0 0 -32.105026374102636 7.9861971122331852 0 7.9861971122331852 -5.1790448449266933 0 0 0 0 -35.01842177078197 5.9681198543948994 0 5.9681198543948994 15.087228739381317 0 0 0 0 6.0317542937651183 14.654503711522139 0 14.654503711522139 -2.2591491340899665 0 0 0 0 -11.491176571753385 18.994731783990574 0 18.994731783990574 8.9471219981178365 0 0 0 0 -12.753505386921461 6.3255726209154091 0 6.3255726209154091 -0.95384105429729971 0 0 0 0 -11.642762744667291 4.2033768460381573 0 4.2033768460381573 -2.6232084521263195 0 0 0 0 -10.836710933603172 6.4034746170837025 0 6.4034746170837025 -1.0315526260656043 0 0 0 0 -28.878709821896337 2.5789482017535192 0 2.5789482017535192 33.525280229634973 0 0 0 0 -17.081201105198488 8.4766104299314975 0 8.4766104299314975 1.4488782330640788 0 0 0 0 -27.459434340911685 3.4282220742170466 0 3.4282220742170466 2.2609528700995725 0 0 0 0 -10.281577244867094 11.043326963219556 0 11.043326963219556 2.2535589016879385 0 0 0 0 -19.602201445780501 5.4230122351176018 0 5.4230122351176018 -0.10370645990286498 0 0 0 0 0.23345631655683974 28.520362722747905 0 28.520362722747905 21.345897639380382 0 0 0 0 -32.915003899923249 25.314539609143594 0 25.314539609143594 77.785778703205324 0 0 0 0 -64.357824439939577 -131.51212302411477 0 -131.51212302411477 71.182725744924198 0 0 0 0 4.7353028560648909 -1.7384874006819473 0 -1.7384874006819473 -18.794258359552259 0 0 0 0 -45.499659733795852 -26.196699668807014 0 -26.196699668807014 0.4745365000271704 0 0 0 0 -2.4762868619709479 -20.525716275036302 0 -20.525716275036302 -57.211938993914373 0 0 0 0 -61.148188597779153 -153.20574920910258 0 -153.20574920910258 -115.01040009694407 0 0 0 0 -99.573271382865641 -159.54694315237111 0 -159.54694315237111 -85.917587918571826 0 0 0 0 -57.141295654702844 -148.62658112875124 0 -148.62658112875124 -113.68782961270176 0 0 0 0 -32.782278483464779 -78.69851723539648 0 -78.69851723539648 -32.597937419785922 0 0 0 0 -29.088965067032404 -91.472567516053005 0 -91.472567516053005 -63.058029732363138 0 0 0 0 -97.236962082995888 -152.03230327107894 0 -152.03230327107894 -55.818280602948334 0 0 0 0 -553.35926310071227 -138.90263778904637 0 -138.90263778904637 -41.740394331050993 0 0 0 0 -14.437444057453831 -326.00808762491351 0 -326.00808762491351 -269.61460250827713 0 0 0 0 230.03540406926186 -6.4608252429809454 0 -6.4608252429809454 -116.40181214732547 0 0 0 0 -80.893348490109929 41.000536481026302 0 41.000536481026302 73.337707014321495 0 0 0 0 -49.571650897374639 -49.657411943748684 0 -49.657411943748684 48.681655012324427 0 0 0 0 -14.531637487872317 -5.2455421742400716 0 -5.2455421742400716 -1.7974606671288829 0 0 0 0 10.64198644613316 -8.4859229595417673 0 -8.4859229595417673 -21.412689185400268 0 0 0 0 -206.04578848663368 196.95923441800824 0 196.95923441800824 -243.01477723187827 0 0 0 0 -4.6812406951615841 -2.1098765388366214 0 -2.1098765388366214 -1.1614130906472218 0 0 0 0 -64.617945732794396 -127.74309620848089 0 -127.74309620848089 -147.64597437433895 0 0 0 0 -32.948887084407033 69.379511764568178 0 69.379511764568178 -169.90313284612921 0 0 0 0 -246.09141986918803 -11.507638423648586 0 -11.507638423648586 18.862506030413897 0 0 0 0 25.267863523519736 49.053090173729061 0 49.053090173729061 31.628718371281138 0 0 0 0 26.084783772701485 18.171620966497812 0 18.171620966497812 -3.2783102772866641 0 0 0 0 -9.738731926345281 106.6496805770721 0 106.6496805770721 -58.112039881521923 0 0 0 0 -73.439995203918443 70.934581032068763 0 70.934581032068763 -21.96028795604343 0 0 0 0 25.065970030856988 15.970817377065941 0 15.970817377065941 18.808732277018862 0 0 0 0 -27.845524801141437 71.423436500132311 0 71.423436500132311 -1.0222806134534039 0 0 0 0 -87.521940459945654 -41.418261386154654 0 -41.418261386154654 18.080916703193907 0 0 0 0 -5.9639943094383838 -0.22307670108146027 0 -0.22307670108146027 0.62802467183740074 0 0 0 0 -9.193192564718629 -58.360828295556985 0 -58.360828295556985 167.34289809011079 0 0 0 0 -83.788270399036264 58.931959081282002 0 58.931959081282002 104.01981929211161 0 0 0 0 -4.3813110947060956 1.9202473003456397 0 1.9202473003456397 0.54217391992248309 0 0 0 0 -29.704812848397523 6.4744276572491799 0 6.4744276572491799 1.8895274858822404 0 0 0 0 -14.299989122602346 -5.4542851806746881 0 -5.4542851806746881 2.6217781054746148 0 0 0 0 86.583327307191212 -10.248913967257522 0 -10.248913967257522 -8.5713698887393548 0 0 0 0 81.319459787629967 45.996421119703882 0 45.996421119703882 -27.059731325793109 0 0 0 0 -123.62598973664717 155.71557507611033 0 155.71557507611033 -26.353133116119352 0 0 0 0 -225.69387301681309 -101.57164537474534 0 -101.57164537474534 -3.0322341195751505 0 0 0 0 -122.1750394069968 -43.899072132325273 0 -43.899072132325273 28.754659725901547 0 0 0 0 -98.078286282499903 2.3769091720610049 0 2.3769091720610049 40.003213337064608 0 0 0 0 -22.544075349025661 4.5777624908810139 0 4.5777624908810139 -5.2615454163565119 0 0 0 0 -2.0687410361443876 3.1485438038541034 0 3.1485438038541034 -7.3405736623520568 0 0 0 0 -12.003279454420408 21.821719403158568 0 21.821719403158568 -11.617603830693042 0 0 0 0 -3.1769939063118948 1.4205243433847592 0 1.4205243433847592 -6.9564226366038149 0 0 0 0 -161.94464415127004 -8.1502026937978371 0 -8.1502026937978371 38.31664819065918 0 0 0 0 51.096080809455088 59.393086672206664 0 59.393086672206664 -102.79098134224114 0 0 0 0 -1.9344153840676626 0.56301243587081107 0 0.56301243587081107 -0.17126899381349325 0 0 0 0 -123.19457985560803 -59.815294394998091 0 -59.815294394998091 8.6174514220879246 0 0 0 0 7.1236593558598997 92.105215178537321 0 92.105215178537321 -84.376184357714919 0 0 0 0 -22.833322811147809 112.86408111708715 0 112.86408111708715 -61.052126764729564 0 0 0 0 -203.24646847932308 -90.481264753969299 0 -90.481264753969299 80.89321344977543 0 0 0 0 -76.905653756068205 3.2586162200186664 0 3.2586162200186664 51.848179749130395 0 0 0 0 -24.618617240980228 -5.3771164891862284 0 -5.3771164891862284 -2.6787785350031275 0 0 0 0 -3.7705990083656955 18.009230323202527 0 18.009230323202527 -6.5709893168464966 0 0 0 0 -22.537308066355763 25.388262157878671 0 25.388262157878671 23.168169168835448 0 0 0 0 -82.488256772048771 57.038846908347921 0 57.038846908347921 8.1072759050057357 0 0 0 0 -99.172195617515399 -43.374395582709354 0 -43.374395582709354 -12.476163201509735 0 0 0 0 7.7752579819261882 3.6092954170567282 0 3.6092954170567282 8.1059755356445748 0 0 0 0 -55.12734422595895 9.4871992128769307 0 9.4871992128769307 -17.25303122652258 0 0 0 0 -67.568505607359839 10.666906810677574 0 10.666906810677574 -14.144958373387453 0 0 0 0 -62.990844161027781 -4.6104892829480377 0 -4.6104892829480377 -34.655937073801397 0 0 0 0 -57.487242484563467 13.038708250876425 0 13.038708250876425 -22.597667957785234 0 0 0 0 -30.405332481128426 11.656510868623627 0 11.656510868623627 -24.78533041377068 0 0 0 0 19.123156730377104 7.632670613967889 0 7.632670613967889 -21.884470420798607 0 0 0 0 -22.41427859763462 29.719248242418416 0 29.719248242418416 -15.22472440585625 0 0 0 0 -20.509325713472208 25.07151287866327 0 25.07151287866327 -5.7188008660559717 0 0 0 0 -13.932406691939832 6.2961512915571802 0 6.2961512915571802 -23.771829380612871 0 0 0 0 -29.170659335068194 22.606203446990776 0 22.606203446990776 -35.576553305680136 0 0 0 0 0.16109442783216643 -0.53807155497720416 0 -0.53807155497720416 -0.32119195690309965 0 0 0 0 -2.8065848701226059 27.477239624934555 0 27.477239624934555 -29.610967659835296 0 0 0 0 0.69332348320838122 3.7633837780467818 0 3.7633837780467818 -6.6665050809345985 0 0 0 0 5.2237568643904524 -1.9804108128555526 0 -1.9804108128555526 -2.127522650967876 0 0 0 0 -84.717990425340759 35.986161630852621 0 35.986161630852621 -28.962312941489472 0 0 0 0 -0.0044810422111112302 -0.42494656602493563 0 -0.42494656602493563 -1.8699855326740504 0 0 0 0 -34.55295994664084 24.398996970112421 0 24.398996970112421 -35.615360439127471 0 0 0 0 -78.395619519280444 -8.4891951296904153 0 -8.4891951296904153 -21.582301829902917 0 0 0 0 -99.342348518789095 -17.904537860651317 0 -17.904537860651317 -25.04079179843211 0 0 0 0 -51.10413069322567 -40.225889642752009 0 -40.225889642752009 -24.199358812623359 0 0 0 0 -101.48940912031685 -5.5311158696713392 0 -5.5311158696713392 -2.599536258052467 0 0 0 0 -15.042167029235884 4.8658603631423887 0 4.8658603631423887 -5.4142387238116498 0 0 0 0 -14.998074771609026 -0.0011601663704823295 0 -0.0011601663704823295 -21.599055401100486 0 0 0 0 -8.6329214862635126 -0.8585630565212341 0 -0.8585630565212341 -9.9741965315624839 0 0 0 0 -1.0858431544950182 4.033288805239561 0 4.033288805239561 -5.7255623293452764 0 0 0 0 -75.187905000459068 -15.791872860128933 0 -15.791872860128933 6.3348895600265678 0 0 0 0 -57.190936522462835 154.34521289675104 0 154.34521289675104 23.751877082772808 0 0 0 0 -39.33990537123438 19.522308302880738 0 19.522308302880738 5.3618175100169729 0 0 0 0 -74.054039802334273 -25.11045494720571 0 -25.11045494720571 -11.015959833279339 0 0 0 0 -256.57181009431088 70.882502235525067 0 70.882502235525067 111.19942541084311 0 0 0 0 30.722754985765732 30.29654393051942 0 30.29654393051942 -101.41593133548031 0 0 0 0 -9.8416812558371021 2.601096817985308 0 2.601096817985308 11.681690851267376 0 0 0 0 -40.762769004186339 -32.723524430689395 0 -32.723524430689395 -26.019479595991925 0 0 0 0 -3.2527043648379497 2.564553480308934 0 2.564553480308934 0.35026895635514244 0 0 0 0 10.852982172286374 4.414618148777663 0 4.414618148777663 -3.2439510467502259 0 0 0 0 18.569679054901826 11.857023498159833 0 11.857023498159833 36.975479543063557 0 0 0 0 -15.862282344949563 10.443501552219459 0 10.443501552219459 3.7550247778053745 0 0 0 0 -2.6983549980359656 12.80056670499617 0 12.80056670499617 3.6561527340792264 0 0 0 0 -12.232099470330558 9.7261581503340864 0 9.7261581503340864 3.3887316607871978 0 0 0 0 -57.804389654804254 -23.346216388656103 0 -23.346216388656103 -14.703559648285591 0 0 0 0 39.231898574279114 61.148954282373779 0 61.148954282373779 -7.2952419714792995 0 0 0 0 -34.939914842420876 -9.7762243321667484 0 -9.7762243321667484 -34.834710033052033 0 0 0 0 -32.910390494116662 13.514892140061047 0 13.514892140061047 7.6851573307166525 0 0 0 0 -23.499555676957243 23.665691957624404 0 23.665691957624404 3.4480656248142623 0 0 0 0 -2.1506456072820939 3.2597101407402214 0 3.2597101407402214 -7.6643306049421298 0 0 0 0 -9.5969887320257001 1.7929761859541706 0 1.7929761859541706 -3.6184999605971075 0 0 0 0 -33.453655632267328 4.5249029704282293 0 4.5249029704282293 -4.0681366817343587 0 0 0 0 -111.3354247508687 64.127653793469108 0 64.127653793469108 36.334618815358226 0 0 0 0 -66.274103481180646 135.19840166522226 0 135.19840166522226 -107.68122963083533 0 0 0 0 -0.52056254731943596 -1.1698093453917338 0 -1.1698093453917338 -1.3544103290768899 0 0 0 0 -27.991861137834348 -38.742573038030059 0 -38.742573038030059 -40.177389761276117 0 0 0 0 -40.653311838637819 -10.083424211720285 0 -10.083424211720285 12.973449003430687 0 0 0 0 -93.212439253624325 23.352378263225546 0 23.352378263225546 42.944850527524295 0 0 0 0 -20.013116457730526 -11.918507439932402 0 -11.918507439932402 -4.5536637153328012 0 0 0 0 -51.386855398126499 -8.0139999862803961 0 -8.0139999862803961 -20.245363789159455 0 0 0 0 -34.069692077609943 21.420318811879042 0 21.420318811879042 -44.180987838448345 0 0 0 0 -20.111731357453252 5.3880733380643067 0 5.3880733380643067 -7.088418716970466 0 0 0 0 -8.6700037995984616 5.9235764471517127 0 5.9235764471517127 -0.76415175242578215 0 0 0 0 -27.550151773532374 -1.6978804328755501 0 -1.6978804328755501 1.7168360327194456 0 0 0 0 -17.301774560837657 3.0416250995840528 0 3.0416250995840528 4.7118428117682924 0 0 0 0 -36.565127360312786 3.6976331348720493 0 3.6976331348720493 -5.1857420753552574 0 0 0 0 -17.440524428321869 1.7841180155118721 0 1.7841180155118721 -16.175266721923272 0 0 0 0 -76.643442958578817 81.226286662318671 0 81.226286662318671 -33.919957242975215 0 0 0 0 -41.429779747948487 31.401126902407668 0 31.401126902407668 -52.874579477293082 0 0 0 0 -64.167012538513518 34.97882157420463 0 34.97882157420463 -36.344339924464293 0 0 0 0 -63.87915325492213 16.777795162444818 0 16.777795162444818 -10.574694296244616 0 0 0 0 -47.951755802590924 7.5655766856398259 0 7.5655766856398259 8.6205605993018253 0 0 0 0 -2.1335683207081928 11.884809664810913 0 11.884809664810913 -0.32462041209854142 0 0 0 0 -20.577203235516208 -5.5543096535329823 0 -5.5543096535329823 -2.8749864412238821 0 0 0 0 -18.486976590674374 14.034413375304638 0 14.034413375304638 -2.2420540340772277 0 0 0 0 -5.4294203850695339 7.0945347405904613 0 7.0945347405904613 1.7622791464527836 0 0 0 0 -6.1733400991539664 1.6139976533267459 0 1.6139976533267459 -1.5109880068248138 0 0 0 0 -10.212113144472823 3.5855337045650231 0 3.5855337045650231 -0.10867466313356999 0 0 0 0 -26.519710689006679 1.2340471033463478 0 1.2340471033463478 3.3447931267856035 0 0 0 0 -84.629773865867719 -11.114809516062451 0 -11.114809516062451 -13.977755090541905 0 0 0 0 -99.717837953115577 -7.1495354762637362 0 -7.1495354762637362 53.655535205401975 0 0 0 0 -4.9335377774928117 -1.4452149091804418 0 -1.4452149091804418 0.28344798066738974 0 0 0 0 -80.242364571925634 7.3807691434985827 0 7.3807691434985827 39.395634335380237 0 0 0 0 -8.0473428547517347 -1.2572170125252926 0 -1.2572170125252926 -4.5938459855225346 0 0 0 0 -62.518080327483233 -5.9345927775925702 0 -5.9345927775925702 -13.237814133910263 0 0 0 0 58.585943506920614 46.886391294675775 0 46.886391294675775 -20.753412714519072 0 0 0 0 -24.794743053043625 13.182645111223833 0 13.182645111223833 -5.438017127174481 0 0 0 0 -8.6604570566334598 1.6929140914166609 0 1.6929140914166609 2.1548351723816701 0 0 0 0 -15.13604445892679 17.316043875506693 0 17.316043875506693 8.0623758468300366 0 0 0 0 -15.948226705404863 -16.948227435084789 0 -16.948227435084789 -13.46960394074722 0 0 0 0 -15.619002695983227 -7.267367911194242 0 -7.267367911194242 -11.889709674283495 0 0 0 0 -7.0039329129982555 3.0576796517082729 0 3.0576796517082729 -7.6154613422435027 0 0 0 0 -34.242111901553471 55.333118070861019 0 55.333118070861019 -32.02081264302069 0 0 0 0 -138.3544317385863 11.296908264883314 0 11.296908264883314 10.015163284803634 0 0 0 0 1.3996876459286907 -1.5434377126698007 0 -1.5434377126698007 -2.2991351621619938 0 0 0 0 -0.26884424413856323 -3.1997887206046016 0 -3.1997887206046016 -103.88294870169557 0 0 0 0 23.96945246435871 40.527010464786144 0 40.527010464786144 -37.066099802100325 0 0 0 0 22.75340655324618 25.430884875984589 0 25.430884875984589 -135.46121852374745 0 0 0 0 44.778930711764588 73.890936444598765 0 73.890936444598765 -291.62356315166926 0 0 0 0 44.012788882795121 76.195413973148789 0 76.195413973148789 -77.898208047836306 0 0 0 0 29.839166352315942 57.764046003404019 0 57.764046003404019 -26.08943246347917 0 0 0 0 -30.417782577493199 77.109262882551775 0 77.109262882551775 -14.957760770150344 0 0 0 0 2.9021615535984893 104.45901522041459 0 104.45901522041459 -98.122432420836958 0 0 0 0 -137.86483444817986 155.35795818332463 0 155.35795818332463 4.2622956285522378 0 0 0 0 -50.771509853861062 173.97425650499827 0 173.97425650499827 -176.86523026914983 0 0 0 0 -123.71673588773047 69.633467940057926 0 69.633467940057926 153.85816436459299 0 0 0 0 -13.988844598360629 16.532137052072358 0 16.532137052072358 5.4362067910244605 0 0 0 0 -0.30182359351905852 3.3797265987678111 0 3.3797265987678111 2.2830678140752987 0 0 0 0 -28.691858859270724 -37.59391269324442 0 -37.59391269324442 144.68878839821446 0 0 0 0 2.2376693453898042 21.852196599793842 0 21.852196599793842 44.598129853477076 0 0 0 0 29.34686639786878 15.186168037147581 0 15.186168037147581 34.274379929007409 0 0 0 0 19.265396040392261 28.330261251362117 0 28.330261251362117 43.589528971919208 0 0 0 0 -14.153510143415588 79.59392024495537 0 79.59392024495537 19.902643139618704 0 0 0 0 -7.8419236472409466 72.711362653877586 0 72.711362653877586 -16.990853210756541 0 0 0 0 -30.229663974127561 -20.572024874054023 0 -20.572024874054023 -43.720020435720016 0 0 0 0 -34.029022972282405 -36.027934598299339 0 -36.027934598299339 -68.009595896753126 0 0 0 0 -85.787018486966417 47.546779541572278 0 47.546779541572278 -74.905938759789478 0 0 0 0 -150.07167916472329 -22.3006366140079 0 -22.3006366140079 -68.353716160377189 0 0 0 0 -140.67741728396686 125.71798444596514 0 125.71798444596514 -142.20056948010915 0 0 0 0 23.070897291545862 -78.801896615724672 0 -78.801896615724672 -253.77639323882511 0 0 0 0 -0.96945792543940712 2.3046938580482887 0 2.3046938580482887 -3.3889858276221876 0 0 0 0 19.668233420986031 -29.792276081155208 0 -29.792276081155208 -114.34671034852818 0 0 0 0 60.726890515233492 -29.800740137303592 0 -29.800740137303592 -136.05677028614173 0 0 0 0 2.7637417656841308 87.554792170587518 0 87.554792170587518 -115.07163032419905 0 0 0 0 59.176360884758623 -20.589102024179027 0 -20.589102024179027 -131.9427330945864 0 0 0 0 29.519131274636663 -3.6206436961783481 0 -3.6206436961783481 -163.72100888117438 0 0 0 0 -6.1489891337278095 -45.395395967901123 0 -45.395395967901123 -27.071174868044977 0 0 0 0 -8.7841172735197688 -75.416026904243211 0 -75.416026904243211 -92.498197284338389 0 0 0 0 0.56856642936872959 63.353175907301932 0 63.353175907301932 -3.1036918702729395 0 0 0 0 -22.004515538682881 -61.381822920535114 0 -61.381822920535114 -82.540854935698007 0 0 0 0 -5.7886936048143509 6.1636835145055935 0 6.1636835145055935 -6.2402827648404617 0 0 0 0 1.9623917225308105 -45.03709747578273 0 -45.03709747578273 -44.132659631069146 0 0 0 0 -38.248251498034392 -16.095895010624076 0 -16.095895010624076 -64.961448531234964 0 0 0 0 46.246415896595863 97.125340035646161 0 97.125340035646161 5.6291320725468381 0 0 0 0 -10.795740449362338 9.3456426422378946 0 9.3456426422378946 -8.0206590128283981 0 0 0 0 -59.918380105152949 -63.353525158455113 0 -63.353525158455113 -61.637981156338128 0 0 0 0 -26.954483448694418 -14.800618116499209 0 -14.800618116499209 -68.001048541332239 0 0 0 0 -50.776577449607657 -4.0869439086966963 0 -4.0869439086966963 -2.5113499195601889 0 0 0 0 -34.668413742959501 -27.252925243927393 0 -27.252925243927393 -53.906387280951549 0 0 0 0 -1.7014858767115584 -11.930666348334739 0 -11.930666348334739 -14.02805395104906 0 0 0 0 -5.7139950134801438 9.7056261646225721 0 9.7056261646225721 -51.53282725660344 0 0 0 0 -0.0022929472013277774 0.8095786823495561 0 0.8095786823495561 -0.18725932905812392 0 0 0 0 -60.728185552010473 -33.90300866342352 0 -33.90300866342352 -6.8444799286603484 0 0 0 0 -0.12103081733526011 1.1393624105200288 0 1.1393624105200288 -0.21404162457204645 0 0 0 0 -9.7991592655657769 15.61623725835301 0 15.61623725835301 18.939949242240345 0 0 0 0 28.386649289861452 11.91157805899968 0 11.91157805899968 -38.651562612935663 0 0 0 0 -14.356568946481616 6.1771473279851108 0 6.1771473279851108 26.042018331768077 0 0 0 0 2.147691123822483 32.219693626545336 0 32.219693626545336 -24.039211738341692 0 0 0 0 -14.224949068977367 -33.974730627899021 0 -33.974730627899021 -37.542603072140594 0 0 0 0 -26.977269790401806 4.8678604854887908 0 4.8678604854887908 37.888212380401228 0 0 0 0 39.829472428774352 35.907997633063189 0 35.907997633063189 28.657344841235499 0 0 0 0 7.835396968216628 23.554435962970501 0 23.554435962970501 88.990484624310284 0 0 0 0 40.44845754761991 46.065698164593641 0 46.065698164593641 85.470505643795946 0 0 0 0 19.955969696321517 16.08393728939609 0 16.08393728939609 12.184403872847042 0 0 0 0 -2.1863810589748027 35.219564227277829 0 35.219564227277829 76.22709009633229 0 0 0 0 4.932908447425234 49.188590886808406 0 49.188590886808406 124.97241901818889 0 0 0 0 45.199651512117271 53.358268010681144 0 53.358268010681144 63.419635985307551 0 0 0 0 28.943869015301971 42.752447166742996 0 42.752447166742996 170.88024419528446 0 0 0 0 22.827595452569767 72.019922081956651 0 72.019922081956651 108.99404757298237 0 0 0 0 0.19831052831466778 1.2638003794519834 0 1.2638003794519834 -0.70390044332999147 0 0 0 0 31.609216281964109 98.880763089304409 0 98.880763089304409 171.32122037597242 0 0 0 0 40.622600651820903 79.89049274154155 0 79.89049274154155 123.96175235085809 0 0 0 0 18.82579192769299 57.148262530546653 0 57.148262530546653 123.23099693821862 0 0 0 0 78.670903029273177 85.567379367682292 0 85.567379367682292 120.96494668454926 0 0 0 0 45.343513237448519 82.462114866462898 0 82.462114866462898 171.33864382744477 0 0 0 0 -19.589869899904151 6.4028999753530673 0 6.4028999753530673 -0.60138975784864801 0 0 0 0 -64.611851634454069 -106.4518199070114 0 -106.4518199070114 -191.60978354640559 0 0 0 0 0.3527772005804426 0.87065263024975503 0 0.87065263024975503 -0.53366383332700651 0 0 0 0 3.5098510106795402 111.44822615042153 0 111.44822615042153 180.94964913109956 0 0 0 0 48.593282744211251 79.269539675310568 0 79.269539675310568 125.5061838290323 0 0 0 0 -26.220225146331085 8.8923453386611371 0 8.8923453386611371 -1.2014939519824401 0 0 0 0 -70.062061330106189 -133.57627699734181 0 -133.57627699734181 -198.66702766663329 0 0 0 0 23.967209716509387 167.62457406528284 0 167.62457406528284 117.9302402790687 0 0 0 0 -122.01701389326081 -105.23172592972998 0 -105.23172592972998 -139.51521717211011 0 0 0 0 -67.31499005380465 -100.99891238437473 0 -100.99891238437473 -152.0320857976281 0 0 0 0 -46.436415884563758 -53.256591525653107 0 -53.256591525653107 -137.84638154702367 0 0 0 0 -54.252827023807185 -65.048815050428487 0 -65.048815050428487 -195.77543321481193 0 0 0 0 -57.676069173365249 -51.973279845283663 0 -51.973279845283663 -97.165107139434411 0 0 0 0 -27.263069934371742 -58.258632079404549 0 -58.258632079404549 -141.33103564795795 0 0 0 0 -56.8725181575428 -81.803079144837682 0 -81.803079144837682 -166.95130971347555 0 0 0 0 -55.25918179790483 -48.575933229057469 0 -48.575933229057469 -144.62917053628482 0 0 0 0 -105.33872026550307 -58.95901553111495 0 -58.95901553111495 -163.14603843598871 0 0 0 0 -60.166217415018764 -82.744943127056388 0 -82.744943127056388 -151.47279898410943 0 0 0 0 62.767705739342546 78.191011167694938 0 78.191011167694938 81.042611962179762 0 0 0 0 20.125052592575003 82.84890627476409 0 82.84890627476409 145.06615909288234 0 0 0 0 39.381606150065636 108.38586026153911 0 108.38586026153911 90.978390252939221 0 0 0 0 70.659122066709642 54.015600698145988 0 54.015600698145988 147.23798799810882 0 0 0 0 17.85003543205903 100.51222721691667 0 100.51222721691667 89.024779279832046 0 0 0 0 3.143702023525293 73.238180043055195 0 73.238180043055195 150.29549499744729 0 0 0 0 20.611801773063235 120.76478570243754 0 120.76478570243754 129.66657066727208 0 0 0 0 16.902057160471486 70.718296381478993 0 70.718296381478993 88.057882561347299 0 0 0 0 25.520400377008059 110.03034196692074 0 110.03034196692074 99.399981075602739 0 0 0 0 34.607853472378793 52.97770377280645 0 52.97770377280645 34.628751075965795 0 0 0 0 30.703108601788699 85.904816952708885 0 85.904816952708885 67.521419684443686 0 0 0 0 24.073770072507614 85.983878073599101 0 85.983878073599101 80.675091617180414 0 0 0 0 8.0663604555645634 41.199035768949528 0 41.199035768949528 23.399827647990946 0 0 0 0 -8.1387840340904631 13.280441963849199 0 13.280441963849199 8.2816914176683554 0 0 0 0 -2.0927875567199408 43.869970621656478 0 43.869970621656478 59.666126928683603 0 0 0 0 10.3828315078797 56.159006205750643 0 56.159006205750643 39.634803151712731 0 0 0 0 -0.53927486984866846 57.248986461125753 0 57.248986461125753 106.45773664705371 0 0 0 0 18.553036393842831 51.509160133444766 0 51.509160133444766 52.895062383208597 0 0 0 0 -17.155482986693187 19.149331073471785 0 19.149331073471785 45.342153228213036 0 0 0 0 2.51526473936201 32.303130614946895 0 32.303130614946895 10.521017627822403 0 0 0 0 -4.8901470838427485 28.798750569003573 0 28.798750569003573 69.250143075244978 0 0 0 0 -9.3415552439380463 13.019315748545694 0 13.019315748545694 -14.348924465127084 0 0 0 0 -27.694731301171032 8.5785878733126992 0 8.5785878733126992 19.819983434638644 0 0 0 0 -32.399377512352203 -28.361216846730485 0 -28.361216846730485 -71.131024833868196 0 0 0 0 -50.374400066476028 -13.004750203508138 0 -13.004750203508138 -17.276238758254522 0 0 0 0 -18.227436377182357 -9.2013965761935594 0 -9.2013965761935594 -24.496084600212725 0 0 0 0 -67.189096788267307 -20.155528454716773 0 -20.155528454716773 -27.28546644806886 0 0 0 0 -25.382838782101317 -21.915770638367405 0 -21.915770638367405 -27.647930560750538 0 0 0 0 -33.94666963313739 -29.205947070541242 0 -29.205947070541242 -31.457590551470673 0 0 0 0 -49.353503226627254 -38.808465383674758 0 -38.808465383674758 -35.831575052398421 0 0 0 0 -19.802119819319387 -8.359529068091792 0 -8.359529068091792 -26.430749222392066 0 0 0 0 -16.666751257821147 -7.7232670906988261 0 -7.7232670906988261 -45.560232190046577 0 0 0 0 -26.281291526612222 -12.86611776090106 0 -12.86611776090106 -46.166688671429476 0 0 0 0 -14.464265078710014 17.134102203410635 0 17.134102203410635 7.0119249177439826 0 0 0 0 -33.261009571801424 -20.767298892973102 0 -20.767298892973102 -18.896794454445455 0 0 0 0 -0.20273258032784724 16.89258316270233 0 16.89258316270233 -1.7550994279101957 0 0 0 0 11.393912234586878 53.209779939758164 0 53.209779939758164 45.577681374248954 0 0 0 0 11.214568018217278 55.388011917934051 0 55.388011917934051 73.447077509432006 0 0 0 0 20.599344622333092 65.180488632189054 0 65.180488632189054 39.548238371523837 0 0 0 0 -0.12329620861902413 16.79974458693507 0 16.79974458693507 -1.6466151951483283 0 0 0 0 -21.310585304061078 22.658359249683883 0 22.658359249683883 -1.3738835352601484 0 0 0 0 -31.373479427438838 48.879244599089887 0 48.879244599089887 31.569239642703792 0 0 0 0 -16.942741705942638 20.703698517575774 0 20.703698517575774 -64.630374260824226 0 0 0 0 12.653138745485876 31.719893794030554 0 31.719893794030554 -12.134674793456526 0 0 0 0 23.544285275683706 91.449387723567952 0 91.449387723567952 22.205237566568428 0 0 0 0 -84.726833194326673 76.979877710950234 0 76.979877710950234 85.417626679309706 0 0 0 0 -5.9354929089190591 76.234390600720531 0 76.234390600720531 109.54057619233147 0 0 0 0 53.097682047153285 94.737186417061963 0 94.737186417061963 73.218789796435772 0 0 0 0 -182.80993957519991 20.256278424933384 0 20.256278424933384 75.832155601062141 0 0 0 0 -362.43791958741679 110.81718002615241 0 110.81718002615241 33.214706416096988 0 0 0 0 -100.7415048382976 124.36948571934698 0 124.36948571934698 -2.5746040876909539 0 0 0 0 -103.35745040045265 52.551146138216495 0 52.551146138216495 -1.875965178700632 0 0 0 0 -152.97588540561034 106.08852152962032 0 106.08852152962032 -58.366513139294739 0 0 0 0 -29.454028429778873 67.948411016072612 0 67.948411016072612 -57.918592782571523 0 0 0 0 -55.869158655207798 46.869367054181879 0 46.869367054181879 -85.193034773873549 0 0 0 0 -41.116671524156118 18.830124074069133 0 18.830124074069133 -41.645107777691436 0 0 0 0 -35.272495156654031 -10.576005110628984 0 -10.576005110628984 -79.735992487488915 0 0 0 0 -55.786022485751609 58.53019452932471 0 58.53019452932471 -157.69477967533487 0 0 0 0 -64.09291777163628 5.4157265525703053 0 5.4157265525703053 -129.43927109561557 0 0 0 0 -176.93722437043741 48.209472552989631 0 48.209472552989631 -184.73340956717021 0 0 0 0 -162.35505679947011 61.825363581628494 0 61.825363581628494 -57.738557025862065 0 0 0 0 -358.30735777851146 222.73301053185247 0 222.73301053185247 -177.96627764911864 0 0 0 0 -131.07296752445222 67.888935895572672 0 67.888935895572672 -186.83674861600184 0 0 0 0 -445.62898462385556 256.71919058642652 0 256.71919058642652 -268.69846606310261 0 0 0 0 -12.055747394217324 6.0295865636641839 0 6.0295865636641839 -3.2440632771634634 0 0 0 0 -874.21834547480466 -792.2515702058389 0 -792.2515702058389 132.01664222798306 0 0 0 0 -107.16379042325337 97.402329700670208 0 97.402329700670208 -210.11308178758111 0 0 0 0 -37.516396169594145 8.2056254026279021 0 8.2056254026279021 -193.78805562453709 0 0 0 0 -5.3931489713579595 -38.762526986311286 0 -38.762526986311286 -140.5674450437923 0 0 0 0 -32.65818155863235 -36.880013249321621 0 -36.880013249321621 -59.540710310071802 0 0 0 0 -25.613912724143972 -8.0847191779626186 0 -8.0847191779626186 -86.039394525612693 0 0 0 0 -25.945983109571898 -31.134686044411296 0 -31.134686044411296 -121.18978895287879 0 0 0 0 -100.68248822097664 36.072735146728043 0 36.072735146728043 -138.23178684374693 0 0 0 0 -29.082430074817609 -43.186912605988923 0 -43.186912605988923 -91.980502623860048 0 0 0 0 -59.173475380739035 16.209981452226941 0 16.209981452226941 -106.41927409372744 0 0 0 0 -24.178856663565625 -15.882188655950813 0 -15.882188655950813 -176.58402090264195 0 0 0 0 1.6919778011305198 -61.019747165393824 0 -61.019747165393824 -117.43380154299643 0 0 0 0 2.0646306677987241 -104.92874159667087 0 -104.92874159667087 -61.141089834746595 0 0 0 0 -38.689976988334138 -54.338916560765256 0 -54.338916560765256 -88.142438984320165 0 0 0 0 -26.326967404414745 -57.138409461472747 0 -57.138409461472747 -92.156200197713645 0 0 0 0 -37.676738674167552 -40.817716571862647 0 -40.817716571862647 -62.050477099527711 0 0 0 0 -43.394294390950051 -47.149779548751098 0 -47.149779548751098 -32.805228158147429 0 0 0 0 -33.111257623295614 -69.317373584823827 0 -69.317373584823827 -44.26750436348766 0 0 0 0 -52.878411648721794 -73.891705673700812 0 -73.891705673700812 -9.5552053477190384 0 0 0 0 -18.655698318960557 13.325527366056072 0 13.325527366056072 -9.4355619045024657 0 0 0 0 -57.620825284354623 -44.037358325174523 0 -44.037358325174523 -10.010554682519068 0 0 0 0 141.0995088682439 276.08181873622431 0 276.08181873622431 -109.39955464660216 0 0 0 0 1063.6690352434962 -816.0713117783539 0 -816.0713117783539 -2533.8108170980631 0 0 0 0 -961.2079166726071 -220.60979024636345 0 -220.60979024636345 24.467508628011274 0 0 0 0 -197.40237388409696 202.73968256796252 0 202.73968256796252 -66.39872482979581 0 0 0 0 -14.558780535751213 3.064058201593113 0 3.064058201593113 -0.78694147452190455 0 0 0 0 -1631.8461710034931 -987.74774458391039 0 -987.74774458391039 219.73013207947452 0 0 0 0 -620.46202792090753 229.64703108744857 0 229.64703108744857 13.439159691830355 0 0 0 0 -223.75020023502293 91.645304999927021 0 91.645304999927021 -2.7588927620113282 0 0 0 0 -341.19616178381921 115.05774762569052 0 115.05774762569052 15.373299843858149 0 0 0 0 -392.55970885379747 -37.448837643817626 0 -37.448837643817626 109.31680113184211 0 0 0 0 -214.19213256019066 35.028772849276038 0 35.028772849276038 24.835817754488971 0 0 0 0 -249.29092805638174 -37.576539931244227 0 -37.576539931244227 -21.705473155471282 0 0 0 0 -200.94255427512871 36.208260800652852 0 36.208260800652852 24.808129893373462 0 0 0 0 -248.01941994360368 -80.37137903364021 0 -80.37137903364021 76.033723311920312 0 0 0 0 -277.00086528727934 -83.160680904070375 0 -83.160680904070375 20.373125891004719 0 0 0 0 -226.57001538885788 -29.885057944981654 0 -29.885057944981654 44.205620939800383 0 0 0 0 -267.7535330874548 -87.996928771929959 0 -87.996928771929959 135.62696024440356 0 0 0 0 -276.73843253925224 -56.407152028674318 0 -56.407152028674318 63.858985880074329 0 0 0 0 -37.41081220007618 140.83326494911563 0 140.83326494911563 63.007404851312231 0 0 0 0 -3.5593548983033543 -112.94116567526169 0 -112.94116567526169 47.903730708793773 0 0 0 0 -15.162008788603046 11.934313736871779 0 11.934313736871779 -9.2793795316834071 0 0 0 0 -57.548531560965557 -55.97062974876485 0 -55.97062974876485 -69.704491179177893 0 0 0 0 -62.691292569458938 -17.630354624429174 0 -17.630354624429174 -56.360261133529548 0 0 0 0 2.8019880207502865 -26.039789097631797 0 -26.039789097631797 11.054363569074866 0 0 0 0 -29.779243576483168 -108.35434533634066 0 -108.35434533634066 -185.94497632532827 0 0 0 0 -96.544321656305783 113.02656417306132 0 113.02656417306132 -167.11478127685808 0 0 0 0 0.18552750877931601 0.9602939583784913 0 0.9602939583784913 -2.9133248448621982 0 0 0 0 15.810192273331722 -36.461870086488489 0 -36.461870086488489 -100.45583517599698 0 0 0 0 28.692744158717971 -4.813981101266279 0 -4.813981101266279 -86.762023411382415 0 0 0 0 -0.87162012000063172 3.372123373516124 0 3.372123373516124 -5.9168182357177619 0 0 0 0 -235.08713268437441 -10.575955302991474 0 -10.575955302991474 -17.991686141668652 0 0 0 0 -54.054051587432241 -36.781037899929657 0 -36.781037899929657 -22.530882973125472 0 0 0 0 -104.66407760654329 66.59997912238714 0 66.59997912238714 -39.390410514075143 0 0 0 0 -169.84372955179879 30.087734090504739 0 30.087734090504739 -4.8076992570276218 0 0 0 0 -209.73819924580437 110.55179285633044 0 110.55179285633044 -56.531480033416756 0 0 0 0 -174.64318149440624 -14.723146665167576 0 -14.723146665167576 -190.53743286291501 0 0 0 0 -190.15518243065389 50.45262016685632 0 50.45262016685632 62.629607288669547 0 0 0 0 -187.57113776501683 112.73832222864274 0 112.73832222864274 -13.22137248566014 0 0 0 0 -82.438119912752882 146.93590913998219 0 146.93590913998219 -3.7302841287394131 0 0 0 0 -21.279261795954881 -59.560352010887158 0 -59.560352010887158 -4.715998101443347 0 0 0 0 50.259572986295098 58.833034157523457 0 58.833034157523457 -87.460714552877562 0 0 0 0 -72.925385475166649 -42.974151381414586 0 -42.974151381414586 -69.708798320819369 0 0 0 0 -66.715150273576 6.9981806959926871 0 6.9981806959926871 -80.469018452021487 0 0 0 0 -149.39143869343934 -39.595731967175539 0 -39.595731967175539 -19.667825513616435 0 0 0 0 -200.28030129185936 -4.1090924700228015 0 -4.1090924700228015 -38.385186990168336 0 0 0 0 -209.72079370262009 10.844758830347629 0 10.844758830347629 -51.750164477426097 0 0 0 0 -223.42687496951589 -54.225567312562568 0 -54.225567312562568 43.187136020021057 0 0 0 0 127.30046157149263 114.93871868097501 0 114.93871868097501 37.160754478982085 0 0 0 0 -94.604259754905797 13.481441684044029 0 13.481441684044029 101.33949483823517 0 0 0 0 -75.5076520058592 -15.676484026816013 0 -15.676484026816013 -21.846836050165233 0 0 0 0 -100.07426968197615 -46.758944256275043 0 -46.758944256275043 67.877192859385559 0 0 0 0 -146.99559402339401 40.21530875404963 0 40.21530875404963 9.2765852919219789 0 0 0 0 -228.43314777010983 -53.248199438847564 0 -53.248199438847564 -34.157378785315089 0 0 0 0 -441.25262294458207 21.918421243301335 0 21.918421243301335 28.434746030977429 0 0 0 0 -108.83378424407624 -86.896239936867616 0 -86.896239936867616 -190.67581661173534 0 0 0 0 -72.549723328880646 46.310508459963671 0 46.310508459963671 16.467594117266003 0 0 0 0 91.54396029273812 49.971878778803728 0 49.971878778803728 -89.144998444529818 0 0 0 0 91.895568292778762 60.381866121491228 0 60.381866121491228 105.24194323922498 0 0 0 0 -46.736782331650829 2.3420596234998357 0 2.3420596234998357 -39.210448899748371 0 0 0 0 0.57988879572652241 -0.37217600691121788 0 -0.37217600691121788 2.2753918141866576 0 0 0 0 341.30361210881347 25.427001216428593 0 25.427001216428593 -58.855012203654638 0 0 0 0 -168.2987552479608 16.937982437942765 0 16.937982437942765 16.89191610617695 0 0 0 0 -155.95573746357968 26.553684608371782 0 26.553684608371782 7.6696985857452091 0 0 0 0 -115.13353799324068 2.5107130190024236 0 2.5107130190024236 15.284656823886507 0 0 0 0 -169.64765704478395 79.87548707438259 0 79.87548707438259 -29.374766523907965 0 0 0 0 -55.835007578793011 38.639841459639683 0 38.639841459639683 -40.36966589025667 0 0 0 0 -187.99470203870442 133.17609385507706 0 133.17609385507706 -72.918896581235458 0 0 0 0 -72.625932818853471 19.234982878422898 0 19.234982878422898 -22.426243607198558 0 0 0 0 -38.854672239987849 -29.181829696532986 0 -29.181829696532986 -3.0664666204656896 0 0 0 0 -3.5881356717927702 -77.733978915148782 0 -77.733978915148782 56.288427941534792 0 0 0 0 42.515129455481656 39.568233265727031 0 39.568233265727031 -83.016871491981533 0 0 0 0 -48.92888250762735 0.1049233128560445 0 0.1049233128560445 11.430863673671411 0 0 0 0 241.45158903049287 83.582830952887235 0 83.582830952887235 -72.875658768098276 0 0 0 0 -2.2964299150821939 -0.6045404441067177 0 -0.6045404441067177 8.4806798596347956 0 0 0 0 -70.109858103355691 -71.11756758620345 0 -71.11756758620345 37.383992682829557 0 0 0 0 -2.4516409454609942 -0.11773114705228238 0 -0.11773114705228238 2.4477624040908808 0 0 0 0 -62.803395188226368 11.473568584593373 0 11.473568584593373 3.1681170068135316 0 0 0 0 -22.273113681700284 3.4714333798181389 0 3.4714333798181389 6.0434661665945528 0 0 0 0 -19.521944875768035 -5.8380607795892683 0 -5.8380607795892683 9.2045808245852783 0 0 0 0 -16.51895117960521 1.4774580953041188 0 1.4774580953041188 2.7562253911900712 0 0 0 0 -29.009251310500986 15.874966484321703 0 15.874966484321703 27.280705091060668 0 0 0 0 282.28151917942182 -136.44828981999478 0 -136.44828981999478 19.899171729202465 0 0 0 0 -34.276247136619261 9.523748163617217 0 9.523748163617217 0.13234720647634557 0 0 0 0 -71.941965081126909 -1.9220730378460757 0 -1.9220730378460757 111.92101455960255 0 0 0 0 -286.41493567571871 540.20626323955844 0 540.20626323955844 497.51378085621263 0 0 0 0 -86.203391077870833 -250.7286024646445 0 -250.7286024646445 -1018.5241546384184 0 0 0 0 -262.49879544486896 932.54598436730794 0 932.54598436730794 -549.60736783646917 0 0 0 0 -370.2410364049652 -52.322825082935822 0 -52.322825082935822 -164.19278967450305 0 0 0 0 -611.20063736802683 -98.743005303840519 0 -98.743005303840519 23.626292425770202 0 0 0 0 -1544.9492722261718 -415.50644691020062 0 -415.50644691020062 -231.08832604312835 0 0 0 0 71.83884252433171 100.78941668277446 0 100.78941668277446 -238.05300470779673 0 0 0 0 -290.08448009157479 -399.1166096788229 0 -399.1166096788229 -301.52372258577304 0 0 0 0 -9.1480537995699649 1.2790396654257776 0 1.2790396654257776 1.0137735028898689 0 0 0 0 496.66142420636658 -56.368759232338562 0 -56.368759232338562 -312.33333138635101 0 0 0 0 32.929525232804735 -161.94389791507058 0 -161.94389791507058 -83.58924472013581 0 0 0 0 15.483766579819601 -25.079841836475357 0 -25.079841836475357 -40.564922005646281 0 0 0 0 116.10103719513489 -13.718560008227826 0 -13.718560008227826 -18.997816819416471 0 0 0 0 -200.15795218530195 -167.0660577144223 0 -167.0660577144223 -7.1348563417129185 0 0 0 0 -52.858716091399856 -66.342982741920565 0 -66.342982741920565 37.643816756028627 0 0 0 0 -66.274056279155161 -105.15866846014052 0 -105.15866846014052 21.36162441882243 0 0 0 0 -264.15195835551759 -85.376831698351452 0 -85.376831698351452 24.122016568771642 0 0 0 0 -254.02806822211988 -60.907641936704152 0 -60.907641936704152 66.704965954031536 0 0 0 0 -10.174155734403712 -9.0838333303191803 0 -9.0838333303191803 -18.452203433483646 0 0 0 0 -35.740040999503663 -36.635166522237199 0 -36.635166522237199 48.585011056485371 0 0 0 0 -38.761687764753447 -51.957419676125596 0 -51.957419676125596 -14.87443731203035 0 0 0 0 -13.938601488196241 -28.59125434661803 0 -28.59125434661803 -14.231515651998473 0 0 0 0 -17.72953616500314 -22.637248504243075 0 -22.637248504243075 -22.312390641604566 0 0 0 0 -16.804813510513497 -10.931319833051418 0 -10.931319833051418 7.8918720090489387 0 0 0 0 -19.737197075541474 -4.9222234616635205 0 -4.9222234616635205 -31.733855320406207 0 0 0 0 -15.808780877559172 10.486753515020951 0 10.486753515020951 -62.405585321643315 0 0 0 0 -15.578689835064836 -12.876635466008111 0 -12.876635466008111 -18.790892645150496 0 0 0 0 -97.527207974647411 -57.318951402180673 0 -57.318951402180673 29.660952228868496 0 0 0 0 -38.113571353645952 5.9369825267152905 0 5.9369825267152905 1.6848706220301215 0 0 0 0 -6.2935259797431558 -1.395084341702707 0 -1.395084341702707 -0.10393452707027251 0 0 0 0 -84.398520019498392 210.38510063614774 0 210.38510063614774 322.29980188590059 0 0 0 0 36.525597158206438 179.41869522637188 0 179.41869522637188 39.598473525120852 0 0 0 0 -20.125509448217962 3.7377198212710128 0 3.7377198212710128 2.2025677174891305 0 0 0 0 106.0401373382665 92.305678301046413 0 92.305678301046413 61.181728111546988 0 0 0 0 98.75598603448816 182.28993340579586 0 182.28993340579586 91.93573920364355 0 0 0 0 134.60767868931725 39.302834828443025 0 39.302834828443025 84.231046846057723 0 0 0 0 -54.348868260207382 91.815709483353118 0 91.815709483353118 80.428504941535863 0 0 0 0 119.70281196897486 92.949569722980186 0 92.949569722980186 -108.64074420566976 0 0 0 0 -83.146839630876457 172.50982404430908 0 172.50982404430908 -138.30521992557351 0 0 0 0 -414.50473547680122 69.101093535413312 0 69.101093535413312 90.066481093584571 0 0 0 0 -573.52263579981081 -96.600093961985209 0 -96.600093961985209 -110.56229518943675 0 0 0 0 -796.43060480543772 -478.62917225777528 0 -478.62917225777528 29.411941289086826 0 0 0 0 -1188.7929264653976 -439.2047809784608 0 -439.2047809784608 193.11860652075302 0 0 0 0 -807.95161703582562 -442.35916832001965 0 -442.35916832001965 60.041175725696093 0 0 0 0 -87.430625122903621 -103.76644447344339 0 -103.76644447344339 -13.072028639584829 0 0 0 0 -425.44404467691595 -238.71140570009911 0 -238.71140570009911 1.4793298563794792 0 0 0 0 -48.362508580177547 60.849697894482787 0 60.849697894482787 72.076140075855051 0 0 0 0 -342.00245437814556 -15.222042786120539 0 -15.222042786120539 304.72432178966102 0 0 0 0 -38.791310286753728 2.4780128525620988 0 2.4780128525620988 2.4738430105279585 0 0 0 0 -705.23621135552958 -642.00189171285115 0 -642.00189171285115 -326.10609263056165 0 0 0 0 -131.36447717416013 -308.58113903840785 0 -308.58113903840785 -297.48571504166836 0 0 0 0 -31.496517405861454 1.0617854091262831 0 1.0617854091262831 1.8955918395269025 0 0 0 0 -74.84229393609462 -80.859886660858308 0 -80.859886660858308 372.13462782901252 0 0 0 0 -19.582527440591889 -39.531268636584372 0 -39.531268636584372 58.267825210255694 0 0 0 0 -54.227036730061059 -125.79100514715151 0 -125.79100514715151 0.74296627310794605 0 0 0 0 -16.266350624063236 -14.094584855657086 0 -14.094584855657086 75.177544674303959 0 0 0 0 0.22539403038186312 0.39329518464298918 0 0.39329518464298918 -0.041866583163668647 0 0 0 0 -738.73831866606861 662.39864941857786 0 662.39864941857786 176.04162960084949 0 0 0 0 -13.591147137024993 -0.77951590897618495 0 -0.77951590897618495 -0.026463744974147052 0 0 0 0 74.526011836214138 -171.76564607945943 0 -171.76564607945943 -71.376022094027405 0 0 0 0 -976.51818481864211 -467.19552982236422 0 -467.19552982236422 -205.69132711109313 0 0 0 0 -2494.9102823886569 -1852.5812718281666 0 -1852.5812718281666 -1130.789233096328 0 0 0 0 -1020.2542500702702 -612.01722110125831 0 -612.01722110125831 -87.248884804845659 0 0 0 0 -2500.3454024062335 -1213.6868168237188 0 -1213.6868168237188 -61.251037970650636 0 0 0 0 -1570.1160175348477 -473.74902113392392 0 -473.74902113392392 283.27648738563857 0 0 0 0 -937.99135597254826 -769.35115786056201 0 -769.35115786056201 -233.85037961498611 0 0 0 0 -1128.1647180378586 -323.59682528050524 0 -323.59682528050524 333.80512890216323 0 0 0 0 -2499.785041538019 -173.77676231827348 0 -173.77676231827348 559.9159922082049 0 0 0 0 -638.20579576604177 257.17200683179414 0 257.17200683179414 430.42904272503495 0 0 0 0 -803.85372673092957 -797.03730481958087 0 -797.03730481958087 631.33020312241558 0 0 0 0 -1166.0696739708837 -312.31014841300578 0 -312.31014841300578 312.01598154668915 0 0 0 0 -1045.1255795538132 195.46520927238143 0 195.46520927238143 -69.565443509507986 0 0 0 0 -0.80588209301216462 0.053464716932598577 0 0.053464716932598577 -2.3721368822349804 0 0 0 0 -651.55165216272144 -75.413835435613578 0 -75.413835435613578 -107.61699602436852 0 0 0 0 -1653.0793718838449 -187.45409760103445 0 -187.45409760103445 146.73506104712271 0 0 0 0 -906.08461868490849 97.822379246373089 0 97.822379246373089 99.27764053038095 0 0 0 0 -355.26789946985809 9.4521294373536193 0 9.4521294373536193 60.237834757161181 0 0 0 0 -1.1527244198936479 0.020670174709344735 0 0.020670174709344735 -5.2663148981249703 0 0 0 0 -1641.4073235491323 749.55643169776226 0 749.55643169776226 104.12405549448079 0 0 0 0 -7.2997981604719513 -1.6663344091119736 0 -1.6663344091119736 1.0519875675712416 0 0 0 0 -881.29048656651867 597.05935894831805 0 597.05935894831805 132.21753837334268 0 0 0 0 -1227.6239931209184 365.16150220553891 0 365.16150220553891 132.90167570062158 0 0 0 0 -1170.91920064437 102.27283587530314 0 102.27283587530314 183.33417113061796 0 0 0 0 -743.56616116411351 116.31065608012997 0 116.31065608012997 -69.91423614488906 0 0 0 0 -235.09621173074811 -9.7292765857044401 0 -9.7292765857044401 9.0164807068110804 0 0 0 0 -0.49494397461483519 0.42493043073481118 0 0.42493043073481118 -5.6251247119676293 0 0 0 0 -353.40340777853635 673.89410529783356 0 673.89410529783356 -788.84482716854279 0 0 0 0 -199.84013300565857 -1.022574570668553 0 -1.022574570668553 -17.66235465504306 0 0 0 0 -971.36856204939068 423.44652088770238 0 423.44652088770238 68.14658446507957 0 0 0 0 -920.57037324920623 306.84911149432628 0 306.84911149432628 -243.80272597396572 0 0 0 0 -920.73782150685292 343.66880871782195 0 343.66880871782195 -361.52590624526033 0 0 0 0 -931.4214449391875 461.8879775406653 0 461.8879775406653 -419.2735467196336 0 0 0 0 -952.12815179484824 449.54682381507712 0 449.54682381507712 -201.60532003293338 0 0 0 0 -1092.8696484761222 223.13981465851697 0 223.13981465851697 18.694188421609852 0 0 0 0 -898.42156775568219 379.84708636496089 0 379.84708636496089 -130.18906562544802 0 0 0 0 -1116.032288011229 412.15992816948011 0 412.15992816948011 -134.34777754791514 0 0 0 0 -1440.6466149178086 295.99015384901543 0 295.99015384901543 32.041843036029491 0 0 0 0 -2493.2615152446888 -136.15181817786291 0 -136.15181817786291 463.50070828381962 0 0 0 0 -833.00399296041996 -625.74398383010214 0 -625.74398383010214 574.43886388739566 0 0 0 0 -2496.1109019506521 796.77090264362323 0 796.77090264362323 329.27179761681828 0 0 0 0 -7.9788011702201089 -1.318467671873897 0 -1.318467671873897 1.3082465803457037 0 0 0 0 -368.36812535506033 211.93505685397002 0 211.93505685397002 -58.583597520570322 0 0 0 0 34.521569709881078 78.155605542842522 0 78.155605542842522 5.8977556643767457 0 0 0 0 -215.07471458260989 14.753561207532584 0 14.753561207532584 61.09638987467315 0 0 0 0 -4.8832913418199961 -23.206085442835388 0 -23.206085442835388 17.344159338083159 0 0 0 0 -73.910103515569062 -17.734913145353858 0 -17.734913145353858 -23.053335349546614 0 0 0 0 -114.21392650641064 42.658649923883786 0 42.658649923883786 14.373324865048744 0 0 0 0 -107.40036501704162 25.573891052956242 0 25.573891052956242 40.259861728378667 0 0 0 0 -65.554774485171038 -43.638024913020899 0 -43.638024913020899 38.036326966670458 0 0 0 0 -112.3556930913619 -22.603206151906306 0 -22.603206151906306 -44.699464327220539 0 0 0 0 -184.54726587517143 -74.704622166048011 0 -74.704622166048011 -60.680956851505016 0 0 0 0 -244.92235818114932 -43.025713252004607 0 -43.025713252004607 -19.623147704938106 0 0 0 0 -250.25749009187621 -62.672598812501803 0 -62.672598812501803 -20.024756713257375 0 0 0 0 -8.1276922831167759 8.0554147668334402 0 8.0554147668334402 -1.7134314736991918 0 0 0 0 -184.57204966062636 -70.635173966789353 0 -70.635173966789353 -37.092162755999198 0 0 0 0 74.442133347280105 86.993287238954281 0 86.993287238954281 52.667692691640696 0 0 0 0 -278.06548664250937 -75.880432082157398 0 -75.880432082157398 -18.87886107813938 0 0 0 0 -278.3420830618752 -118.74716334050913 0 -118.74716334050913 -61.473951556833526 0 0 0 0 -9.0717371764380488 7.3535980267227252 0 7.3535980267227252 -1.6225490976157992 0 0 0 0 -6.5303268436025697 5.7728632993905435 0 5.7728632993905435 -2.4047190653202151 0 0 0 0 -90.159417155729898 2.6819208599458761 0 2.6819208599458761 103.6826103771341 0 0 0 0 -84.267536406538056 1.5340528827193793 0 1.5340528827193793 14.463334777768523 0 0 0 0 -77.986238419300207 16.992863519377806 0 16.992863519377806 63.328741187592641 0 0 0 0 -80.041651723783616 30.581449387125758 0 30.581449387125758 -18.564007514067271 0 0 0 0 -213.07535416911014 -20.456161857438246 0 -20.456161857438246 54.680425598270631 0 0 0 0 -5.971689089771731 -25.706973702810686 0 -25.706973702810686 6.4046939597612145 0 0 0 0 -34.432690805989751 -20.698238737520796 0 -20.698238737520796 -2.92315453590993 0 0 0 0 -30.686839324991922 -33.149906426418227 0 -33.149906426418227 -4.2101241057353036 0 0 0 0 -26.829416888320338 -17.436433095879579 0 -17.436433095879579 6.292432112633378 0 0 0 0 -49.987530876262554 -19.684242720894247 0 -19.684242720894247 6.8806781532093737 0 0 0 0 -44.130450927835909 -31.314476111919248 0 -31.314476111919248 4.1286624864162604 0 0 0 0 -39.681644242391485 -41.159622067865257 0 -41.159622067865257 6.9864889052241779 0 0 0 0 -3.9383646284061342 -17.805212404264239 0 -17.805212404264239 -5.1160619395698319 0 0 0 0 -39.910725764808717 -37.345569217826323 0 -37.345569217826323 -3.0916962788232922 0 0 0 0 -99.134632779805315 -64.587072469352904 0 -64.587072469352904 4.0589826271607308 0 0 0 0 -27.580971866938171 -69.959244446403318 0 -69.959244446403318 -32.03987730354379 0 0 0 0 -102.06125942650648 37.274777180086396 0 37.274777180086396 -3.7936341131504037 0 0 0 0 0.52772518976278882 0.929855690548818 0 0.929855690548818 0.0077134496315860446 0 0 0 0 -100.21321412968678 35.286990787095192 0 35.286990787095192 -1.6697827012793169 0 0 0 0 -57.690437936627973 -18.84783187354337 0 -18.84783187354337 34.417621049050013 0 0 0 0 -32.191881800084502 -28.699825101213719 0 -28.699825101213719 42.081686928891486 0 0 0 0 55.017626779132684 -57.832327211557981 0 -57.832327211557981 30.440390746917274 0 0 0 0 -23.640054988754855 -23.50410615583462 0 -23.50410615583462 29.952749418052633 0 0 0 0 -26.321364014448136 -31.41908954480499 0 -31.41908954480499 22.512033597602453 0 0 0 0 1.612680884251267 1.559064438724505 0 1.559064438724505 0.73807927615447566 0 0 0 0 3.5571316680216114 -29.164565752023151 0 -29.164565752023151 24.035811658009422 0 0 0 0 -9.956058265901861 1.2204813909771426 0 1.2204813909771426 3.2309546367675153 0 0 0 0 -37.572199736274342 -9.5260005464142523 0 -9.5260005464142523 19.559837943877483 0 0 0 0 -52.319844638704126 -10.440508982957226 0 -10.440508982957226 19.589911763212807 0 0 0 0 -37.693856465501085 -24.409652830064296 0 -24.409652830064296 39.256548220106509 0 0 0 0 -48.256461822688834 -28.267969762271036 0 -28.267969762271036 13.152815598395023 0 0 0 0 -31.14863560888989 -22.737709189064461 0 -22.737709189064461 14.41220451824762 0 0 0 0 -57.766929118519556 0.88073480325590481 0 0.88073480325590481 4.1949438366964671 0 0 0 0 -112.5966492961532 41.649211122267701 0 41.649211122267701 11.868391281087042 0 0 0 0 -61.149580409038094 20.201920982516526 0 20.201920982516526 40.129796464897026 0 0 0 0 -75.040658498127414 -7.3407820468005411 0 -7.3407820468005411 2.0730127533938685 0 0 0 0 -71.768158999268906 12.381859392886895 0 12.381859392886895 41.486380050789307 0 0 0 0 -39.422381970751417 -46.325809267808381 0 -46.325809267808381 75.987604963309082 0 0 0 0 -35.172536108879825 -11.771679593120389 0 -11.771679593120389 -3.9811184231016075 0 0 0 0 -22.255915112502407 -49.487467847754516 0 -49.487467847754516 42.024902239684337 0 0 0 0 -29.355883120480939 -8.4463261346345462 0 -8.4463261346345462 3.4377816004913484 0 0 0 0 -28.294128656270914 -6.9214526291575567 0 -6.9214526291575567 13.53882260840453 0 0 0 0 -37.63800430855003 -9.9051052602484226 0 -9.9051052602484226 -0.62114255974927568 0 0 0 0 -27.368259157188504 -17.069486110948201 0 -17.069486110948201 3.8478497825824434 0 0 0 0 -77.313437998869631 -16.230247796928325 0 -16.230247796928325 52.019965261707057 0 0 0 0 -47.492953440632846 -10.909106506639091 0 -10.909106506639091 10.104529038500004 0 0 0 0 -19.532624825359733 -2.3952132211688539 0 -2.3952132211688539 3.3357545677071041 0 0 0 0 -26.467774741729954 -3.7368664385820693 0 -3.7368664385820693 5.6093208689392213 0 0 0 0 -24.075243560360867 -7.4409103023488736 0 -7.4409103023488736 3.7405613190095854 0 0 0 0 -19.307823906969872 3.0912728294862699 0 3.0912728294862699 6.6240629894026002 0 0 0 0 -7.5151673519404483 -0.35811011665703507 0 -0.35811011665703507 0.35970978636719875 0 0 0 0 2.0946646719166893 -9.0288330206348064 0 -9.0288330206348064 -55.054766617979226 0 0 0 0 -25.566586828370461 -2.0455564698161037 0 -2.0455564698161037 2.4404127718297941 0 0 0 0 -41.541639260878583 1.9336806325136422 0 1.9336806325136422 7.2613828960288629 0 0 0 0 -18.652494957450351 -1.543462662390839 0 -1.543462662390839 15.224428021657197 0 0 0 0 -62.439846102974684 -33.792511953068242 0 -33.792511953068242 1.2879565256498609 0 0 0 0 -51.407836175303601 -16.106395203915326 0 -16.106395203915326 15.279735494044871 0 0 0 0 -38.907093767849801 -8.4070015359812942 0 -8.4070015359812942 -4.2747437144789728 0 0 0 0 -25.905096984949655 -6.2030728666432928 0 -6.2030728666432928 0.88707533080742174 0 0 0 0 -24.05410908244739 -1.2752673904960998 0 -1.2752673904960998 15.806009958871611 0 0 0 0 -37.481887743782977 13.168156402297427 0 13.168156402297427 -23.107026335324008 0 0 0 0 -44.344129192446417 -13.325335634980547 0 -13.325335634980547 -3.6587461052458821 0 0 0 0 -8.5455389961554804 -3.5531383682096154 0 -3.5531383682096154 3.7585623269393036 0 0 0 0 -59.587153550964103 0.88783191542927398 0 0.88783191542927398 10.259290889772274 0 0 0 0 -88.427597084713852 17.769265592108184 0 17.769265592108184 36.783057886784263 0 0 0 0 -37.321940243005884 -12.8649202958768 0 -12.8649202958768 -2.3024094578977383 0 0 0 0 -30.882687034570452 6.9666378545771188 0 6.9666378545771188 10.666789033012329 0 0 0 0 -23.690241321689427 14.264803093907176 0 14.264803093907176 -14.856679051423271 0 0 0 0 -38.371540413787557 -3.9072601467344663 0 -3.9072601467344663 8.743148186046735 0 0 0 0 -14.190227143313678 10.357067884822754 0 10.357067884822754 40.69649074881454 0 0 0 0 -31.111184086934507 -22.368560394109743 0 -22.368560394109743 2.1840059633303746 0 0 0 0 -34.939289520305692 12.697813950903623 0 12.697813950903623 16.229795200169974 0 0 0 0 -11.265109766500245 6.9904513815945393 0 6.9904513815945393 16.004446230851443 0 0 0 0 -0.46837251843701821 -0.36526977960963447 0 -0.36526977960963447 0.76963503246561782 0 0 0 0 -34.600523745449152 -3.7491193752169822 0 -3.7491193752169822 2.2701697117627928 0 0 0 0 -49.479300125799469 -0.88936039088992658 0 -0.88936039088992658 13.746679553792788 0 0 0 0 -21.610997857618713 -3.1555680969296418 0 -3.1555680969296418 18.262387777841013 0 0 0 0 -17.59022022092369 -8.2087506702406472 0 -8.2087506702406472 5.361003271879321 0 0 0 0 -21.079727522810572 -2.0109801435837653 0 -2.0109801435837653 12.58192874438646 0 0 0 0 -20.554072785110748 20.75091449772853 0 20.75091449772853 16.072128797084925 0 0 0 0 -36.864752387867355 -6.0564267339846865 0 -6.0564267339846865 9.6241200037135801 0 0 0 0 -13.37376781871717 -3.8078286699264936 0 -3.8078286699264936 17.572549758720015 0 0 0 0 -3.5798394687662949 -20.016785223748229 0 -20.016785223748229 -15.926158244874387 0 0 0 0 -42.885255034081062 -3.6353795306271497 0 -3.6353795306271497 9.8958026145134248 0 0 0 0 -49.46836062008515 -15.169661618598639 0 -15.169661618598639 11.681019410639237 0 0 0 0 -28.414023778922022 -6.8527463733030949 0 -6.8527463733030949 2.6710143361136698 0 0 0 0 -58.020847804775258 -11.275790789577059 0 -11.275790789577059 4.7651892931407929 0 0 0 0 -58.220818779722322 -7.1689044124559587 0 -7.1689044124559587 -6.3558124072428654 0 0 0 0 -47.831472113226482 -12.970583987660575 0 -12.970583987660575 -0.23701471820550069 0 0 0 0 -57.941625315746933 -18.719763054556097 0 -18.719763054556097 -1.1109791801618485 0 0 0 0 -44.76378775143894 -10.531984570329996 0 -10.531984570329996 7.5936420145644661 0 0 0 0 -30.084928206194725 -4.1732278199103163 0 -4.1732278199103163 7.6098734022195771 0 0 0 0 -56.045955107783811 -8.5630464798093726 0 -8.5630464798093726 7.8469008756455878 0 0 0 0 -25.440782915206071 -9.7242917498786916 0 -9.7242917498786916 2.6964938005261381 0 0 0 0 -62.259123311350777 -8.0584189372748369 0 -8.0584189372748369 3.8170905038905403 0 0 0 0 -22.127723965688883 -4.13241628409288 0 -4.13241628409288 3.6335211621589947 0 0 0 0 -34.060678663001454 -5.0474085523901522 0 -5.0474085523901522 5.7586984936133376 0 0 0 0 -32.791454091982679 -1.6767753967323351 0 -1.6767753967323351 -0.31752962447880329 0 0 0 0 -44.45519971408951 -6.2174262797876167 0 -6.2174262797876167 4.1476199780002752 0 0 0 0 -87.795757385007619 -17.919537978103108 0 -17.919537978103108 20.56831321077334 0 0 0 0 -27.414316181520597 2.9547389865839362 0 2.9547389865839362 6.3944096454420141 0 0 0 0 -83.708738935263682 -13.552952332479435 0 -13.552952332479435 25.175531067819975 0 0 0 0 -51.957829283419414 -5.0897528606753895 0 -5.0897528606753895 5.0609742407159501 0 0 0 0 -57.063609239246361 -14.141427556265477 0 -14.141427556265477 3.6246822299169246 0 0 0 0 -48.942008076575348 -5.1842909676779527 0 -5.1842909676779527 -1.0226398233708096 0 0 0 0 -47.420709753718256 -12.698991330218632 0 -12.698991330218632 9.1762341753028522 0 0 0 0 -241.90853233656617 2.5239155339545505 0 2.5239155339545505 32.935907642357051 0 0 0 0 -66.822302795387998 -13.018503785848351 0 -13.018503785848351 9.5360512921671337 0 0 0 0 -118.01181639923675 -25.011520675778911 0 -25.011520675778911 21.266538897809369 0 0 0 0 -117.20262592365316 -29.324739185764884 0 -29.324739185764884 37.092896782709431 0 0 0 0 -34.163897106316789 -23.167658332902587 0 -23.167658332902587 11.78259110231398 0 0 0 0 -74.302564884943422 -13.702495624904259 0 -13.702495624904259 17.169355866193655 0 0 0 0 -98.908682250921629 -1.9107994076348405 0 -1.9107994076348405 8.5891216254876781 0 0 0 0 7.676113178775422 -2.1479300034435482 0 -2.1479300034435482 -2.0495455435628713 0 0 0 0 -235.77946925096148 -17.687088789531117 0 -17.687088789531117 7.191572125593666 0 0 0 0 -49.797922351996476 -39.688271502945099 0 -39.688271502945099 -31.958715261283942 0 0 0 0 -69.264241410201066 -45.601813291077633 0 -45.601813291077633 -16.771043769475 0 0 0 0 -117.65999313598195 -40.482322741130702 0 -40.482322741130702 -2.240246378845768 0 0 0 0 -19.232197183803848 -29.302005243120458 0 -29.302005243120458 7.9617782266357757 0 0 0 0 -45.379267818498192 -42.179831691542176 0 -42.179831691542176 -8.1629277783285943 0 0 0 0 -94.331305127381711 -61.000748606938487 0 -61.000748606938487 10.759471601593759 0 0 0 0 -28.350734105880605 3.0586348787956683 0 3.0586348787956683 6.5972269819291682 0 0 0 0 -120.72196870845846 -7.1335236189624993 0 -7.1335236189624993 12.623754288687906 0 0 0 0 -22.635194702930143 -8.5955317426441908 0 -8.5955317426441908 27.268085798196921 0 0 0 0 -90.374806312465807 -62.163096831849543 0 -62.163096831849543 3.5586886661476456 0 0 0 0 -114.11256379323822 -35.723737781725504 0 -35.723737781725504 16.600887152053474 0 0 0 0 -74.771186621826928 -40.382800804709404 0 -40.382800804709404 5.9663603213411989 0 0 0 0 -115.60840946988128 -45.292368079575908 0 -45.292368079575908 12.211155934059207 0 0 0 0 -113.3105552079719 -38.063071017048287 0 -38.063071017048287 13.114199249579542 0 0 0 0 -143.24319482529245 -52.473312596050164 0 -52.473312596050164 11.382571492297757 0 0 0 0 -77.586066088500957 -63.712115643515062 0 -63.712115643515062 -1.4610458908573491 0 0 0 0 -111.21298448898779 -52.602615886365356 0 -52.602615886365356 4.864361664695025 0 0 0 0 -96.15193817288673 -50.439204367365164 0 -50.439204367365164 -1.844619223213158 0 0 0 0 -90.374806312476721 -62.163096831853181 0 -62.163096831853181 3.5586886661731114 0 0 0 0 -114.80624598859504 -53.104572316485246 0 -53.104572316485246 38.932465671226964 0 0 0 0 -20.243685224518043 5.9609606594298725 0 5.9609606594298725 1.465185972503992 0 0 0 0 -101.34626165450754 -55.22132126586439 0 -55.22132126586439 0.22393951365029352 0 0 0 0 -6.4368035229039151 -2.9316283059491113 0 -2.9316283059491113 3.27419733828674 0 0 0 0 -117.46712646537344 35.871928127278807 0 35.871928127278807 30.45069335505832 0 0 0 0 -109.12671787069121 -51.460627011338147 0 -51.460627011338147 1.5088600785747985 0 0 0 0 -108.31886037426648 -50.510319313699256 0 -50.510319313699256 -0.56608650630732882 0 0 0 0 -108.38810229530282 -50.041521201479554 0 -50.041521201479554 0.52999278681818396 0 0 0 0 -108.86293743177066 -51.873507042512301 0 -51.873507042512301 -0.80822390966568491 0 0 0 0 -11.040867035508366 -24.654371215368762 0 -24.654371215368762 27.740518014416153 0 0 0 0 -120.2086468109519 41.458149359936215 0 41.458149359936215 27.006425222429243 0 0 0 0 -40.8545628392867 -31.256086932161132 0 -31.256086932161132 33.753707486417028 0 0 0 0 -90.374806312494911 -62.163096831827716 0 -62.163096831827716 3.5586886661471908 0 0 0 0 -236.87729839231042 -39.518456648208257 0 -39.518456648208257 18.488034090722067 0 0 0 0 -153.4196498007841 -73.059670425202967 0 -73.059670425202967 27.813218172138477 0 0 0 0 -180.38697833689366 -40.974708494733932 0 -40.974708494733932 14.337807773623354 0 0 0 0 -182.03002771760293 -48.820756774105575 0 -48.820756774105575 -21.456287710291917 0 0 0 0 -184.34573487184116 -44.806265263146997 0 -44.806265263146997 32.173597758301185 0 0 0 0 -146.7587347011322 -66.012368316485663 0 -66.012368316485663 15.554928527052823 0 0 0 0 -183.60576213983404 -48.646813706486682 0 -48.646813706486682 15.156826494528786 0 0 0 0 -191.52318719738287 -52.590728639646841 0 -52.590728639646841 37.904882175382227 0 0 0 0 -176.18255044019133 -55.978786744156423 0 -55.978786744156423 27.414846830234183 0 0 0 0 -164.15761731833663 -26.53156505842162 0 -26.53156505842162 36.897404101777283 0 0 0 0 -206.91150829390472 -69.749693549737458 0 -69.749693549737458 1.3890325158899941 0 0 0 0 -202.1403699427492 -52.783047640454242 0 -52.783047640454242 38.265367698530099 0 0 0 0 -176.89847169472159 -36.3062745517027 0 -36.3062745517027 -5.4595733029727853 0 0 0 0 -179.22219894186674 -46.823196062104842 0 -46.823196062104842 33.257646953914445 0 0 0 0 -174.88912727280012 -35.945796047729345 0 -35.945796047729345 20.704508994958815 0 0 0 0 -107.42856035230579 -60.593820377051543 0 -60.593820377051543 11.477958620729169 0 0 0 0 -0.51126571467583926 -1.0159583239952195 0 -1.0159583239952195 0.45176314432121956 0 0 0 0 -276.129920442002 14.430946400311313 0 14.430946400311313 27.773582282793541 0 0 0 0 -213.63468258568901 27.707043143321243 0 27.707043143321243 -0.33603706371650333 0 0 0 0 -206.23825820008824 -3.7983302140874002 0 -3.7983302140874002 6.6141117752372338 0 0 0 0 -179.37750625280114 29.854971740035126 0 29.854971740035126 14.880100640528326 0 0 0 0 0.078860845289504766 -0.2507499606541197 0 -0.2507499606541197 0.34426660651577379 0 0 0 0 -232.98171119918879 85.65783766855111 0 85.65783766855111 -16.193268378606717 0 0 0 0 -41.675158994271442 -15.800578838666752 0 -15.800578838666752 47.814689476923377 0 0 0 0 -156.10808266870481 29.238088394746228 0 29.238088394746228 20.712627983653874 0 0 0 0 -141.83691614064173 8.2663087194205218 0 8.2663087194205218 48.271286949928253 0 0 0 0 -191.88153151415281 -1.9879859822322032 0 -1.9879859822322032 10.677678633900655 0 0 0 0 -177.90682904210553 -5.2281132041116507 0 -5.2281132041116507 18.259342755954606 0 0 0 0 -193.05854923211882 11.102345928107752 0 11.102345928107752 14.203657521142304 0 0 0 0 -146.9733651427423 26.233082595938413 0 26.233082595938413 22.060793656748501 0 0 0 0 -166.11957888476809 2.5533754553380277 0 2.5533754553380277 11.915919471752886 0 0 0 0 -184.17024940774627 11.299179667119461 0 11.299179667119461 12.776231387651023 0 0 0 0 -210.89358204099517 -7.9544801430765801 0 -7.9544801430765801 18.588438568211131 0 0 0 0 -211.196414463785 -5.6859786891882322 0 -5.6859786891882322 5.0509340087082819 0 0 0 0 -221.97170229082212 -14.297258453073709 0 -14.297258453073709 -5.4128601836964663 0 0 0 0 -0.74790098159608398 -1.3633465977373191 0 -1.3633465977373191 0.73670401412879727 0 0 0 0 -221.61827081000229 -24.300582886972279 0 -24.300582886972279 22.537162364623327 0 0 0 0 -224.44207323460159 -29.233922326621723 0 -29.233922326621723 15.981166777172803 0 0 0 0 -208.83292211450407 -7.7601792550144637 0 -7.7601792550144637 0.93869474762141181 0 0 0 0 -228.70384227863724 -2.0921247149262854 0 -2.0921247149262854 15.641979498953333 0 0 0 0 -89.923954624724502 -22.759459369010983 0 -22.759459369010983 -24.94230877220707 0 0 0 0 -90.843192043241288 -25.683930706905358 0 -25.683930706905358 -28.257812136469511 0 0 0 0 -81.153250682252747 -22.061264473517781 0 -22.061264473517781 -43.611940449060057 0 0 0 0 -65.256369860686391 -6.861206279751741 0 -6.861206279751741 -48.247911497284804 0 0 0 0 -84.583359603042481 -7.6145230326028468 0 -7.6145230326028468 -32.332331485185932 0 0 0 0 -201.02839795402724 17.834331684947756 0 17.834331684947756 -158.4321812602102 0 0 0 0 -11.236705780288414 8.0266778990628502 0 8.0266778990628502 -10.45213285103096 0 0 0 0 -141.92427370869154 58.080013379492357 0 58.080013379492357 -73.988886624301813 0 0 0 0 -84.089193386548914 0.23040561947189531 0 0.23040561947189531 -88.718786879331674 0 0 0 0 -16.164347291753799 -0.62891286935066404 0 -0.62891286935066404 0.39175070015711455 0 0 0 0 -87.845928846312745 -24.775908213093317 0 -24.775908213093317 -52.595819976877465 0 0 0 0 -239.81223381027621 -55.492511029016669 0 -55.492511029016669 55.05402263245378 0 0 0 0 -70.487396285682394 54.361600048064759 0 54.361600048064759 22.630869974036614 0 0 0 0 -18.661678531948361 1.6456403680716303 0 1.6456403680716303 0.10553788775979456 0 0 0 0 -49.389293280320196 28.61996686069805 0 28.61996686069805 -6.3708689042385416 0 0 0 0 -45.570594858385448 69.979650143970503 0 69.979650143970503 23.020718638030303 0 0 0 0 -43.147199333610843 46.582073522113205 0 46.582073522113205 21.525476732233074 0 0 0 0 -62.250635697708276 60.783760711981813 0 60.783760711981813 20.51205675725214 0 0 0 0 -60.697689573814387 57.164013695383801 0 57.164013695383801 23.659481144371966 0 0 0 0 -11.141056688676372 62.485081592800498 0 62.485081592800498 17.046942664048402 0 0 0 0 -41.50085166717821 26.680339899221785 0 26.680339899221785 -3.5994552698994156 0 0 0 0 -52.9242836266003 54.064604851737386 0 54.064604851737386 15.352499519065077 0 0 0 0 -76.740904664701759 -6.7700863540312071 0 -6.7700863540312071 12.885663646273315 0 0 0 0 -51.068419827689922 41.079305423614016 0 41.079305423614016 25.37254967597255 0 0 0 0 -73.077647838297707 23.097879970928261 0 23.097879970928261 11.295897415193771 0 0 0 0 -89.003768380769543 35.57835437369522 0 35.57835437369522 23.512640544702663 0 0 0 0 -94.688391927387784 42.255348917774427 0 42.255348917774427 25.949106813957769 0 0 0 0 -134.30091793574684 17.087995980238702 0 17.087995980238702 20.727214189437177 0 0 0 0 -103.83365693820178 49.07784678952703 0 49.07784678952703 25.949800244368816 0 0 0 0 -151.36659097639586 40.596050998537066 0 40.596050998537066 21.198260242187644 0 0 0 0 -110.58203899042201 29.925715322707219 0 29.925715322707219 15.332343989064611 0 0 0 0 -107.35341496491492 50.87912915763718 0 50.87912915763718 35.601732803652339 0 0 0 0 -76.391669773001013 49.014131783602352 0 49.014131783602352 14.27464389318402 0 0 0 0 -65.27283959023589 66.423071483863168 0 66.423071483863168 29.484210917376004 0 0 0 0 -99.176371999488765 45.145820055328841 0 45.145820055328841 25.855204295554358 0 0 0 0 -58.075403342538266 57.727296431757168 0 57.727296431757168 30.095055712768954 0 0 0 0 10.624378743635134 51.585626230199523 0 51.585626230199523 13.856211828401683 0 0 0 0 -30.302609731897974 80.912052833111375 0 80.912052833111375 31.989479151092382 0 0 0 0 -70.365192365054099 73.660200017887519 0 73.660200017887519 44.80531751352828 0 0 0 0 -37.508736678537389 51.962403577146688 0 51.962403577146688 39.820023506163125 0 0 0 0 -47.010331280029277 43.000214895241697 0 43.000214895241697 8.4522715012490153 0 0 0 0 -46.179787452831079 59.288124620963572 0 59.288124620963572 56.352250792326231 0 0 0 0 -4.091133715786782 85.092216534688305 0 85.092216534688305 27.177654000357506 0 0 0 0 20.293218043378147 38.104822478775986 0 38.104822478775986 88.596497887283476 0 0 0 0 124.63878565347659 12.109778502039262 0 12.109778502039262 4.5286596317655494 0 0 0 0 55.181248794663588 -65.833624347538716 0 -65.833624347538716 -157.87372632249753 0 0 0 0 -15.566935090183076 0.21318262725785964 0 0.21318262725785964 -2.750587489936251 0 0 0 0 -196.70076625404681 2.1758154235712936 0 2.1758154235712936 75.910192223785998 0 0 0 0 -76.101531364000039 13.914440205018764 0 13.914440205018764 -33.002672687989161 0 0 0 0 -42.316795608527379 23.196257281961518 0 23.196257281961518 0.46845122500753433 0 0 0 0 27.624836074641507 85.762595663967659 0 85.762595663967659 28.835074433342015 0 0 0 0 -2.3578196967267289 1.6303754550941871 0 1.6303754550941871 0.22845099955317494 0 0 0 0 9.0480448387188517 61.078325531223527 0 61.078325531223527 -59.683792329529751 0 0 0 0 -61.1678491642474 70.434629062222882 0 70.434629062222882 -35.996526321878264 0 0 0 0 1.9230036891902227 0.083009747752724294 0 0.083009747752724294 -1.55700504445322 0 0 0 0 -305.12825481205084 -89.615219288147955 0 -89.615219288147955 41.5195693944097 0 0 0 0 189.1585884721776 125.72413763828899 0 125.72413763828899 -40.934446282422869 0 0 0 0 42.791251144129092 147.45302475735934 0 147.45302475735934 5.0437853427538357 0 0 0 0 34.069257359710321 42.222766975007858 0 42.222766975007858 -24.77511528528521 0 0 0 0 58.895553494912747 86.687658072734393 0 86.687658072734393 -16.499244317708872 0 0 0 0 -49.814563754607207 102.17712242693688 0 102.17712242693688 -214.10441605189862 0 0 0 0 -29.480719584266808 99.997188655828722 0 99.997188655828722 -77.210407229152224 0 0 0 0 -22.289172325801701 22.886182330307747 0 22.886182330307747 -89.495233797044307 0 0 0 0 -162.37849029557856 80.481241344273258 0 80.481241344273258 -66.630287001029956 0 0 0 0 -134.89528202342808 39.916678331285311 0 39.916678331285311 29.569993952155528 0 0 0 0 -88.922165739550564 24.776451263845502 0 24.776451263845502 -26.834204515560486 0 0 0 0 -88.943751158651139 67.847459984455782 0 67.847459984455782 -0.85863497169520997 0 0 0 0 -169.10925449692786 39.797401399708178 0 39.797401399708178 -16.196372558219991 0 0 0 0 -127.2575462241648 21.85184386115111 0 21.85184386115111 -8.6092435741902591 0 0 0 0 -136.76179072185369 24.65270419099943 0 24.65270419099943 -66.817900254514825 0 0 0 0 -152.43818735508739 59.238989939032081 0 59.238989939032081 -95.615913581526911 0 0 0 0 -126.61831079185504 65.694060584370618 0 65.694060584370618 -95.590589838644519 0 0 0 0 -124.16634842641724 29.560241268070513 0 29.560241268070513 -60.447120334906685 0 0 0 0 -99.619288322824104 29.573759870771028 0 29.573759870771028 -98.705298565590056 0 0 0 0 -48.007838964099392 -16.286638120703628 0 -16.286638120703628 -59.41840952954135 0 0 0 0 -139.25409322662881 49.14990219236995 0 49.14990219236995 -10.229202409657773 0 0 0 0 9.4244339420033612 11.876884478278498 0 11.876884478278498 -29.096477863122345 0 0 0 0 -67.569361881019631 -19.60119645641862 0 -19.60119645641862 46.445414841248748 0 0 0 0 -0.98014760581398974 1.3253865528862203 0 1.3253865528862203 0.10832822821769916 0 0 0 0 -1.1331662671813056 0.22306320127021406 0 0.22306320127021406 0.85215424125874684 0 0 0 0 120.78292074757201 -35.621762107853897 0 -35.621762107853897 -136.38310591101435 0 0 0 0 -46.9743195183637 -7.9238508873868341 0 -7.9238508873868341 -6.5065948336041401 0 0 0 0 -87.95834250225198 -219.1138706657201 0 -219.1138706657201 29.925266705448848 0 0 0 0 49.014446328863414 90.162633079090483 0 90.162633079090483 -225.56266891559244 0 0 0 0 -1.1214670666921087 0.65944829986214604 0 0.65944829986214604 1.8383375828087587 0 0 0 0 6.3005979681202007 23.12469991679427 0 23.12469991679427 -15.762874791271315 0 0 0 0 -7.7487429665488889 5.2886401278328776 0 5.2886401278328776 30.571695272942634 0 0 0 0 1.7595536177650501 20.740175889769489 0 20.740175889769489 7.9342508202807949 0 0 0 0 1.5329102899186182 -10.473567616322043 0 -10.473567616322043 -3.6175899029840366 0 0 0 0 -241.35940198611024 -33.630385239067436 0 -33.630385239067436 23.785724321261114 0 0 0 0 -0.60620178968503646 -1.0504292674976625 0 -1.0504292674976625 0.43040686039309151 0 0 0 0 -351.09876942363553 -17.707976624632465 0 -17.707976624632465 7.8392643664835759 0 0 0 0 -158.28492483089428 -20.651934032279939 0 -20.651934032279939 6.6105917108488939 0 0 0 0 -205.10586968437383 9.0514211234876711 0 9.0514211234876711 12.559414633861934 0 0 0 0 -163.61954556040337 33.6506466491835 0 33.6506466491835 -34.230087435875248 0 0 0 0 -206.9213895056655 53.850179288937397 0 53.850179288937397 -42.451217940932565 0 0 0 0 -207.92809117411161 27.091992747923086 0 27.091992747923086 -26.375968982750237 0 0 0 0 -232.05942875368964 34.45169271485247 0 34.45169271485247 -10.562030689814037 0 0 0 0 -265.53603613648829 37.509428649741722 0 37.509428649741722 -44.688785732257202 0 0 0 0 -272.2666746715031 41.737083657971198 0 41.737083657971198 -29.642778626754762 0 0 0 0 -153.06083147648178 58.43118668329123 0 58.43118668329123 -58.732977694258807 0 0 0 0 -235.62711289940944 95.045677014301873 0 95.045677014301873 -73.313122144574663 0 0 0 0 -140.19017516949498 81.689676692994908 0 81.689676692994908 -129.72682360813906 0 0 0 0 -491.03029460060679 71.732591172245066 0 71.732591172245066 -43.196001794427957 0 0 0 0 -350.98000244409559 3.1586397235641925 0 3.1586397235641925 11.666640830861297 0 0 0 0 -285.86803879693798 -91.762033402528914 0 -91.762033402528914 -49.135492358227566 0 0 0 0 -450.15820904275097 -139.62454534429253 0 -139.62454534429253 -57.397470163141634 0 0 0 0 -2.1449530280523916 2.0110751183548494 0 2.0110751183548494 -1.9742022037470992 0 0 0 0 273.07356569082549 467.57891469103686 0 467.57891469103686 19.280005614029051 0 0 0 0 -213.0021634503837 340.0049535381014 0 340.0049535381014 -348.66886194698236 0 0 0 0 -811.42293954671914 307.79597708105462 0 307.79597708105462 -82.42976224490576 0 0 0 0 -1053.1295730466536 -262.9429721781853 0 -262.9429721781853 -88.27728518639276 0 0 0 0 -392.86480000041774 -81.597470011495261 0 -81.597470011495261 -38.470603503218626 0 0 0 0 -301.58732843215148 57.149546391178546 0 57.149546391178546 -126.46567352650527 0 0 0 0 -246.32910275434097 166.81329244699737 0 166.81329244699737 -157.53489680660823 0 0 0 0 -131.39833885777216 42.262592703454175 0 42.262592703454175 -100.07864877620523 0 0 0 0 -92.064249794429998 19.993330322373367 0 19.993330322373367 -169.28060480078912 0 0 0 0 -88.860193843486741 61.502369843678025 0 61.502369843678025 -45.932887548696272 0 0 0 0 -334.45011036431924 138.33173576919103 0 138.33173576919103 -120.33654274950686 0 0 0 0 -117.83044216760027 -89.900896970306519 0 -89.900896970306519 31.356999531247908 0 0 0 0 -47.21276174427112 -4.4631783577576698 0 -4.4631783577576698 -178.52215224250722 0 0 0 0 157.9823505338718 -76.101945326939472 0 -76.101945326939472 -41.965295847539664 0 0 0 0 7.5560787897275077 -127.2772470767494 0 -127.2772470767494 -7.7609898002783666 0 0 0 0 -95.582743128290531 -23.469715859044072 0 -23.469715859044072 12.096520301420242 0 0 0 0 -5.3360715263079328 -80.093588130077706 0 -80.093588130077706 -2.2005414355786002 0 0 0 0 4.7140143553278904 -24.681623902772344 0 -24.681623902772344 37.63695926437083 0 0 0 0 16.257559811399915 -45.603044819495153 0 -45.603044819495153 37.496545252907708 0 0 0 0 -18.310318065431602 -38.680282617577575 0 -38.680282617577575 38.113862131107453 0 0 0 0 -15.647988721240836 39.004594667789661 0 39.004594667789661 133.34010519515343 0 0 0 0 -56.794860785445962 11.140540208824973 0 11.140540208824973 147.57393193418346 0 0 0 0 -123.28118806528528 -42.586192954850688 0 -42.586192954850688 123.10880768127782 0 0 0 0 -20.424766030584983 6.7651438394545442 0 6.7651438394545442 -1.3546959863414232 0 0 0 0 -371.98459050097517 -344.22091000799742 0 -344.22091000799742 -312.96008646814226 0 0 0 0 -7.8092337164397492 2.8043671161336938 0 2.8043671161336938 -1.4776241525277083 0 0 0 0 -943.63116906184405 269.98675703257845 0 269.98675703257845 -3.0629529861685114 0 0 0 0 -41.600975919347093 40.461964959372324 0 40.461964959372324 -300.80250390987067 0 0 0 0 -398.28892947365966 454.61998808661542 0 454.61998808661542 -200.10794787632346 0 0 0 0 4.3366969036687806 5.1364171294183052 0 5.1364171294183052 -55.713823782660256 0 0 0 0 -25.61827613486912 46.680864983411539 0 46.680864983411539 -55.709648650359441 0 0 0 0 9.3033417338629079 44.589266155518999 0 44.589266155518999 -98.848662259490993 0 0 0 0 7.181587346380752 29.251189729469246 0 29.251189729469246 -147.73762211301937 0 0 0 0 -28.052702924214827 14.112772303441943 0 14.112772303441943 -98.155667056543507 0 0 0 0 -34.652625200361626 26.899893312060101 0 26.899893312060101 -60.72616995653334 0 0 0 0 -50.680875119569464 0.76846807597053157 0 0.76846807597053157 -101.79331581354356 0 0 0 0 -90.83057292333342 57.948408986783988 0 57.948408986783988 -123.78717003495058 0 0 0 0 -1.1368383824592456 -37.628673889391393 0 -37.628673889391393 -71.060587690981492 0 0 0 0 -213.49026835125005 -21.455384089882386 0 -21.455384089882386 96.718790870550947 0 0 0 0 -126.30706894370996 -17.686710768325156 0 -17.686710768325156 -4.3561392731517117 0 0 0 0 -0.11185439635806937 -1.6465857508598383 0 -1.6465857508598383 0.85660110866330808 0 0 0 0 -182.72597795971888 43.241055351196962 0 43.241055351196962 45.131936762654277 0 0 0 0 -2.8271764084986466 -1.333714815073213 0 -1.333714815073213 3.1549956345001915 0 0 0 0 -184.89174607524728 34.865223877897506 0 34.865223877897506 179.73898319306954 0 0 0 0 163.46121017395126 -408.7471202312023 0 -408.7471202312023 -575.38429143971121 0 0 0 0 -349.33693119609961 39.988046747910289 0 39.988046747910289 185.79381197805515 0 0 0 0 -250.38929721233399 131.3423965539863 0 131.3423965539863 198.19223391768423 0 0 0 0 -74.56122867025374 95.225875565125435 0 95.225875565125435 119.76110834775795 0 0 0 0 -66.892634785786868 126.45011184768828 0 126.45011184768828 104.74422701036133 0 0 0 0 -69.972564482214693 25.336439399829715 0 25.336439399829715 -57.988767783089997 0 0 0 0 -97.107845914430072 35.285678296589424 0 35.285678296589424 44.782369544787798 0 0 0 0 -31.877546195878494 49.852080626129805 0 49.852080626129805 -46.879901281660295 0 0 0 0 0.087628330085813388 1.2607903179698949 0 1.2607903179698949 -0.18360743778638211 0 0 0 0 5.2960389156914971 53.380848765733674 0 53.380848765733674 102.03618226365643 0 0 0 0 5.6919612620449698 47.651256815844135 0 47.651256815844135 87.348427729813451 0 0 0 0 -0.064953616438717887 1.4021868523283265 0 1.4021868523283265 -0.2069084502664823 0 0 0 0 13.441224338802385 16.374946408751953 0 16.374946408751953 44.180199931550305 0 0 0 0 38.188341133975882 28.641303624631746 0 28.641303624631746 1.3100871120481088 0 0 0 0 17.144683486199483 3.1691457136379313 0 3.1691457136379313 -37.210521259595225 0 0 0 0 -26.363779474981129 22.707213660029765 0 22.707213660029765 37.293928173999234 0 0 0 0 41.9864744872757 123.56132917688001 0 123.56132917688001 156.34849793218461 0 0 0 0 -74.469946068369609 -91.618622011862996 0 -91.618622011862996 -174.48345930340739 0 0 0 0 63.199892821827689 85.275184828343924 0 85.275184828343924 125.83428135603117 0 0 0 0 58.664013648152832 49.975579301094228 0 49.975579301094228 142.38942529246663 0 0 0 0 18.830040368156915 56.934625201169524 0 56.934625201169524 169.94247137780215 0 0 0 0 30.241819022756317 70.537697911006205 0 70.537697911006205 129.18939081308986 0 0 0 0 19.14152917565616 63.770897062454111 0 63.770897062454111 96.806651708784102 0 0 0 0 19.712630219029961 76.412585905918519 0 76.412585905918519 130.8767926592152 0 0 0 0 45.100347990743103 57.428004413540577 0 57.428004413540577 96.887816007857055 0 0 0 0 32.07801040407503 86.75942162739932 0 86.75942162739932 121.60924000238242 0 0 0 0 31.544212970598892 51.70213130744196 0 51.70213130744196 99.427329244219095 0 0 0 0 17.693361385288881 57.809972789183348 0 57.809972789183348 140.32454417342069 0 0 0 0 32.704981639349171 86.70628899112063 0 86.70628899112063 125.7222011999902 0 0 0 0 53.024866405419743 55.62737306176723 0 55.62737306176723 139.68175352906985 0 0 0 0 21.277511011694514 69.478763572736568 0 69.478763572736568 158.13966740754802 0 0 0 0 30.630851425384208 95.087854807982438 0 95.087854807982438 154.85527515550348 0 0 0 0 -1.2040634351578774 -107.00673635598946 0 -107.00673635598946 -209.83690270265092 0 0 0 0 -54.50610504819997 -96.033540206319088 0 -96.033540206319088 -173.58684979430296 0 0 0 0 0.4942527702506041 0.94897018816886369 0 0.94897018816886369 -0.59649675008579428 0 0 0 0 -13.691337692471265 4.2419000448638009 0 4.2419000448638009 -0.16696882760707396 0 0 0 0 106.6925408064817 3.4884854388279791 0 3.4884854388279791 290.88390253593536 0 0 0 0 45.004931946074066 108.57019249907394 0 108.57019249907394 230.72746883759888 0 0 0 0 -76.878991282934294 -100.32161246375385 0 -100.32161246375385 -155.69520706789939 0 0 0 0 -72.693407742965064 -107.23546990089758 0 -107.23546990089758 -147.14021035317506 0 0 0 0 -84.135566028788162 -124.83339376858397 0 -124.83339376858397 -174.03866974429809 0 0 0 0 -95.035220001074777 -134.26547706908423 0 -134.26547706908423 -126.78655085232222 0 0 0 0 -134.37551210054517 -180.22691522680651 0 -180.22691522680651 -175.58898202742068 0 0 0 0 -38.430867483519251 -161.48050597582818 0 -161.48050597582818 -204.62443295292564 0 0 0 0 -76.93686989282287 -127.35336054912511 0 -127.35336054912511 -174.3699166867236 0 0 0 0 -340.44547358491764 -267.11222269290755 0 -267.11222269290755 -128.33089186949576 0 0 0 0 -172.00319471451621 -159.03487921992988 0 -159.03487921992988 -66.983561089827546 0 0 0 0 -315.93504843573101 -95.556660294722718 0 -95.556660294722718 7.9372154162658148 0 0 0 0 -318.95612609672389 -87.906671107892009 0 -87.906671107892009 -6.542288160850994 0 0 0 0 -627.71920404579578 -290.19161739630084 0 -290.19161739630084 -109.83174333486173 0 0 0 0 -369.54472574321335 -543.96320709714155 0 -543.96320709714155 -514.33685826569081 0 0 0 0 -63.629024892412417 -291.34390666471393 0 -291.34390666471393 -281.17136692266183 0 0 0 0 -90.535922281334933 -185.5963780731735 0 -185.5963780731735 -214.95038831764114 0 0 0 0 52.437516620804672 -178.27341638064001 0 -178.27341638064001 -275.97273915648924 0 0 0 0 6.2896299267667928 -248.13695639721828 0 -248.13695639721828 -285.4051243126159 0 0 0 0 -5.4053366462693333 1.5224230446216964 0 1.5224230446216964 -0.45963005499400611 0 0 0 0 -634.50066487969525 -445.83314343812026 0 -445.83314343812026 -549.68876928755844 0 0 0 0 20.479136980864723 270.88343218942617 0 270.88343218942617 130.71359878962994 0 0 0 0 -74.373279721412473 193.43615163753358 0 193.43615163753358 217.00426774786354 0 0 0 0 76.721370448944072 68.941337333205183 0 68.941337333205183 127.13159549870534 0 0 0 0 59.90591424528975 95.854319388698059 0 95.854319388698059 118.87459441927243 0 0 0 0 78.091499232543356 91.897808811522623 0 91.897808811522623 115.23682387526696 0 0 0 0 -2.5740383492442405 0.55111327658909293 0 0.55111327658909293 0.040251270582438603 0 0 0 0 -98.037156075697567 110.95940194333625 0 110.95940194333625 4.6102432345104205 0 0 0 0 -864.14618031145255 -548.78262235336581 0 -548.78262235336581 -242.79321613015634 0 0 0 0 53.079140942032609 -10.590011501432372 0 -10.590011501432372 -108.27639285728237 0 0 0 0 -468.35468832800052 -14.119379626971913 0 -14.119379626971913 -1.1118444211031147 0 0 0 0 -160.5570663426297 51.757242472720911 0 51.757242472720911 -37.352345966307581 0 0 0 0 -71.802382623634912 -53.854859740260451 0 -53.854859740260451 26.18898720313598 0 0 0 0 -80.626836408310282 61.770910519185598 0 61.770910519185598 12.953145386206151 0 0 0 0 -149.26824986006682 -19.487027398777414 0 -19.487027398777414 -7.9067177118640473 0 0 0 0 -142.79712916593678 40.852781115994873 0 40.852781115994873 62.437314447843839 0 0 0 0 2.175366712826003 1.5689985002175746 0 1.5689985002175746 -2.7675918770295547 0 0 0 0 -16.665426319585094 28.306265253516827 0 28.306265253516827 -23.880736424171289 0 0 0 0 45.856720536517969 15.810980613633895 0 15.810980613633895 -0.21229509220142972 0 0 0 0 -117.2767614055374 16.444043803392958 0 16.444043803392958 -3.6164762318256862 0 0 0 0 -96.987574427044819 -21.536775473782527 0 -21.536775473782527 3.5167811268436822 0 0 0 0 -90.272592893261162 2.6444877626696037 0 2.6444877626696037 -7.591809605733232 0 0 0 0 -123.91547355140631 5.2116547335120895 0 5.2116547335120895 -18.958350271427264 0 0 0 0 -124.24468187707316 11.006055261840146 0 11.006055261840146 6.9931934591697598 0 0 0 0 -113.02314098843271 18.166019179495777 0 18.166019179495777 -6.9295671822375766 0 0 0 0 -125.81432496695925 -4.7565740071720981 0 -4.7565740071720981 -6.1380412768552048 0 0 0 0 -125.23591196935303 -25.411854060942872 0 -25.411854060942872 -51.749130366037974 0 0 0 0 -148.81963007604463 -72.080161970336391 0 -72.080161970336391 -72.555761269142138 0 0 0 0 -144.40845254475062 -39.905871533992865 0 -39.905871533992865 -11.885191466077124 0 0 0 0 -144.90587926776789 -28.823967148267485 0 -28.823967148267485 -25.675145005816383 0 0 0 0 -142.21180557024854 10.27885636938904 0 10.27885636938904 12.239979217040101 0 0 0 0 -186.86768476008365 -11.860383284725458 0 -11.860383284725458 18.757532311174003 0 0 0 0 -152.82046554257977 -112.83444321923136 0 -112.83444321923136 -75.070104108026811 0 0 0 0 -219.86673954379512 -89.776230341082197 0 -89.776230341082197 -38.345508588320811 0 0 0 0 -115.54465443787194 -88.534396320786954 0 -88.534396320786954 -117.93405718492062 0 0 0 0 -119.10588200337588 -78.07036711810818 0 -78.07036711810818 -76.48836947011695 0 0 0 0 -144.95474730049682 -106.8589523100858 0 -106.8589523100858 -92.212316991266235 0 0 0 0 -113.75794556292385 -116.85276358456457 0 -116.85276358456457 -128.54671489955052 0 0 0 0 -98.932842598136631 -100.45513067855441 0 -100.45513067855441 -113.99947722466857 0 0 0 0 -84.77703638319872 -91.271228793464871 0 -91.271228793464871 -134.98676671966746 0 0 0 0 -89.640881857761997 -99.682215378024281 0 -99.682215378024281 -149.50065682157725 0 0 0 0 -84.179475080643897 -79.396099419746605 0 -79.396099419746605 -162.26739675851047 0 0 0 0 -83.978957122413703 -72.447807552986177 0 -72.447807552986177 -134.16804718769495 0 0 0 0 -100.49079729364712 -70.226417785894725 0 -70.226417785894725 -96.146029490291468 0 0 0 0 -108.0286142768673 -57.677142435488165 0 -57.677142435488165 -102.24424872737166 0 0 0 0 -112.32465217604476 -36.2947179158475 0 -36.2947179158475 -43.637201793705202 0 0 0 0 -99.034869694303779 -1.2637692135648422 0 -1.2637692135648422 -31.791291527688088 0 0 0 0 -112.05349961914544 6.8856113820426685 0 6.8856113820426685 -36.860671167721193 0 0 0 0 -55.837884217655301 12.050360093015939 0 12.050360093015939 -53.357390714423659 0 0 0 0 -97.040827444634147 -22.443562807397807 0 -22.443562807397807 -75.847398369977014 0 0 0 0 -82.973072463248172 -28.834751485290809 0 -28.834751485290809 -73.35145415482269 0 0 0 0 -79.024196782927902 -52.942716143419808 0 -52.942716143419808 -119.64770707287869 0 0 0 0 -59.581599268694845 -21.947125916935164 0 -21.947125916935164 -82.652218621382019 0 0 0 0 -46.858916143530223 -21.12948277040195 0 -21.12948277040195 -87.901674509434756 0 0 0 0 -46.853050633606472 -31.908265295657571 0 -31.908265295657571 -96.702836121282871 0 0 0 0 -49.651538171774064 -51.707217645687173 0 -51.707217645687173 -133.87408478611769 0 0 0 0 -53.926855112942576 -53.304042490734986 0 -53.304042490734986 -130.96548157781575 0 0 0 0 -70.282811022058013 -81.646081243287028 0 -81.646081243287028 -157.13465679874929 0 0 0 0 -78.82945377836586 -55.543706271542234 0 -55.543706271542234 -116.24272145840399 0 0 0 0 -85.896831070285771 -77.56030356041974 0 -77.56030356041974 -141.51643559842054 0 0 0 0 -86.368751865762533 -72.098865004873858 0 -72.098865004873858 -160.47058545497373 0 0 0 0 -86.02015586894413 -80.504637698651635 0 -80.504637698651635 -138.37009009886827 0 0 0 0 -99.332431691731472 -89.087956021243116 0 -89.087956021243116 -142.58585112816431 0 0 0 0 -195.80805741063341 -165.92855846738559 0 -165.92855846738559 -70.458042329780028 0 0 0 0 -280.86990579328631 -93.174948813305718 0 -93.174948813305718 12.41082982732587 0 0 0 0 -407.04024745146125 -1.3448479996533251 0 -1.3448479996533251 64.327793774301654 0 0 0 0 -823.32568895613667 -77.302410744144481 0 -77.302410744144481 -21.042077039812284 0 0 0 0 -256.06054885569392 -66.753105232327812 0 -66.753105232327812 -21.303068316011377 0 0 0 0 -83.858238208456896 -79.126889227414608 0 -79.126889227414608 -152.37220098820876 0 0 0 0 -90.799154148589878 -52.330088731567344 0 -52.330088731567344 -57.484658553225472 0 0 0 0 -104.00490908478605 -50.3964858944355 0 -50.3964858944355 -45.942037404156508 0 0 0 0 -6.9467652510866174 6.2936681372056 0 6.2936681372056 -1.2089060774804921 0 0 0 0 -42.819882238012724 -24.09456704840909 0 -24.09456704840909 -54.129266688481721 0 0 0 0 -7.9250744346498045 8.1328654890416701 0 8.1328654890416701 -1.3422705428390302 0 0 0 0 -7.9094989704544538 8.6096476463015978 0 8.6096476463015978 -2.4890666106607835 0 0 0 0 -14.25527129846887 11.729933162337488 0 11.729933162337488 -3.8380745099148044 0 0 0 0 -4.2296924421565443 1.7860472593809469 0 1.7860472593809469 0.952997803494815 0 0 0 0 -130.83967517222845 -45.532781240803843 0 -45.532781240803843 1.359953585271569 0 0 0 0 -2.8644817291502913 3.7427024560333138 0 3.7427024560333138 -1.6618481292480618 0 0 0 0 0.91294931735435902 8.3583909719387819 0 8.3583909719387819 -1.167341571420212 0 0 0 0 -123.07889351404083 -46.451137823668262 0 -46.451137823668262 -4.9289031007858739 0 0 0 0 -8.0107166098587186 4.6689494336847588 0 4.6689494336847588 -1.7540667918515283 0 0 0 0 -128.32483120070538 -92.59000598551529 0 -92.59000598551529 -63.605388783701045 0 0 0 0 -158.6846739113098 -104.88677796623173 0 -104.88677796623173 23.868145173609378 0 0 0 0 -206.5657178347501 -97.214166484565283 0 -97.214166484565283 23.160086554236976 0 0 0 0 -190.50818779077235 -54.479018166691787 0 -54.479018166691787 121.44934715211082 0 0 0 0 -199.76385870563536 -19.749494116522953 0 -19.749494116522953 -8.269267297576846 0 0 0 0 -1.3741982333197291 11.345962878329821 0 11.345962878329821 0.075962158085735254 0 0 0 0 -234.04490330603221 84.253508046696709 0 84.253508046696709 104.27994933240154 0 0 0 0 -151.87587658892153 38.555074302344963 0 38.555074302344963 60.626277579315456 0 0 0 0 -225.03168199226457 -130.55165151741335 0 -130.55165151741335 154.51480607070965 0 0 0 0 -348.28070053205374 -11.479858293024563 0 -11.479858293024563 117.87912432428747 0 0 0 0 -74.369125706201885 -72.515259239103699 0 -72.515259239103699 112.13686530262247 0 0 0 0 -144.49391195064163 -124.62395484219019 0 -124.62395484219019 19.539160243577072 0 0 0 0 -203.78104065274601 -120.88826109355533 0 -120.88826109355533 129.19129065191805 0 0 0 0 -196.92799686889975 56.195765629110142 0 56.195765629110142 79.044394188162642 0 0 0 0 -83.977896256501481 -61.519811835591895 0 -61.519811835591895 168.70312038482354 0 0 0 0 -7.4886506222898817 2.4163363779197802 0 2.4163363779197802 0.056247110817240764 0 0 0 0 -88.849491393812059 126.70496204380468 0 126.70496204380468 354.81852376662783 0 0 0 0 -252.98644170930856 -131.82968416790061 0 -131.82968416790061 153.17801748411071 0 0 0 0 -3.4765049262279177 1.3045065063332348 0 1.3045065063332348 -0.10739144741826109 0 0 0 0 -55.952340025881995 351.02415585670019 0 351.02415585670019 128.71175106010929 0 0 0 0 -388.81786843107693 227.22891366722473 0 227.22891366722473 94.638621622102676 0 0 0 0 -245.81007140968904 236.8952737018445 0 236.8952737018445 131.63689699400334 0 0 0 0 -501.64016452118085 157.38368844669316 0 157.38368844669316 164.84324465208152 0 0 0 0 -253.45571098070468 276.21802227033658 0 276.21802227033658 -22.682596394744412 0 0 0 0 -423.08050656559135 167.32213290864627 0 167.32213290864627 60.379860879342914 0 0 0 0 -295.73341359560436 23.873360640018291 0 23.873360640018291 128.78796032412461 0 0 0 0 -211.52711917409124 83.652894807162909 0 83.652894807162909 30.497388226223279 0 0 0 0 -142.99883977167883 21.841627004903273 0 21.841627004903273 60.7177632779551 0 0 0 0 -249.80236585189778 112.91398625324496 0 112.91398625324496 73.924045368286784 0 0 0 0 -136.37739838016205 20.245067788541974 0 20.245067788541974 -25.875443810761936 0 0 0 0 -229.21621540484193 107.50497089725627 0 107.50497089725627 -16.286494485481171 0 0 0 0 -225.95327699773952 196.48972879992556 0 196.48972879992556 -54.508469007489566 0 0 0 0 -316.90217521159866 263.26781210178387 0 263.26781210178387 72.301789802586995 0 0 0 0 -211.88019890736177 136.02626858317899 0 136.02626858317899 -43.603406867364697 0 0 0 0 -305.41511112283388 212.75620225279482 0 212.75620225279482 -81.744909675211602 0 0 0 0 -443.25833584982684 149.16123461543532 0 149.16123461543532 -64.480749576247831 0 0 0 0 -200.41378458131703 -40.669934846411934 0 -40.669934846411934 -232.87881741975752 0 0 0 0 -706.55486572201562 409.53748677611571 0 409.53748677611571 -244.28870122158969 0 0 0 0 -172.0478131983291 128.1868736256954 0 128.1868736256954 -840.87145026400776 0 0 0 0 -127.52386673154433 -64.711319224283898 0 -64.711319224283898 -111.28147256958164 0 0 0 0 -149.47174905821157 14.378031705833109 0 14.378031705833109 -173.40093977922788 0 0 0 0 -266.9847380043102 272.46048202214797 0 272.46048202214797 -365.61650787545636 0 0 0 0 -98.988552582359262 -1.046777446902297 0 -1.046777446902297 -144.36628917569351 0 0 0 0 -159.91921738371093 98.965404288984246 0 98.965404288984246 -237.33982644583966 0 0 0 0 -148.16158684733273 26.978971286868216 0 26.978971286868216 -28.717393589298808 0 0 0 0 -103.15357130191478 42.982170331157022 0 42.982170331157022 -21.200210926487216 0 0 0 0 -41.901904587313766 -5.3221484471127951 0 -5.3221484471127951 -11.067449504321303 0 0 0 0 -6.1676216675388673 -7.0893779052613262 0 -7.0893779052613262 -3.2923717120220575 0 0 0 0 -93.510874456888359 -40.503310797306867 0 -40.503310797306867 -12.893810951659816 0 0 0 0 -69.240483396672062 -1.949652070897173 0 -1.949652070897173 18.711830108148206 0 0 0 0 -25.398773845052347 -56.556130442418976 0 -56.556130442418976 -65.860388430475268 0 0 0 0 -141.5779987079859 -56.535506087654539 0 -56.535506087654539 -33.283673858170232 0 0 0 0 -104.842048505815 -62.353094567767812 0 -62.353094567767812 -45.675059735111063 0 0 0 0 -119.09290819787384 -87.863013188797368 0 -87.863013188797368 -13.08412243419798 0 0 0 0 -102.18604400962704 -50.331000493450802 0 -50.331000493450802 5.9837027558960472 0 0 0 0 -5.7515657436825522 -26.948309551764744 0 -26.948309551764744 -6.0672659716676769 0 0 0 0 -142.94018119763132 -59.488304691070198 0 -59.488304691070198 3.9278772823990948 0 0 0 0 -132.89903779224551 -80.464598260041612 0 -80.464598260041612 41.45102181402126 0 0 0 0 -142.73451930607553 -47.595052017371927 0 -47.595052017371927 142.78774598043856 0 0 0 0 -11.372866403718945 -9.6200654241342818 0 -9.6200654241342818 62.354265162140564 0 0 0 0 105.38404803253252 247.49771530482349 0 247.49771530482349 244.34419920999517 0 0 0 0 -243.19460688691925 -10.553979214241963 0 -10.553979214241963 201.63876311596141 0 0 0 0 -120.10978471538601 -125.26546301863198 0 -125.26546301863198 -94.767063834879536 0 0 0 0 -41.461334187366845 -25.972041510719009 0 -25.972041510719009 -8.0207192720745297 0 0 0 0 -41.906554294797388 -29.811916420492253 0 -29.811916420492253 -12.002461392582063 0 0 0 0 -40.177277102104654 -18.358110858750024 0 -18.358110858750024 9.5674556043718439 0 0 0 0 -40.713060731936366 -33.978992656805985 0 -33.978992656805985 -1.5863303982428079 0 0 0 0 -42.659405493126542 -28.520650015080264 0 -28.520650015080264 -5.8851177408344029 0 0 0 0 -41.79337152385915 -30.627446769632343 0 -30.627446769632343 -11.514617011070186 0 0 0 0 -54.439858476984227 -23.677546724834428 0 -23.677546724834428 -3.2383712483271552 0 0 0 0 -43.116161402565467 -23.924697549285611 0 -23.924697549285611 -15.657730421838096 0 0 0 0 -32.576148758671309 -10.564015140892492 0 -10.564015140892492 12.236614445921921 0 0 0 0 -57.163506800580763 -31.962730346077024 0 -31.962730346077024 -20.209992085672638 0 0 0 0 -7.8144033276654801 -29.794810323716533 0 -29.794810323716533 -18.436809415045843 0 0 0 0 -31.756165631854401 -14.063182806427591 0 -14.063182806427591 23.735113756794362 0 0 0 0 -18.529568756099252 -38.661110491140107 0 -38.661110491140107 -13.238397521543448 0 0 0 0 -23.293269124768095 -18.938130735450436 0 -18.938130735450436 2.9330318022174762 0 0 0 0 0.66710938961611532 -4.5633308919167686 0 -4.5633308919167686 0.20016190629358777 0 0 0 0 -30.443606932465826 -8.8894971958619031 0 -8.8894971958619031 0.58928463262381636 0 0 0 0 -33.989619474603387 -31.906508031803696 0 -31.906508031803696 11.16313426766817 0 0 0 0 -36.115625473837405 -8.7334370393726033 0 -8.7334370393726033 -1.0798895255780119 0 0 0 0 -44.304355781348931 -24.266758076967335 0 -24.266758076967335 50.277558882323547 0 0 0 0 -28.206598952676359 -36.068630497128652 0 -36.068630497128652 -18.765460369807556 0 0 0 0 -32.81351609710552 -2.3878537974293046 0 -2.3878537974293046 2.2012879833982879 0 0 0 0 -28.407484574966386 -6.5487180058213674 0 -6.5487180058213674 13.405695874556137 0 0 0 0 -49.861560451039622 -14.313743715562566 0 -14.313743715562566 8.4283559658053946 0 0 0 0 -27.492482478022794 -12.004411093100089 0 -12.004411093100089 7.0800257222678056 0 0 0 0 -41.245420456896682 -4.1460711659518381 0 -4.1460711659518381 112.27617496066352 0 0 0 0 -67.402511106811289 20.433902520772875 0 20.433902520772875 130.95824060825916 0 0 0 0 -111.79930688565855 -17.5371857477937 0 -17.5371857477937 125.07358704211026 0 0 0 0 -33.69763809126016 5.6578392078040451 0 5.6578392078040451 41.451634957457031 0 0 0 0 -53.202324325906375 0.7590878376049659 0 0.7590878376049659 -18.937150246890042 0 0 0 0 -5.1691541469784834 0.50367017653871216 0 0.50367017653871216 9.3254867227136913 0 0 0 0 -10.684082791893161 17.475784556772794 0 17.475784556772794 40.164862733261941 0 0 0 0 -43.879072892828844 37.361179536295623 0 37.361179536295623 81.827660723967483 0 0 0 0 8.1097358150618675 108.89918002137185 0 108.89918002137185 151.59334629604689 0 0 0 0 1.0036328265705379 38.833271897852065 0 38.833271897852065 12.131226422353848 0 0 0 0 155.48063748500863 158.1653047154056 0 158.1653047154056 104.31408566177279 0 0 0 0 0.52815326147909047 0.73642392241435317 0 0.73642392241435317 3.0954245567243803 0 0 0 0 -129.9283160828254 -51.783656629307785 0 -51.783656629307785 252.97176795784173 0 0 0 0 -148.24083044670988 318.35313766758355 0 318.35313766758355 184.80800306292974 0 0 0 0 -96.429968218382783 132.4450977111951 0 132.4450977111951 366.84523781327664 0 0 0 0 -163.20508374647397 6.0431728943967897 0 6.0431728943967897 190.21450113684074 0 0 0 0 91.729234402475413 -2.4788794039509332 0 -2.4788794039509332 154.10058057150596 0 0 0 0 -360.34381940519597 83.357797763523365 0 83.357797763523365 138.07103492095771 0 0 0 0 -173.47974375596459 -102.05946936047731 0 -102.05946936047731 43.990070553261774 0 0 0 0 -129.51282049325073 -22.177968129306052 0 -22.177968129306052 153.81975402515403 0 0 0 0 -273.39392512789709 -100.66207647919475 0 -100.66207647919475 127.33922453750534 0 0 0 0 -204.60861850419042 -215.6771503069011 0 -215.6771503069011 -13.02290720754867 0 0 0 0 -183.12056569953529 -66.671567389469217 0 -66.671567389469217 -216.70448999113333 0 0 0 0 -103.39223768690135 -81.790128724905301 0 -81.790128724905301 -20.718110009971326 0 0 0 0 -216.47074856607378 -166.42279650170184 0 -166.42279650170184 -83.653349565831917 0 0 0 0 -390.79725957323171 190.31287587776268 0 190.31287587776268 68.906269742589103 0 0 0 0 -98.993680823505201 207.50534883974348 0 207.50534883974348 69.123707432295447 0 0 0 0 -144.31642197624933 -40.724271713387409 0 -40.724271713387409 39.707025993438947 0 0 0 0 -572.9106930172602 -123.41005217641425 0 -123.41005217641425 24.260829367200092 0 0 0 0 -223.85651631082692 81.492526465179679 0 81.492526465179679 1.9748873871951531 0 0 0 0 -932.51833085531689 20.594257593946566 0 20.594257593946566 1.6696364262199286 0 0 0 0 -436.60114723817969 -568.44187250284676 0 -568.44187250284676 14.751416594452479 0 0 0 0 -329.40811286730059 333.26102718148951 0 333.26102718148951 -120.87935204637236 0 0 0 0 -7.0799262676864458 -0.63282403590638214 0 -0.63282403590638214 -0.0048008062299415288 0 0 0 0 -387.96663256940519 -91.070966358560128 0 -91.070966358560128 -626.55817762311995 0 0 0 0 -99.537160604530072 -122.17085631417859 0 -122.17085631417859 -327.77213513472071 0 0 0 0 -442.2586771724109 48.670905739487679 0 48.670905739487679 -411.19077115348171 0 0 0 0 -163.90387364351773 -323.90722961868948 0 -323.90722961868948 -258.43365852112311 0 0 0 0 -607.82848534753248 -347.36131391044938 0 -347.36131391044938 -259.57445419380065 0 0 0 0 -56.944958018466423 -61.653175657580164 0 -61.653175657580164 -209.27105917514476 0 0 0 0 -149.70208037616794 -28.09949737759932 0 -28.09949737759932 -160.36575121660178 0 0 0 0 -174.01825318065676 -113.9464844950628 0 -113.9464844950628 -454.39179501217779 0 0 0 0 -415.39325686879056 -74.113464442961202 0 -74.113464442961202 -158.89037584845926 0 0 0 0 -218.2632584118146 228.21297523213343 0 228.21297523213343 -394.16376378795121 0 0 0 0 0.15366960754536763 1.1113051477891531 0 1.1113051477891531 -2.289676190031019 0 0 0 0 -106.28288938342121 137.37129159146701 0 137.37129159146701 -218.86208048182698 0 0 0 0 -53.159226010142447 -8.1383196821400361 0 -8.1383196821400361 -257.43217546652204 0 0 0 0 -150.56250955619907 93.403788036310061 0 93.403788036310061 -147.28843550081092 0 0 0 0 -223.99785481728031 159.01561027001026 0 159.01561027001026 -109.69225943147944 0 0 0 0 -71.258646625159599 53.477008733662842 0 53.477008733662842 -81.265310433017021 0 0 0 0 -127.78168241118487 83.158185198778398 0 83.158185198778398 -49.929711895752916 0 0 0 0 -65.187849292704414 12.025742074612708 0 12.025742074612708 -27.788905654888367 0 0 0 0 -128.6681352005653 1.0046985693384158 0 1.0046985693384158 4.0596023193720612 0 0 0 0 -420.50189130506988 148.25497168953143 0 148.25497168953143 -81.824105628737925 0 0 0 0 -195.21922743625237 -11.489948103003229 0 -11.489948103003229 16.322171568493559 0 0 0 0 -290.04623869548777 -184.86407342768916 0 -184.86407342768916 -60.907882748352449 0 0 0 0 -77.004588926392898 53.116362866422378 0 53.116362866422378 -10.246841720098246 0 0 0 0 -311.10468024128932 -407.91550300038898 0 -407.91550300038898 -242.24115861024018 0 0 0 0 -9.832400401075521 0.67445455076487093 0 0.67445455076487093 2.7157829985463398 0 0 0 0 28.896016889424573 -21.063842005100753 0 -21.063842005100753 -405.5759531682055 0 0 0 0 -113.58670968252409 3.9147616978353881 0 3.9147616978353881 15.353024467559862 0 0 0 0 -26.99234306807557 35.239243268491009 0 35.239243268491009 -17.511105564581612 0 0 0 0 -13.233377383770318 2.5601136080334328 0 2.5601136080334328 -3.7744093046916856 0 0 0 0 -46.224633662042208 4.8422586106832082 0 4.8422586106832082 2.8820906610319534 0 0 0 0 -62.29997859958894 -9.8538670077477946 0 -9.8538670077477946 9.0136717569180291 0 0 0 0 -38.398886473145467 32.431802631270443 0 32.431802631270443 54.532280378019095 0 0 0 0 -155.36710546405811 9.1374034329628557 0 9.1374034329628557 43.266051528324169 0 0 0 0 -13.053352622606099 -1.2316937806414643 0 -1.2316937806414643 8.6390247993467781 0 0 0 0 -7.6134854561460088 73.777429361604845 0 73.777429361604845 -1.2664670883523286 0 0 0 0 -434.43757408788224 225.48010692163768 0 225.48010692163768 -133.7080797475046 0 0 0 0 -13.826556944980695 14.693012799699261 0 14.693012799699261 -18.094857569095385 0 0 0 0 -50.417702296028438 -6.7015048506609673 0 -6.7015048506609673 0.41306876106455093 0 0 0 0 -80.614259832269454 79.842476875787725 0 79.842476875787725 44.426358437498493 0 0 0 0 -238.16954424587311 -43.126844544791766 0 -43.126844544791766 60.718632076925928 0 0 0 0 1.0434812637340229 -1.2623779569635474 0 -1.2623779569635474 4.788518117403612 0 0 0 0 -34.659918786870549 34.994190486188245 0 34.994190486188245 53.362030144023379 0 0 0 0 -108.64454431812919 43.28421395575424 0 43.28421395575424 79.970511380493463 0 0 0 0 -49.690287579585856 58.003901899204038 0 58.003901899204038 48.174174558984532 0 0 0 0 -76.857620866354409 -50.076838593007551 0 -50.076838593007551 63.376828364785979 0 0 0 0 -55.268284108070958 -7.2946062555442293 0 -7.2946062555442293 0.47552362621372035 0 0 0 0 -63.20461074398554 21.137699127554924 0 21.137699127554924 90.39381625782471 0 0 0 0 -450.15633790552783 -227.74556241512752 0 -227.74556241512752 -82.342080059202885 0 0 0 0 -115.51116787690989 -53.983785675435456 0 -53.983785675435456 -113.28981210173035 0 0 0 0 -166.04443168164107 25.74860738074743 0 25.74860738074743 -21.598926288566759 0 0 0 0 -360.79799974948401 -125.7179882633954 0 -125.7179882633954 -99.487962456011545 0 0 0 0 -176.39940173814102 60.508204433017852 0 60.508204433017852 -136.89081369197913 0 0 0 0 -460.13343831482052 -55.155014809657018 0 -55.155014809657018 -77.290729672575708 0 0 0 0 -730.5787251879774 -202.13607993854549 0 -202.13607993854549 1.38163236106152 0 0 0 0 -760.01496110112566 -176.61576494129912 0 -176.61576494129912 60.232838467226543 0 0 0 0 -1217.0673032814302 -12.721802708252881 0 -12.721802708252881 78.108770271072558 0 0 0 0 -632.59899717161534 -118.64887688882095 0 -118.64887688882095 74.465893923035537 0 0 0 0 -500.58888576410027 -166.29105175281495 0 -166.29105175281495 -29.051820224719592 0 0 0 0 -942.83654620708694 -500.53395992117817 0 -500.53395992117817 -139.40583051951103 0 0 0 0 -326.41938266151556 -335.38657473373297 0 -335.38657473373297 -404.79412126695638 0 0 0 0 -8.3679443891655296 0.78344672641764213 0 0.78344672641764213 -3.844862253929326 0 0 0 0 -837.17527569089725 310.28309251479482 0 310.28309251479482 -107.0556849960052 0 0 0 0 -410.23750542294783 -175.52452163701437 0 -175.52452163701437 -592.91758459470111 0 0 0 0 -1186.9724607165408 -144.04756656900972 0 -144.04756656900972 -262.47255902666109 0 0 0 0 -976.60830644326052 265.00123198335859 0 265.00123198335859 -350.55849263495531 0 0 0 0 -637.52854003924222 -231.17752124191787 0 -231.17752124191787 315.74560326164521 0 0 0 0 -7.8873488638128606 3.1977802298285116 0 3.1977802298285116 -1.5067996892947688 0 0 0 0 61.361654423311847 43.735241219207722 0 43.735241219207722 -239.6625305790327 0 0 0 0 -118.61857767911897 143.86172358283892 0 143.86172358283892 355.26476418455172 0 0 0 0 -19.613829176482639 8.4306919586236937 0 8.4306919586236937 -2.5634089742501391 0 0 0 0 -116.45502737086099 171.67518690686279 0 171.67518690686279 -118.45752230414541 0 0 0 0 75.323564832648117 277.19618542485279 0 277.19618542485279 -1044.5220297486812 0 0 0 0 7.347000754036344 168.589771082498 0 168.589771082498 -356.05965004975542 0 0 0 0 -37.52609302010751 394.79560129535884 0 394.79560129535884 -379.579808353987 0 0 0 0 -123.46973103441815 401.01226795921059 0 401.01226795921059 -263.19167219740928 0 0 0 0 -135.07021078424805 -523.72295752407558 0 -523.72295752407558 -437.98537174340242 0 0 0 0 -712.9327332486464 565.28681671603624 0 565.28681671603624 -105.03633025638766 0 0 0 0 -321.148175474872 2.8592127446045552 0 2.8592127446045552 479.68018640103554 0 0 0 0 -13.084964407785321 0.25789309888940792 0 0.25789309888940792 0.81442326646625773 0 0 0 0 -85.834349141152416 238.26363553232167 0 238.26363553232167 -111.6007009145645 0 0 0 0 -113.47952943502787 40.241988452732983 0 40.241988452732983 234.26681218441072 0 0 0 0 -92.167182759558273 73.584220032217146 0 73.584220032217146 153.70630758859676 0 0 0 0 -105.33542305224182 -144.97678354388682 0 -144.97678354388682 211.101758863371 0 0 0 0 -6.004980895988453 0.92153625133159522 0 0.92153625133159522 0.32346750548234215 0 0 0 0 -71.687840173309496 -140.39345237618761 0 -140.39345237618761 174.52536668759015 0 0 0 0 -42.245342947018798 -70.750017419614466 0 -70.750017419614466 115.81999083369618 0 0 0 0 -343.40311092518823 -28.576771297561038 0 -28.576771297561038 312.09012004087879 0 0 0 0 -76.771410985523517 116.56166478915462 0 116.56166478915462 388.00495430828687 0 0 0 0 50.481475012875308 318.02367134036984 0 318.02367134036984 -160.84648437079585 0 0 0 0 -33.020673123312008 149.73562175213354 0 149.73562175213354 -275.2135433798569 0 0 0 0 -3.6948318608309734 1.4795357032176781 0 1.4795357032176781 -0.18619243757415527 0 0 0 0 -85.388835542493325 406.2318881499001 0 406.2318881499001 92.86894466901208 0 0 0 0 -416.50317212269147 -96.932014778103394 0 -96.932014778103394 177.70847841430438 0 0 0 0 13.070348789447962 40.986096276336781 0 40.986096276336781 -224.32399686511252 0 0 0 0 -414.95265716102949 148.32483102386607 0 148.32483102386607 86.874788938485011 0 0 0 0 1.111826835688269 11.088905826599696 0 11.088905826599696 0.60797423508027149 0 0 0 0 36.848604656164753 4.250071918558902 0 4.250071918558902 3.9752860422070171 0 0 0 0 -273.12000839994289 37.78175007201699 0 37.78175007201699 51.03762244351384 0 0 0 0 -300.16230129545875 243.81959330373439 0 243.81959330373439 -21.689596241215039 0 0 0 0 -60.886765574308811 136.02085842442909 0 136.02085842442909 25.506979511903978 0 0 0 0 -99.64383664498655 78.825042382066556 0 78.825042382066556 -53.561461078666639 0 0 0 0 10.744991058913001 -38.687467578394489 0 -38.687467578394489 19.47417422022653 0 0 0 0 1.6182270837290265 10.982008258125145 0 10.982008258125145 3.7596698496517242 0 0 0 0 -39.390951329834934 -4.1479686488366951 0 -4.1479686488366951 19.332154495229815 0 0 0 0 -83.243996806993891 60.779468493599381 0 60.779468493599381 -49.482355370466621 0 0 0 0 0.4696110383119958 55.171159262551782 0 55.171159262551782 -80.561516236426996 0 0 0 0 -332.66763917344542 222.40198268920713 0 222.40198268920713 -135.26227106768215 0 0 0 0 -128.95093409105357 7.27802087354371 0 7.27802087354371 -112.03008287716148 0 0 0 0 -26.339932118422439 63.041139262755891 0 63.041139262755891 43.891173822146811 0 0 0 0 -50.326086244076578 -19.792959434927297 0 -19.792959434927297 118.47271986732011 0 0 0 0 62.752358697989621 14.122727382113339 0 14.122727382113339 -54.606691335356459 0 0 0 0 2.6866612888115924 -16.450530239093816 0 -16.450530239093816 -105.03994641623865 0 0 0 0 -44.507533839790995 -1.747451032104081 0 -1.747451032104081 -45.476931004369163 0 0 0 0 -54.76523700036887 16.687512014345231 0 16.687512014345231 -31.069031306356464 0 0 0 0 -85.8219715034611 15.065255355724872 0 15.065255355724872 -29.999656471355706 0 0 0 0 -103.03791562670085 27.662580453935135 0 27.662580453935135 -22.410389660247574 0 0 0 0 -85.139928782413449 24.752793069995448 0 24.752793069995448 -25.24732005753566 0 0 0 0 -66.234398389799935 46.243742019733787 0 46.243742019733787 -15.358621433498911 0 0 0 0 -70.048043246923044 25.185913196278392 0 25.185913196278392 32.404894907849439 0 0 0 0 -105.5498699711643 52.243787653665208 0 52.243787653665208 9.3177267199616907 0 0 0 0 -78.936913701183585 8.9460932189921891 0 8.9460932189921891 3.4028328144661941 0 0 0 0 -116.9888484269668 20.511276100138275 0 20.511276100138275 26.368888712927514 0 0 0 0 -107.01412716667437 47.570635831128101 0 47.570635831128101 -67.049327430516655 0 0 0 0 -207.08735352392068 60.333323510457888 0 60.333323510457888 12.321231144774572 0 0 0 0 -128.18188391573131 33.657039521072903 0 33.657039521072903 1.8719566883622178 0 0 0 0 -127.26339593743251 26.904062541811243 0 26.904062541811243 -12.041853292846127 0 0 0 0 -105.12670877422488 38.16630757254017 0 38.16630757254017 -8.1254718898696865 0 0 0 0 -159.76143066341683 32.519610298149587 0 32.519610298149587 4.1337177923018373 0 0 0 0 -125.56822479480343 19.980093632189849 0 19.980093632189849 4.1878510406131682 0 0 0 0 -156.73193491469647 49.990828755835935 0 49.990828755835935 8.5548421588794099 0 0 0 0 -128.17749713797139 33.749332300397079 0 33.749332300397079 -2.0834782034692125 0 0 0 0 -223.63475324878709 16.213617445173355 0 16.213617445173355 29.362820553747497 0 0 0 0 -196.04862213922752 -2.7481095095161336 0 -2.7481095095161336 17.74747258393711 0 0 0 0 -0.74661143266241048 0.56481078105247207 0 0.56481078105247207 -0.92991950601711326 0 0 0 0 -148.32830449701532 -14.086445837915342 0 -14.086445837915342 3.3883404922003137 0 0 0 0 45.66487452047204 17.150844392231434 0 17.150844392231434 -1.9419262693386372 0 0 0 0 -41.894352946192271 33.954429304962645 0 33.954429304962645 -5.214077618283568 0 0 0 0 -103.32224043081624 78.34275682464235 0 78.34275682464235 -18.43196125999529 0 0 0 0 -131.47954381387763 -6.2280210910591549 0 -6.2280210910591549 10.186798827940379 0 0 0 0 -66.529441097407471 6.6190163322896467 0 6.6190163322896467 21.382435790056988 0 0 0 0 -88.442720789049417 25.804904877735396 0 25.804904877735396 16.074715876826986 0 0 0 0 -72.230067108974254 0.65747027614843034 0 0.65747027614843034 26.657030541982977 0 0 0 0 -80.939125005619644 -5.6398705240912932 0 -5.6398705240912932 26.396346283675769 0 0 0 0 -60.322376246818749 -14.498127724235559 0 -14.498127724235559 24.784447854782059 0 0 0 0 -99.946302381980786 -20.899982433113905 0 -20.899982433113905 31.666161843197244 0 0 0 0 -98.79597568097779 12.735545508864277 0 12.735545508864277 21.178425406502754 0 0 0 0 -75.228395343661759 -0.83465139648859576 0 -0.83465139648859576 -3.2925997432222402 0 0 0 0 -80.770781110885764 -19.137290606235524 0 -19.137290606235524 67.455060563731877 0 0 0 0 -16.915278807554387 -22.551446641828079 0 -22.551446641828079 52.589440933843775 0 0 0 0 -26.732220331992721 -42.634715429141863 0 -42.634715429141863 30.047689910791291 0 0 0 0 -34.648245460899489 -21.718705960645934 0 -21.718705960645934 28.991354767160431 0 0 0 0 -61.218509895941168 -32.444299937096034 0 -32.444299937096034 30.83113383552336 0 0 0 0 -14.226067660765693 -24.106667356529158 0 -24.106667356529158 -10.901042156878638 0 0 0 0 -0.4579458329013022 -2.1448595921216245 0 -2.1448595921216245 0.59829105961224593 0 0 0 0 -20.220116833560041 -0.60145458158808651 0 -0.60145458158808651 1.6288698130522334 0 0 0 0 -18.564553583574643 -3.6710464824470304 0 -3.6710464824470304 -0.76527493634013011 0 0 0 0 -15.472331182420282 -4.9211836990843949 0 -4.9211836990843949 2.8880241452508302 0 0 0 0 -2.4081917297325894 0.46906043719880586 0 0.46906043719880586 1.5845364818264793 0 0 0 0 43.698092209855531 -65.128314133752298 0 -65.128314133752298 54.80319340007793 0 0 0 0 25.533634067318417 25.375376610359353 0 25.375376610359353 18.460858862430769 0 0 0 0 4.2630069094411738 -1.9869688430688939 0 -1.9869688430688939 -11.360607912086948 0 0 0 0 -7.2324596629641746 -4.7032066722810413 0 -4.7032066722810413 -9.2415606217136883 0 0 0 0 -14.379913146642139 -14.01383713598068 0 -14.01383713598068 4.0481815602029201 0 0 0 0 -18.471782804610484 -6.8610702970339048 0 -6.8610702970339048 -8.0416132367499813 0 0 0 0 -7.826158223708191 -0.54952691475189397 0 -0.54952691475189397 -6.0860629399025115 0 0 0 0 -39.714116513478579 -0.77520513161460247 0 -0.77520513161460247 3.3895296720166472 0 0 0 0 -40.073699308373762 9.3544366591322614 0 9.3544366591322614 1.912849682817523 0 0 0 0 -35.667078291040525 16.62518235044331 0 16.62518235044331 11.731502468443978 0 0 0 0 -48.56999014151188 -26.861501192760826 0 -26.861501192760826 34.449457927432064 0 0 0 0 -25.133282238370157 23.932813218268393 0 23.932813218268393 -7.0124238232517655 0 0 0 0 -27.66326075114921 21.557887322256192 0 21.557887322256192 2.28000383783899 0 0 0 0 -112.40241283972591 80.512799792022406 0 80.512799792022406 -38.472807498077827 0 0 0 0 -16.289293131172599 17.865796558060993 0 17.865796558060993 0.33052449574415732 0 0 0 0 -35.731642856617327 -14.731889424977112 0 -14.731889424977112 25.880794759698741 0 0 0 0 -66.230371457997535 10.85643718555896 0 10.85643718555896 32.627679566778909 0 0 0 0 -70.406715835688374 6.122149420793221 0 6.122149420793221 35.428617216203151 0 0 0 0 -48.357736446968929 -2.7872441310269851 0 -2.7872441310269851 6.315957209314023 0 0 0 0 -46.562835181874107 -36.16955911112791 0 -36.16955911112791 63.039697612500959 0 0 0 0 -93.737180169853673 -28.943154694599002 0 -28.943154694599002 61.999098526049693 0 0 0 0 -163.9764952497062 -15.841583468966292 0 -15.841583468966292 84.337490184576836 0 0 0 0 -66.878262374026008 -75.965518977573268 0 -75.965518977573268 -7.6382337079371609 0 0 0 0 -62.924081480036193 55.858806369531109 0 55.858806369531109 -66.510108717681305 0 0 0 0 -164.6979585117806 82.197558784003604 0 82.197558784003604 -0.2737965667708977 0 0 0 0 -162.48020970127982 99.498068867450684 0 99.498068867450684 -27.895228917989414 0 0 0 0 -155.37164972077517 88.470718758886818 0 88.470718758886818 -15.267520093169651 0 0 0 0 -176.53552700488945 95.833644004870166 0 95.833644004870166 -9.5449800021429496 0 0 0 0 -140.69547016543675 -148.62910228076538 0 -148.62910228076538 -107.40148814598086 0 0 0 0 -1.0978106374193715 0.98751894119430261 0 0.98751894119430261 -0.74778820518656408 0 0 0 0 -177.12379203840101 -95.180042050108781 0 -95.180042050108781 -51.32601420558278 0 0 0 0 -88.979453466825362 77.098873013088621 0 77.098873013088621 -48.605512461093952 0 0 0 0 -286.69125102201542 -12.255360162379695 0 -12.255360162379695 26.195927191877225 0 0 0 0 -131.04517094915354 35.855035936041787 0 35.855035936041787 38.298863774946923 0 0 0 0 -58.470136909912981 -60.02396032277818 0 -60.02396032277818 -41.206006633319973 0 0 0 0 9.9454474814410787 -18.083584940467347 0 -18.083584940467347 10.642010712770684 0 0 0 0 -3.3671116164255608 2.0990919645155373 0 2.0990919645155373 -2.3248564899965918 0 0 0 0 11.585478837521805 -23.560807823935392 0 -23.560807823935392 -13.572334883370331 0 0 0 0 -18.166794850942097 9.3524604643380371 0 9.3524604643380371 -0.052263481658684441 0 0 0 0 4.827550927959237 20.205321901025172 0 20.205321901025172 -48.647306872863282 0 0 0 0 -140.92719751339973 33.361709109313857 0 33.361709109313857 -33.249295487494123 0 0 0 0 0.91247246934990756 0.2256974736103885 0 0.2256974736103885 -1.9569777914687121 0 0 0 0 -18.567705602054048 11.697560151995447 0 11.697560151995447 -21.521811882253672 0 0 0 0 -9.9944660509991081 -3.8109782462787791 0 -3.8109782462787791 -0.59940407078289581 0 0 0 0 0.16220888186778737 -1.1047249889355939 0 -1.1047249889355939 -1.9355182773641877 0 0 0 0 -13.080095379653358 5.804567657395296 0 5.804567657395296 5.569500498916625 0 0 0 0 -14.111935142020684 -0.56333450902907245 0 -0.56333450902907245 0.32699652554060776 0 0 0 0 -14.182383265047292 0.703438554340865 0 0.703438554340865 -1.4088258086727024 0 0 0 0 -3.1255706879439487 0.083392283569004633 0 0.083392283569004633 2.0185974415695513 0 0 0 0 -1.5236481810639404 0.58870504278905855 0 0.58870504278905855 -2.7885788761969978 0 0 0 0 -16.890386722850963 0.23903148986266842 0 0.23903148986266842 3.0915313122561088 0 0 0 0 -31.446437670630985 -0.70818758890976596 0 -0.70818758890976596 3.3286715334313612 0 0 0 0 -23.704160873596265 -3.9608335268551542 0 -3.9608335268551542 0.12597379769643169 0 0 0 0 0.17264554553221068 -0.42787870154016616 0 -0.42787870154016616 0.018667559431204073 0 0 0 0 -19.272600094023801 4.3918259864089322 0 4.3918259864089322 -0.53871333985608771 0 0 0 0 -19.442533877918322 1.5104622244835468 0 1.5104622244835468 2.5746198710286308 0 0 0 0 -18.828540351415086 -1.3760916705670994 0 -1.3760916705670994 -1.2089573190684177 0 0 0 0 -14.464492193358637 8.0605267840479442 0 8.0605267840479442 2.8079266294353147 0 0 0 0 39.643076062998261 15.283540641528074 0 15.283540641528074 -12.443361403890947 0 0 0 0 -25.01566779280256 3.8347230614178898 0 3.8347230614178898 1.2492046636151031 0 0 0 0 -8.6659106131774024 149.84144752945997 0 149.84144752945997 171.47794255357377 0 0 0 0 42.100581792459707 38.839169427372269 0 38.839169427372269 -51.671799734125671 0 0 0 0 -25.564063386202321 10.828151884995053 0 10.828151884995053 -3.599494717052067 0 0 0 0 -110.17050779173951 50.385708788234297 0 50.385708788234297 89.175414205549941 0 0 0 0 -20.969798064114002 -18.831734870223954 0 -18.831734870223954 6.670479299310955 0 0 0 0 -47.146752366365035 -2.5883092125061467 0 -2.5883092125061467 62.613493704332086 0 0 0 0 -23.996890400530901 -2.2043428710510398 0 -2.2043428710510398 8.8319884407305835 0 0 0 0 -68.908117117238362 4.8961732150951107 0 4.8961732150951107 30.57414971137726 0 0 0 0 -36.792551865888527 2.4530110588402749 0 2.4530110588402749 16.80681384082709 0 0 0 0 -5.3366784447885154 11.421888860320539 0 11.421888860320539 8.6922977835187787 0 0 0 0 -39.276908224053841 27.255024512523278 0 27.255024512523278 54.585761910748261 0 0 0 0 12.349404580920236 -8.7016704628240404 0 -8.7016704628240404 9.8729477859633334 0 0 0 0 0.41610803386601702 -0.94235310186151011 0 -0.94235310186151011 1.5926662325561147 0 0 0 0 11.116725982778007 7.4237175843745717 0 7.4237175843745717 37.699909008841132 0 0 0 0 -43.180050644439923 -3.9515006562187125 0 -3.9515006562187125 17.972808327165922 0 0 0 0 -2.2537556107393328 -5.2798563850845923 0 -5.2798563850845923 3.0161418714337098 0 0 0 0 -22.624182641877269 2.7197264372605332 0 2.7197264372605332 131.73670593197227 0 0 0 0 -29.409966208970005 11.298762661495287 0 11.298762661495287 -0.58260688603004029 0 0 0 0 27.588513466358563 62.661275946925343 0 62.661275946925343 55.831226303810496 0 0 0 0 25.447657879065446 79.078282505697516 0 79.078282505697516 2.32052404863623 0 0 0 0 46.85177797009419 36.436782285489116 0 36.436782285489116 -41.990301792117748 0 0 0 0 36.985439604473868 -29.529406928292886 0 -29.529406928292886 -55.872302733223279 0 0 0 0 -4.9555627266138407 0.29344832221477191 0 0.29344832221477191 0.67368180779674081 0 0 0 0 54.889170478829328 49.502036054266597 0 49.502036054266597 1.3940514437830984 0 0 0 0 37.677883796721289 -36.382275186339925 0 -36.382275186339925 -101.23379485460305 0 0 0 0 -214.63657600464467 117.2861427414478 0 117.2861427414478 77.218921674998342 0 0 0 0 28.484014814537659 30.826752824269249 0 30.826752824269249 -28.936710636256976 0 0 0 0 49.630038000643253 49.611567800592042 0 49.611567800592042 7.1505555118762913 0 0 0 0 71.033963995389058 -22.923885740452519 0 -22.923885740452519 -0.82504152044786272 0 0 0 0 64.809454983602336 3.3907326192824385 0 3.3907326192824385 -111.3569103690852 0 0 0 0 -34.413792993793322 69.126607348830078 0 69.126607348830078 -31.094596643590847 0 0 0 0 26.461412415217637 46.313038505796378 0 46.313038505796378 -143.61347456880316 0 0 0 0 16.06203275383632 47.610336024702534 0 47.610336024702534 -23.135314785671881 0 0 0 0 -29.347845715539734 -3.9259020061176955 0 -3.9259020061176955 -135.70379576552125 0 0 0 0 -135.32369612706498 -48.760856803355978 0 -48.760856803355978 -157.15744419122296 0 0 0 0 -40.5595055620106 37.676666667757146 0 37.676666667757146 -185.45935783018737 0 0 0 0 -83.622861417294189 -101.81303141621652 0 -101.81303141621652 -146.89607792162369 0 0 0 0 27.898960200676811 -32.597399269544752 0 -32.597399269544752 -131.83182895145416 0 0 0 0 88.406071450186573 -3.8655801275322119 0 -3.8655801275322119 -136.86519197106875 0 0 0 0 32.304579971812927 -14.768425920524969 0 -14.768425920524969 -97.8151211274389 0 0 0 0 0.79182074181321926 -0.44033215054346186 0 -0.44033215054346186 -0.55758829441261581 0 0 0 0 -90.17236993474944 39.623121926703675 0 39.623121926703675 -33.302634379792551 0 0 0 0 -42.375437368529674 91.803127121469942 0 91.803127121469942 -30.497702357072512 0 0 0 0 116.33307865943425 -35.627290659675026 0 -35.627290659675026 -101.61674363781935 0 0 0 0 -11.733046225908765 -52.68861442822066 0 -52.68861442822066 -48.03719489109244 0 0 0 0 -5.4227967673168678 -60.293351789770242 0 -60.293351789770242 -83.025776661301393 0 0 0 0 36.46668325693463 -39.27481564202651 0 -39.27481564202651 -145.95930983364428 0 0 0 0 0.56682345396984601 -45.668851996156491 0 -45.668851996156491 -45.81513191619905 0 0 0 0 -15.458514501764512 -63.243147172655767 0 -63.243147172655767 -11.027736966389739 0 0 0 0 -36.790979280340252 -46.416562903683712 0 -46.416562903683712 73.141725855719642 0 0 0 0 -31.017362565831718 -34.764144095774327 0 -34.764144095774327 75.055488725978762 0 0 0 0 87.779913221929746 -81.941449061017238 0 -81.941449061017238 26.194666921699536 0 0 0 0 29.791952678070174 -31.45543001339864 0 -31.45543001339864 -3.812846595309793 0 0 0 0 20.596570133795467 -93.537571829792114 0 -93.537571829792114 27.596627202428181 0 0 0 0 1.1977312731396523 -20.863249767333286 0 -20.863249767333286 170.4267752706312 0 0 0 0 -46.14383604231989 -134.97527824098484 0 -134.97527824098484 -6.2816208675193366 0 0 0 0 -106.9237832284598 -87.793338780198724 0 -87.793338780198724 167.46178040529776 0 0 0 0 19.657922099120697 -70.588919845742225 0 -70.588919845742225 -48.067331311061935 0 0 0 0 26.886641869757341 -20.513153047714681 0 -20.513153047714681 -88.43451551634621 0 0 0 0 -40.510265049732055 -27.481598297866356 0 -27.481598297866356 -9.150611845892854 0 0 0 0 -7.095499396440573 3.1169256880768899 0 3.1169256880768899 -15.216488000519803 0 0 0 0 -0.080501864272534362 0.13798876910046687 0 0.13798876910046687 -0.043812035067192667 0 0 0 0 -22.915580779852462 -4.4597284176090852 0 -4.4597284176090852 4.0215294427250683 0 0 0 0 -10.842658620238595 1.6214659970594969 0 1.6214659970594969 1.5953964978054658 0 0 0 0 -18.008157301752362 2.089202826793894 0 2.089202826793894 3.577468847781347 0 0 0 0 -3.0999107959699579 -0.86383863372820002 0 -0.86383863372820002 0.31787381795617686 0 0 0 0 -15.150168416948873 1.647659541483506 0 1.647659541483506 1.0549176987893247 0 0 0 0 -2.2944256044812406 -0.9399693203850461 0 -0.9399693203850461 -0.97156436588267514 0 0 0 0 -2.4809488237808992 -0.9784268825686695 0 -0.9784268825686695 -3.8421110217457928 0 0 0 0 -23.609260862607698 -19.382950533385099 0 -19.382950533385099 -21.580194037764954 0 0 0 0 -8.083546069348813 -6.1403795900050682 0 -6.1403795900050682 -0.66301409062771199 0 0 0 0 -8.0835460693269852 -6.1403795900125715 0 -6.1403795900125715 -0.66301409062816674 0 0 0 0 -8.0835460693378991 -6.1403795899945521 0 -6.1403795899945521 -0.6630140906268025 0 0 0 0 -12.82327357451868 -8.1468216992924454 0 -8.1468216992924454 -1.3704419054216146 0 0 0 0 -1.50667011753103 13.260462467928619 0 13.260462467928619 -41.507243880086435 0 0 0 0 -130.88823553813199 -78.464234601957401 0 -78.464234601957401 -38.311373500885338 0 0 0 0 -54.862935141602065 -32.61618817162946 0 -32.61618817162946 -14.861069835153955 0 0 0 0 -0.17401319530316428 -0.59926341443070186 0 -0.59926341443070186 -1.3116972770097561 0 0 0 0 -26.842130955628818 -14.014239820539643 0 -14.014239820539643 -30.488013740760834 0 0 0 0 -71.889806119186687 -23.594810666964293 0 -23.594810666964293 -21.603263951767019 0 0 0 0 -3.1378972212041845 -13.069497228887172 0 -13.069497228887172 -40.57958308229729 0 0 0 0 -82.546647959468828 21.788562299909927 0 21.788562299909927 -71.224878936316259 0 0 0 0 -68.024186270366044 -11.494563016077322 0 -11.494563016077322 -9.7754419544197617 0 0 0 0 -163.89384337352385 -15.07696292384432 0 -15.07696292384432 -6.2572015600387658 0 0 0 0 -54.131570628669579 -35.441505620769362 0 -35.441505620769362 -95.693466065483278 0 0 0 0 -27.132247794404975 -33.866741173359401 0 -33.866741173359401 -47.421382235323335 0 0 0 0 -40.550068380605808 -19.670954308762248 0 -19.670954308762248 25.614208655140828 0 0 0 0 -52.284991020517737 -39.113605466159925 0 -39.113605466159925 46.663730206665605 0 0 0 0 -130.62006134414696 -38.273385907161696 0 -38.273385907161696 55.670165566562446 0 0 0 0 73.521700454530219 -36.61855787376885 0 -36.61855787376885 33.657916356703595 0 0 0 0 -53.169069180392398 14.927623098458525 0 14.927623098458525 -46.208745144877753 0 0 0 0 -39.089187774982747 -67.424861480008872 0 -67.424861480008872 -92.623393045193552 0 0 0 0 12.363856091775233 -41.074305291357859 0 -41.074305291357859 -98.039092892235658 0 0 0 0 -46.269251818113844 -193.3297984193689 0 -193.3297984193689 33.071020715705117 0 0 0 0 129.47481631505434 -177.71548255142181 0 -177.71548255142181 -2.0753162682574384 0 0 0 0 -174.32161879091291 -75.818436051786676 0 -75.818436051786676 -51.003945833845592 0 0 0 0 -0.31593920870418657 -0.18498084907517409 0 -0.18498084907517409 1.0985240854082159 0 0 0 0 -98.419779563157135 55.003856974666576 0 55.003856974666576 -17.731686814408476 0 0 0 0 -202.74927943673902 -36.740788576823775 0 -36.740788576823775 40.037258489613237 0 0 0 0 -87.888647682008923 -12.91780953651292 0 -12.91780953651292 41.832391083359198 0 0 0 0 -70.865482637396781 -53.640171764645856 0 -53.640171764645856 28.975018856147472 0 0 0 0 -39.371720785922662 -8.1641048901783506 0 -8.1641048901783506 -15.211002817959297 0 0 0 0 8.0083413492393447 -45.329607180802412 0 -45.329607180802412 8.0935269959500147 0 0 0 0 -56.294179999254993 7.5416916575220512 0 7.5416916575220512 42.215862822754843 0 0 0 0 -112.53223745060677 -32.551433445381861 0 -32.551433445381861 3.7779489498666408 0 0 0 0 -85.272281473626208 5.7351327501037304 0 5.7351327501037304 22.188726338121512 0 0 0 0 -1.3298247733194302 0.47118751785068747 0 0.47118751785068747 -0.54036964398975207 0 0 0 0 -191.52422418203423 -19.214837121956805 0 -19.214837121956805 16.532002167401743 0 0 0 0 -114.56462613121766 -83.912143158008007 0 -83.912143158008007 -62.951124122674173 0 0 0 0 -100.12051533161866 90.676830686555036 0 90.676830686555036 -3.6068687846737078 0 0 0 0 -48.592093993087474 29.444970092817925 0 29.444970092817925 0.22959814283694868 0 0 0 0 -70.005009540465835 0.31001933274467319 0 0.31001933274467319 3.6782820910673308 0 0 0 0 -26.851351974741192 11.677286018658577 0 11.677286018658577 -15.397587198889482 0 0 0 0 -28.09243868118574 -2.718740158327364 0 -2.718740158327364 15.393425053779538 0 0 0 0 -38.948515921136277 -18.76751351110795 0 -18.76751351110795 75.035386638848649 0 0 0 0 0.68271380243488267 0.62920050694143725 0 0.62920050694143725 3.577467060435322 0 0 0 0 -0.82836125784160686 -36.923120435263399 0 -36.923120435263399 57.663606536085354 0 0 0 0 -37.538496234374179 -18.134260578258363 0 -18.134260578258363 61.567016133546531 0 0 0 0 -53.012748963188642 -12.307935686167411 0 -12.307935686167411 63.764081449395462 0 0 0 0 -33.412151101914787 -8.1892695273309073 0 -8.1892695273309073 62.631043514563316 0 0 0 0 -28.813360636126163 9.6950616349213306 0 9.6950616349213306 19.739067574625096 0 0 0 0 -28.311289630346437 0.79530392866695365 0 0.79530392866695365 0.478416502093296 0 0 0 0 -30.138623676063105 5.2242020264918629 0 5.2242020264918629 2.310290638911221 0 0 0 0 -32.825206123194221 7.3479244561026462 0 7.3479244561026462 21.428257864386978 0 0 0 0 -38.699618444070438 13.857929146337597 0 13.857929146337597 14.304691471484603 0 0 0 0 -82.295253697744556 -39.828633818489436 0 -39.828633818489436 2.2220086442569027 0 0 0 0 -11.309078682394635 0.53803224606313904 0 0.53803224606313904 1.7461666323321232 0 0 0 0 -68.109721073036781 8.115722146782673 0 8.115722146782673 44.893222661068648 0 0 0 0 -20.02726814743437 -13.058103403803102 0 -13.058103403803102 -11.096003954128719 0 0 0 0 -36.487688094324596 1.5768256367811908 0 1.5768256367811908 3.7998694513911735 0 0 0 0 -11.361338657523447 66.583707130724633 0 66.583707130724633 50.705533690023913 0 0 0 0 -16.019747432961594 55.727625258945409 0 55.727625258945409 64.374101200526866 0 0 0 0 -12.276916299524601 12.934778699652725 0 12.934778699652725 -5.0402085292851098 0 0 0 0 -34.793412399314548 28.356194059901981 0 28.356194059901981 22.891196346919884 0 0 0 0 -36.56627903122353 9.377283194552092 0 9.377283194552092 22.010892999407588 0 0 0 0 -7.0627589587860342 3.2453719978933009 0 3.2453719978933009 7.5418197609073552 0 0 0 0 -34.478333695715264 16.188753789260488 0 16.188753789260488 10.698870079913831 0 0 0 0 -32.496877360337521 4.1767493769616095 0 4.1767493769616095 17.852894841523494 0 0 0 0 -55.336298825775884 15.090532836409011 0 15.090532836409011 12.922843930162799 0 0 0 0 -38.743782800402911 3.1555251814671177 0 3.1555251814671177 2.2470587848855903 0 0 0 0 -29.975675471818249 -13.115435847203685 0 -13.115435847203685 -2.9196285394029928 0 0 0 0 -53.909777608030709 15.39128158966605 0 15.39128158966605 48.821731517961098 0 0 0 0 -38.767007164335155 10.703448966567407 0 10.703448966567407 13.49658127891712 0 0 0 0 -59.516737198682677 -17.25205933615959 0 -17.25205933615959 21.06673621192374 0 0 0 0 -69.12789856067684 -13.225830827691993 0 -13.225830827691993 15.657543386801692 0 0 0 0 -72.542861352543696 -5.9397372634009571 0 -5.9397372634009571 2.5043638977344926 0 0 0 0 -29.631996560351183 -20.015526085585417 0 -20.015526085585417 30.599342909712959 0 0 0 0 -58.051115478989232 -208.93150621208179 0 -208.93150621208179 -347.75388592215177 0 0 0 0 -24.76439175105088 -0.23168363569597794 0 -0.23168363569597794 2.5109473241972058 0 0 0 0 -29.808845178777119 -17.628146271655382 0 -17.628146271655382 260.09780641208181 0 0 0 0 -79.614054563156969 -84.079378619802355 0 -84.079378619802355 226.71614524068991 0 0 0 0 1.2446919687790796 -140.81432631263533 0 -140.81432631263533 127.5167862919518 0 0 0 0 -49.321262371304329 -89.947566628931895 0 -89.947566628931895 198.08366968343944 0 0 0 0 -8.2542740812205011 -100.8064265681578 0 -100.8064265681578 235.69661034058527 0 0 0 0 16.226699069906317 87.99652221271549 0 87.99652221271549 178.51799434713234 0 0 0 0 0.43930640513111285 -1.0157668505002846 0 -1.0157668505002846 0.66272077862759637 0 0 0 0 -51.046348365923222 -1.5284165033006047 0 -1.5284165033006047 117.04871248599193 0 0 0 0 -29.665407426098682 1.6572046069434236 0 1.6572046069434236 33.112224168113698 0 0 0 0 -22.496435677945556 27.166130680929655 0 27.166130680929655 56.17605976476807 0 0 0 0 -18.502498092342648 10.032952379501836 0 10.032952379501836 35.56198127972948 0 0 0 0 -50.471360372248455 -7.3119146852295671 0 -7.3119146852295671 43.030497654487363 0 0 0 0 -8.8583685724032435 -3.5136724465805713 0 -3.5136724465805713 2.4446176299097537 0 0 0 0 -28.928128854990064 8.5363117536053323 0 8.5363117536053323 38.02535361787227 0 0 0 0 -32.812269703792225 2.3417436112394139 0 2.3417436112394139 4.1520327924171827 0 0 0 0 -144.98171470749003 -56.039909798168992 0 -56.039909798168992 -47.965952375941015 0 0 0 0 -23.734307604493068 4.3196363065400245 0 4.3196363065400245 2.0778872429664199 0 0 0 0 -20.269251905780038 5.7115050849711224 0 5.7115050849711224 0.66003818624267296 0 0 0 0 -38.350422655134025 -2.3914372603663878 0 -2.3914372603663878 11.141033775255096 0 0 0 0 -12.374870546494741 5.1946140641749494 0 5.1946140641749494 8.9070509785478258 0 0 0 0 -163.30614070288357 -68.475207459079343 0 -68.475207459079343 8.0713050130116244 0 0 0 0 -110.25560610918728 -17.531659351264238 0 -17.531659351264238 72.214286031524352 0 0 0 0 -99.875018777551304 -8.0453097576278196 0 -8.0453097576278196 45.539780511821618 0 0 0 0 -144.51575175559265 -82.96561768206675 0 -82.96561768206675 13.852387933019827 0 0 0 0 -150.52355489926776 -151.58563402193431 0 -151.58563402193431 44.005394305720984 0 0 0 0 -105.16671675649559 -150.61707382197255 0 -150.61707382197255 -140.59565687141776 0 0 0 0 -84.682589794978412 44.458812330062301 0 44.458812330062301 154.24887190952904 0 0 0 0 -62.296399085367739 -23.330805242248971 0 -23.330805242248971 51.88843295835477 0 0 0 0 175.00713382726462 229.70253826762769 0 229.70253826762769 194.32419575006952 0 0 0 0 -0.99247579379497353 -0.62535477104098192 0 -0.62535477104098192 3.6546022657069557 0 0 0 0 -447.69045594066847 -463.13693545915021 0 -463.13693545915021 86.947556330520683 0 0 0 0 -254.6819716998898 -277.97643674468247 0 -277.97643674468247 251.19878350881936 0 0 0 0 50.107997439954488 11.649387974983028 0 11.649387974983028 -169.32625910061711 0 0 0 0 -230.43597831600709 -185.46015898887754 0 -185.46015898887754 265.98981396318561 0 0 0 0 -175.80447269173965 -318.09460018453183 0 -318.09460018453183 -473.83670819341614 0 0 0 0 -16.942206459393702 0.43898970917091162 0 0.43898970917091162 1.5595307323375502 0 0 0 0 -235.62223596254626 -147.01077068470806 0 -147.01077068470806 364.27097020469262 0 0 0 0 -23.086752898670966 -71.433015891786681 0 -71.433015891786681 168.34491623719487 0 0 0 0 -109.51517647331275 134.58878704220706 0 134.58878704220706 590.54031744521865 0 0 0 0 -814.04095549796784 261.25613222611798 0 261.25613222611798 -231.57547703177261 0 0 0 0 -642.43758726408851 -546.27510237935599 0 -546.27510237935599 -692.42670896714026 0 0 0 0 -6.2081491513904581 1.1759433452945061 0 1.1759433452945061 -0.33466654815914687 0 0 0 0 -128.8307125202723 -64.288091113706287 0 -64.288091113706287 -279.12222150773505 0 0 0 0 -220.69648900690663 125.99845622851717 0 125.99845622851717 -184.35853238316304 0 0 0 0 -473.59238777082646 -21.068536069355559 0 -21.068536069355559 157.3983756210755 0 0 0 0 -246.23252748155392 174.90292655113137 0 174.90292655113137 364.10370306668665 0 0 0 0 -141.92118913466402 -117.68820416172366 0 -117.68820416172366 179.06888451275336 0 0 0 0 -287.5598097454058 -287.54587775370601 0 -287.54587775370601 -44.109594673325773 0 0 0 0 -293.44311641217246 -146.5344536037162 0 -146.5344536037162 199.88520702156711 0 0 0 0 -168.70079422799608 -232.53236698578075 0 -232.53236698578075 259.16747164132175 0 0 0 0 -62.484665157895506 -119.28260376559774 0 -119.28260376559774 542.30688388002 0 0 0 0 -161.09999287345192 34.783511121361911 0 34.783511121361911 371.72790736719435 0 0 0 0 -265.48618416789395 199.31531111192044 0 199.31531111192044 1382.484365128912 0 0 0 0 86.708443660667399 138.79316027940013 0 138.79316027940013 341.41223377232291 0 0 0 0 517.35723017226883 -18.413518205333389 0 -18.413518205333389 162.01726852633146 0 0 0 0 -353.78474628038634 346.21161498753725 0 346.21161498753725 -86.432305234660816 0 0 0 0 -479.38665428661625 -22.061847900416069 0 -22.061847900416069 194.16811518687064 0 0 0 0 -100.45237961061503 -133.55627122524947 0 -133.55627122524947 -433.16457469112902 0 0 0 0 -1430.8619593253388 596.27556795198507 0 596.27556795198507 -120.5576122596085 0 0 0 0 -708.10113876960531 405.45498229794248 0 405.45498229794248 -118.7659491490368 0 0 0 0 -361.99431975265907 607.10345546634744 0 607.10345546634744 -840.94377634222519 0 0 0 0 -227.31631607208692 -53.039823515229727 0 -53.039823515229727 156.50649385464203 0 0 0 0 -50.37778346145933 232.86997099563951 0 232.86997099563951 -306.89919680277308 0 0 0 0 92.5887489610177 114.33089535399631 0 114.33089535399631 16.172755674691871 0 0 0 0 51.278987380937906 92.712145603831232 0 92.712145603831232 51.230299002916581 0 0 0 0 225.92710236634593 -48.473330707498462 0 -48.473330707498462 -99.753455933772784 0 0 0 0 2254.9719730751494 272.36487913472456 0 272.36487913472456 -1147.5296272114865 0 0 0 0 1222.4862731409958 369.20938760957506 0 369.20938760957506 -490.41930179255905 0 0 0 0 1016.2386446262826 427.17432255445419 0 427.17432255445419 -506.70689074363145 0 0 0 0 -757.37394611499622 95.88667563922354 0 95.88667563922354 296.59402015512114 0 0 0 0 -3974.8936620144086 -316.00830201883855 0 -316.00830201883855 420.26957072461119 0 0 0 0 -1333.7930162318298 2339.6938185409672 0 2339.6938185409672 23.426948131604149 0 0 0 0 1672.9240965128538 2911.0883684253868 0 2911.0883684253868 -517.30018047847989 0 0 0 0 159.85189223580528 -121.31789783085696 0 -121.31789783085696 -38.879287961332011 0 0 0 0 -339.54644553997787 -1066.8509064895425 0 -1066.8509064895425 -756.47956884092821 0 0 0 0 -2481.1437684579869 -329.92475680671123 0 -329.92475680671123 -72.673737226115918 0 0 0 0 -29.876344250090085 6.4690579461755 0 6.4690579461755 -0.53962000170997726 0 0 0 0 -1365.6691171283019 -1387.2708515320446 0 -1387.2708515320446 -746.42017377837965 0 0 0 0 -195.83257400749244 1286.0710125757766 0 1286.0710125757766 801.43536868253614 0 0 0 0 -13.013092296171862 -1.4926903702059633 0 -1.4926903702059633 1.1582561248781449 0 0 0 0 -233.61916215671226 -74.799898375400517 0 -74.799898375400517 172.40340045079029 0 0 0 0 -739.15953950140101 988.88661899507292 0 988.88661899507292 782.29379746063205 0 0 0 0 -551.0750197294692 9.3869138467507582 0 9.3869138467507582 210.40063207225376 0 0 0 0 -1111.5260532763859 90.770374546122184 0 90.770374546122184 215.75088924068041 0 0 0 0 -390.62988858517201 199.14196770004037 0 199.14196770004037 -38.221491692814197 0 0 0 0 -108.04474463984661 -4.4904729756553934 0 -4.4904729756553934 -15.114093556489024 0 0 0 0 -107.00565387087408 -2.2731313189979119 0 -2.2731313189979119 -13.054676906196619 0 0 0 0 -134.91692193215567 -19.770404122140178 0 -19.770404122140178 37.612453210404055 0 0 0 0 -139.11429641254654 39.514118917684755 0 39.514118917684755 -22.668411899349621 0 0 0 0 3.9137199367178255 0.53710264609151182 0 0.53710264609151182 -21.491786969821987 0 0 0 0 32.48918611271074 -121.77907070796573 0 -121.77907070796573 49.990494599995145 0 0 0 0 58.4405853235221 -51.659677198320423 0 -51.659677198320423 -13.133099223527097 0 0 0 0 22.423203025209659 -30.094173105075242 0 -30.094173105075242 -20.491628499157741 0 0 0 0 -45.210354008857394 -81.110708948390311 0 -81.110708948390311 78.790978558312418 0 0 0 0 -36.094769658200676 -34.42309268619465 0 -34.42309268619465 -10.677223441789465 0 0 0 0 -20.730141758878744 -6.0189941607659421 0 -6.0189941607659421 -30.123999133313191 0 0 0 0 -0.60499062814051285 -21.955094517513317 0 -21.955094517513317 -20.285467535837597 0 0 0 0 6.4701728106447263 -2.4291390005906806 0 -2.4291390005906806 -18.385339123328777 0 0 0 0 33.36780971979897 33.68985518887439 0 33.68985518887439 -75.059299683263816 0 0 0 0 71.843938781530596 71.992948534904826 0 71.992948534904826 -26.078065055273328 0 0 0 0 -9.5121513519516157 -15.34396233892403 0 -15.34396233892403 9.0947927743764012 0 0 0 0 -7.4630367431018385 -15.943667502956032 0 -15.943667502956032 -6.7286161549091048 0 0 0 0 -3.8670034558126645 -13.174821751631043 0 -13.174821751631043 -12.666074997189753 0 0 0 0 -5.6234662286005914 -12.172545233994242 0 -12.172545233994242 -8.7650632934801251 0 0 0 0 -21.08448646053148 -27.882939680488562 0 -27.882939680488562 -22.561129423691682 0 0 0 0 -19.975130081897078 -3.6747657332780364 0 -3.6747657332780364 14.147973871321028 0 0 0 0 41.489998923410894 59.901916839544583 0 59.901916839544583 -21.138768390450423 0 0 0 0 -925.57444503224542 99.178219947734306 0 99.178219947734306 -15.814766884685014 0 0 0 0 -1.2729929707810754 -0.83024663790834552 0 -0.83024663790834552 -1.8931823227768056 0 0 0 0 -79.18508928004303 112.19153218718384 0 112.19153218718384 -15.467451347909446 0 0 0 0 -34.819408328316058 -26.276927607587822 0 -26.276927607587822 -7.5622495960587912 0 0 0 0 -33.766872931613761 -2.7676325364391232 0 -2.7676325364391232 -41.39452863239967 0 0 0 0 -608.44372540530458 -62.27228668130374 0 -62.27228668130374 -38.935161555934428 0 0 0 0 0.87302059924650166 0.75905689654141995 0 0.75905689654141995 -2.6324454378270339 0 0 0 0 -442.67211382912501 -200.69113735359394 0 -200.69113735359394 -45.590076325444898 0 0 0 0 -250.40516745777859 -174.74835198103347 0 -174.74835198103347 -141.06891630558403 0 0 0 0 -3.4827109273337555 -18.842985320876892 0 -18.842985320876892 28.065617626286439 0 0 0 0 -16.812259196769446 4.9373087434280478 0 4.9373087434280478 42.094604364565726 0 0 0 0 -8.2619599055763047 -1.6537231233952063 0 -1.6537231233952063 0.9984509977337479 0 0 0 0 -2.8629265933996066 -8.2038375826969485 0 -8.2038375826969485 -19.855219000680876 0 0 0 0 -379.90383882030437 105.44270707124861 0 105.44270707124861 -184.679514843785 0 0 0 0 -381.84066635225855 382.8935147279646 0 382.8935147279646 -265.06861959107846 0 0 0 0 -549.60459411323245 371.87321374451312 0 371.87321374451312 -223.07361289473374 0 0 0 0 -555.73761632062633 344.82157463418071 0 344.82157463418071 -187.70049535884027 0 0 0 0 -717.85679339038325 295.40847352873107 0 295.40847352873107 -187.231118134393 0 0 0 0 -814.77061897759268 368.63265780305392 0 368.63265780305392 -104.54146757188573 0 0 0 0 -517.19645683925046 302.85641725729101 0 302.85641725729101 -312.38429971230335 0 0 0 0 -504.69233087087923 246.38633763424514 0 246.38633763424514 -184.35446798196244 0 0 0 0 -736.24038629869756 164.1778842244446 0 164.1778842244446 -151.51958062642461 0 0 0 0 -429.10553004684334 62.124111334263489 0 62.124111334263489 -125.054657258014 0 0 0 0 -342.02346789394505 -76.988912886633898 0 -76.988912886633898 -107.42137181145154 0 0 0 0 -516.73648151096313 11.334678024820846 0 11.334678024820846 -133.05075771702468 0 0 0 0 -499.00058379606344 165.61581054097849 0 165.61581054097849 -225.10879960306011 0 0 0 0 -416.59846953485976 313.0836312142319 0 313.0836312142319 -441.20524564368998 0 0 0 0 -363.76555812940933 217.45936560486234 0 217.45936560486234 -281.64205992083066 0 0 0 0 -184.88608893879427 56.634304102086659 0 56.634304102086659 -189.59117084178786 0 0 0 0 -290.91659311750846 63.674610565584885 0 63.674610565584885 -445.77763295826242 0 0 0 0 -386.26663073518284 75.575433023828055 0 75.575433023828055 -164.56754380895245 0 0 0 0 -293.75482898392511 52.669459517980613 0 52.669459517980613 -241.77002559159664 0 0 0 0 -374.59918909014959 -55.130140382945456 0 -55.130140382945456 -105.34457405324156 0 0 0 0 -296.83201962449675 -74.208558864369024 0 -74.208558864369024 -132.4880611013366 0 0 0 0 -212.18773967769584 -159.55458195398887 0 -159.55458195398887 -63.279519737819101 0 0 0 0 -254.26069966684008 -85.564437132741148 0 -85.564437132741148 45.812360035977349 0 0 0 0 -37.002267776457302 -139.65666735116298 0 -139.65666735116298 -8.4182611598167796 0 0 0 0 18.775003871654917 -13.44238433484162 0 -13.44238433484162 -25.158106143980888 0 0 0 0 4.0366722894177656 0.81802401002391889 0 0.81802401002391889 -32.298395626772674 0 0 0 0 -223.18660985678434 -117.29056636866255 0 -117.29056636866255 -124.77243359641216 0 0 0 0 -11.812536401826947 -4.5782415963479082 0 -4.5782415963479082 -17.703852628594746 0 0 0 0 0.32035825238882865 -1.4010398675804794 0 -1.4010398675804794 -8.7909855814456606 0 0 0 0 -272.15518719674583 -141.19874380152282 0 -141.19874380152282 -56.148225617389244 0 0 0 0 -353.94828205871454 -92.169107347106319 0 -92.169107347106319 -108.33729821152338 0 0 0 0 -263.44182988818648 -130.85597881502906 0 -130.85597881502906 -108.48095943355709 0 0 0 0 -265.92373187043722 -166.55994367291029 0 -166.55994367291029 -40.300789288497924 0 0 0 0 -278.04707828128448 -90.533595562316123 0 -90.533595562316123 30.403101567675549 0 0 0 0 -325.45304662950366 -126.71882168992138 0 -126.71882168992138 -45.11599778784047 0 0 0 0 0.96092115248291066 -1.2746322892315334 0 -1.2746322892315334 -4.6698640912264153 0 0 0 0 -41.576528326651896 16.744013425981848 0 16.744013425981848 79.169556444785485 0 0 0 0 -380.82031883248419 -193.78015844103442 0 -193.78015844103442 -21.118165004426373 0 0 0 0 67.187004225605051 -64.328305682833729 0 -64.328305682833729 -13.057598026189737 0 0 0 0 -58.755839497796842 -36.31656616394946 0 -36.31656616394946 165.24283113872877 0 0 0 0 -0.5434564548486378 -98.415952447941322 0 -98.415952447941322 129.48747481396254 0 0 0 0 -14.598328881773341 -67.118223009978607 0 -67.118223009978607 73.311243216963931 0 0 0 0 31.574345233577333 -26.09874512248075 0 -26.09874512248075 -82.961640833153069 0 0 0 0 -27.233395012844994 -59.131648970112749 0 -59.131648970112749 -41.015190660182952 0 0 0 0 0.47181865785428556 -1.0329285531155392 0 -1.0329285531155392 -1.697184431507158 0 0 0 0 -454.50383289233287 -187.10704342516516 0 -187.10704342516516 9.2977332398327235 0 0 0 0 0.49333382926317881 -0.55137090391360744 0 -0.55137090391360744 0.53244802604284525 0 0 0 0 -364.21506970470364 -54.623832347838686 0 -54.623832347838686 -16.804326827688556 0 0 0 0 -208.53814506069466 -122.42734473232014 0 -122.42734473232014 26.500367416524796 0 0 0 0 -193.58395453437333 23.035461086127526 0 23.035461086127526 98.073899384282186 0 0 0 0 -242.80806518952159 -106.80310362994771 0 -106.80310362994771 -57.007741405165689 0 0 0 0 -283.78943777807581 -153.76127068393919 0 -153.76127068393919 -103.63578576843031 0 0 0 0 -172.70468634564168 30.637369651082309 0 30.637369651082309 26.09574057387681 0 0 0 0 -166.30281824653139 12.546763141958763 0 12.546763141958763 68.1321198691885 0 0 0 0 -216.9511566194451 -126.55565711164911 0 -126.55565711164911 -132.68980854532947 0 0 0 0 -165.14887416971033 6.0068925058194509 0 6.0068925058194509 35.715983164743307 0 0 0 0 300.58570777230489 209.24113123518623 0 209.24113123518623 84.115755189705283 0 0 0 0 -410.62677312089181 -22.58149027970569 0 -22.58149027970569 120.0262587520815 0 0 0 0 0.4113231072419623 -1.0130908584172218 0 -1.0130908584172218 1.4291735816796844 0 0 0 0 -99.713502562015492 -47.135804078245883 0 -47.135804078245883 -4.9525367087627501 0 0 0 0 -209.00744973497785 69.956496883205773 0 69.956496883205773 301.74631937542551 0 0 0 0 -53.751838699728978 67.296883398884091 0 67.296883398884091 106.49784015331261 0 0 0 0 -44.892089790853788 38.453865578564091 0 38.453865578564091 10.502073438878597 0 0 0 0 100.98244170899125 119.48122783658437 0 119.48122783658437 34.572597342922791 0 0 0 0 -6.2590717144407932 10.0563571317022 0 10.0563571317022 -12.538546266311286 0 0 0 0 84.049707901855072 152.29791073962019 0 152.29791073962019 -17.018524931569345 0 0 0 0 -977.88289031850582 -146.82722756202133 0 -146.82722756202133 61.695635674229905 0 0 0 0 285.1872039505979 205.30148754361269 0 205.30148754361269 69.588226886573977 0 0 0 0 -2.5465769298079053 2.8819094095981441 0 2.8819094095981441 -4.8090837776927522 0 0 0 0 -1526.8161070480601 -128.05022500730519 0 -128.05022500730519 -31.688856139904786 0 0 0 0 -677.48428254657847 -19.725012627254241 0 -19.725012627254241 -79.491708572988742 0 0 0 0 -583.98497728702932 -94.222304635951076 0 -94.222304635951076 -68.306190702700377 0 0 0 0 -366.29018044504846 128.00465198567514 0 128.00465198567514 -237.36301349832152 0 0 0 0 -86.276972826064366 -35.849774472762853 0 -35.849774472762853 -279.42732904398878 0 0 0 0 -109.38694770356778 -90.006200789656504 0 -90.006200789656504 -69.928707027307723 0 0 0 0 -368.35775222848929 346.82734831769272 0 346.82734831769272 -386.64179993333141 0 0 0 0 -321.83865664675614 -46.721886967358614 0 -46.721886967358614 -54.80800066181007 0 0 0 0 -21.292549394947855 -49.311664437321269 0 -49.311664437321269 -110.02672454277581 0 0 0 0 -691.7892359269681 568.51324570768293 0 568.51324570768293 467.73239257215482 0 0 0 0 -840.13499327329009 297.21062664295869 0 297.21062664295869 -28.352220947949093 0 0 0 0 -290.94479040814258 416.63665496079898 0 416.63665496079898 -5.5709342143929916 0 0 0 0 -1144.6824376255681 -237.32507171900323 0 -237.32507171900323 -284.35320357379879 0 0 0 0 -1264.4375071467339 -422.12426337830107 0 -422.12426337830107 -58.377037782079299 0 0 0 0 -503.01153738100038 -487.90591242548129 0 -487.90591242548129 -556.94159134938138 0 0 0 0 -626.69560645607271 -262.88487104266335 0 -262.88487104266335 -19.431565294241295 0 0 0 0 -1804.2296690647418 271.76038513085291 0 271.76038513085291 231.03972265007243 0 0 0 0 -2501.3480811046011 -136.80056155306124 0 -136.80056155306124 180.28730245572521 0 0 0 0 -1803.2994670348417 -353.55024931433354 0 -353.55024931433354 99.183914105196948 0 0 0 0 -1751.9648878034022 -386.71571383210085 0 -386.71571383210085 -21.702763477018468 0 0 0 0 -1800.6999660898509 -261.24985933219648 0 -261.24985933219648 -232.2358437686176 0 0 0 0 -1760.4017869598938 -239.94402402463726 0 -239.94402402463726 -222.74734890541384 0 0 0 0 -4.3358231548943991 0.31303471878153388 0 0.31303471878153388 1.0784382948308537 0 0 0 0 -1533.3329820792546 -889.43638174411228 0 -889.43638174411228 -594.29567401728434 0 0 0 0 41.840762559251743 -35.473261875990396 0 -35.473261875990396 19.904606418070269 0 0 0 0 -28.794979327372857 11.65728575247374 0 11.65728575247374 7.3816974001317703 0 0 0 0 20.05660344248372 31.254067357626568 0 31.254067357626568 3.5999872597110283 0 0 0 0 -19.659247552201169 10.503401131663029 0 10.503401131663029 2.2880220746991577 0 0 0 0 -15.104640370125708 10.356204171884769 0 10.356204171884769 3.0440507184366652 0 0 0 0 -21.003514982505294 24.073434769585219 0 24.073434769585219 16.872172208835536 0 0 0 0 -31.997657584812259 23.392975345991886 0 23.392975345991886 29.801357711024821 0 0 0 0 -27.792180885604466 16.634104251233566 0 16.634104251233566 9.5182002206897778 0 0 0 0 -32.701123313949211 15.774598977413007 0 15.774598977413007 9.5824945148988121 0 0 0 0 -51.958846265777538 17.201587761938924 0 17.201587761938924 22.373880048975025 0 0 0 0 -45.075473704870092 15.798235106639936 0 15.798235106639936 15.174067641990405 0 0 0 0 -45.000269216514425 16.636552963068539 0 16.636552963068539 19.944141109196607 0 0 0 0 -38.135770192297059 22.083782997908088 0 22.083782997908088 24.158535723285695 0 0 0 0 -35.387731037204503 17.563165693829319 0 17.563165693829319 20.062530179431519 0 0 0 0 -31.396929450929747 22.133358168279074 0 22.133358168279074 17.296777100830923 0 0 0 0 -36.246823027729988 17.061891735826975 0 17.061891735826975 12.054472475804687 0 0 0 0 -36.408466555716586 15.767394921153482 0 15.767394921153482 6.9804204086453865 0 0 0 0 -32.572342513301464 17.934946565467989 0 17.934946565467989 8.200738937211554 0 0 0 0 -36.616560365182522 15.178581593807394 0 15.178581593807394 5.7880762228146523 0 0 0 0 -37.046437085577054 19.995466097496802 0 19.995466097496802 13.688181929862367 0 0 0 0 -42.673122656939086 15.493448866819563 0 15.493448866819563 10.261862793883438 0 0 0 0 -41.658100055079558 17.002544984703945 0 17.002544984703945 9.5812021555835827 0 0 0 0 -48.159220345201902 17.437105074699048 0 17.437105074699048 15.996139880335022 0 0 0 0 -49.495275568309808 14.215608042225824 0 14.215608042225824 11.743611838482821 0 0 0 0 34.1155451935374 105.64822410490342 0 105.64822410490342 122.25178471234926 0 0 0 0 -43.349581321221194 8.5437338138285668 0 8.5437338138285668 -0.83027709611860701 0 0 0 0 -46.244206525215532 14.304481078736998 0 14.304481078736998 8.0173347386562455 0 0 0 0 -46.249082815099825 13.609908903914134 0 13.609908903914134 7.6625048220594181 0 0 0 0 -40.669240214556339 12.924617925090843 0 12.924617925090843 2.9077179975774925 0 0 0 0 -40.264695675767143 13.330004012999325 0 13.330004012999325 2.6046285125898976 0 0 0 0 -31.132980093898368 14.535849472777727 0 14.535849472777727 0.098504054300519783 0 0 0 0 -40.092513935029274 13.734107517909706 0 13.734107517909706 3.2194321774820764 0 0 0 0 -35.759034742077347 16.192899114389547 0 16.192899114389547 5.2240632782290959 0 0 0 0 -40.568456935681752 13.298096765112575 0 13.298096765112575 3.5161194664037794 0 0 0 0 -35.617221274922485 16.711703758102431 0 16.711703758102431 6.2878751388720957 0 0 0 0 -33.648757753318932 11.931840471779651 0 11.931840471779651 -2.2047033665330673 0 0 0 0 -38.724669694107433 9.640872877476113 0 9.640872877476113 -2.5057484857129566 0 0 0 0 -5.620663729365301 0.01512741964266695 0 0.01512741964266695 2.5404049796460049 0 0 0 0 -44.952816404497753 10.174791582833961 0 10.174791582833961 1.3434698226033106 0 0 0 0 -44.734467593676527 10.994174606311844 0 10.994174606311844 1.7044882792994258 0 0 0 0 -490.87105899145172 -376.75260952489236 0 -376.75260952489236 -231.67765145732372 0 0 0 0 -30.864096720215457 16.482894993326681 0 16.482894993326681 4.291937323235743 0 0 0 0 -4.0984236886793184 5.1220833040632563 0 5.1220833040632563 0.29974718569585473 0 0 0 0 -346.78063761413796 -376.3239340282131 0 -376.3239340282131 -231.8333923571295 0 0 0 0 -292.65013721625655 -393.74390109911371 0 -393.74390109911371 43.468158447054748 0 0 0 0 -464.18065575582295 -179.05315355806943 0 -179.05315355806943 255.82872921453634 0 0 0 0 -541.3719964988486 -517.47209877273349 0 -517.47209877273349 17.341813126790498 0 0 0 0 -600.45261764520728 -441.14171412131526 0 -441.14171412131526 489.12916452401197 0 0 0 0 -7.9191327769475137 -0.44348592395869169 0 -0.44348592395869169 0.57645609582476176 0 0 0 0 -474.56047758512796 -363.23312883676795 0 -363.23312883676795 228.64075421787425 0 0 0 0 -315.00416969213984 -287.68704724702911 0 -287.68704724702911 210.06945962059905 0 0 0 0 -900.12118783401456 298.09248839668788 0 298.09248839668788 128.02596671995229 0 0 0 0 -32.153875984848383 13.730931937413235 0 13.730931937413235 2.2760640602536348 0 0 0 0 -225.07274854908417 190.93672488732031 0 190.93672488732031 140.19971388753515 0 0 0 0 -35.181516542554164 -305.14808536698047 0 -305.14808536698047 -216.49425952823685 0 0 0 0 -816.9238921408346 207.14113080734685 0 207.14113080734685 88.902440515057663 0 0 0 0 -564.74028242613349 -303.83096576676576 0 -303.83096576676576 -22.648431406357645 0 0 0 0 -306.00626496956465 207.09720287459368 0 207.09720287459368 43.567130439437157 0 0 0 0 -467.54976335223182 4.62936670757135 0 4.62936670757135 13.188722520573194 0 0 0 0 -130.32949745466976 -7.4232466865609013 0 -7.4232466865609013 -71.7005819438873 0 0 0 0 -459.90202036034316 513.4723311480866 0 513.4723311480866 126.32712081819091 0 0 0 0 -11.177425732847041 468.87745660050621 0 468.87745660050621 -166.33522607462157 0 0 0 0 -790.32685863044571 372.46316807160628 0 372.46316807160628 235.34324408604326 0 0 0 0 -450.44006161530706 -463.05362362129205 0 -463.05362362129205 135.83456624442658 0 0 0 0 -2493.2050259852558 950.29989418983325 0 950.29989418983325 419.47633798857026 0 0 0 0 -8.1755848177648147 0.1040477330440237 0 0.1040477330440237 0.9865499543875047 0 0 0 0 -746.45233358852238 -513.14375028804477 0 -513.14375028804477 503.9819756045996 0 0 0 0 -810.97878388295248 178.48159629115418 0 178.48159629115418 201.90518853308996 0 0 0 0 -2493.6897954379306 205.99602360342547 0 205.99602360342547 373.37570553000347 0 0 0 0 -620.34824017907772 466.45808058679745 0 466.45808058679745 -397.76584690742692 0 0 0 0 10.360615449194029 -72.571402550382217 0 -72.571402550382217 -339.72087221203742 0 0 0 0 -477.29575893615765 896.891529595056 0 896.891529595056 -1152.3034285350793 0 0 0 0 -2496.899860412318 1002.3307635055357 0 1002.3307635055357 -159.00585949881116 0 0 0 0 -2496.9688244658137 -502.10846822415095 0 -502.10846822415095 254.38471987853416 0 0 0 0 -1164.9327615446446 -953.46859827306105 0 -953.46859827306105 -667.9556440902652 0 0 0 0 -11.404221989642952 2.5255426404778349 0 2.5255426404778349 -2.2674472109340646 0 0 0 0 -28.473358446632446 4.1813600734236944 0 4.1813600734236944 0.73896978570719862 0 0 0 0 -16.327298709204456 9.2128218427029225 0 9.2128218427029225 -241.55212407782028 0 0 0 0 -65.500375464186163 6.9181808841691321 0 6.9181808841691321 7.5278859434231435 0 0 0 0 -53.072652385032541 40.625129603577932 0 40.625129603577932 -157.65360868546929 0 0 0 0 -1022.9990943890814 -182.18948128314378 0 -182.18948128314378 48.015649892567438 0 0 0 0 -2495.0398481575157 293.64767142516456 0 293.64767142516456 525.14783158754824 0 0 0 0 -1056.217784369805 -86.646787231776756 0 -86.646787231776756 352.73034197140225 0 0 0 0 -24.980767927258057 -70.181711943979394 0 -70.181711943979394 8.3787913809620704 0 0 0 0 -3.5516958989836667 -31.297578088404052 0 -31.297578088404052 78.782479680934259 0 0 0 0 6.7704706299118698 -98.317168001825081 0 -98.317168001825081 33.001556227887761 0 0 0 0 47.787784869637221 -95.589753630416425 0 -95.589753630416425 -68.21499104474583 0 0 0 0 -133.32022425674586 150.97571792410156 0 150.97571792410156 59.039764045319089 0 0 0 0 -4.6947174587076006 -23.836436385040834 0 -23.836436385040834 44.928714140552387 0 0 0 0 -27.168264954489334 -7.513603169060687 0 -7.513603169060687 4.2825505984567807 0 0 0 0 -7.0443648498276161 -3.087324437821195 0 -3.087324437821195 -84.317011164639098 0 0 0 0 -3.4888888471561663 2.6071808468728594 0 2.6071808468728594 0.87839353708856405 0 0 0 0 -1.0336524891528942 -3.149856813439071 0 -3.149856813439071 1.0341316656477648 0 0 0 0 -14.001699065667026 -34.201956766089467 0 -34.201956766089467 -3.5936558261703624 0 0 0 0 69.312551163691751 43.288505703059897 0 43.288505703059897 -66.032555014233807 0 0 0 0 -86.424335763540512 -196.79491517610069 0 -196.79491517610069 9.6000738715874832 0 0 0 0 -226.7593225341825 233.21516487181384 0 233.21516487181384 -4.5378671479220998 0 0 0 0 -225.40314762387698 221.6706435822461 0 221.6706435822461 -284.4402075227863 0 0 0 0 -1.7422859012242959 -0.34545652024964646 0 -0.34545652024964646 0.47266045056840034 0 0 0 0 -240.42239151866306 205.79330314619 0 205.79330314619 -52.677163970753512 0 0 0 0 -20.566921266695317 -62.783702623221203 0 -62.783702623221203 19.437459804600337 0 0 0 0 -76.703723460435867 126.54017449068675 0 126.54017449068675 -22.969501634874604 0 0 0 0 3.531758966993948 -3.2883763288460273 0 -3.2883763288460273 -8.1473681437160366 0 0 0 0 -55.083467363723798 -5.8791581455639914 0 -5.8791581455639914 15.37616164897868 0 0 0 0 -62.325425418857208 8.0549439924925252 0 8.0549439924925252 14.24243668083545 0 0 0 0 -30.980819573167938 -10.748166566718471 0 -10.748166566718471 1.9173432957638699 0 0 0 0 -81.689078575885787 -33.294179330877824 0 -33.294179330877824 39.401509019128525 0 0 0 0 -68.667600284047296 -14.08654254191471 0 -14.08654254191471 51.399783416238392 0 0 0 0 -25.660889627239534 -11.299837062415381 0 -11.299837062415381 2.4663877799432692 0 0 0 0 -39.15665036891113 -30.870805681456119 0 -30.870805681456119 17.744910351105034 0 0 0 0 0.26024324753884898 0.25322278632990408 0 0.25322278632990408 -0.069775026544962204 0 0 0 0 -50.90791615037466 -62.025429161232154 0 -62.025429161232154 -47.898683151432863 0 0 0 0 -21.685228901463802 -14.44599872267559 0 -14.44599872267559 11.160348429934118 0 0 0 0 -51.902920840895277 -53.841962514360461 0 -53.841962514360461 53.517849441860278 0 0 0 0 -65.674745151508148 -49.676737567164025 0 -49.676737567164025 58.914391331110266 0 0 0 0 -37.168082526931926 -57.922873002724856 0 -57.922873002724856 37.16161331392928 0 0 0 0 -38.107446894548048 -31.651374201090803 0 -31.651374201090803 157.98519972141253 0 0 0 0 -149.23163297478891 -46.378968020037803 0 -46.378968020037803 67.141208625774823 0 0 0 0 -180.36083574461276 -96.258310544969149 0 -96.258310544969149 60.164956176697046 0 0 0 0 -87.387090507478831 -75.16414624653035 0 -75.16414624653035 37.787109617435057 0 0 0 0 -94.193578361184564 -60.210032632962282 0 -60.210032632962282 75.245040983970512 0 0 0 0 -72.988813392936436 -11.946308126367342 0 -11.946308126367342 103.25990846986804 0 0 0 0 -118.02187312330258 17.231308350898104 0 17.231308350898104 136.60002127564417 0 0 0 0 -143.61354504224556 -53.724377393857765 0 -53.724377393857765 87.806080414974247 0 0 0 0 -53.899481391437973 52.513155949542785 0 52.513155949542785 122.88869517354237 0 0 0 0 -102.44104141494904 6.2087197189170809 0 6.2087197189170809 117.16491405749537 0 0 0 0 -82.243692649041009 -29.88949247983706 0 -29.88949247983706 71.685799479949765 0 0 0 0 -66.739359302763091 15.016971037333576 0 15.016971037333576 62.232528915005787 0 0 0 0 -69.16323296491538 -4.7044528262669019 0 -4.7044528262669019 30.68218243860548 0 0 0 0 -76.838873172940566 0.2761389487520205 0 0.2761389487520205 31.81768564388419 0 0 0 0 -137.01274658607326 153.3792299473393 0 153.3792299473393 211.87138875598384 0 0 0 0 128.10450301620585 60.899619724731906 0 60.899619724731906 -200.02969169464927 0 0 0 0 -7.6654979895884026 -64.364117947797354 0 -64.364117947797354 -103.89400152985513 0 0 0 0 64.115240593317139 -6.876044444661602 0 -6.876044444661602 -61.445697218947998 0 0 0 0 -58.81507046553088 -48.377800321731797 0 -48.377800321731797 -36.179814886439317 0 0 0 0 -50.04017121985089 -38.251917143498588 0 -38.251917143498588 -32.231509302285076 0 0 0 0 -1.146494317801853 60.451372511316222 0 60.451372511316222 37.817138619320872 0 0 0 0 -148.25733561545712 -59.338819907823904 0 -59.338819907823904 3.7299616545105891 0 0 0 0 12.235535905158031 -42.079793074123813 0 -42.079793074123813 -41.906679389150213 0 0 0 0 50.990829203738031 -34.227277697900035 0 -34.227277697900035 -42.481713849869266 0 0 0 0 -38.786823200225626 -9.1537891126420732 0 -9.1537891126420732 -18.612396705491847 0 0 0 0 -38.703237358975457 5.0774820988832516 0 5.0774820988832516 33.195294729502166 0 0 0 0 32.050251018656127 6.5988226037220556 0 6.5988226037220556 -16.02429943690322 0 0 0 0 -133.98103180833277 -12.153417326367617 0 -12.153417326367617 37.249504651212192 0 0 0 0 -150.72902273693762 -16.453805858360511 0 -16.453805858360511 36.149256457286526 0 0 0 0 -1.9749072826932661 -0.6471290513544794 0 -0.6471290513544794 -0.015913020841818781 0 0 0 0 -145.73945967664713 -48.476120691118894 0 -48.476120691118894 48.194737946571649 0 0 0 0 -42.875062960898504 -9.4177303684731442 0 -9.4177303684731442 5.7776766466487288 0 0 0 0 -17.750691647814193 -6.8629055713279961 0 -6.8629055713279961 -4.0152473345490636 0 0 0 0 -2.6891363828215589 -3.0085986617456015 0 -3.0085986617456015 -4.6641633362989872 0 0 0 0 20.205335493300026 -48.236157741330373 0 -48.236157741330373 -35.480340352347355 0 0 0 0 54.232001432821562 -23.562233885571231 0 -23.562233885571231 -14.338326509872331 0 0 0 0 -57.242101314138381 27.420405964892893 0 27.420405964892893 4.2264136056928692 0 0 0 0 -47.180817736424565 17.012799934512085 0 17.012799934512085 -3.5307913999512839 0 0 0 0 60.677012976450897 102.72193773393303 0 102.72193773393303 16.412477624183566 0 0 0 0 -18.433624268207495 9.2276029972731521 0 9.2276029972731521 17.844148081486992 0 0 0 0 60.57874879019073 8.373405892554274 0 8.373405892554274 -11.599244346348968 0 0 0 0 -18.889248132101784 -10.172957699349922 0 -10.172957699349922 7.9435289219891274 0 0 0 0 -61.008076873249252 10.995501781784554 0 10.995501781784554 -27.989111615680486 0 0 0 0 -24.533893867586357 -59.421895922794192 0 -59.421895922794192 -4.638414846279602 0 0 0 0 -24.905861710074532 -8.4904942261750875 0 -8.4904942261750875 9.1902871214933839 0 0 0 0 -30.189953168149071 -6.5427079375998378 0 -6.5427079375998378 -4.153171664194744 0 0 0 0 -14.21643666211326 -5.5687592260767032 0 -5.5687592260767032 7.9344562953090421 0 0 0 0 -45.953131711054482 -23.827915377270703 0 -23.827915377270703 4.1056844484829798 0 0 0 0 -35.160048623667521 -7.5186130196096101 0 -7.5186130196096101 1.5138705058610564 0 0 0 0 -22.628823698993074 -4.373705716873701 0 -4.373705716873701 9.8008545308593966 0 0 0 0 -55.680871528260468 5.4427511562992095 0 5.4427511562992095 -8.0094441210101195 0 0 0 0 -19.617617881781175 9.1697499453686966 0 9.1697499453686966 -0.47403509413820544 0 0 0 0 235.1104295110963 -67.883389881341486 0 -67.883389881341486 -264.59957880426646 0 0 0 0 13.23456085336511 -75.420371783868063 0 -75.420371783868063 18.876358962928293 0 0 0 0 -5.5227347487835949 0.72950816989065892 0 0.72950816989065892 -0.78040828449019828 0 0 0 0 150.60241378695537 129.83010598800195 0 129.83010598800195 30.934139916269821 0 0 0 0 -35.793522691767144 9.2089554287165001 0 9.2089554287165001 -0.53259244160762043 0 0 0 0 -22.161444987556479 -140.4876786744307 0 -140.4876786744307 -100.65528225105936 0 0 0 0 -137.47743739874386 -70.681199505448262 0 -70.681199505448262 9.9452125839907239 0 0 0 0 -56.410833172918501 -7.3564961373264168 0 -7.3564961373264168 -7.434028892419974 0 0 0 0 -47.430636339748162 4.3312960222592665 0 4.3312960222592665 -4.2028253422321313 0 0 0 0 -45.461880183702306 9.3429485317308263 0 9.3429485317308263 1.2920518329895003 0 0 0 0 -60.274521386316337 -0.99018675156446534 0 -0.99018675156446534 -1.0312359577733332 0 0 0 0 -47.017374285158439 0.33807727962334866 0 0.33807727962334866 -5.002002001781193 0 0 0 0 -57.618056937193614 1.0340391621233493 0 1.0340391621233493 9.230796502967678 0 0 0 0 -52.511985121214821 -5.8894083707274376 0 -5.8894083707274376 2.0501740998167861 0 0 0 0 -61.918352860702726 1.3651844111608398 0 1.3651844111608398 9.8858572641912588 0 0 0 0 -59.737305372575065 4.1327719464272263 0 4.1327719464272263 13.299507430956737 0 0 0 0 -51.666259402561991 7.5958032785309797 0 7.5958032785309797 7.0378885947061463 0 0 0 0 -57.876715446120215 2.3329671589634131 0 2.3329671589634131 4.2218572353119725 0 0 0 0 -61.520994844793677 7.1403254364308282 0 7.1403254364308282 10.428138078393886 0 0 0 0 -52.374666185532988 10.041927343783073 0 10.041927343783073 5.6744259215365673 0 0 0 0 -54.593591501950868 10.349492032654325 0 10.349492032654325 11.50560117209352 0 0 0 0 -58.235706697691057 11.359268641995754 0 11.359268641995754 13.775823054257785 0 0 0 0 -54.385495996102691 13.511202396178078 0 13.511202396178078 11.754691484705518 0 0 0 0 -64.924279716498859 11.118141930936986 0 11.118141930936986 14.461285296341885 0 0 0 0 -67.266252835724117 6.8465899911580124 0 6.8465899911580124 14.249666679210122 0 0 0 0 -68.383134871648508 10.56354824658645 0 10.56354824658645 17.579394560872743 0 0 0 0 -60.200835171563085 11.2120008912309 0 11.2120008912309 14.802108686269207 0 0 0 0 -60.302831962995697 11.534173918580791 0 11.534173918580791 21.172000213132833 0 0 0 0 -57.615461349829275 14.282709220204197 0 14.282709220204197 16.817355874796931 0 0 0 0 -53.045614457791089 13.44126131174815 0 13.44126131174815 15.447321060976492 0 0 0 0 -71.27949991774949 -1.9355146863844652 0 -1.9355146863844652 14.401478586404892 0 0 0 0 -80.248777126518689 -16.139672625471547 0 -16.139672625471547 11.315020688131881 0 0 0 0 -64.764434739020714 4.4115529503725108 0 4.4115529503725108 13.425329332085767 0 0 0 0 -76.901570048037684 5.2007032450015913 0 5.2007032450015913 16.424626497753025 0 0 0 0 -93.953180736847571 -2.8906162839714398 0 -2.8906162839714398 15.430726384485467 0 0 0 0 -89.067406427602691 -34.756460491486564 0 -34.756460491486564 -4.1471025669326309 0 0 0 0 -26.273754251662467 -29.069916986221642 0 -29.069916986221642 -5.8453635027282189 0 0 0 0 -61.499206764347036 -11.800389209236982 0 -11.800389209236982 10.637816609737797 0 0 0 0 -52.54709068860393 -17.500426409292288 0 -17.500426409292288 3.9842980732006481 0 0 0 0 -61.050986258611374 -38.974924574789384 0 -38.974924574789384 -5.967211248824924 0 0 0 0 5.0227293392369745 -6.9967093029136578 0 -6.9967093029136578 -0.23064496286530334 0 0 0 0 -15.851065328886762 -17.742190516232796 0 -17.742190516232796 -4.0618464298145227 0 0 0 0 8.6180478074347775 15.978106097658042 0 15.978106097658042 -39.73868181854732 0 0 0 0 -15.867160883439283 -24.427242012212929 0 -24.427242012212929 -3.3789276918225823 0 0 0 0 42.211256308859447 -112.3809451137476 0 -112.3809451137476 -76.82418270949438 0 0 0 0 -12.903359728520599 -9.982672100873863 0 -9.982672100873863 -3.8172765048699322 0 0 0 0 -33.047797968043596 -2.6052274840526479 0 -2.6052274840526479 4.6591952106874288 0 0 0 0 -54.675460266624214 -11.095529801995212 0 -11.095529801995212 10.315179487520027 0 0 0 0 -160.10011328040309 -72.205293400085466 0 -72.205293400085466 9.4691757768427749 0 0 0 0 -106.64991307411037 6.9160927874719675 0 6.9160927874719675 16.545853844017898 0 0 0 0 -329.73114221761352 -18.365945318016749 0 -18.365945318016749 52.613080628777709 0 0 0 0 -252.90554101700036 -37.353219885827457 0 -37.353219885827457 54.789919260109528 0 0 0 0 -259.82609787337788 36.667322534286541 0 36.667322534286541 69.67988964859768 0 0 0 0 -295.03038390757138 6.7474327632043583 0 6.7474327632043583 50.432610967614323 0 0 0 0 -273.12359633738379 40.253169209099269 0 40.253169209099269 -34.795733441300456 0 0 0 0 -3.1587958658038815 -1.8699063888023559 0 -1.8699063888023559 -0.071651919681980925 0 0 0 0 -41.092715329396015 322.50091093976675 0 322.50091093976675 -18.620954514574251 0 0 0 0 -185.47075065030367 -58.615727719530469 0 -58.615727719530469 58.774244710185542 0 0 0 0 -336.17548616201248 59.84221570813569 0 59.84221570813569 0.10257720898846401 0 0 0 0 -280.85834165588312 68.434436368474394 0 68.434436368474394 -57.689767563408431 0 0 0 0 -0.53987271103824241 -32.979107501899037 0 -32.979107501899037 -89.504386828728911 0 0 0 0 -1.1108387551259185 -2.3046224996531315 0 -2.3046224996531315 -1.3122735880934608 0 0 0 0 -390.25431863085032 155.88664267536336 0 155.88664267536336 -27.888317964366962 0 0 0 0 -497.13800413656463 -81.796059519371909 0 -81.796059519371909 56.362919554577388 0 0 0 0 -37.127005114452913 89.716803413134443 0 89.716803413134443 -232.95476257626083 0 0 0 0 -33.589769889316813 -42.327792152667897 0 -42.327792152667897 -10.80739425775989 0 0 0 0 0.088378448874106397 0.31995668833103608 0 0.31995668833103608 0.98399791465640618 0 0 0 0 4.9061363832915958 33.763748792796434 0 33.763748792796434 -19.654449910537977 0 0 0 0 -61.208734049792838 27.234794570408326 0 27.234794570408326 4.7533761914381785 0 0 0 0 -20.529436874636303 11.942693499235702 0 11.942693499235702 4.8898809970469301 0 0 0 0 -7.180330252431304 1.4663451714184674 0 1.4663451714184674 -5.7287258502063665 0 0 0 0 -0.036069484390104378 -0.047985429956106884 0 -0.047985429956106884 1.323281699561881 0 0 0 0 44.318762465034524 -9.2969157485017888 0 -9.2969157485017888 -27.37808400282097 0 0 0 0 -25.708256752601301 13.778778023126169 0 13.778778023126169 -13.305356788035937 0 0 0 0 -33.337393413996324 11.006636706975371 0 11.006636706975371 3.4199419667822895 0 0 0 0 36.629731873093988 -28.238566804743755 0 -28.238566804743755 -27.446672832502713 0 0 0 0 -0.22123110776492538 -0.37277294758246526 0 -0.37277294758246526 0.52130524226021835 0 0 0 0 -145.48111313071058 -2.9245767639283144 0 -2.9245767639283144 17.404014834404308 0 0 0 0 -11.20380086215755 26.543800018421152 0 26.543800018421152 -42.931678914860299 0 0 0 0 -1.0596764181918843 3.4616830010228909 0 3.4616830010228909 -16.720417188305419 0 0 0 0 -1.819917556405926 7.9302526078116529 0 7.9302526078116529 -22.898323309770106 0 0 0 0 -19.652593145154242 -2.4267616917124997 0 -2.4267616917124997 45.589362094229045 0 0 0 0 -11.498899360205542 21.293691294802784 0 21.293691294802784 -0.016316781800583158 0 0 0 0 0.36923315102831111 -6.7124098666599821 0 -6.7124098666599821 -26.302365765146305 0 0 0 0 -371.86505203360502 51.232258808452116 0 51.232258808452116 55.007178277930791 0 0 0 0 -139.97868316483255 114.66860605044076 0 114.66860605044076 -59.993574609424513 0 0 0 0 -151.84749266214658 12.243263631654855 0 12.243263631654855 48.469520014779846 0 0 0 0 -260.67183709812161 48.553519681256148 0 48.553519681256148 53.33404451732963 0 0 0 0 -193.04748929061316 -45.412690299834765 0 -45.412690299834765 48.055393497522346 0 0 0 0 -227.1132026931009 -35.453408117286017 0 -35.453408117286017 66.592137367718777 0 0 0 0 -149.79227612431168 -20.874317184904726 0 -20.874317184904726 64.291246156004263 0 0 0 0 -288.46744812160614 -50.218181330001471 0 -50.218181330001471 84.666283641633299 0 0 0 0 -226.67587373756396 -79.282421292153572 0 -79.282421292153572 62.078635169423251 0 0 0 0 -166.3069505940075 -67.697386539247418 0 -67.697386539247418 44.25236155596258 0 0 0 0 -163.34365765447001 -60.664292542193493 0 -60.664292542193493 41.443775822667931 0 0 0 0 -402.98302209814938 -76.331184519784415 0 -76.331184519784415 62.397487653156404 0 0 0 0 -183.39479332758583 -230.64607472043406 0 -230.64607472043406 -51.937558679443555 0 0 0 0 -48.446815260717649 17.964524796393707 0 17.964524796393707 -3.4686948132415099 0 0 0 0 -102.00428406225728 -67.274375399614087 0 -67.274375399614087 34.460899333531984 0 0 0 0 -137.78086772169809 315.0997918281447 0 315.0997918281447 -331.37080038525102 0 0 0 0 -5.9456477401877876 0.19912248934266596 0 0.19912248934266596 -0.19689330453027087 0 0 0 0 -114.21507793908464 -272.84711969467355 0 -272.84711969467355 -213.71833465118402 0 0 0 0 -46.333036833268352 16.359637392693397 0 16.359637392693397 -2.5453134483414237 0 0 0 0 -54.870083241230816 21.279648312961427 0 21.279648312961427 112.75606877321906 0 0 0 0 -7.9426732311112573 65.575286037013939 0 65.575286037013939 141.45611871182246 0 0 0 0 -54.034255149855021 131.14743253425505 0 131.14743253425505 206.84287289501503 0 0 0 0 -143.11647607518734 80.707827349889953 0 80.707827349889953 143.13654791224019 0 0 0 0 -219.62678375647556 -32.321883662535811 0 -32.321883662535811 116.99194263135115 0 0 0 0 -109.38845469468828 64.363733958536301 0 64.363733958536301 90.625531258825731 0 0 0 0 61.445167269330113 88.091549384858126 0 88.091549384858126 104.80593843788125 0 0 0 0 20.091340552644397 97.692223242044065 0 97.692223242044065 75.606726404813799 0 0 0 0 -27.384295650534796 100.58856105407727 0 100.58856105407727 180.63861018327805 0 0 0 0 36.226292866955532 188.73087699187522 0 188.73087699187522 190.76608940698003 0 0 0 0 -40.182769922519263 13.942341883705284 0 13.942341883705284 -1.969138804206134 0 0 0 0 -91.008824438906231 -103.33786351038299 0 -103.33786351038299 -91.884086556049738 0 0 0 0 -94.904295381773409 -47.422807245260401 0 -47.422807245260401 -51.998942523941309 0 0 0 0 -101.31322251757047 -59.36577815131028 0 -59.36577815131028 5.3960943818128726 0 0 0 0 -62.975743504950515 -63.345476434484681 0 -63.345476434484681 -3.4372102283761592 0 0 0 0 -16.935086699726959 1.0242430957850877 0 1.0242430957850877 -0.058000012077579211 0 0 0 0 18.484280224634858 18.248398352532035 0 18.248398352532035 11.200199876949682 0 0 0 0 -50.652009492547222 -1.0891747641553593 0 -1.0891747641553593 51.608260033636071 0 0 0 0 -1.7767359147668245 3.0446908232522976 0 3.0446908232522976 0.05918403604357203 0 0 0 0 -26.276213040243789 1.051903973572192 0 1.051903973572192 0.30995201504688641 0 0 0 0 -60.720419066423347 43.763650879105739 0 43.763650879105739 48.812546549796934 0 0 0 0 -55.987821573540714 -29.379677556482193 0 -29.379677556482193 96.717699399800949 0 0 0 0 -51.655160297284965 18.897485785817082 0 18.897485785817082 40.289604242685357 0 0 0 0 -42.600516636151951 -40.699185831838179 0 -40.699185831838179 -59.74307743541317 0 0 0 0 -72.045703224925091 -43.158047973877729 0 -43.158047973877729 -1.8976142515234216 0 0 0 0 -55.07742513670928 -57.656664376762393 0 -57.656664376762393 -143.64394064843327 0 0 0 0 -113.07122140922775 -54.753955150211439 0 -54.753955150211439 -52.219029043576484 0 0 0 0 -94.324396537967914 -33.998429962888849 0 -33.998429962888849 -28.076002037822434 0 0 0 0 -41.901049860953208 -42.075485826440229 0 -42.075485826440229 -28.364419012598432 0 0 0 0 -117.48807773435283 -61.434727632996491 0 -61.434727632996491 -101.47961917658296 0 0 0 0 -64.042328650572017 -63.212895276283632 0 -63.212895276283632 -203.18492819607027 0 0 0 0 -75.306614577106302 -79.162685693309754 0 -79.162685693309754 -94.331024092850015 0 0 0 0 23.228647918216438 156.06833115537205 0 156.06833115537205 222.83839598276461 0 0 0 0 -95.855691616945478 -123.37659185503057 0 -123.37659185503057 -157.10309163434511 0 0 0 0 75.609469729128932 144.53688491525713 0 144.53688491525713 129.83476049631014 0 0 0 0 -33.314032434476779 11.460286847763605 0 11.460286847763605 -1.5856339931329093 0 0 0 0 -28.696893112233738 -73.485606625493006 0 -73.485606625493006 -80.2255900455541 0 0 0 0 -36.65100321859245 -26.374754380332405 0 -26.374754380332405 -45.000205399526891 0 0 0 0 -14.488136737599234 -66.371085573158638 0 -66.371085573158638 -92.379888102227284 0 0 0 0 -49.76147858339391 -51.738228471535052 0 -51.738228471535052 -102.22572726113427 0 0 0 0 -63.867632386265541 -92.182422499171366 0 -92.182422499171366 -114.67769359653181 0 0 0 0 -56.432556698951885 -29.214999829285262 0 -29.214999829285262 -72.339237336965624 0 0 0 0 -69.297055809905942 -46.770354843631623 0 -46.770354843631623 7.0594922403921601 0 0 0 0 -38.118801263741261 -10.850365287628165 0 -10.850365287628165 -9.2780716090208841 0 0 0 0 24.114050817739553 -85.604854047330804 0 -85.604854047330804 10.424828745002912 0 0 0 0 -54.979318346848231 -0.39385176696572444 0 -0.39385176696572444 110.85982940871361 0 0 0 0 -8.7962519543543749 44.655913001968656 0 44.655913001968656 70.060797615234037 0 0 0 0 -10.214545193497543 5.6627027753714856 0 5.6627027753714856 47.440153789421288 0 0 0 0 -68.333911451693893 -1.0529904984088319 0 -1.0529904984088319 52.398881869815341 0 0 0 0 -31.92043238081078 23.665877612176303 0 23.665877612176303 66.578147060004994 0 0 0 0 -19.404112540061973 1.4908701767834298 0 1.4908701767834298 0.91014474925232514 0 0 0 0 -14.574934422451427 -1.1305620544108121 0 -1.1305620544108121 0.4941820786822142 0 0 0 0 -30.005589643773419 -18.239234193169295 0 -18.239234193169295 25.201119222242141 0 0 0 0 -15.621675369664445 3.6563545598928613 0 3.6563545598928613 11.442340114899537 0 0 0 0 -16.523265363620489 -0.21027127361034825 0 -0.21027127361034825 1.614370489972049 0 0 0 0 -19.476175313015119 -5.4088490131491653 0 -5.4088490131491653 7.143204205340453 0 0 0 0 -13.516767844395872 -17.036485954193552 0 -17.036485954193552 -9.8214084596969542 0 0 0 0 -16.180635950653596 -10.331510111434653 0 -10.331510111434653 6.0609703567365614 0 0 0 0 -5.0526292963013475 -11.294831220602788 0 -11.294831220602788 -16.094187140923623 0 0 0 0 -10.00706016143522 -8.7004205061492144 0 -8.7004205061492144 -30.203599369942154 0 0 0 0 -9.9868285276315873 -6.5187466300939718 0 -6.5187466300939718 -10.867173026071669 0 0 0 0 -29.631454774211306 4.7577421566509202 0 4.7577421566509202 -68.002934686947256 0 0 0 0 -31.002081393522531 -31.166771685188451 0 -31.166771685188451 -22.917515665605833 0 0 0 0 -42.676446070095153 -6.9119012993882052 0 -6.9119012993882052 11.953876667639406 0 0 0 0 -23.482048711171956 -6.8522681367693394 0 -6.8522681367693394 11.911885602518851 0 0 0 0 -24.709408693368459 -9.3764343230812983 0 -9.3764343230812983 19.141053889297837 0 0 0 0 -7.6166865280802085 14.709830240292291 0 14.709830240292291 -3.2514297912184702 0 0 0 0 -2.533464978727352 22.611453657671362 0 22.611453657671362 -43.043699974271178 0 0 0 0 -46.985493253969253 34.716187473588377 0 34.716187473588377 -13.349344510852404 0 0 0 0 -79.10504749447864 8.6474524085654139 0 8.6474524085654139 14.019592761411047 0 0 0 0 -66.462727232148609 -37.964767728728674 0 -37.964767728728674 -27.969644936275927 0 0 0 0 -104.42561059214404 25.006270080857469 0 25.006270080857469 -15.750264018125108 0 0 0 0 0.048442451560628541 -0.01716323291933719 0 -0.01716323291933719 -0.95108403304288114 0 0 0 0 -152.11722350869059 -46.824924110188377 0 -46.824924110188377 -20.628609031311598 0 0 0 0 23.096415771957254 -0.50438073971992026 0 -0.50438073971992026 -26.733717992965637 0 0 0 0 16.869512332948943 17.540493440323189 0 17.540493440323189 -3.5005573971475314 0 0 0 0 -8.111810357120703 10.239076118523906 0 10.239076118523906 8.8853376301918843 0 0 0 0 -0.43538026838314536 0.79282735216708744 0 0.79282735216708744 -2.1119207545017078 0 0 0 0 -52.917236206038069 -7.8908097829962571 0 -7.8908097829962571 -13.555998112064284 0 0 0 0 -64.905627614094556 18.328454331635783 0 18.328454331635783 9.8021299376233344 0 0 0 0 -32.568470635938866 -3.7524929532896181 0 -3.7524929532896181 -17.336213314721391 0 0 0 0 -1.8358880972082261 3.9519731550099522 0 3.9519731550099522 5.1591308463910934 0 0 0 0 -17.664169138117359 20.866204049774737 0 20.866204049774737 -7.1213136771504537 0 0 0 0 -2.1271250322138258 -4.0486218914344114 0 -4.0486218914344114 -26.484854343022391 0 0 0 0 1.0773340535124589 13.324562796731186 0 13.324562796731186 3.61708323125265 0 0 0 0 -3.5599075423433533 -11.070063218889828 0 -11.070063218889828 -7.9759046701840361 0 0 0 0 -37.703914748050011 -7.6981108779508816 0 -7.6981108779508816 -14.959570044470297 0 0 0 0 -7.5374830150727803 2.8037541770876313 0 2.8037541770876313 0.15208547064883748 0 0 0 0 -4.4523785342171323 -3.2361475489577742 0 -3.2361475489577742 8.4332156628328221 0 0 0 0 -10.5827738825501 6.8636071959156197 0 6.8636071959156197 3.8022015845707529 0 0 0 0 -9.0438942313348889 3.0148945466912949 0 3.0148945466912949 0.2724498042466621 0 0 0 0 -40.183617718105666 5.5997338147917759 0 5.5997338147917759 -26.327261943604753 0 0 0 0 -13.079048117615457 1.0179897949814176 0 1.0179897949814176 3.4737246960050925 0 0 0 0 -3.1199375623644183 2.3002696321207239 0 2.3002696321207239 1.804556387508466 0 0 0 0 -7.6518613077298596 2.4713859010807262 0 2.4713859010807262 0.30161942606045189 0 0 0 0 6.5406584229272084 16.386064994301496 0 16.386064994301496 0.37956671780042939 0 0 0 0 -15.907601001257717 13.254470760777679 0 13.254470760777679 13.213386826413057 0 0 0 0 -15.228544594894061 -1.0853428823451048 0 -1.0853428823451048 17.18062584139949 0 0 0 0 -1.3297618051739679 -0.15670247989428532 0 -0.15670247989428532 0.43920169821002863 0 0 0 0 -102.08998192860963 -21.657845473001942 0 -21.657845473001942 41.14951281844526 0 0 0 0 -75.708027458134893 2.5249977263718506 0 2.5249977263718506 0.082531938932902449 0 0 0 0 -106.11958119715018 -40.934030161444085 0 -40.934030161444085 -3.9642191354516854 0 0 0 0 -75.328404305051663 -3.6063254879239821 0 -3.6063254879239821 12.246983666865873 0 0 0 0 -0.6002182525728017 1.7389273046911349 0 1.7389273046911349 -3.21651772378865 0 0 0 0 -66.557627807571407 4.0642682227659463 0 4.0642682227659463 -5.0016293359113888 0 0 0 0 -70.759981278908526 8.2663585776291484 0 8.2663585776291484 -26.705746228604312 0 0 0 0 -68.557745811747282 -2.4155128933302734 0 -2.4155128933302734 0.5105064978831706 0 0 0 0 -66.499276256496159 -9.8471242698644801 0 -9.8471242698644801 -4.0790998001814387 0 0 0 0 -77.559038725368737 1.1599088938663158 0 1.1599088938663158 2.153069515966763 0 0 0 0 -97.383687428951816 6.4425202875534069 0 6.4425202875534069 0.86409832779855833 0 0 0 0 0.77841084126690419 1.040937008220931 0 1.040937008220931 -0.48062825794440522 0 0 0 0 -93.55807025917602 -19.105361186669256 0 -19.105361186669256 -1.262644385842691 0 0 0 0 -70.284109283883936 9.4686855894425577 0 9.4686855894425577 6.04335934757205 0 0 0 0 -19.294209580591996 23.262425190925626 0 23.262425190925626 -20.43488659336856 0 0 0 0 -61.945333162839233 -9.5995123797544011 0 -9.5995123797544011 -10.421041936436382 0 0 0 0 -63.551266125044094 -11.39120455425882 0 -11.39120455425882 -13.332890269759218 0 0 0 0 -66.234886451013153 -8.7971997751244544 0 -8.7971997751244544 0.0097497917993223382 0 0 0 0 -49.189697906820584 -3.8996421487250359 0 -3.8996421487250359 21.36787784223543 0 0 0 0 -41.020822457870963 -6.5588459662018295 0 -6.5588459662018295 -0.4661394399274883 0 0 0 0 -38.319010615372463 12.415215945089926 0 12.415215945089926 13.441572272679878 0 0 0 0 -42.739788624327048 18.298228493407578 0 18.298228493407578 5.6936132415950169 0 0 0 0 -18.018817793294147 2.6939726060778639 0 2.6939726060778639 0.30675646259351197 0 0 0 0 -15.709481228273944 0.94437568463570187 0 0.94437568463570187 -1.3990176610398066 0 0 0 0 -4.599921019726974 4.4509721708317329 0 4.4509721708317329 1.3555212930802956 0 0 0 0 -12.634874259482785 4.5441838286508585 0 4.5441838286508585 1.7251439356498395 0 0 0 0 0.41210166870170895 4.0707547177010426 0 4.0707547177010426 1.2161767806772756 0 0 0 0 -12.548132543142856 4.7725599149634945 0 4.7725599149634945 1.0749906828347662 0 0 0 0 -13.800893729350719 0.63758234531603364 0 0.63758234531603364 -0.5360541820882645 0 0 0 0 -18.470539874324459 9.2651549115794296 0 9.2651549115794296 -21.336737866268095 0 0 0 0 -1.6907530124514558 2.8916830711375354 0 2.8916830711375354 -0.55565590592982606 0 0 0 0 -15.787149431391299 1.2885462399619882 0 1.2885462399619882 -0.12427527065324284 0 0 0 0 -2.1674822465493797 0.36762260660772483 0 0.36762260660772483 -0.46196853132928251 0 0 0 0 -12.294683862310194 0.92330551731288324 0 0.92330551731288324 -0.79516673426769557 0 0 0 0 -13.431067612254992 1.3273149061714093 0 1.3273149061714093 -0.30017941224491551 0 0 0 0 -44.795560296843178 -25.377509954414904 0 -25.377509954414904 -20.252272746857443 0 0 0 0 -14.581149166340765 0.96245375857665749 0 0.96245375857665749 -0.0042119162845892788 0 0 0 0 -7.0961455531919739 -4.7386357884850412 0 -4.7386357884850412 0.74525988298997969 0 0 0 0 -11.329567798412626 0.58704366230856797 0 0.58704366230856797 -0.25630356365155227 0 0 0 0 -40.520717137178508 0.33317441999261632 0 0.33317441999261632 2.2382291384230939 0 0 0 0 -0.15275183151086758 0.26106360085297098 0 0.26106360085297098 -0.1418350003963762 0 0 0 0 -18.885856375105504 -1.8184081340751845 0 -1.8184081340751845 2.5232866250437951 0 0 0 0 -111.02841222488132 -50.766492212883804 0 -50.766492212883804 -8.6105363378139828 0 0 0 0 -13.784548747789813 0.051014650976014764 0 0.051014650976014764 -0.64313580583575458 0 0 0 0 -99.871603205763677 -42.535565053548339 0 -42.535565053548339 -11.995547863433131 0 0 0 0 -76.001428990028217 -22.72951873708098 0 -22.72951873708098 -38.916245412520084 0 0 0 0 -83.463509624361905 -29.736662880970329 0 -29.736662880970329 3.1715816537898718 0 0 0 0 -78.084373633158975 -9.9953320635308955 0 -9.9953320635308955 10.971926128316397 0 0 0 0 -75.032984329885949 -8.6758870340111685 0 -8.6758870340111685 14.150120897244619 0 0 0 0 -34.106123859421132 -1.7474611517463927 0 -1.7474611517463927 -3.626575125487534 0 0 0 0 -8.7724639159782143 -5.2561117259963481 0 -5.2561117259963481 -1.8713365471023704 0 0 0 0 -47.476590512935218 -30.952605905573904 0 -30.952605905573904 -25.125303529667804 0 0 0 0 -36.000019964956437 -8.248065523912306 0 -8.248065523912306 7.3488179701933447 0 0 0 0 -60.740408663925336 -23.211497117393378 0 -23.211497117393378 29.164181791752071 0 0 0 0 -27.868119585342356 -26.271713767551773 0 -26.271713767551773 4.7502762397864444 0 0 0 0 -77.613633746954292 -26.996954814947092 0 -26.996954814947092 -0.99987448137888535 0 0 0 0 -18.948497612750771 -25.715068340786978 0 -25.715068340786978 6.9016804547096084 0 0 0 0 -74.223141279067931 -6.3671807927831097 0 -6.3671807927831097 21.27754929916663 0 0 0 0 -75.838210926034662 -8.2095793119609048 0 -8.2095793119609048 29.114903719080971 0 0 0 0 -67.194723393680761 -6.2526162436927848 0 -6.2526162436927848 5.8931084858957092 0 0 0 0 -72.722019350578194 -16.363911059425192 0 -16.363911059425192 3.6592512814293059 0 0 0 0 -84.783425027220801 -23.604508975369555 0 -23.604508975369555 2.7177457932502875 0 0 0 0 -133.51850184507202 -27.848588395644811 0 -27.848588395644811 45.946126878242467 0 0 0 0 7.0533142552553443 -5.2451901443325823 0 -5.2451901443325823 -4.766503946383712 0 0 0 0 -50.806412680271023 25.419166076081979 0 25.419166076081979 -5.3203677934266125 0 0 0 0 -49.846596739844244 -18.112398279315926 0 -18.112398279315926 13.887522816427861 0 0 0 0 -67.516557520651986 18.125168538186585 0 18.125168538186585 12.328500492698822 0 0 0 0 -47.575481945354113 10.980713565974838 0 10.980713565974838 -0.66838330236168986 0 0 0 0 -52.528481187160651 4.4964865187703253 0 4.4964865187703253 20.073183205879786 0 0 0 0 -33.118776798975887 0.74666853178973724 0 0.74666853178973724 0.88156407625487532 0 0 0 0 -39.22268067847881 -3.0693723315607748 0 -3.0693723315607748 6.042818637453375 0 0 0 0 -38.57660198922531 0.98242105885185538 0 0.98242105885185538 1.0136121009675207 0 0 0 0 -37.887499807118729 -3.0291102611128053 0 -3.0291102611128053 -1.0800923515947716 0 0 0 0 -39.252867043975129 -2.2815683928762382 0 -2.2815683928762382 6.7060737498883327 0 0 0 0 -33.97002571919883 2.1232816951396192 0 2.1232816951396192 0.79662410021017571 0 0 0 0 -40.505108373534313 2.2648354518549922 0 2.2648354518549922 8.8223079673682605 0 0 0 0 -35.242632628104872 0.63600293450416412 0 0.63600293450416412 0.91557259590924456 0 0 0 0 -29.225822649939801 0.8355363069181152 0 0.8355363069181152 1.6949437921691359 0 0 0 0 -18.117478122585169 0.95408444390122327 0 0.95408444390122327 2.5646666081383809 0 0 0 0 -33.376247169417184 0.44801292784779601 0 0.44801292784779601 2.3422028253046863 0 0 0 0 -24.119536310673965 -0.085803747712138945 0 -0.085803747712138945 0.011984099165587278 0 0 0 0 -64.802793297819079 -3.5869793344468186 0 -3.5869793344468186 2.7900121923736418 0 0 0 0 -71.778550306869874 14.334327831199175 0 14.334327831199175 56.854288915326094 0 0 0 0 -66.406335040128397 0.51096378348194094 0 0.51096378348194094 0.344674455208974 0 0 0 0 -45.67900725908504 -10.779449228040569 0 -10.779449228040569 2.4565301087258726 0 0 0 0 -72.445537315150432 -19.370072858096592 0 -19.370072858096592 -5.1865163639429284 0 0 0 0 -40.772685183830617 8.0865913541742884 0 8.0865913541742884 -7.5773565507038256 0 0 0 0 -11.03528939271358 9.2763689267092957 0 9.2763689267092957 -12.021456924135464 0 0 0 0 -40.404060541433864 8.3429276549027236 0 8.3429276549027236 -7.5316065864458324 0 0 0 0 -31.374077571431201 -4.4074024324894587 0 -4.4074024324894587 6.9952708221886839 0 0 0 0 -44.038033010496292 8.1827140838508967 0 8.1827140838508967 -6.9064263550815213 0 0 0 0 -45.194399510211952 12.962899843582363 0 12.962899843582363 0.97071070458468967 0 0 0 0 -39.408204896542884 12.227049488263219 0 12.227049488263219 -3.4337684506908772 0 0 0 0 -43.74820683755388 17.89734609342122 0 17.89734609342122 1.4347722320689513 0 0 0 0 -38.778684221564163 8.9547945592139087 0 8.9547945592139087 -8.2408211742990716 0 0 0 0 -23.295478701715183 10.997983620505806 0 10.997983620505806 -8.7225756808361439 0 0 0 0 -21.838736848649205 12.578496016505312 0 12.578496016505312 -10.148126210191549 0 0 0 0 -39.892788656354242 20.439210158487754 0 20.439210158487754 -10.46096072637647 0 0 0 0 -55.277272517658275 -32.199069919372931 0 -32.199069919372931 -20.643623581496399 0 0 0 0 -52.73893481536652 -31.619076775263181 0 -31.619076775263181 -27.853619457483106 0 0 0 0 -12.48722830080078 3.9635972463054259 0 3.9635972463054259 -7.962673029935587 0 0 0 0 -48.383159527638782 -26.924790932425921 0 -26.924790932425921 -22.843712507050782 0 0 0 0 -55.113233353346004 -27.289339660205599 0 -27.289339660205599 -20.980976847783666 0 0 0 0 -5.351150937197076 9.3622428080589231 0 9.3622428080589231 -9.0669784645173621 0 0 0 0 -55.602369563730917 -29.555349216984766 0 -29.555349216984766 -19.555838559140511 0 0 0 0 -57.588587480473507 -14.014524186345852 0 -14.014524186345852 -10.003570072495336 0 0 0 0 -68.915204855875345 -11.339297924673701 0 -11.339297924673701 -9.9218504998322032 0 0 0 0 -68.491764142563625 -19.426188452511497 0 -19.426188452511497 -6.3497972470261175 0 0 0 0 -62.282641475647779 -5.2364251617508648 0 -5.2364251617508648 0.5101527161584396 0 0 0 0 -101.96054920844836 -9.8153460595475508 0 -9.8153460595475508 82.178751525036432 0 0 0 0 -66.581722767392421 -13.286051667881821 0 -13.286051667881821 19.043370671899766 0 0 0 0 -121.2608556499315 -9.2024253205299829 0 -9.2024253205299829 -0.4289797463177365 0 0 0 0 -137.06517995804279 -91.01945162037714 0 -91.01945162037714 -43.071356092063525 0 0 0 0 -119.43130421127535 -40.926567785396117 0 -40.926567785396117 -52.280891266464806 0 0 0 0 -153.49658354215717 18.078528400342577 0 18.078528400342577 19.470675646929692 0 0 0 0 -66.929888831153221 -20.008511689089005 0 -20.008511689089005 -1.8115346026719408 0 0 0 0 -83.895720796051592 32.371828682330516 0 32.371828682330516 33.95707959393485 0 0 0 0 -48.427754389835172 28.110351623536303 0 28.110351623536303 18.94840221479808 0 0 0 0 -62.884080593525141 30.589988230975337 0 30.589988230975337 19.69352498950775 0 0 0 0 -60.766322002647939 17.624824662127821 0 17.624824662127821 5.1732470281799579 0 0 0 0 -22.171244976770815 7.8625880980495069 0 7.8625880980495069 7.6034488776268674 0 0 0 0 -32.323027070859098 -3.9471488386148508 0 -3.9471488386148508 1.0364292967043767 0 0 0 0 -16.166334581234313 -5.7817288037329391 0 -5.7817288037329391 2.7177091881227207 0 0 0 0 -35.861682364895387 -20.462002059696545 0 -20.462002059696545 1.0979592799772036 0 0 0 0 -6.3891847717277415 1.416295862618199 0 1.416295862618199 -1.5010939777419594 0 0 0 0 -1.4036718220251849 0.20569837571565586 0 0.20569837571565586 -0.18712693106268707 0 0 0 0 -2.7954618648584493 2.8839537365085448 0 2.8839537365085448 0.042345509098231204 0 0 0 0 -2.3406015440562982 3.1754970643636504 0 3.1754970643636504 6.9596167931385597 0 0 0 0 -12.402655737377245 14.289813368279539 0 14.289813368279539 -0.17172512506613202 0 0 0 0 2.2081190242897719 8.5226090476757577 0 8.5226090476757577 -15.549068564822477 0 0 0 0 -55.020581360200595 66.248576338346851 0 66.248576338346851 -26.227772945128379 0 0 0 0 1.0013435279607172 1.7334808578889067 0 1.7334808578889067 3.1540741620320216 0 0 0 0 -23.203457685883222 -22.365723470851975 0 -22.365723470851975 -12.893007020859272 0 0 0 0 -37.426581633077149 23.085051985692843 0 23.085051985692843 8.0733309199044925 0 0 0 0 -0.90010478908069658 0.82983886262851314 0 0.82983886262851314 2.4102026600510493 0 0 0 0 20.327223161322763 3.0161093573462381 0 3.0161093573462381 -11.442114045178414 0 0 0 0 -9.0136297843200737 -2.5043690820407392 0 -2.5043690820407392 2.3269066935195042 0 0 0 0 -4.232417998227902 28.183085325146891 0 28.183085325146891 -4.1234130381922114 0 0 0 0 -3.0891619712783722 12.401952833962071 0 12.401952833962071 0.23782865887756088 0 0 0 0 -2.2862518801175611 -4.6213835251805335 0 -4.6213835251805335 1.9915162854194932 0 0 0 0 -1.4061137671887991 -12.041583409978386 0 -12.041583409978386 1.1098193819877906 0 0 0 0 -283.24491739286168 118.73603884207286 0 118.73603884207286 21.204104765039084 0 0 0 0 45.215989895350504 -80.644509684466186 0 -80.644509684466186 -70.126495416933039 0 0 0 0 -211.02197582891677 15.581633183535519 0 15.581633183535519 68.702063232288992 0 0 0 0 -355.88339647229077 -29.587372736042401 0 -29.587372736042401 53.670172691956623 0 0 0 0 -53.943785793875577 -103.19734657997965 0 -103.19734657997965 -92.419333119396356 0 0 0 0 -1.7422107761433665 0.47329602069076415 0 0.47329602069076415 0.66248533476561045 0 0 0 0 -9.9182827383592667 72.432609964327071 0 72.432609964327071 82.528202485528055 0 0 0 0 -129.66110942186788 102.84287667388458 0 102.84287667388458 -16.871213497972747 0 0 0 0 -341.52181253607705 -137.37467990473874 0 -137.37467990473874 -18.40139212292911 0 0 0 0 -360.276020887708 96.040144559413818 0 96.040144559413818 -106.81834722648324 0 0 0 0 -14.240777629991499 -0.63477614151844364 0 -0.63477614151844364 -7.3110262550570724 0 0 0 0 -44.002480873337845 -21.779222480315298 0 -21.779222480315298 18.071877780174987 0 0 0 0 2.3345402121740531 -5.6323252885863084 0 -5.6323252885863084 -1.2067552804831254 0 0 0 0 -2.3947772630198969 -0.51214669039238458 0 -0.51214669039238458 1.2662335338468331 0 0 0 0 -33.422448988229007 -31.869663272021796 0 -31.869663272021796 -14.314682131602666 0 0 0 0 -48.284978436649908 -33.647509824438281 0 -33.647509824438281 24.324582820860144 0 0 0 0 -12.339923480614743 -33.823163620639193 0 -33.823163620639193 -14.474249106167122 0 0 0 0 -58.19769031126998 -50.534504029664546 0 -50.534504029664546 -7.6969456498290647 0 0 0 0 -35.33374947737417 -114.85058519695492 0 -114.85058519695492 26.484409183446814 0 0 0 0 6.141876009768751 -5.8602118366552745 0 -5.8602118366552745 -0.65250766516585523 0 0 0 0 10.827854533265054 -7.2095844717854334 0 -7.2095844717854334 -13.92412131125127 0 0 0 0 1.7164914660835051 0.11889513065319335 0 0.11889513065319335 -0.24507005387524994 0 0 0 0 -345.94571224533865 -166.05694908655374 0 -166.05694908655374 107.37092727766361 0 0 0 0 -131.47296048609132 -52.880026874354314 0 -52.880026874354314 3.5617585585133611 0 0 0 0 -120.14858801640366 -12.755795376770322 0 -12.755795376770322 24.211752520918424 0 0 0 0 -101.72344995036838 8.906516876577939 0 8.906516876577939 15.226713939543515 0 0 0 0 -86.003296635164588 -3.110807759062709 0 -3.110807759062709 10.930573210619968 0 0 0 0 -84.348383478158212 6.1798920825101504 0 6.1798920825101504 16.99902510921163 0 0 0 0 -87.332095767123974 25.491414887229723 0 25.491414887229723 -7.7011264356102629 0 0 0 0 -110.99135822839162 15.91591561239386 0 15.91591561239386 33.121081378352784 0 0 0 0 -99.137841501014918 1.3671368980348859 0 1.3671368980348859 33.704003587961324 0 0 0 0 -227.82844379334892 72.402219576659121 0 72.402219576659121 13.850497458518248 0 0 0 0 -60.665028261661973 6.9955565729567866 0 6.9955565729567866 25.921911556491295 0 0 0 0 -54.065274918742944 11.999461049476395 0 11.999461049476395 18.479088574115849 0 0 0 0 -60.324431084445678 7.7893131923516421 0 7.7893131923516421 10.907010547807886 0 0 0 0 -72.265115737900487 6.5703020855609111 0 6.5703020855609111 14.210554532088736 0 0 0 0 -72.137487424712162 9.5234602709464298 0 9.5234602709464298 18.180421305673065 0 0 0 0 -62.468027268652804 7.5944862989300077 0 7.5944862989300077 5.1173615370353787 0 0 0 0 -60.657415305067843 0.28933957787489817 0 0.28933957787489817 14.450030429996843 0 0 0 0 -59.228937288506131 1.3845898354852295 0 1.3845898354852295 14.843962341160818 0 0 0 0 -56.588137393166107 -2.1751089801757075 0 -2.1751089801757075 19.609854888752466 0 0 0 0 -45.289052254394846 -22.283566178012492 0 -22.283566178012492 13.276932980267532 0 0 0 0 -55.389711735515448 -14.864227537780067 0 -14.864227537780067 7.9547235815730772 0 0 0 0 -52.542381970844872 -4.3320369352373405 0 -4.3320369352373405 -13.029340706711878 0 0 0 0 -12.373443464122829 -18.747918563538889 0 -18.747918563538889 -7.9450039205176353 0 0 0 0 -52.917612742785423 -36.945819717991213 0 -36.945819717991213 4.4117057035376206 0 0 0 0 -35.247997582835524 -37.126119729532014 0 -37.126119729532014 -12.944944780101935 0 0 0 0 -44.013173595805711 31.7007448585247 0 31.7007448585247 -12.2870868577564 0 0 0 0 -145.90258555363107 -212.46262937153287 0 -212.46262937153287 -88.704415924033526 0 0 0 0 -2.3580654665039447 0.7307042776721282 0 0.7307042776721282 -0.037009262947181765 0 0 0 0 -102.82647326414008 48.44478280221557 0 48.44478280221557 -16.400910648834497 0 0 0 0 -45.067752362083411 2.0021353166447966 0 2.0021353166447966 -7.6753440577378962 0 0 0 0 -94.23044705695429 -9.8136660333384498 0 -9.8136660333384498 -25.684741888356029 0 0 0 0 -79.343897549730173 -34.536130030142864 0 -34.536130030142864 -95.611505512145641 0 0 0 0 -91.931364907059105 -24.745280790290053 0 -24.745280790290053 6.0654168456783282 0 0 0 0 -5.9467290369806278 2.8623456294191456 0 2.8623456294191456 -1.1796957367390868 0 0 0 0 -71.880594529426162 -62.411971582889237 0 -62.411971582889237 -55.587228773530569 0 0 0 0 -48.033398893297999 -53.135235049512872 0 -53.135235049512872 -11.933136008074911 0 0 0 0 -98.857522143924143 -43.452062908793664 0 -43.452062908793664 -27.757681047531605 0 0 0 0 -74.503986928328231 -14.399315611110751 0 -14.399315611110751 8.9574718651410876 0 0 0 0 -48.480357403328526 -21.323768924338538 0 -21.323768924338538 -22.738418527569422 0 0 0 0 -53.258152055987921 -44.147015611606349 0 -44.147015611606349 -24.572472178447697 0 0 0 0 -69.182826451473375 -25.176723556339084 0 -25.176723556339084 -16.734020828587063 0 0 0 0 -62.815027933223519 14.913997016003663 0 14.913997016003663 -1.428161249929417 0 0 0 0 -60.829023273276107 -5.9506650611765508 0 -5.9506650611765508 11.392374049837144 0 0 0 0 -6.8302385769245193 -6.7764161947329313 0 -6.7764161947329313 2.1950800974768994 0 0 0 0 -11.419391527471404 -0.95716129424090113 0 -0.95716129424090113 -0.89474747116269349 0 0 0 0 -42.11333710827239 -0.62751752969984409 0 -0.62751752969984409 3.1110564501250337 0 0 0 0 -25.39818675472452 -15.587184999050862 0 -15.587184999050862 -10.031920088520337 0 0 0 0 -2.2684828453125974 1.7449389231971786 0 1.7449389231971786 0.25886108896173798 0 0 0 0 -20.591129720327444 14.475660805223697 0 14.475660805223697 40.800318007959078 0 0 0 0 -54.359080484991864 -15.212704111138919 0 -15.212704111138919 -18.339859807728089 0 0 0 0 -64.050700812091236 3.9268138957520478 0 3.9268138957520478 24.641726675353155 0 0 0 0 -58.822598715177904 -5.5484985865857688 0 -5.5484985865857688 1.0149348511426433 0 0 0 0 -85.605851933422855 -53.723305703848553 0 -53.723305703848553 10.377051978044847 0 0 0 0 -61.856724484998267 -7.8205360716983705 0 -7.8205360716983705 17.534879379777067 0 0 0 0 -40.837667125771986 5.7976877371083901 0 5.7976877371083901 11.086627020487867 0 0 0 0 -59.741144515486667 -22.256261678015733 0 -22.256261678015733 -5.7124955712541663 0 0 0 0 -45.72757848085584 -12.87942863495941 0 -12.87942863495941 -3.5858063171970462 0 0 0 0 -43.01301477640159 -10.292186240068418 0 -10.292186240068418 3.5066125070698222 0 0 0 0 -24.321050261449045 -7.638155012737819 0 -7.638155012737819 3.9047009476071253 0 0 0 0 -34.021842010855408 -10.78413963367432 0 -10.78413963367432 1.0159358369216407 0 0 0 0 -70.711447028399562 7.6237152469042258 0 7.6237152469042258 47.158611322294291 0 0 0 0 -85.083401083713397 -31.094383873326592 0 -31.094383873326592 46.614949587143222 0 0 0 0 -16.836475760998493 -2.9612044915615456 0 -2.9612044915615456 0.16697667131339644 0 0 0 0 -56.367618459709774 -6.9782722113357778 0 -6.9782722113357778 60.630454594564299 0 0 0 0 -57.75325630662212 12.640629068075572 0 12.640629068075572 33.491922180721531 0 0 0 0 -63.069548711628158 -1.2735795703528368 0 -1.2735795703528368 19.511394869458627 0 0 0 0 -76.653609372006031 -36.530823208140475 0 -36.530823208140475 2.9744746642413986 0 0 0 0 -61.844372575051239 -11.736104750070467 0 -11.736104750070467 12.832968505375561 0 0 0 0 -76.384245539338735 -1.1750823850393317 0 -1.1750823850393317 34.580182483320073 0 0 0 0 -111.5911823449278 -46.343344568501351 0 -46.343344568501351 2.1041306552011747 0 0 0 0 -73.074679368862235 -22.583420100022607 0 -22.583420100022607 11.135183078774048 0 0 0 0 -96.26314600704427 -7.2402581282899092 0 -7.2402581282899092 -12.759754679055163 0 0 0 0 -99.450971647704137 -21.499199147889669 0 -21.499199147889669 12.646343840910731 0 0 0 0 -122.916920890646 -33.786578138712741 0 -33.786578138712741 -31.449329131791274 0 0 0 0 -216.38354838969099 7.0025972219510209 0 7.0025972219510209 -49.190474292477006 0 0 0 0 -115.58526114551569 -100.54224624895522 0 -100.54224624895522 -133.88786583442118 0 0 0 0 -76.429093054226541 -40.113656336653662 0 -40.113656336653662 -48.335171827962256 0 0 0 0 -64.483484268281245 -52.042745795753717 0 -52.042745795753717 -59.136840395213994 0 0 0 0 -65.517954494311198 19.479326552712223 0 19.479326552712223 -8.9929129535966013 0 0 0 0 -61.692489188899344 -38.313071690240747 0 -38.313071690240747 -29.003037045335589 0 0 0 0 -78.779455231771863 -8.860194726712308 0 -8.860194726712308 -16.115196028283322 0 0 0 0 -92.675991107156733 -18.090919187553027 0 -18.090919187553027 -62.226870221304999 0 0 0 0 -98.644942736173107 24.208366911821031 0 24.208366911821031 -65.431329769001366 0 0 0 0 -95.256373503006671 17.607971903115175 0 17.607971903115175 10.10306441095247 0 0 0 0 -76.784154185559601 2.1907509479352711 0 2.1907509479352711 18.747114322528034 0 0 0 0 -53.658951681936742 15.295774185680159 0 15.295774185680159 5.4926764492516895 0 0 0 0 -29.042180906424619 2.5984096093460209 0 2.5984096093460209 -4.9136359339911735 0 0 0 0 -70.90764239395503 -3.0302757791790782 0 -3.0302757791790782 19.592886966510264 0 0 0 0 -42.450076580178575 -1.009952867949039 0 -1.009952867949039 19.582109665528975 0 0 0 0 -93.147303270750854 2.7911988439734614 0 2.7911988439734614 59.432256921564431 0 0 0 0 -11.132126977984726 -5.5672284620775727 0 -5.5672284620775727 -1.3571729987525223 0 0 0 0 -46.562674322423334 -6.3603018780378342 0 -6.3603018780378342 0.97078849395739364 0 0 0 0 -87.380109048772283 -40.172384286779106 0 -40.172384286779106 17.280972919343753 0 0 0 0 -63.938298901157395 0.5088862927534592 0 0.5088862927534592 27.944950503959262 0 0 0 0 -41.749983215517346 -6.7206256964761142 0 -6.7206256964761142 2.2238284884365833 0 0 0 0 -37.179581340096775 -9.1728619205473478 0 -9.1728619205473478 7.706252989944403 0 0 0 0 -54.246412548753142 -15.336319537692589 0 -15.336319537692589 19.227924300096674 0 0 0 0 -54.265984330646461 5.8693590736708643 0 5.8693590736708643 32.645609777681557 0 0 0 0 -69.147954231390031 -15.928743801561382 0 -15.928743801561382 -4.5314838565277569 0 0 0 0 -22.572802258357115 -19.910796022630393 0 -19.910796022630393 -5.43011224698148 0 0 0 0 -35.875002782535333 -0.28357259129865575 0 -0.28357259129865575 2.5191814815652673 0 0 0 0 -10.448321223376983 -0.36456095010888845 0 -0.36456095010888845 -0.02982125563820226 0 0 0 0 -55.371900863483461 -3.4099900150442863 0 -3.4099900150442863 3.3168865062452824 0 0 0 0 -14.643666493841778 6.0322214988687115 0 6.0322214988687115 -4.6320662676604076 0 0 0 0 -21.201669240210322 -0.84320280462861774 0 -0.84320280462861774 -11.440029559570547 0 0 0 0 -24.383638705030364 3.9120623248039994 0 3.9120623248039994 -3.0746190403414597 0 0 0 0 -20.86499870098487 -8.9692798730577579 0 -8.9692798730577579 -17.497429952720722 0 0 0 0 -159.96847343351874 -64.786806749405741 0 -64.786806749405741 447.76267482363255 0 0 0 0 0.4545782274872181 -148.13697744404749 0 -148.13697744404749 -30.152114461313431 0 0 0 0 -96.348683764335874 40.280736141261002 0 40.280736141261002 -89.607954801947855 0 0 0 0 -41.324070106806175 3.6577100079177853 0 3.6577100079177853 15.745178003580349 0 0 0 0 -9.7869899243014515 -106.16791359324202 0 -106.16791359324202 167.50757394212599 0 0 0 0 -10.213555105576443 -2.728159577782634 0 -2.728159577782634 9.5924351046773886 0 0 0 0 111.98281644318558 -100.1656556560032 0 -100.1656556560032 -11.894259320909441 0 0 0 0 0.88005348016843365 -0.72329508778750551 0 -0.72329508778750551 3.4253850404447097 0 0 0 0 228.3287082390998 68.274553976199229 0 68.274553976199229 -171.39253204452797 0 0 0 0 -36.915386533961282 -122.18273249250211 0 -122.18273249250211 49.029308883349017 0 0 0 0 -93.652822051328258 8.6386492716645051 0 8.6386492716645051 -176.57026464115194 0 0 0 0 -421.59668909370157 379.91129331600251 0 379.91129331600251 -260.09364507047769 0 0 0 0 -159.60638725679019 -110.58501312996856 0 -110.58501312996856 -45.775486257888531 0 0 0 0 -47.868982992848032 218.20861778660372 0 218.20861778660372 -71.515813292697587 0 0 0 0 -2500.7872684695794 678.13296345155334 0 678.13296345155334 460.63472319104113 0 0 0 0 -757.01234689613193 278.40123183735227 0 278.40123183735227 15.911234831919826 0 0 0 0 -1133.0136794924329 469.08795753411476 0 469.08795753411476 16.590956367864109 0 0 0 0 -1565.3309794172092 830.9074490809495 0 830.9074490809495 -217.52342468048266 0 0 0 0 -409.00403105177247 432.69461730222656 0 432.69461730222656 -494.23008246027257 0 0 0 0 -570.76624050515966 421.82669538452683 0 421.82669538452683 -187.58207896275377 0 0 0 0 -1456.5069055429776 1372.4200181735373 0 1372.4200181735373 -769.21349479717503 0 0 0 0 -1562.457337827238 861.16718843965782 0 861.16718843965782 10.842181283007179 0 0 0 0 -2735.4385144938497 983.67988236243173 0 983.67988236243173 4.9897503840365616 0 0 0 0 -9.5127270890845068 3.7025117370078604 0 3.7025117370078604 -5.0346269338994238 0 0 0 0 -185.21220593928592 613.19947192231416 0 613.19947192231416 -892.93752657852713 0 0 0 0 -2495.9447649925787 551.11468762130539 0 551.11468762130539 -1324.6845704689924 0 0 0 0 -2562.1531560056101 485.8673912996158 0 485.8673912996158 -105.74258020474245 0 0 0 0 39.911057091871044 -215.71618355329838 0 -215.71618355329838 -184.50726932968155 0 0 0 0 -85.364886557494174 196.7743803339564 0 196.7743803339564 -36.036135142800532 0 0 0 0 61.143676213901927 -82.565395320111037 0 -82.565395320111037 -411.81806745040456 0 0 0 0 -1136.8597823826931 -903.59063169991987 0 -903.59063169991987 -620.68177739878672 0 0 0 0 -2494.9900898711567 -514.17535699489133 0 -514.17535699489133 334.96736208262837 0 0 0 0 -7.4276263289430489 0.3546195510420227 0 0.3546195510420227 -2.734498578393314 0 0 0 0 -1436.1033317221736 -8.6811862276155871 0 -8.6811862276155871 299.31658768977775 0 0 0 0 -1447.006147776774 -86.020889887013837 0 -86.020889887013837 23.048079590638622 0 0 0 0 -2435.8462003411842 -209.59914581227542 0 -209.59914581227542 276.1743849061138 0 0 0 0 158.43980513968927 530.18077832174413 0 530.18077832174413 157.89499464905396 0 0 0 0 -7.8239269460083207 4.0052752186225185 0 4.0052752186225185 0.53218772089688504 0 0 0 0 -2502.0959212379094 31.261577498816301 0 31.261577498816301 -369.04699751843992 0 0 0 0 -1541.3948189788243 438.81892985189177 0 438.81892985189177 308.5084620278555 0 0 0 0 -569.81572629165748 547.54581022241837 0 547.54581022241837 310.85360800004321 0 0 0 0 -187.97522986608237 -4.9455780955438939 0 -4.9455780955438939 137.62186926066317 0 0 0 0 -215.44602640110497 -79.555944725244672 0 -79.555944725244672 22.247923480980234 0 0 0 0 -449.37638640322257 15.434844342000446 0 15.434844342000446 -11.984675936070758 0 0 0 0 -202.39195550683144 -216.17957092548372 0 -216.17957092548372 -153.56412104889174 0 0 0 0 -556.62263344871099 -62.213957172088257 0 -62.213957172088257 16.878892147402667 0 0 0 0 -565.65948724497866 -406.69919349412015 0 -406.69919349412015 -317.73999114262682 0 0 0 0 -154.8793160931782 -20.155259795922859 0 -20.155259795922859 -188.60166222200201 0 0 0 0 -45.02478489936766 -134.91719712690144 0 -134.91719712690144 -71.283285275343985 0 0 0 0 75.535013549162613 -69.656631552279848 0 -69.656631552279848 -145.75055302365556 0 0 0 0 -8.7832341832554448 5.7355461216064967 0 5.7355461216064967 -3.3583542582538888 0 0 0 0 -54.196351157675963 -21.552668605876761 0 -21.552668605876761 -21.916483883452315 0 0 0 0 44.523208079186588 -23.563738442763082 0 -23.563738442763082 -72.836019735260521 0 0 0 0 -38.195580012878054 -17.389721809746788 0 -17.389721809746788 -28.924616004883319 0 0 0 0 -38.008689922047779 -26.752860284900635 0 -26.752860284900635 -42.197184467135685 0 0 0 0 -56.830674221389927 -38.191301108951471 0 -38.191301108951471 -14.771202968855988 0 0 0 0 -19.840296963448054 -42.09412894277223 0 -42.09412894277223 -71.913131363221666 0 0 0 0 -47.309460762189701 -61.903216969793206 0 -61.903216969793206 29.646033726620487 0 0 0 0 -43.568708709542989 -56.09298514554186 0 -56.09298514554186 -3.0502882882994413 0 0 0 0 -61.604252050154173 -87.839210143184175 0 -87.839210143184175 -48.806218515755432 0 0 0 0 -27.219003501500993 -123.39830162854494 0 -123.39830162854494 -94.783272949432956 0 0 0 0 3.9397109831297712 -75.966334711167576 0 -75.966334711167576 -23.993812949024516 0 0 0 0 -41.598948502483836 -72.975936781423016 0 -72.975936781423016 -24.02921128674388 0 0 0 0 -58.290760267154837 -132.13422224849322 0 -132.13422224849322 -32.083793038417312 0 0 0 0 -61.065728701163607 -82.174720343227449 0 -82.174720343227449 88.661119256991867 0 0 0 0 -36.885511402258999 -30.925126049437914 0 -30.925126049437914 65.787945666742402 0 0 0 0 -60.065203482183279 -33.259523038226291 0 -33.259523038226291 93.981399395104177 0 0 0 0 -55.5500502605355 -40.163898002414541 0 -40.163898002414541 29.100945196910516 0 0 0 0 -52.845811459315883 -35.396451619284534 0 -35.396451619284534 15.838968097545774 0 0 0 0 -54.533688714080199 -36.051360846018355 0 -36.051360846018355 42.489812452599324 0 0 0 0 -56.701863823866006 -24.892606700147667 0 -24.892606700147667 59.059260280011699 0 0 0 0 -54.992880215933837 -33.195553448162286 0 -33.195553448162286 39.676598822809751 0 0 0 0 -55.405246259391788 -22.252249185071449 0 -22.252249185071449 26.453078862297559 0 0 0 0 -54.840295408248494 -18.918243652991123 0 -18.918243652991123 33.346803941000118 0 0 0 0 -54.595933558586694 -3.030731522956728 0 -3.030731522956728 39.107754177201514 0 0 0 0 -55.41080628313648 0.75388355158042941 0 0.75388355158042941 26.525760037751837 0 0 0 0 -52.286035182936757 1.522042763998229 0 1.522042763998229 48.07981527152279 0 0 0 0 -52.577550451391289 -0.51227415319038982 0 -0.51227415319038982 57.757168319824586 0 0 0 0 -41.35360585845774 23.732309103551927 0 23.732309103551927 52.006465196219551 0 0 0 0 -46.165697211912629 13.034178890897863 0 13.034178890897863 28.33909393886438 0 0 0 0 -49.013141729799827 15.718642995600305 0 15.718642995600305 30.758790573578835 0 0 0 0 -53.199384082610777 9.8455671630605366 0 9.8455671630605366 22.963828459910438 0 0 0 0 -35.376616714212105 11.337347312285921 0 11.337347312285921 76.545384029070874 0 0 0 0 -43.983380222365668 14.389663170599874 0 14.389663170599874 83.160040424180451 0 0 0 0 -30.646214747779595 22.717433718967698 0 22.717433718967698 29.79409106839671 0 0 0 0 -24.680922709929291 40.088686132095404 0 40.088686132095404 74.870838993316426 0 0 0 0 16.610338497144767 35.296217659537788 0 35.296217659537788 15.6590178317972 0 0 0 0 -1399.9786933220166 -231.82573124718255 0 -231.82573124718255 -164.98026152838835 0 0 0 0 30.479432118667319 82.495219597588417 0 82.495219597588417 101.9446277057626 0 0 0 0 -14.763908627854292 10.45672384677075 0 10.45672384677075 1.4407038657097653 0 0 0 0 -2498.8993019047484 -539.69815059690575 0 -539.69815059690575 58.702306092941832 0 0 0 0 -1785.9294223588313 -923.65566263054131 0 -923.65566263054131 -346.48916426006872 0 0 0 0 -3005.814739801237 -901.86534997209912 0 -901.86534997209912 -283.60685556246227 0 0 0 0 -47.38018146833565 -47.095452868885573 0 -47.095452868885573 190.77098993320519 0 0 0 0 -25.035616744065464 50.345851529447373 0 50.345851529447373 171.33459159314143 0 0 0 0 146.69821721636254 -12.183868210718202 0 -12.183868210718202 92.599764826505933 0 0 0 0 -2499.6744901355232 138.83812116185976 0 138.83812116185976 365.4531052154544 0 0 0 0 -1959.7918248594433 55.818807254980676 0 55.818807254980676 93.258011096302326 0 0 0 0 -1366.431004179678 -193.30614344897936 0 -193.30614344897936 368.98417188913515 0 0 0 0 -1126.2794570390142 380.31056217017056 0 380.31056217017056 -127.15785428175741 0 0 0 0 -520.00656517151219 -141.870891974073 0 -141.870891974073 -79.57303951046535 0 0 0 0 -154.41974913982267 107.55918928756788 0 107.55918928756788 -164.54736862344697 0 0 0 0 41.584906266856706 11.19008990425877 0 11.19008990425877 -199.88243269346216 0 0 0 0 -286.22413161250006 9.0015007935339213 0 9.0015007935339213 -88.590493528051368 0 0 0 0 -327.669659252153 -28.215041143995734 0 -28.215041143995734 44.215887414784959 0 0 0 0 7.5707728713459801 -56.300196633196265 0 -56.300196633196265 -92.518975805864102 0 0 0 0 -29.729358725420525 -8.964455868008006 0 -8.964455868008006 -2.7001307607408433 0 0 0 0 168.95889838885341 -105.80042267399226 0 -105.80042267399226 -97.358261506573058 0 0 0 0 184.14800645718788 17.702686934100818 0 17.702686934100818 -437.79527501430516 0 0 0 0 -269.8889557674629 -57.125041515832947 0 -57.125041515832947 -108.02400128438103 0 0 0 0 -3747.2476780905126 -35.660193436531415 0 -35.660193436531415 61.53951611507722 0 0 0 0 -12.94993138292628 -2.4220667007970391 0 -2.4220667007970391 -0.95248513182564021 0 0 0 0 -1231.9797416640104 858.28344456128104 0 858.28344456128104 -332.23808894885343 0 0 0 0 -2211.9754305494862 905.26565180353782 0 905.26565180353782 -244.74068859977427 0 0 0 0 -2763.1271557797008 -100.59318183357391 0 -100.59318183357391 -374.61187956197352 0 0 0 0 -2791.0730820834142 117.90754188268949 0 117.90754188268949 92.517435767039103 0 0 0 0 -2499.9679786861925 112.06458742219696 0 112.06458742219696 -681.88014730021723 0 0 0 0 -3447.6950799966071 30.239733725584937 0 30.239733725584937 -812.02013423431663 0 0 0 0 -2455.456709901915 15.942508413165795 0 15.942508413165795 -1259.0523803066858 0 0 0 0 -3033.093582297035 344.2335432938965 0 344.2335432938965 -744.89984682896943 0 0 0 0 -2500.6949787615085 -415.4446093511765 0 -415.4446093511765 253.26001861344369 0 0 0 0 -697.39309945632704 339.18076570038392 0 339.18076570038392 64.007837479814228 0 0 0 0 -1944.4446673162856 -1003.0353481773377 0 -1003.0353481773377 -294.51350848034281 0 0 0 0 -8.9640325103947873 -0.73682659825350783 0 -0.73682659825350783 0.705078057091999 0 0 0 0 -284.3440424697983 -545.06049868609591 0 -545.06049868609591 -237.78314056325624 0 0 0 0 -1874.4639872582161 -313.54098053419676 0 -313.54098053419676 213.79928157259917 0 0 0 0 -1875.3267352406256 -99.816852478735058 0 -99.816852478735058 405.22230876187155 0 0 0 0 -2498.7944924522744 -46.371240160405875 0 -46.371240160405875 548.77344546546612 0 0 0 0 -1037.6321215341086 -286.09867417530819 0 -286.09867417530819 163.71155913734589 0 0 0 0 -1711.4337803977687 304.6624993611897 0 304.6624993611897 439.51751401569334 0 0 0 0 -1865.1899725171443 234.94269599860195 0 234.94269599860195 432.18598610658114 0 0 0 0 -30.706590935424174 -86.966001681435387 0 -86.966001681435387 -96.594984832857818 0 0 0 0 -0.050553724732192773 -0.27605048946711008 0 -0.27605048946711008 0.46920948837865684 0 0 0 0 -32.091785561592587 -45.331083815933205 0 -45.331083815933205 -76.703926542401518 0 0 0 0 -447.15458342014608 -7.9621081492582277 0 -7.9621081492582277 -30.903443578506767 0 0 0 0 -658.57413067548259 131.01676677404237 0 131.01676677404237 26.179137978207336 0 0 0 0 -314.67638764469308 203.65879914617463 0 203.65879914617463 312.00637347813756 0 0 0 0 -13.767450027937485 0.40952118666884019 0 0.40952118666884019 1.1623055451688358 0 0 0 0 -20.322041334718961 -156.65181081089725 0 -156.65181081089725 -59.555973307726276 0 0 0 0 -124.72347417417041 -103.55906782155125 0 -103.55906782155125 -150.50642238221161 0 0 0 0 -292.11172969614267 -278.43463224048571 0 -278.43463224048571 -229.88958657914986 0 0 0 0 -5.4430498596509835 0.11102979425315951 0 0.11102979425315951 0.41792478187160687 0 0 0 0 -114.15600198529137 201.60541208838265 0 201.60541208838265 200.62077429113836 0 0 0 0 -12.398215421519126 44.763951476156052 0 44.763951476156052 -99.494167768460386 0 0 0 0 85.788035641322494 137.85564622735407 0 137.85564622735407 -13.063931361788605 0 0 0 0 -87.530658068979392 134.93461243164046 0 134.93461243164046 83.814224309488282 0 0 0 0 -257.16999953026243 93.612506335948751 0 93.612506335948751 133.99147389919312 0 0 0 0 -234.5701719211138 -3.1093175829414577 0 -3.1093175829414577 14.829142369297756 0 0 0 0 -66.854147201596334 -16.660384228858884 0 -16.660384228858884 -81.89749870997457 0 0 0 0 -115.59293060420168 -35.162194950572712 0 -35.162194950572712 13.419333232314557 0 0 0 0 -67.092726959859419 -10.15775748608692 0 -10.15775748608692 -66.40382356077896 0 0 0 0 -34.37531113854493 -20.112287836766427 0 -20.112287836766427 -109.49173795320539 0 0 0 0 -49.93756527556252 10.341457903276641 0 10.341457903276641 -126.68621986775628 0 0 0 0 -53.344524761923822 20.864543700492852 0 20.864543700492852 -22.110347459337731 0 0 0 0 -46.641307776968461 0.25797703684651196 0 0.25797703684651196 -4.9478594527596229 0 0 0 0 -33.039685547622867 -11.689687798923899 0 -11.689687798923899 -96.43581714306913 0 0 0 0 -149.0022563358325 -113.48406319716004 0 -113.48406319716004 25.322597286000359 0 0 0 0 -83.634163031791104 32.143940341038956 0 32.143940341038956 -25.377212802318553 0 0 0 0 -0.19304587114751826 -0.22709628644059876 0 -0.22709628644059876 -1.7116036695925614 0 0 0 0 -105.40657595715675 14.970242198756523 0 14.970242198756523 -145.95034828131247 0 0 0 0 -130.2927079055371 -79.274208729804172 0 -79.274208729804172 -118.92377175039661 0 0 0 0 -432.42191847108916 -84.78596622733528 0 -84.78596622733528 134.11134565009172 0 0 0 0 -197.84684749946609 -70.440689364379239 0 -70.440689364379239 134.84473331173083 0 0 0 0 -27.214934664370958 6.6105236950777595 0 6.6105236950777595 -3.6914838002071519 0 0 0 0 -65.551111857517753 22.795716482872173 0 22.795716482872173 -5.1568746011826079 0 0 0 0 -4.9281248180798514 2.4866020416403245 0 2.4866020416403245 -0.81595965003764503 0 0 0 0 -68.438082445965847 11.281063123877658 0 11.281063123877658 1.3980221014330709 0 0 0 0 -38.137283541684155 1.8094349327803343 0 1.8094349327803343 -4.6681486185415082 0 0 0 0 -53.850056024171863 20.397502162852035 0 20.397502162852035 -9.569386777366617 0 0 0 0 -50.817768810957205 14.814774115471437 0 14.814774115471437 -9.5218712622638577 0 0 0 0 178.07540702908227 -31.951761456724221 0 -31.951761456724221 -286.03364500052737 0 0 0 0 0.79416106706180756 0.10395482172887682 0 0.10395482172887682 -3.5067283554008339 0 0 0 0 -318.56640416107189 32.947156807439292 0 32.947156807439292 48.681046079211313 0 0 0 0 -69.4385711122668 123.48282220542904 0 123.48282220542904 15.419228771190944 0 0 0 0 -28.916940633615013 13.214444279812227 0 13.214444279812227 -8.7040504634942408 0 0 0 0 -46.732477732708503 9.4763076799455348 0 9.4763076799455348 -5.823518446093999 0 0 0 0 -5.3782297550748837 1.4513265918887726 0 1.4513265918887726 -1.8700914338141206 0 0 0 0 -9.5019269897374556 14.107382475343691 0 14.107382475343691 -4.0720705251530793 0 0 0 0 7.0700607596045302 37.441879555826745 0 37.441879555826745 -33.861977976010849 0 0 0 0 -16.387754191354205 10.214724235847555 0 10.214724235847555 4.9894265184162219 0 0 0 0 -9.933626990110124 0.86033158536363885 0 0.86033158536363885 2.5081685406633127 0 0 0 0 -11.005174133610126 -7.8607942856014716 0 -7.8607942856014716 -10.966068049607429 0 0 0 0 -34.452500010702352 1.6035418424800376 0 1.6035418424800376 2.3689194817223438 0 0 0 0 -47.957636019964411 25.435377001432016 0 25.435377001432016 18.812282767311899 0 0 0 0 -61.898667711415328 6.8811821451475907 0 6.8811821451475907 39.939078494788191 0 0 0 0 -57.454799761988397 0.28446554690299308 0 0.28446554690299308 36.084857370916325 0 0 0 0 -76.524918283765146 34.98977717075087 0 34.98977717075087 17.161205080629315 0 0 0 0 -75.561028963732497 29.51863491693058 0 29.51863491693058 35.140832359828664 0 0 0 0 62.87132792340708 36.524157517482422 0 36.524157517482422 -20.364172827006541 0 0 0 0 -240.69942181472652 11.399322251474644 0 11.399322251474644 49.131528098928129 0 0 0 0 -108.198892569897 -71.715155954784677 0 -71.715155954784677 -6.451913969151974 0 0 0 0 -98.00680989704415 -72.4606330406952 0 -72.4606330406952 -23.246551396233372 0 0 0 0 -9.9416967417710111 -62.306903048860704 0 -62.306903048860704 -27.425340169442848 0 0 0 0 -77.618566950721288 -30.038152583502097 0 -30.038152583502097 -47.870419757143281 0 0 0 0 -63.978850896586664 -25.481953375173816 0 -25.481953375173816 39.333934428962039 0 0 0 0 -82.516982552377158 -48.519513227308153 0 -48.519513227308153 51.768815307222212 0 0 0 0 -132.38257161191723 -2.3166931178250252 0 -2.3166931178250252 35.411595038248834 0 0 0 0 -47.695234842947684 -3.2441317944139882 0 -3.2441317944139882 34.358054767928252 0 0 0 0 -39.100700237730052 -2.1007901193752332 0 -2.1007901193752332 31.234211708350813 0 0 0 0 -40.894427328472375 4.0559579919226962 0 4.0559579919226962 34.397012696570073 0 0 0 0 -43.701713731745258 -11.095246291683054 0 -11.095246291683054 -0.13264641268813193 0 0 0 0 -16.358326035056962 23.391215844077326 0 23.391215844077326 -53.250027747635443 0 0 0 0 1.888940272411503 -8.6558092902704278 0 -8.6558092902704278 -2.626439977726641 0 0 0 0 -0.94824278433225118 29.50003312470227 0 29.50003312470227 -124.82887585795827 0 0 0 0 -13.232882708514808 26.052651433268306 0 26.052651433268306 -121.07972046029211 0 0 0 0 -62.557688100881933 6.6182127900219889 0 6.6182127900219889 -42.378399982955926 0 0 0 0 -0.60569545821635984 36.683245883061232 0 36.683245883061232 -127.25492127119597 0 0 0 0 -25.331167713200557 47.879546196100691 0 47.879546196100691 -117.81499934525698 0 0 0 0 -39.857474596488913 -11.020455617235804 0 -11.020455617235804 -2.9662141312834711 0 0 0 0 -6.1758762290846789 -69.17819573293869 0 -69.17819573293869 -54.597832260838217 0 0 0 0 6.7024933086868259 13.500333429098035 0 13.500333429098035 -122.96336631254782 0 0 0 0 -18.606487566124997 -18.756822641017067 0 -18.756822641017067 -113.51697797139923 0 0 0 0 25.563305073170341 -15.877354575790349 0 -15.877354575790349 -118.70183860125078 0 0 0 0 27.384616956609534 2.6959513785172078 0 2.6959513785172078 -126.45126528685813 0 0 0 0 24.681904569895778 18.897805544324122 0 18.897805544324122 -212.74874189413657 0 0 0 0 -52.63622548616695 87.916527850817815 0 87.916527850817815 -177.33678876082112 0 0 0 0 11.491865107265767 -9.5459605613062877 0 -9.5459605613062877 -115.53287143421318 0 0 0 0 18.421059583753959 19.879429531089166 0 19.879429531089166 -141.09967141618711 0 0 0 0 46.349157412987552 46.449058297397073 0 46.449058297397073 -70.071687692019651 0 0 0 0 -40.358413647169073 -64.864873684808941 0 -64.864873684808941 -50.54668514537542 0 0 0 0 2.489040920700063 -14.613382478562215 0 -14.613382478562215 -99.52195545926881 0 0 0 0 33.614452816400444 23.415498842846716 0 23.415498842846716 -69.480182793956999 0 0 0 0 43.21309310021752 63.849286447815814 0 63.849286447815814 -51.167616120580419 0 0 0 0 -32.547309271860286 -25.373343060827892 0 -25.373343060827892 -94.373049602353944 0 0 0 0 -27.296111273346469 23.71913052153684 0 23.71913052153684 -67.066060968925171 0 0 0 0 -14.430305484071141 39.098519240796008 0 39.098519240796008 -58.099686211774952 0 0 0 0 -57.384571145172231 24.057305436270326 0 24.057305436270326 -40.564923007306106 0 0 0 0 -34.491387134527031 -17.680665073295302 0 -17.680665073295302 -63.490257275298859 0 0 0 0 -26.247551877586972 2.876959373114893 0 2.876959373114893 1.7845163924016187 0 0 0 0 -3.2247295565903187 7.707588585303256 0 7.707588585303256 -149.20081091118072 0 0 0 0 -51.717316329246387 37.730548331040154 0 37.730548331040154 -34.629081647693511 0 0 0 0 -66.498560875887051 -42.711547936344687 0 -42.711547936344687 -196.6635903162778 0 0 0 0 -3.1629429240370968 0.8542714582262505 0 0.8542714582262505 -0.2783278991151259 0 0 0 0 -53.036016744605149 8.5949367856790104 0 8.5949367856790104 36.669650991324488 0 0 0 0 -109.49590559268836 -27.250945394799743 0 -27.250945394799743 28.737451077971031 0 0 0 0 -47.230128500198987 -9.2188868592914108 0 -9.2188868592914108 0.10779300508074863 0 0 0 0 -6.3509930207638945 7.6269226714391536 0 7.6269226714391536 5.1262379580768913 0 0 0 0 -153.15028008162335 33.774006251828226 0 33.774006251828226 3.6316466408389374 0 0 0 0 -146.31209720071638 70.224176124554049 0 70.224176124554049 -90.660886707112226 0 0 0 0 -64.365742722366122 -41.259422412695244 0 -41.259422412695244 -78.95005015954257 0 0 0 0 -11.995446483897439 -1.6205344894309093 0 -1.6205344894309093 -1.0437058772909746 0 0 0 0 11.342069433463621 29.864669806777442 0 29.864669806777442 -68.968654231575513 0 0 0 0 -23.172288102032951 3.8615782427005616 0 3.8615782427005616 1.4740249888454189 0 0 0 0 -36.333096444024704 2.8739512543413746 0 2.8739512543413746 20.508248512372273 0 0 0 0 -35.938211129163392 26.697793383248637 0 26.697793383248637 -48.385569651784522 0 0 0 0 -47.404955505883521 15.182545918297649 0 15.182545918297649 -4.0455476675185134 0 0 0 0 -23.756642079424637 85.432399612271155 0 85.432399612271155 76.011167879047633 0 0 0 0 -16.11171883100269 74.089114999616569 0 74.089114999616569 -18.260089315632968 0 0 0 0 27.822091135094524 96.035802267084819 0 96.035802267084819 -31.218955376673847 0 0 0 0 -28.367428632277779 30.767371738476069 0 30.767371738476069 5.6683906234911774 0 0 0 0 -30.983816945867147 -11.154475653667632 0 -11.154475653667632 -12.014430547440881 0 0 0 0 -72.759709094898426 -17.421543267148536 0 -17.421543267148536 49.014622840932134 0 0 0 0 -47.528296428927234 8.0511980742588278 0 8.0511980742588278 -1.5458647708377171 0 0 0 0 -31.688292918399384 -17.054377929685984 0 -17.054377929685984 -14.31269826040068 0 0 0 0 -31.642279914003694 -15.422074080845846 0 -15.422074080845846 3.1736524277675273 0 0 0 0 -75.369518903837161 -9.022429671634427 0 -9.022429671634427 22.040495862227999 0 0 0 0 -28.524054661298578 -9.9154975290645666 0 -9.9154975290645666 -5.1869924111622865 0 0 0 0 -19.891119420673931 -10.932033733908384 0 -10.932033733908384 -27.882626476910048 0 0 0 0 -25.253778107331954 3.9217079940444819 0 3.9217079940444819 -2.9773151919212202 0 0 0 0 -43.817076387521865 -3.8925798668987994 0 -3.8925798668987994 -10.187763726617845 0 0 0 0 -37.996483492432162 -16.699767335000388 0 -16.699767335000388 -12.828563525302684 0 0 0 0 0.11041642198685508 -0.30418401330154765 0 -0.30418401330154765 -2.0505476373311962 0 0 0 0 -20.703430391315322 7.0907301808950596 0 7.0907301808950596 -0.67786688310886767 0 0 0 0 -45.010438020246511 27.871003493643315 0 27.871003493643315 -2.9228024266380679 0 0 0 0 -11.883172875693759 -1.0444126164685343 0 -1.0444126164685343 -4.8842516749769409 0 0 0 0 -45.957438257908507 9.2529057582290761 0 9.2529057582290761 -5.4752927230133537 0 0 0 0 -29.23963272281253 9.6370405686815275 0 9.6370405686815275 -7.0266992272861444 0 0 0 0 -28.031755664655066 2.1098153726435385 0 2.1098153726435385 -8.196120908800367 0 0 0 0 -34.54650399946695 4.1663481539132476 0 4.1663481539132476 -2.6703848741096863 0 0 0 0 -31.850228177399913 -0.11066641763184748 0 -0.11066641763184748 -4.3576377606327696 0 0 0 0 -30.719702747097472 28.198200983396532 0 28.198200983396532 -38.298929944524389 0 0 0 0 -2.5256698335374779 -1.4892733955727664 0 -1.4892733955727664 -0.18552416298926122 0 0 0 0 -25.771006116907301 3.4721982806977394 0 3.4721982806977394 -2.5666747366140044 0 0 0 0 -49.43212367608794 33.490507610445889 0 33.490507610445889 -19.627509158617983 0 0 0 0 -21.392923828130733 8.3873067420087963 0 8.3873067420087963 -12.81003347392172 0 0 0 0 -21.546002029448573 8.2068374032473344 0 8.2068374032473344 -1.2808175164556133 0 0 0 0 -58.357812440350244 2.643394781975303 0 2.643394781975303 2.5780779304498083 0 0 0 0 -38.419929497387784 -15.724746255297532 0 -15.724746255297532 -4.0617165603212015 0 0 0 0 -93.610427581559634 9.359439870647293 0 9.359439870647293 2.8641362819671485 0 0 0 0 -1.1333027924245016 -0.4959750428446057 0 -0.4959750428446057 0.085317540440470019 0 0 0 0 -13.770652744037434 17.512305045451015 0 17.512305045451015 -8.8934127127359517 0 0 0 0 -14.720696229305091 -1.5875485712705313 0 -1.5875485712705313 5.6422792655499698 0 0 0 0 -21.142976436365643 7.8647526750914381 0 7.8647526750914381 -1.084532190051732 0 0 0 0 -49.788593799123191 23.637485717695654 0 23.637485717695654 7.4360165942619005 0 0 0 0 -19.91773533399828 5.363045763299823 0 5.363045763299823 -0.41097596360896205 0 0 0 0 -16.177931085306952 5.8534691808739368 0 5.8534691808739368 -1.7968473871648705 0 0 0 0 -16.555238520781131 3.6512097704252824 0 3.6512097704252824 -0.46119924604090556 0 0 0 0 -18.725008443905608 6.6147652713373759 0 6.6147652713373759 -1.8354965397963952 0 0 0 0 -22.751066265709596 17.577845420962703 0 17.577845420962703 -4.4799434108292644 0 0 0 0 -19.412936609078315 8.2419513945243352 0 8.2419513945243352 -3.075710110234354 0 0 0 0 -9.0004582544223624 11.559945723519256 0 11.559945723519256 -4.406025807867084 0 0 0 0 -36.19581832899712 20.362875979231916 0 20.362875979231916 -1.8032305525788104 0 0 0 0 -28.277311202815326 16.438275939397293 0 16.438275939397293 -5.145603632683283 0 0 0 0 -46.776748533668012 14.539036138793 0 14.539036138793 -5.3157443023771265 0 0 0 0 -31.340209962159861 1.1593526030375187 0 1.1593526030375187 10.092789261202768 0 0 0 0 -8.0414308763744202 -0.67234149994114034 0 -0.67234149994114034 0.58741591553724559 0 0 0 0 -9.9952343931145151 1.0328212535542889 0 1.0328212535542889 -3.3582691947153762 0 0 0 0 -7.8517219655674211 7.7016932051643963 0 7.7016932051643963 -6.1211250988697632 0 0 0 0 -8.2104300639221037 8.8843859737115736 0 8.8843859737115736 -11.055270703760925 0 0 0 0 -21.25769244608091 1.9039258639309651 0 1.9039258639309651 -38.853442346865656 0 0 0 0 -15.074587505463569 -3.7639802540025045 0 -3.7639802540025045 -33.752686025872265 0 0 0 0 -36.897645166385701 -5.80788725629575 0 -5.80788725629575 -25.572864698479748 0 0 0 0 -32.221980771180824 8.4003186455350374 0 8.4003186455350374 -32.973907896602725 0 0 0 0 -31.340209962116205 1.1593526030029864 0 1.1593526030029864 10.092789261200096 0 0 0 0 -31.340209962101653 1.1593526030426631 0 1.1593526030426631 10.092789261202995 0 0 0 0 -36.154146127999411 31.640224351691359 0 31.640224351691359 -31.976844965632154 0 0 0 0 -19.132245848944876 12.764524209432238 0 12.764524209432238 -13.283140720331488 0 0 0 0 -20.305092277449148 10.633249115881881 0 10.633249115881881 -8.9912423919818139 0 0 0 0 -10.23376717507108 3.3788095673550771 0 3.3788095673550771 -14.59752957131127 0 0 0 0 -16.020413278696651 -1.6208527055742934 0 -1.6208527055742934 -0.013457792191275075 0 0 0 0 -2.5134001778860693 -5.9973914249133031 0 -5.9973914249133031 -21.770354468862706 0 0 0 0 -16.320148017802239 -0.7158527252824527 0 -0.7158527252824527 4.2471707961592529 0 0 0 0 -4.093848371667093 0.21254025021179501 0 0.21254025021179501 -0.32368746109889335 0 0 0 0 -10.805134047259344 1.6230612922151977 0 1.6230612922151977 -3.9790216819211537 0 0 0 0 -15.481343120096426 3.5910208919679576 0 3.5910208919679576 4.8736045553508092 0 0 0 0 -7.7192376437192536 -0.558219823020913 0 -0.558219823020913 1.8289971635091273 0 0 0 0 -15.223160675537656 2.6433860082566412 0 2.6433860082566412 -0.48794335371797359 0 0 0 0 -27.813371957168783 6.0113666820895446 0 6.0113666820895446 -3.9966067553059474 0 0 0 0 -28.429410753269622 7.2854871574936624 0 7.2854871574936624 -1.2918141661939444 0 0 0 0 7.9487838887544058 -20.975223886968649 0 -20.975223886968649 -6.5204877908471417 0 0 0 0 -18.554870427074007 -5.3654432977308559 0 -5.3654432977308559 3.8457804893397141 0 0 0 0 -19.643857699513319 2.2613656558028197 0 2.2613656558028197 -12.421681412542512 0 0 0 0 -82.101585145186618 38.501623428414618 0 38.501623428414618 -12.792127240536274 0 0 0 0 -18.580111842436963 -14.055258335120129 0 -14.055258335120129 -11.499124946970142 0 0 0 0 -84.293658657588821 -0.43395013997098886 0 -0.43395013997098886 -1.0694531246375618 0 0 0 0 -132.02688948070863 -13.912858280474097 0 -13.912858280474097 -5.5949498269118294 0 0 0 0 -9.4808621120319003 31.255489630291549 0 31.255489630291549 -59.505843603374842 0 0 0 0 -0.060357863874173745 0.84539800238655261 0 0.84539800238655261 -1.0119619758848999 0 0 0 0 -127.13048967243571 64.421178089434619 0 64.421178089434619 -32.215750303854747 0 0 0 0 -72.00311210804648 7.069160208979838 0 7.069160208979838 -83.434481853469947 0 0 0 0 -91.566708918340737 -0.26178124452917473 0 -0.26178124452917473 9.858955594307929 0 0 0 0 -120.14519261312125 -26.269701323137831 0 -26.269701323137831 -13.46815566807436 0 0 0 0 -112.90321073090536 65.018777179819153 0 65.018777179819153 -28.959535629536958 0 0 0 0 -42.962748140780604 21.669305877190936 0 21.669305877190936 -6.3602729553639676 0 0 0 0 -48.031365754381113 -1.7228825318546228 0 -1.7228825318546228 18.397856913079522 0 0 0 0 -44.944843730263528 -4.806456615066736 0 -4.806456615066736 12.718355392117132 0 0 0 0 -44.850376513272437 -0.081277123342914592 0 -0.081277123342914592 5.9856226733344808 0 0 0 0 -52.506262598515605 -0.83303494905777598 0 -0.83303494905777598 1.2323949692348037 0 0 0 0 -77.114319202235492 11.994993216892112 0 11.994993216892112 -22.301691720941733 0 0 0 0 -7.5524952920621047 -10.374108480444701 0 -10.374108480444701 5.0196359686825716 0 0 0 0 -58.803339302568929 -34.374750381823333 0 -34.374750381823333 9.165662862953468 0 0 0 0 -59.379897844941297 -37.603127551065541 0 -37.603127551065541 -2.7611300143121298 0 0 0 0 -61.524588504424173 -11.880397780140271 0 -11.880397780140271 -11.169972221310445 0 0 0 0 -9.3378360313010624 -5.659746030931629 0 -5.659746030931629 8.2727886015216878 0 0 0 0 -3.9086376235685627 -6.0652288365160132 0 -6.0652288365160132 0.97268189239667979 0 0 0 0 -37.10262818200863 7.349299919425988 0 7.349299919425988 -0.21039567665661707 0 0 0 0 -57.934408120432636 5.5841148012456188 0 5.5841148012456188 -5.0820064955195221 0 0 0 0 -104.86651965595956 41.017799146471248 0 41.017799146471248 -9.5013750622176758 0 0 0 0 -110.92069537839416 28.559293647460777 0 28.559293647460777 4.0027659541277956 0 0 0 0 -127.22218347310991 72.784591513457258 0 72.784591513457258 -38.308236350640755 0 0 0 0 -35.728010180217098 53.717948557796205 0 53.717948557796205 -124.3389644945529 0 0 0 0 -174.31898534534957 -3.3722347986269199 0 -3.3722347986269199 6.4007410312296997 0 0 0 0 -3.5251375558067828 -0.51384390520006207 0 -0.51384390520006207 -0.83077459164711343 0 0 0 0 -2.5663214216941981 -0.63863245540544966 0 -0.63863245540544966 -1.2849462403646172 0 0 0 0 -71.092199103281018 125.77478573828768 0 125.77478573828768 -54.332701354426035 0 0 0 0 -152.44414738411433 -75.867934319429423 0 -75.867934319429423 81.596841410960849 0 0 0 0 -54.100951675225275 16.616292948604393 0 16.616292948604393 -4.7393821772937379 0 0 0 0 -38.441544870911457 -4.8994397694859799 0 -4.8994397694859799 -73.658749033231516 0 0 0 0 -38.427706790927914 20.6042996153069 0 20.6042996153069 -52.173825583008693 0 0 0 0 -150.81956185212402 127.58924649897558 0 127.58924649897558 153.86661941615597 0 0 0 0 -87.017891209194204 2.4319388169323872 0 2.4319388169323872 92.464804003935484 0 0 0 0 -48.321528160304297 -22.973654291880848 0 -22.973654291880848 -80.219943455052999 0 0 0 0 -52.023378810819594 14.4069367525634 0 14.4069367525634 -3.0970635300224858 0 0 0 0 -77.657009692164138 -24.673306758713807 0 -24.673306758713807 -69.747837334733049 0 0 0 0 15.609365559615981 -1.5251207747070907 0 -1.5251207747070907 20.091460217298845 0 0 0 0 -36.112163633246382 -16.06250714536651 0 -16.06250714536651 -94.901339897322572 0 0 0 0 -207.39951337262755 -2.4860222369589167 0 -2.4860222369589167 20.518999821461307 0 0 0 0 -54.247129515548295 3.5834434200964154 0 3.5834434200964154 10.450585720202412 0 0 0 0 -14.993257580863428 -32.820463745404766 0 -32.820463745404766 4.4479583252706334 0 0 0 0 -16.861219783182236 -7.937958763974116 0 -7.937958763974116 3.3132272377718555 0 0 0 0 -26.580456100957235 -1.4858551962699096 0 -1.4858551962699096 -5.8229804881129894 0 0 0 0 -42.847637642757036 -26.578224736567847 0 -26.578224736567847 17.766755898296985 0 0 0 0 -24.611754611306537 -4.9937582307387274 0 -4.9937582307387274 1.5302161074243013 0 0 0 0 -65.967276604045765 10.955316787138599 0 10.955316787138599 -60.010544280668 0 0 0 0 -73.940136018238263 -52.176226927049811 0 -52.176226927049811 -120.17977731049814 0 0 0 0 -94.917156998082646 0.4117460990996733 0 0.4117460990996733 -36.916474251469481 0 0 0 0 -11.031673014752158 2.5335364188960057 0 2.5335364188960057 5.0631693542431826 0 0 0 0 -68.174537729810254 -18.16523437094051 0 -18.16523437094051 -42.225368386989885 0 0 0 0 -52.127794294297928 -28.618750994159427 0 -28.618750994159427 -37.786564190836998 0 0 0 0 -69.021541644266108 -5.5944377863070258 0 -5.5944377863070258 -15.007874743923367 0 0 0 0 -67.000568834657315 -16.984922327243567 0 -16.984922327243567 -28.588858998114574 0 0 0 0 -47.977399463707116 -29.58024315916623 0 -29.58024315916623 -52.022626711511521 0 0 0 0 -26.041243694415726 5.3378013716674531 0 5.3378013716674531 -2.5879230724961322 0 0 0 0 -37.35616799723357 -13.324341912813679 0 -13.324341912813679 -40.764235274178873 0 0 0 0 -55.201912156568142 -21.687610435487386 0 -21.687610435487386 -10.241922135947107 0 0 0 0 -42.76489470253 -17.591705018641278 0 -17.591705018641278 -10.871472013951461 0 0 0 0 -43.434092725408846 -12.081417889644186 0 -12.081417889644186 4.7625366498040762 0 0 0 0 -54.308999766566558 -17.97674288325311 0 -17.97674288325311 -5.4959256244178505 0 0 0 0 -57.586769218440168 -19.823314618440463 0 -19.823314618440463 9.5155687662067976 0 0 0 0 -34.524388074903982 -16.386334196246935 0 -16.386334196246935 15.628195249806367 0 0 0 0 -47.593765230449208 -2.2536325400473629 0 -2.2536325400473629 3.5234579119887712 0 0 0 0 -26.419146127052954 18.141637578403049 0 18.141637578403049 14.64761584394796 0 0 0 0 -43.227628757194907 13.954490158492092 0 13.954490158492092 -13.398496053852796 0 0 0 0 -37.631971426511882 1.4257207233911231 0 1.4257207233911231 5.1389221741262645 0 0 0 0 2.7682213117805077 4.8604478722075157 0 4.8604478722075157 11.794595208201713 0 0 0 0 47.361032402819546 37.135367812230015 0 37.135367812230015 -13.812070433811641 0 0 0 0 -22.184048671158962 25.819359879804324 0 25.819359879804324 4.2964100020844853 0 0 0 0 -34.219707823020144 -1.6104464622801515 0 -1.6104464622801515 -13.066395097342138 0 0 0 0 -17.757400045804388 40.932422111216027 0 40.932422111216027 1.7307308642712087 0 0 0 0 -39.748958149808459 3.8493946069731919 0 3.8493946069731919 -27.107134408444608 0 0 0 0 -70.694266617851099 -14.041502297046691 0 -14.041502297046691 -41.106662642435367 0 0 0 0 -57.762016709471936 -6.0110608480401879 0 -6.0110608480401879 -19.277151881364716 0 0 0 0 -51.505186143273022 -0.17106491716276651 0 -0.17106491716276651 -54.461219313694301 0 0 0 0 -33.519863138062647 8.815638092490417 0 8.815638092490417 -38.772552541458026 0 0 0 0 -25.587558965653443 -10.087855028310372 0 -10.087855028310372 1.1346364177568375 0 0 0 0 -17.513837218122177 1.1242002146196346 0 1.1242002146196346 0.69129280473998622 0 0 0 0 -18.27723435954249 1.448117865426525 0 1.448117865426525 3.1823490602841602 0 0 0 0 -13.344212048679765 4.878756282854404 0 4.878756282854404 9.4609923810959344 0 0 0 0 -15.571386538707884 7.8511719592163303 0 7.8511719592163303 6.1786137085657344 0 0 0 0 -10.684452365196194 1.1222604325022303 0 1.1222604325022303 0.56710605405400827 0 0 0 0 -10.760097750928253 1.2236657579837811 0 1.2236657579837811 8.122763262345984 0 0 0 0 -11.520130873584549 0.059564080486803839 0 0.059564080486803839 0.073987488916918753 0 0 0 0 -7.3711638871409946 -0.53910102252929626 0 -0.53910102252929626 2.0018045445380155 0 0 0 0 0.74117395366192795 -6.3614938262784904 0 -6.3614938262784904 3.0750450956709301 0 0 0 0 -4.6351029510541935 -0.64567685428303889 0 -0.64567685428303889 2.3061993590450758 0 0 0 0 -2.4451622816268355 -1.0412921385577647 0 -1.0412921385577647 2.1919895075243403 0 0 0 0 -8.6823819630727641 -0.43545424953572365 0 -0.43545424953572365 1.0329175277413962 0 0 0 0 -2.4316043030619312 0.46222440312159563 0 0.46222440312159563 1.5300221329220964 0 0 0 0 0.67586004776967457 8.3503890345616014 0 8.3503890345616014 12.255937121936711 0 0 0 0 -0.82455684183926081 -1.1628071888850542 0 -1.1628071888850542 0.45766408038311157 0 0 0 0 -17.011203196594579 6.4244556434053095 0 6.4244556434053095 -5.9820246567758204 0 0 0 0 -20.364968026199563 11.799551962286239 0 11.799551962286239 17.935796512659294 0 0 0 0 -38.32520194144854 -13.305263314895939 0 -13.305263314895939 11.652786291908342 0 0 0 0 -20.311910524008908 9.161721900844638 0 9.161721900844638 22.818576519289763 0 0 0 0 -34.855242678531795 0.48200846370809813 0 0.48200846370809813 17.644277022190977 0 0 0 0 -2.9432137100943407 -1.3205175852384912 0 -1.3205175852384912 -0.31001006306481826 0 0 0 0 -18.772103389252152 13.865620478254812 0 13.865620478254812 18.832494270580924 0 0 0 0 -51.606983001998742 -2.0849809192715298 0 -2.0849809192715298 32.01704735370199 0 0 0 0 -38.46586119440326 -5.7630315787491924 0 -5.7630315787491924 9.8603785890304128 0 0 0 0 -43.052473919913609 -4.1265952160837358 0 -4.1265952160837358 11.77868208612216 0 0 0 0 -46.010103678145242 -14.195862465473525 0 -14.195862465473525 6.8459614141298744 0 0 0 0 -24.081249622394779 -15.899266968605033 0 -15.899266968605033 6.5872670572911023 0 0 0 0 -28.075188247676124 -31.791343428882328 0 -31.791343428882328 5.9960085790057462 0 0 0 0 -0.76468159898561794 -8.7610194581874072 0 -8.7610194581874072 1.8785724536522104 0 0 0 0 -19.162537172640441 -24.408191510945585 0 -24.408191510945585 30.726383529303803 0 0 0 0 -37.038190367697098 -9.0581911411732108 0 -9.0581911411732108 3.9860708737101049 0 0 0 0 -21.377858693673772 -2.7156507730734019 0 -2.7156507730734019 4.0591754224162511 0 0 0 0 -14.773785169963958 -5.8804500710452885 0 -5.8804500710452885 7.0429530806819542 0 0 0 0 -22.313242581978557 -0.83206590392308044 0 -0.83206590392308044 5.3058473585867887 0 0 0 0 -13.102579928857196 -1.6050777904413422 0 -1.6050777904413422 5.6456408301923329 0 0 0 0 -7.2507748799796587 -3.9574476952636672 0 -3.9574476952636672 2.9427081259555479 0 0 0 0 -17.722976690180076 -1.9985367537281036 0 -1.9985367537281036 5.4425615668319551 0 0 0 0 -6.7653968681843253 -10.766706155406951 0 -10.766706155406951 3.5270058998432319 0 0 0 0 -7.9904447000408254 -16.804827107868505 0 -16.804827107868505 -19.709225276862298 0 0 0 0 -10.326281090186967 -21.653033877683356 0 -21.653033877683356 1.4933409242692051 0 0 0 0 -12.98311179793933 -6.115691696555686 0 -6.115691696555686 3.8811843269949398 0 0 0 0 -3.4770133015618967 -4.4196120927892792 0 -4.4196120927892792 3.7506438655895611 0 0 0 0 -9.1931955253166961 -4.3708558926904288 0 -4.3708558926904288 4.2148048357124708 0 0 0 0 -3.3668103425734444 -6.9207751243043276 0 -6.9207751243043276 -9.3328616224697782 0 0 0 0 -20.166249575391703 4.4310296752062186 0 4.4310296752062186 16.709375859106217 0 0 0 0 -8.9765783698688324 -2.2797547732027326 0 -2.2797547732027326 2.6225318805784372 0 0 0 0 -10.262397234677337 -3.7023709517977181 0 -3.7023709517977181 5.227448530920725 0 0 0 0 -11.644704073197715 -1.8041338430298843 0 -1.8041338430298843 1.4808011233885479 0 0 0 0 -12.789608429680811 -0.66868788963984116 0 -0.66868788963984116 7.3303303779560096 0 0 0 0 -7.4153798196923759 -2.4521981906742951 0 -2.4521981906742951 3.0303979209787189 0 0 0 0 -17.649019805376156 -1.4923981071438348 0 -1.4923981071438348 3.0453207440346546 0 0 0 0 -14.726123606407782 -1.0018204199693628 0 -1.0018204199693628 2.8791352333983582 0 0 0 0 -4.6803997576385115 0.17117301539641971 0 0.17117301539641971 1.5394793582923558 0 0 0 0 -14.033433893302572 -0.66902123719268047 0 -0.66902123719268047 1.7562367057739117 0 0 0 0 -8.0669265406922932 4.1211377856375151 0 4.1211377856375151 5.022840530207759 0 0 0 0 -16.621134575703763 1.4227789792886085 0 1.4227789792886085 8.2854969061764621 0 0 0 0 -3.7783076069747423 0.098373279970871863 0 0.098373279970871863 0.25405146915474663 0 0 0 0 -16.27017822668131 -5.739905544578364 0 -5.739905544578364 -2.3859526001158997 0 0 0 0 -8.9391025003319555 -5.8352350657015268 0 -5.8352350657015268 -3.0418460016994118 0 0 0 0 -16.648671141498198 0.35011848284543134 0 0.35011848284543134 -2.1395910270947596 0 0 0 0 -8.2082451683800173 1.7727532049676036 0 1.7727532049676036 -1.9640735684203321 0 0 0 0 17.876035053632222 -23.53426738464151 0 -23.53426738464151 4.3991129175414727 0 0 0 0 -7.5546041987727222 -7.6704463147321249 0 -7.6704463147321249 8.0020455834188624 0 0 0 0 -6.0675514850564412 -4.8231278189396392 0 -4.8231278189396392 0.4958491346926861 0 0 0 0 -2.5562138055247488 2.6812401687181477 0 2.6812401687181477 -3.4260890544061908 0 0 0 0 -9.696409928103094 -0.082253065020807981 0 -0.082253065020807981 2.3701887173916738 0 0 0 0 -5.5391513497626477 2.5813599179158615 0 2.5813599179158615 1.7283919552788043 0 0 0 0 -5.1329447443088014 -2.2395562365246775 0 -2.2395562365246775 -0.084065058292753347 0 0 0 0 22.382244327076478 -8.7448831865834862 0 -8.7448831865834862 -7.0800116832914171 0 0 0 0 0.14805068422663226 -0.75302871253722614 0 -0.75302871253722614 -0.024500512617659204 0 0 0 0 -7.5023307049050345 -3.2381211602141988 0 -3.2381211602141988 1.816160625710836 0 0 0 0 -11.701393942377763 -1.9755383337752193 0 -1.9755383337752193 2.0368819949273416 0 0 0 0 -3.5476539433706478 -0.64102551475339453 0 -0.64102551475339453 0.59352274265695781 0 0 0 0 15.494556358535192 -26.034608279167955 0 -26.034608279167955 1.788952645712925 0 0 0 0 18.057402047634241 -66.693509945631163 0 -66.693509945631163 55.960942448035496 0 0 0 0 59.772629741913988 -53.829367651613794 0 -53.829367651613794 7.7458327847433601 0 0 0 0 49.900455676888669 -46.897867084222597 0 -46.897867084222597 0.021814016993677382 0 0 0 0 13.636228546569328 -16.187811486978532 0 -16.187811486978532 0.065145306099223824 0 0 0 0 31.014022752351593 -46.31306911654918 0 -46.31306911654918 52.278258368328622 0 0 0 0 26.254780519557244 -13.987128831605551 0 -13.987128831605551 0.033612708062941268 0 0 0 0 -11.749681520072045 -24.478591694013595 0 -24.478591694013595 36.837225446549951 0 0 0 0 -0.2194734375463554 -0.16689419081583878 0 -0.16689419081583878 -0.020623384510874865 0 0 0 0 -10.949549070661305 -44.41367180039461 0 -44.41367180039461 55.297425800692892 0 0 0 0 6.7834180267673219 -35.739963163239622 0 -35.739963163239622 38.639077408755739 0 0 0 0 2.0092054413689766 -46.275400918911544 0 -46.275400918911544 30.04294522966137 0 0 0 0 19.868026455405925 -46.794939485946188 0 -46.794939485946188 27.162215123376257 0 0 0 0 24.565601385799141 -27.859237438833674 0 -27.859237438833674 2.6927276844259609 0 0 0 0 24.44263487074204 -39.626574515473777 0 -39.626574515473777 26.803248496158005 0 0 0 0 26.369659687516105 -60.759143937026224 0 -60.759143937026224 42.380784712398736 0 0 0 0 -0.81398334659388638 -28.004679712650621 0 -28.004679712650621 25.238124942466982 0 0 0 0 9.9005431222030893 -34.785277358229621 0 -34.785277358229621 15.795327808109533 0 0 0 0 7.2865322338620899 -43.19744103456182 0 -43.19744103456182 26.221431425969882 0 0 0 0 -4.8415435704519041 -12.245943289230638 0 -12.245943289230638 7.7940767314405548 0 0 0 0 -9.6941915942288688 -32.574849282207218 0 -32.574849282207218 69.398668536892956 0 0 0 0 -9.2798444931104314 6.3621661780663032 0 6.3621661780663032 39.86033809267002 0 0 0 0 -0.38222776739750941 -0.84973971175364227 0 -0.84973971175364227 0.15992886130783246 0 0 0 0 -41.716665993226343 -82.264762278871785 0 -82.264762278871785 56.651219968507903 0 0 0 0 -179.57902899596229 0.25640077897776337 0 0.25640077897776337 132.98227082569048 0 0 0 0 -49.321546324674273 39.845984725935864 0 39.845984725935864 141.69175613675679 0 0 0 0 -0.45985901300593923 -0.16619320095519186 0 -0.16619320095519186 0.059645149399626507 0 0 0 0 -3.4375942592087085 -59.315424831668196 0 -59.315424831668196 -59.0142301995092 0 0 0 0 17.070853555007488 -8.7243450865292971 0 -8.7243450865292971 54.712676158035393 0 0 0 0 44.74696047737234 -47.825909351562082 0 -47.825909351562082 15.271277390430583 0 0 0 0 23.157917771211942 -41.568839772336112 0 -41.568839772336112 6.8576764858648263 0 0 0 0 -0.52085954072174445 -0.37346140708201858 0 -0.37346140708201858 -0.14416118540187392 0 0 0 0 -142.9830765540537 -54.745546157764011 0 -54.745546157764011 31.124987623445925 0 0 0 0 -32.789331163090537 42.506814487378151 0 42.506814487378151 -24.621408918977554 0 0 0 0 -163.12174933115955 19.146132634857821 0 19.146132634857821 20.78803700885036 0 0 0 0 0.29159703281038674 5.1740833381092273 0 5.1740833381092273 -4.6994863579390458 0 0 0 0 -47.029646039198269 -8.971046636093627 0 -8.971046636093627 -0.10540896990488242 0 0 0 0 -324.81632533586162 -63.345436232509449 0 -63.345436232509449 40.109347206358578 0 0 0 0 -162.20919927329373 66.969391286136087 0 66.969391286136087 -106.84177136247374 0 0 0 0 -379.50862430027337 40.132395018986308 0 40.132395018986308 0.10832887426264307 0 0 0 0 -285.59552126037306 -102.66297596665467 0 -102.66297596665467 -66.579682418616756 0 0 0 0 -392.88051581491891 83.528499479075023 0 83.528499479075023 10.966356347214059 0 0 0 0 -161.07291547005298 29.078691515555136 0 29.078691515555136 23.078491342019163 0 0 0 0 -154.65606422673409 1.4881249336652935 0 1.4881249336652935 10.830984935359311 0 0 0 0 -207.849581763061 -58.8840176566585 0 -58.8840176566585 18.572999523482679 0 0 0 0 -217.00093880250643 13.228164010067758 0 13.228164010067758 36.019782180102311 0 0 0 0 -143.0394245132793 0.75423137536741081 0 0.75423137536741081 4.7193800463935531 0 0 0 0 -174.82552563196077 20.639027662756121 0 20.639027662756121 16.760425108508571 0 0 0 0 -144.29113746025541 0.21431077984573221 0 0.21431077984573221 4.8941468805755903 0 0 0 0 -148.62615150917554 5.7412636848557668 0 5.7412636848557668 5.388866140375967 0 0 0 0 -126.1901575558586 16.903729082579957 0 16.903729082579957 2.3284745603341435 0 0 0 0 -108.31432765773206 -36.325287548957476 0 -36.325287548957476 -2.7041032516825538 0 0 0 0 -236.37223842254753 -61.80086972711868 0 -61.80086972711868 -0.74217601362647656 0 0 0 0 -0.91837138940979912 -0.012554292392422894 0 -0.012554292392422894 0.0052282335953915959 0 0 0 0 -94.872622863782453 -108.05345700611281 0 -108.05345700611281 -132.13045472008588 0 0 0 0 -9.0944622461975086 -22.279540230285761 0 -22.279540230285761 -46.72472448888584 0 0 0 0 -19.834446659850073 -17.759710452267655 0 -17.759710452267655 -17.204463502842486 0 0 0 0 39.879592076256813 -46.430950516997598 0 -46.430950516997598 45.063183077677195 0 0 0 0 -2.2792476689592149 -0.44699784151817923 0 -0.44699784151817923 0.28970769732415624 0 0 0 0 -27.730853006079997 -31.753872050471131 0 -31.753872050471131 -1.5847864328306969 0 0 0 0 -28.024516004079487 -30.880556548406048 0 -30.880556548406048 -2.0023124184126573 0 0 0 0 -20.656857134890743 -32.505321153136492 0 -32.505321153136492 -4.0422280353534461 0 0 0 0 -120.14218237733439 -40.703157474305783 0 -40.703157474305783 11.764809266527664 0 0 0 0 -50.715364369680174 -61.292541421717715 0 -61.292541421717715 -38.96388753849115 0 0 0 0 -66.846466466280617 -36.365272407820214 0 -36.365272407820214 12.090561370490832 0 0 0 0 -70.38720693277719 -40.831587243681724 0 -40.831587243681724 26.497760448568442 0 0 0 0 -30.492116223722405 -40.828645856649814 0 -40.828645856649814 10.834131701191154 0 0 0 0 -38.394475458830129 -38.8318539296273 0 -38.8318539296273 17.962879299155475 0 0 0 0 -43.739610820892267 -53.45156899439462 0 -53.45156899439462 -10.77084867525582 0 0 0 0 -50.60377243180119 -31.004171032318141 0 -31.004171032318141 30.641379544481879 0 0 0 0 -98.704515870806063 -38.852499362401886 0 -38.852499362401886 54.006474937426397 0 0 0 0 -36.759824325781665 3.564122572066367 0 3.564122572066367 54.688467025661566 0 0 0 0 85.657752746687038 -98.532892033942062 0 -98.532892033942062 46.010967138305183 0 0 0 0 -114.31835750600294 27.258696651857235 0 27.258696651857235 213.26025212508989 0 0 0 0 -158.11879803259217 48.420938535171217 0 48.420938535171217 46.873668344924681 0 0 0 0 -125.35384682274889 -7.5964877927309544 0 -7.5964877927309544 12.132638939784556 0 0 0 0 -64.038147537048644 -12.712645040614802 0 -12.712645040614802 4.0676391026036072 0 0 0 0 -160.19939250664902 -4.531756656375137 0 -4.531756656375137 20.623105900938754 0 0 0 0 -102.60504911259341 40.294617327318065 0 40.294617327318065 23.354219472716068 0 0 0 0 -140.62272359117196 11.58615372481961 0 11.58615372481961 15.909492547519221 0 0 0 0 67.438966122164857 63.99038928144563 0 63.99038928144563 -52.263865775696772 0 0 0 0 6.9357173393218545 43.461318991091957 0 43.461318991091957 188.72105165117227 0 0 0 0 -72.560691893770127 179.30656350694426 0 179.30656350694426 2.4372944371303902 0 0 0 0 -212.75053968501379 -8.5281724719552585 0 -8.5281724719552585 42.854625518968987 0 0 0 0 -0.09040460518318838 -0.025802877432781202 0 -0.025802877432781202 -1.2783935753989502 0 0 0 0 -107.24005302417936 114.15770595053476 0 114.15770595053476 223.33227261878392 0 0 0 0 -200.72478362457332 27.898187823044736 0 27.898187823044736 57.545246998656694 0 0 0 0 53.307665453845402 3.6120511467489678 0 3.6120511467489678 -318.2859537823233 0 0 0 0 -163.79825378429814 -19.883721869998226 0 -19.883721869998226 -12.742588994882681 0 0 0 0 -49.13574252929115 14.909882503253272 0 14.909882503253272 -3.6755651666996334 0 0 0 0 -118.59685781881126 182.58961483892722 0 182.58961483892722 291.86954142302284 0 0 0 0 -28.271101741614984 232.69020692655113 0 232.69020692655113 45.637771946443991 0 0 0 0 -77.99768481177307 160.00519622217706 0 160.00519622217706 109.45864992910458 0 0 0 0 -62.997554653113184 -42.586262463853814 0 -42.586262463853814 85.361151150485966 0 0 0 0 -38.909616723387444 134.30288170815049 0 134.30288170815049 223.19773047226562 0 0 0 0 29.658709134433593 86.097451345281058 0 86.097451345281058 -48.681780392482807 0 0 0 0 32.387092496824152 135.01324218817791 0 135.01324218817791 107.24104097213876 0 0 0 0 -45.414398138064342 13.828039532809161 0 13.828039532809161 -3.4115258061660088 0 0 0 0 5.5218389853835106 57.875152235324322 0 57.875152235324322 76.188723152816152 0 0 0 0 -7.9103645715606206 3.5439032060926223 0 3.5439032060926223 -1.4402534900732018 0 0 0 0 -4.6418935245237662 72.797389591920933 0 72.797389591920933 113.06380930708048 0 0 0 0 6.3275851696052996 39.669369878462561 0 39.669369878462561 119.81673680139264 0 0 0 0 3.0887926006398629 15.959437084738681 0 15.959437084738681 -24.267437814400921 0 0 0 0 -35.722316566752852 25.520076949286135 0 25.520076949286135 27.774326801863168 0 0 0 0 -92.263656008195539 27.947481739971721 0 27.947481739971721 -8.8951446057436669 0 0 0 0 -26.758063663088251 -19.615356430836897 0 -19.615356430836897 10.00229733705666 0 0 0 0 -141.98489261278883 -79.929285798886667 0 -79.929285798886667 -21.343281642226032 0 0 0 0 -2.4908985326603101 1.4991360634317985 0 1.4991360634317985 -0.80666628061796808 0 0 0 0 -79.559849941993889 25.161540882812972 0 25.161540882812972 -7.1925437995491848 0 0 0 0 -124.44978209295368 14.817400599633572 0 14.817400599633572 52.110005905984053 0 0 0 0 -0.34489155392518001 0.60500410776134572 0 0.60500410776134572 -1.8048833949435452 0 0 0 0 -251.79177579045063 -71.072274109594105 0 -71.072274109594105 294.541800620711 0 0 0 0 -115.00846485680086 -2.3637106109312072 0 -2.3637106109312072 -11.873218226032918 0 0 0 0 -122.57086781452745 31.346348191756931 0 31.346348191756931 26.994624794882156 0 0 0 0 6.7035963846865343 50.132300668456651 0 50.132300668456651 -28.783560700113412 0 0 0 0 -0.13383363437844764 0.058991366221746944 0 0.058991366221746944 -0.72161956763704449 0 0 0 0 -142.84593154118193 -1.7128452197536461 0 -1.7128452197536461 32.0901795836362 0 0 0 0 -192.66599441353355 5.9423350242502195 0 5.9423350242502195 3.2698599015350283 0 0 0 0 -29.545898304604634 58.16119553556689 0 58.16119553556689 -67.180830283254366 0 0 0 0 -17.62717393109051 -22.702657622626361 0 -22.702657622626361 -69.325562121441124 0 0 0 0 -172.84353221918536 97.844593495574955 0 97.844593495574955 -34.604377744658905 0 0 0 0 -20.184282921865815 84.695345837048819 0 84.695345837048819 -80.403752643716743 0 0 0 0 -183.00970453677292 167.39548559922829 0 167.39548559922829 -110.2652137409804 0 0 0 0 -134.94696052685322 -71.733890314691394 0 -71.733890314691394 -5.2653508066224672 0 0 0 0 -3.0277756026550833 0.19602010708665496 0 0.19602010708665496 -0.03141655600643703 0 0 0 0 -62.784791739519278 -14.830888178632039 0 -14.830888178632039 58.078917344923148 0 0 0 0 -8.3328452869609464 8.3839048374789442 0 8.3839048374789442 20.143873080176256 0 0 0 0 -65.097157001051528 -41.796938044508785 0 -41.796938044508785 14.066940867597694 0 0 0 0 -7.1974257272909483 -0.45301693042805979 0 -0.45301693042805979 0.23704527612478804 0 0 0 0 33.798605396223138 19.744559845940934 0 19.744559845940934 -6.4793057802183736 0 0 0 0 0.17548270468608962 0.13262918892749553 0 0.13262918892749553 -0.049031702987143364 0 0 0 0 -113.89785852796922 12.408769892177565 0 12.408769892177565 -0.045584270608572043 0 0 0 0 44.915085807890136 7.6436904587944703 0 7.6436904587944703 -52.101436225889174 0 0 0 0 25.991420548169117 -19.93387279748876 0 -19.93387279748876 -3.6814259279741801 0 0 0 0 -38.604772003323887 -6.7242164468884456 0 -6.7242164468884456 0.89047037471806412 0 0 0 0 6.914485143191996 -10.085727777121907 0 -10.085727777121907 -0.039555369974091967 0 0 0 0 -1.5445985059054408 0.73858267228152386 0 0.73858267228152386 0.55312238200615171 0 0 0 0 7.2587407967657782 5.5031748266157194 0 5.5031748266157194 3.6186682593731589 0 0 0 0 -4.0125699491036642 -0.37302960414647757 0 -0.37302960414647757 0.068191472392099439 0 0 0 0 44.49470418925921 -82.723463426874218 0 -82.723463426874218 27.443197191837491 0 0 0 0 -16.995533589724801 6.4311718713519213 0 6.4311718713519213 60.236380118453837 0 0 0 0 -64.555839201188064 27.974369406827748 0 27.974369406827748 55.848113875654036 0 0 0 0 -4.4912295002286555 16.621125406890542 0 16.621125406890542 1.0326190506377202 0 0 0 0 -4.5510824354190618 -1.5317723621661514 0 -1.5317723621661514 0.2559872606199422 0 0 0 0 24.017314515949693 -34.710473288102548 0 -34.710473288102548 1.0753105285452875 0 0 0 0 -37.09624071145663 19.088189642570683 0 19.088189642570683 -6.4954332791342395 0 0 0 0 -2.9474729997659779 -2.0017883812990505 0 -2.0017883812990505 0.31306584617871458 0 0 0 0 6.0703694675103179 -7.2670877495881427 0 -7.2670877495881427 -14.961360008064219 0 0 0 0 56.246243946690811 -186.12030407108159 0 -186.12030407108159 -405.67081254704681 0 0 0 0 -28.626031426872942 53.447055576823914 0 53.447055576823914 -12.531255221114122 0 0 0 0 -113.04971092486994 515.67215742977623 0 515.67215742977623 -30.598633382496359 0 0 0 0 -2.5999356194224674 163.49986979944791 0 163.49986979944791 -219.62851968813561 0 0 0 0 -4.4547069677753086 2.0501701117951558 0 2.0501701117951558 -0.084721114930708386 0 0 0 0 -145.85064590238471 -113.04889689671728 0 -113.04889689671728 355.0790310541023 0 0 0 0 75.676066156345769 115.63903163414301 0 115.63903163414301 -196.44676725858548 0 0 0 0 82.038485716795549 -76.487474082585294 0 -76.487474082585294 -309.86633058617895 0 0 0 0 -25.462399355732487 -265.90355278732284 0 -265.90355278732284 118.92907041837861 0 0 0 0 -57.026955648500007 -12.140045207599329 0 -12.140045207599329 -32.41248075606061 0 0 0 0 -64.211729701448348 19.192553716654004 0 19.192553716654004 137.87697318852412 0 0 0 0 -38.626211522365338 -86.181312139223962 0 -86.181312139223962 78.241569179343543 0 0 0 0 -4.6256186920995503 0.44465649518864225 0 0.44465649518864225 0.085325688015732981 0 0 0 0 -18.524864222577889 -19.74219864232343 0 -19.74219864232343 -17.307672210011305 0 0 0 0 -185.54922007239657 76.319902582820248 0 76.319902582820248 107.76310915600247 0 0 0 0 -2.3845993206935248 0.97424223448614988 0 0.97424223448614988 -0.2553864265218056 0 0 0 0 4.8618830878403969 2.9074716140167709 0 2.9074716140167709 -110.643655182255 0 0 0 0 -779.91011699401861 628.3359417245731 0 628.3359417245731 -410.37202700707724 0 0 0 0 -486.59967692953069 333.00335242943407 0 333.00335242943407 -156.62437984315719 0 0 0 0 -1624.7829796102524 180.3144266498864 0 180.3144266498864 85.481748921508057 0 0 0 0 -2493.9038924865708 794.09933915503188 0 794.09933915503188 160.82815138427614 0 0 0 0 -958.6716339459781 118.26983366293935 0 118.26983366293935 -0.74724432052868384 0 0 0 0 30.740902045828989 -215.73183825700028 0 -215.73183825700028 -138.68840815308386 0 0 0 0 -974.94498151845255 1019.6901716470707 0 1019.6901716470707 -599.54380836317614 0 0 0 0 -193.69477312363961 -89.206656959168598 0 -89.206656959168598 25.733996445115451 0 0 0 0 -4.4246696905360068 3.0924828274755654 0 3.0924828274755654 -0.6640746965248846 0 0 0 0 -6.20903228313054 2.6940697443187318 0 2.6940697443187318 -1.4996572014090024 0 0 0 0 -2400.1441397838353 1277.3277057667551 0 1277.3277057667551 -813.29866572373317 0 0 0 0 -2484.5672642530408 -128.60809773340094 0 -128.60809773340094 363.37308550871427 0 0 0 0 -12.596599880683954 0.84082523748870841 0 0.84082523748870841 -0.74592040978885732 0 0 0 0 -2495.1544390663839 -1472.3239966705964 0 -1472.3239966705964 -555.58449764023123 0 0 0 0 -87.639034332052688 45.785853549418675 0 45.785853549418675 160.63905194373876 0 0 0 0 -36.742841171202599 76.888745567688503 0 76.888745567688503 -118.97720014636937 0 0 0 0 -141.33618931515957 252.10669750329865 0 252.10669750329865 -82.097407261182553 0 0 0 0 106.18322083845851 93.544113277613491 0 93.544113277613491 79.748749465304783 0 0 0 0 -23.908250383334234 54.833372866038417 0 54.833372866038417 -226.6401589646249 0 0 0 0 -33.771918320300756 90.906147406031536 0 90.906147406031536 82.452704632026695 0 0 0 0 -13.738731622570469 7.3801036609963901 0 7.3801036609963901 -2.7615714045532567 0 0 0 0 -5.5715276805838698 2.4436614355052768 0 2.4436614355052768 0.81506439437652323 0 0 0 0 -12.924092042812646 5.1539793410848134 0 5.1539793410848134 -1.2480447439831701 0 0 0 0 -1.8343334243072604 17.011085258907627 0 17.011085258907627 4.0383760738977799 0 0 0 0 -43.340693570266012 48.515240485056495 0 48.515240485056495 126.42830753533332 0 0 0 0 -6.0041327354414307 1.8150333636786513 0 1.8150333636786513 2.0499970858282834 0 0 0 0 -3.5822205669173854 -10.164889582643298 0 -10.164889582643298 212.76284100274694 0 0 0 0 -50.479808659598348 63.606504642425307 0 63.606504642425307 181.34835988320856 0 0 0 0 70.465576722650439 -19.81820159008987 0 -19.81820159008987 71.548714812692879 0 0 0 0 -29.655699148077929 6.306326025216741 0 6.306326025216741 -0.76194582903695529 0 0 0 0 -167.74022286596301 100.0232888187154 0 100.0232888187154 -105.21319528447748 0 0 0 0 -924.83340622264222 -248.38482103849861 0 -248.38482103849861 160.4483043513973 0 0 0 0 -174.50140527875192 158.98296943901596 0 158.98296943901596 208.73209479415863 0 0 0 0 -39.215275798015853 10.71652187002725 0 10.71652187002725 -2.0835218339393733 0 0 0 0 -12.050080250766769 73.888522040788075 0 73.888522040788075 63.771248775781032 0 0 0 0 -177.1067766993001 -49.234558736657107 0 -49.234558736657107 58.856874305728184 0 0 0 0 -109.44792958076505 -34.926813362352789 0 -34.926813362352789 -188.65666820833673 0 0 0 0 -852.67373796929496 -483.32551850063714 0 -483.32551850063714 1.6769819717905443 0 0 0 0 -2500.2189803457077 -445.2103131901236 0 -445.2103131901236 371.6257498137673 0 0 0 0 -141.40236285033461 215.29203447864521 0 215.29203447864521 -192.0837276569917 0 0 0 0 -119.49667347707873 -323.52399662775491 0 -323.52399662775491 -222.39653343937755 0 0 0 0 -102.3901415679793 224.33812042470493 0 224.33812042470493 -59.511946188666741 0 0 0 0 -6.2272210053814661 0.20060092512141736 0 0.20060092512141736 0.27268749340767728 0 0 0 0 -999.46821170479234 -424.37393629382598 0 -424.37393629382598 192.7077570546644 0 0 0 0 -11.514471778327191 1.9801392264112607 0 1.9801392264112607 0.099315043994573027 0 0 0 0 -25.330732897957205 54.129064368996069 0 54.129064368996069 150.74512579424265 0 0 0 0 16.663848172567668 1.2831935518009914 0 1.2831935518009914 8.046179823415514 0 0 0 0 -65.491047698160401 36.325637349068757 0 36.325637349068757 148.03227373854668 0 0 0 0 -9.2975045360354329 1.8181983713573295 0 1.8181983713573295 -0.019214740658664242 0 0 0 0 -26.953256765404149 205.1967574110821 0 205.1967574110821 112.65627525005738 0 0 0 0 -124.20443947512103 3.959192777167388 0 3.959192777167388 299.77651899947722 0 0 0 0 -39.997753795556491 -31.724228462830162 0 -31.724228462830162 -97.997545702158988 0 0 0 0 -50.387411234776664 -24.406661901225789 0 -24.406661901225789 -103.13756986527196 0 0 0 0 -107.79920397366368 -57.314233318000305 0 -57.314233318000305 -82.712631659528995 0 0 0 0 -187.34704207009054 36.069789329142679 0 36.069789329142679 -63.675705947844278 0 0 0 0 -120.52189883776009 -83.098621317583294 0 -83.098621317583294 -127.3606605807158 0 0 0 0 -0.82657991648113693 0.36524739448989862 0 0.36524739448989862 -0.96890923091341408 0 0 0 0 -356.12274909980624 -22.149258421954642 0 -22.149258421954642 -134.42177925344151 0 0 0 0 -169.54911637717305 -261.94868809765245 0 -261.94868809765245 -269.33825139904485 0 0 0 0 -387.46625211080573 -128.97778979905911 0 -128.97778979905911 -494.72210799762524 0 0 0 0 -1056.508190158791 59.51528747290098 0 59.51528747290098 -272.33271349166102 0 0 0 0 -717.10372438273771 -277.21217495549018 0 -277.21217495549018 -137.23801180568375 0 0 0 0 -842.44691022706684 181.46133589455923 0 181.46133589455923 -25.709078145144417 0 0 0 0 -27.374095627434144 -76.882817386298683 0 -76.882817386298683 -123.39878848104263 0 0 0 0 272.27466140681645 205.96144243882452 0 205.96144243882452 -163.00820779758783 0 0 0 0 -216.4090288641637 252.52659613822783 0 252.52659613822783 -156.667837025013 0 0 0 0 -5.8582567982495561 4.0994258127446699 0 4.0994258127446699 -2.4380845359563335 0 0 0 0 -294.75910255221334 -53.335896748591061 0 -53.335896748591061 46.107270331994187 0 0 0 0 -287.26098048299173 -97.153111839696123 0 -97.153111839696123 -61.226716300175667 0 0 0 0 -225.18107682999107 30.950814221001451 0 30.950814221001451 -173.7277955834131 0 0 0 0 -199.20992049592314 -56.108183383472806 0 -56.108183383472806 -55.144509597148158 0 0 0 0 -161.55575265874359 -71.538755525500846 0 -71.538755525500846 -61.552957489500841 0 0 0 0 -142.94599748720793 -132.18707195993625 0 -132.18707195993625 -53.250975059551422 0 0 0 0 -301.09165910003503 -215.7468866850449 0 -215.7468866850449 7.4391003036685106 0 0 0 0 -711.49083599803271 -154.55239807651731 0 -154.55239807651731 31.517604770564503 0 0 0 0 295.67734112235485 228.58543996264692 0 228.58543996264692 48.709094535384793 0 0 0 0 24.077340821701 -292.98633267933548 0 -292.98633267933548 -300.84056842044276 0 0 0 0 -564.96817057959561 327.4521466847886 0 327.4521466847886 79.335663862804722 0 0 0 0 -1348.0123950766756 -523.39236482623187 0 -523.39236482623187 21.760898511383743 0 0 0 0 -1066.0087585700167 -303.15790192899033 0 -303.15790192899033 -2.4653588263317943 0 0 0 0 15.837545507754839 -149.03789509425314 0 -149.03789509425314 -45.798808194283424 0 0 0 0 -525.94027049182478 -0.2506254054608803 0 -0.2506254054608803 -153.20671894790053 0 0 0 0 -13.068071856044185 10.962768707421702 0 10.962768707421702 -6.1683495665154915 0 0 0 0 -441.22283315646928 -171.99166716322884 0 -171.99166716322884 50.532842589420397 0 0 0 0 -782.37105822808371 -358.06060563865003 0 -358.06060563865003 -50.544869779079761 0 0 0 0 -1108.6615997649424 -206.77854838097437 0 -206.77854838097437 141.0675251355641 0 0 0 0 -816.40791629644082 -615.83884692557103 0 -615.83884692557103 -321.85826551099217 0 0 0 0 380.30122493238014 268.817005850214 0 268.817005850214 7.9396406254142704 0 0 0 0 -248.04365120403781 33.419027154740121 0 33.419027154740121 19.455397703656217 0 0 0 0 -15.209091211413067 13.027637111745335 0 13.027637111745335 -5.2605248704862229 0 0 0 0 -245.44298141185573 27.443701254003031 0 27.443701254003031 -73.155081887149663 0 0 0 0 -442.52868876460707 -76.17885935816139 0 -76.17885935816139 26.991903225647093 0 0 0 0 -9.1668657701666234 -67.050037926444929 0 -67.050037926444929 -62.2233739527735 0 0 0 0 -17.557992023025193 8.2435798874754056 0 8.2435798874754056 0.47024014257656699 0 0 0 0 -3.3365750642635135 0.22061353196029554 0 0.22061353196029554 0.1647667775825028 0 0 0 0 35.792086941964953 40.104028811503667 0 40.104028811503667 -38.690227334683186 0 0 0 0 -44.059695339594327 17.058917556962797 0 17.058917556962797 13.642997531899709 0 0 0 0 19.87196704755479 -19.155994285033103 0 -19.155994285033103 -116.66689447400768 0 0 0 0 -205.64807406067848 -51.125773198872821 0 -51.125773198872821 3.980912462854576 0 0 0 0 -214.35692110352647 52.273002019782638 0 52.273002019782638 -126.57798487796663 0 0 0 0 -38.879547679258394 260.91820144272424 0 260.91820144272424 -473.05674947538319 0 0 0 0 -75.032609841182193 -264.05348496407919 0 -264.05348496407919 297.33261830865467 0 0 0 0 94.178572136501316 -183.10983676296632 0 -183.10983676296632 -159.75253105370575 0 0 0 0 -2023.2825898942829 -761.82160672366444 0 -761.82160672366444 -74.325672404364013 0 0 0 0 -32.200756032120694 4.6475172064101962 0 4.6475172064101962 0.75937286727923592 0 0 0 0 -923.67723129469232 251.8981198891388 0 251.8981198891388 502.78486753682773 0 0 0 0 -677.94556773623481 30.562712821832974 0 30.562712821832974 349.01516729367449 0 0 0 0 156.72935715692438 528.95857106352832 0 528.95857106352832 -252.56199226637727 0 0 0 0 111.75448714919185 -115.99009983603764 0 -115.99009983603764 -600.67081552065679 0 0 0 0 -683.54697796445544 238.61212294010988 0 238.61212294010988 30.446947591509797 0 0 0 0 -316.5728991225842 391.02459537749564 0 391.02459537749564 93.66760334157334 0 0 0 0 -14.517523768879812 0.21852363693088606 0 0.21852363693088606 0.78416843858267526 0 0 0 0 -364.08020243579085 -998.99778586040475 0 -998.99778586040475 -672.50820114055227 0 0 0 0 -399.17344566339307 -932.21246447860608 0 -932.21246447860608 -769.41576564476509 0 0 0 0 -73.550349602742685 17.373943128026156 0 17.373943128026156 -0.71492894993939338 0 0 0 0 -1278.15431439044 260.18713960221442 0 260.18713960221442 667.1274079202276 0 0 0 0 -90.775181640161534 23.134076896123858 0 23.134076896123858 -2.8603678134290051 0 0 0 0 -187.94734665183569 150.4393416405951 0 150.4393416405951 874.23200233857369 0 0 0 0 5.9194487170898356 102.80612223658363 0 102.80612223658363 394.16969677951602 0 0 0 0 163.5812852362651 484.84581518314258 0 484.84581518314258 185.67593350438688 0 0 0 0 -112.9851091120363 -66.806249491053222 0 -66.806249491053222 -111.09946649534129 0 0 0 0 -324.09199244025513 17.27303511517448 0 17.27303511517448 -5.8977677786269851 0 0 0 0 -164.42360347921749 15.880048924339064 0 15.880048924339064 -93.245967513933465 0 0 0 0 69.452743634363287 59.200210147480334 0 59.200210147480334 -100.19555444690195 0 0 0 0 -12.194335944883278 -70.089575069934426 0 -70.089575069934426 -48.431882572172071 0 0 0 0 21.637577283501741 79.574954152123382 0 79.574954152123382 -105.94460750240887 0 0 0 0 -889.7721676238034 60.716644531215451 0 60.716644531215451 29.403333121135347 0 0 0 0 -175.56301996031834 39.30209097891975 0 39.30209097891975 -15.396702571750097 0 0 0 0 -45.906975256089936 38.886331060482462 0 38.886331060482462 -41.963236761056123 0 0 0 0 -55.429895548455534 34.093941168954188 0 34.093941168954188 1.2207174056976555 0 0 0 0 28.849449192526663 50.476941677207293 0 50.476941677207293 -59.778010680983243 0 0 0 0 -74.612482126496616 72.62458548428458 0 72.62458548428458 -64.212550186770727 0 0 0 0 -109.231693208254 7.9626083330824144 0 7.9626083330824144 -42.951855160791638 0 0 0 0 52.03947002548739 -2.9544466598679264 0 -2.9544466598679264 -1.3454453227632257 0 0 0 0 -304.85405788559001 159.28701794879453 0 159.28701794879453 482.40302022777905 0 0 0 0 -96.329211997744864 23.141752498235004 0 23.141752498235004 -3.5381935437722785 0 0 0 0 19.359790533628257 144.97807922300325 0 144.97807922300325 -10.410439793630303 0 0 0 0 -133.79144654282209 -139.05351583434049 0 -139.05351583434049 270.04525159317382 0 0 0 0 -95.783210556095582 -67.064562639667201 0 -67.064562639667201 -75.560538232379713 0 0 0 0 -553.19997792662252 -175.3115011360735 0 -175.3115011360735 135.65875457402944 0 0 0 0 67.682793466796284 141.82471993802028 0 141.82471993802028 110.74658257106194 0 0 0 0 0.32821960191323285 -1.5780189348702294 0 -1.5780189348702294 7.9556076478476747 0 0 0 0 -361.86931360289236 30.152663738112096 0 30.152663738112096 186.19870822502344 0 0 0 0 -21.174746775511025 -5.4751241979337451 0 -5.4751241979337451 12.917130576652609 0 0 0 0 -48.413123686441395 49.366915626274022 0 49.366915626274022 73.566429046509597 0 0 0 0 -74.554578782273893 6.7970069233734876 0 6.7970069233734876 23.745663210034763 0 0 0 0 5.8652596443862421 30.25515542849655 0 30.25515542849655 52.20504042824814 0 0 0 0 -110.4208605228705 -0.24425746005658766 0 -0.24425746005658766 103.43994846145324 0 0 0 0 -132.69825306645544 -56.888531006862081 0 -56.888531006862081 -11.202924464353146 0 0 0 0 -113.02200430056837 17.029610484811656 0 17.029610484811656 43.883725621661824 0 0 0 0 -4.8463693199526006 7.1782395035266902 0 7.1782395035266902 10.150389618240158 0 0 0 0 -154.75773469980049 -50.843742946583916 0 -50.843742946583916 8.8412883967089329 0 0 0 0 -57.820932458632001 13.746363419158104 0 13.746363419158104 1.2212541782577651 0 0 0 0 -65.352436465878327 46.140378683958865 0 46.140378683958865 50.037165887462606 0 0 0 0 -104.80790955281554 11.885090041593912 0 11.885090041593912 12.66989794430765 0 0 0 0 -68.851589529884222 -15.018391456787867 0 -15.018391456787867 30.481697835416298 0 0 0 0 -57.090158307589519 6.5584621167250354 0 6.5584621167250354 2.4066124328210972 0 0 0 0 -104.11391373602964 6.1997386278389968 0 6.1997386278389968 41.748324743972347 0 0 0 0 -82.674373779700545 98.494347184117032 0 98.494347184117032 28.729821852780333 0 0 0 0 -71.45061637807521 -63.897619839258709 0 -63.897619839258709 -14.409846192188752 0 0 0 0 -145.40204678458394 -15.801360416419357 0 -15.801360416419357 11.858623653295467 0 0 0 0 -39.682344286604291 12.69414669915885 0 12.69414669915885 4.7423016053286622 0 0 0 0 -92.38896808741265 -2.1038681156638859 0 -2.1038681156638859 67.145819532693054 0 0 0 0 -208.16582588518213 -28.350086905541275 0 -28.350086905541275 17.437463486373758 0 0 0 0 -76.268655322739505 -27.60333247106314 0 -27.60333247106314 0.52765528190434452 0 0 0 0 -166.23182805017132 35.166782150818563 0 35.166782150818563 -41.10135073510628 0 0 0 0 -90.591796048804099 2.1379656613233919 0 2.1379656613233919 -81.150259422076488 0 0 0 0 -95.392569612085808 24.852939549630619 0 24.852939549630619 -1.0231003115493547 0 0 0 0 -24.152426490276412 12.962800455434888 0 12.962800455434888 2.0262062584523051 0 0 0 0 -44.552158956103085 -0.39890812104522411 0 -0.39890812104522411 7.9778642248452343 0 0 0 0 -23.959619593093521 14.003036018479008 0 14.003036018479008 1.7114478600586054 0 0 0 0 -34.068925847735954 15.992309786961357 0 15.992309786961357 33.212732745952849 0 0 0 0 -46.655207345049348 -4.5296413417868848 0 -4.5296413417868848 25.969535960510484 0 0 0 0 -23.268592395213091 22.976705685017791 0 22.976705685017791 45.705116320277511 0 0 0 0 -35.935352104404956 29.315056006937866 0 29.315056006937866 27.849211040407226 0 0 0 0 -25.497283742610307 15.496456372582202 0 15.496456372582202 24.919883926997159 0 0 0 0 -19.552288077320554 2.7632349793560138 0 2.7632349793560138 46.375571320334416 0 0 0 0 -6.2193735753613595 -1.2309967801150847 0 -1.2309967801150847 2.6645246792436823 0 0 0 0 -16.08688517066912 25.360873685851985 0 25.360873685851985 2.5334389902985492 0 0 0 0 -5.070027678201555 2.62234186815936 0 2.62234186815936 -0.48060026795982225 0 0 0 0 -22.322991080587599 13.613470439269477 0 13.613470439269477 -5.4492575959860918 0 0 0 0 -46.280445511147263 -9.5034324073883454 0 -9.5034324073883454 7.2825152962602715 0 0 0 0 -32.499610818769725 -10.691234204543434 0 -10.691234204543434 1.4422492814890404 0 0 0 0 -38.841681597703428 -20.837291051115528 0 -20.837291051115528 3.082216003418111 0 0 0 0 -41.053756128269015 -24.371623964903961 0 -24.371623964903961 -12.957737008611957 0 0 0 0 34.594541642385593 11.80267534042946 0 11.80267534042946 29.932438466111762 0 0 0 0 -0.82890350035195581 0.17351927946378254 0 0.17351927946378254 0.54326959759321403 0 0 0 0 1.2243564798991429 74.395868667853847 0 74.395868667853847 47.336254607359479 0 0 0 0 -94.165662598206836 -47.201047527692026 0 -47.201047527692026 -15.971368978469172 0 0 0 0 -92.709716485915123 1.1384504962851452 0 1.1384504962851452 8.0284347639473594 0 0 0 0 -58.035452447784337 -1.5903551103640439 0 -1.5903551103640439 -3.2210851370461597 0 0 0 0 -76.747773190367298 -13.722282081728533 0 -13.722282081728533 6.9194522672001852 0 0 0 0 -118.4613990215712 -19.039891779585972 0 -19.039891779585972 36.90912856121713 0 0 0 0 -73.441386538359438 -7.3186182570564142 0 -7.3186182570564142 12.357869382041144 0 0 0 0 -16.038918669827353 5.8066817775999979 0 5.8066817775999979 10.721137991912697 0 0 0 0 -47.684591275494313 -10.449201533535643 0 -10.449201533535643 -16.320624417133786 0 0 0 0 -58.530934378196122 10.3791587867102 0 10.3791587867102 13.532760258235909 0 0 0 0 -57.551154894238252 4.0553368691790439 0 4.0553368691790439 7.2441714719925105 0 0 0 0 -58.870975854846677 -0.68926217313438087 0 -0.68926217313438087 8.8172273707885811 0 0 0 0 -47.085599425772671 1.1286017614402226 0 1.1286017614402226 22.071632714488572 0 0 0 0 -49.412704597132688 16.326607403985804 0 16.326607403985804 -3.3716563750953696 0 0 0 0 -53.204116560526018 16.142292730246481 0 16.142292730246481 -4.0552798829800736 0 0 0 0 -54.447536270894489 14.088733711440341 0 14.088733711440341 -4.2687421408550108 0 0 0 0 -53.121969393565394 9.4522529871809979 0 9.4522529871809979 -6.6549120318650239 0 0 0 0 -30.866025194518784 -12.409831268253264 0 -12.409831268253264 4.9185267406828377 0 0 0 0 -40.555578727349257 12.08156071579468 0 12.08156071579468 -1.5176124951021848 0 0 0 0 -40.844791985524353 16.2365006062156 0 16.2365006062156 -15.44262813253772 0 0 0 0 -23.522191733861561 -6.5309549005204417 0 -6.5309549005204417 6.1914832174359109 0 0 0 0 -39.622442445986962 20.199496562903903 0 20.199496562903903 -15.935826061622151 0 0 0 0 -42.120730999849911 12.458282929908364 0 12.458282929908364 -6.7185739883721567 0 0 0 0 -19.54904362232628 -4.6225824498032466 0 -4.6225824498032466 -14.977368032679465 0 0 0 0 -17.516323312534951 9.4197311529974286 0 9.4197311529974286 -15.386026027202661 0 0 0 0 -17.517294936951657 7.7060937894357266 0 7.7060937894357266 -1.1851765406183858 0 0 0 0 -16.162221163781368 8.242764735960229 0 8.242764735960229 -4.0477119161847046 0 0 0 0 -48.64441268191149 25.373186533415719 0 25.373186533415719 -35.902543716737455 0 0 0 0 -58.223330428023473 19.256566244401142 0 19.256566244401142 -36.262605574137069 0 0 0 0 -55.118099334185274 17.73878265642454 0 17.73878265642454 -5.4637383808542328 0 0 0 0 52.364506840633112 9.9800644034183961 0 9.9800644034183961 -158.83704444622242 0 0 0 0 8.9077800161376217 56.89494535415281 0 56.89494535415281 11.160529030394287 0 0 0 0 -46.56604533623613 18.622101554281016 0 18.622101554281016 -39.19102974807447 0 0 0 0 -44.817837763530406 13.476766236494768 0 13.476766236494768 -25.699592210496121 0 0 0 0 -68.177635559026385 26.994951345237723 0 26.994951345237723 -20.681739123465491 0 0 0 0 -53.224529180224636 26.438839475401096 0 26.438839475401096 -21.322320814776504 0 0 0 0 -93.021200673189014 28.94321166558052 0 28.94321166558052 -7.8032255663520118 0 0 0 0 -70.012617380605661 17.697986394949112 0 17.697986394949112 -25.77378900208987 0 0 0 0 -71.257911326159956 16.476428452423534 0 16.476428452423534 -12.698238433210463 0 0 0 0 -75.499369317229139 4.2906188827278129 0 4.2906188827278129 -15.809223728459983 0 0 0 0 -90.619939533818979 33.194491268583988 0 33.194491268583988 -14.21847927489398 0 0 0 0 -56.171925462745179 17.081797219227482 0 17.081797219227482 -5.1227393385702147 0 0 0 0 -21.321030032303725 1.6777974300879066 0 1.6777974300879066 4.1888935205488949 0 0 0 0 -106.0569777788769 15.482933761927598 0 15.482933761927598 -12.230746599432905 0 0 0 0 -105.62160045470819 40.715698239384544 0 40.715698239384544 -18.650952653646527 0 0 0 0 -91.71857518357865 16.396715931162362 0 16.396715931162362 -9.9979180938544232 0 0 0 0 -79.494757848216977 23.34676822298843 0 23.34676822298843 -41.272609796742472 0 0 0 0 -36.471464493037814 0.90300354560406504 0 0.90300354560406504 15.37922078988513 0 0 0 0 -91.198497383438962 29.760950422981082 0 29.760950422981082 -16.505071054744803 0 0 0 0 -78.468694386829156 36.429420201512585 0 36.429420201512585 -16.07574583944529 0 0 0 0 -88.035797214248305 34.709656604081431 0 34.709656604081431 -5.8922322875314421 0 0 0 0 -86.555614573982893 29.539899230218452 0 29.539899230218452 -12.106875221822975 0 0 0 0 -83.097248810154269 29.967518072953226 0 29.967518072953226 -8.4159069166651079 0 0 0 0 -82.788397792113528 39.868542878527663 0 39.868542878527663 -4.0854852778247732 0 0 0 0 -83.522410945181036 36.497160712777713 0 36.497160712777713 0.44962835154001368 0 0 0 0 -81.919312839079794 42.860056866615707 0 42.860056866615707 6.7747916550865739 0 0 0 0 -66.532445893295517 54.440291683996776 0 54.440291683996776 -17.025464576917784 0 0 0 0 -85.085846355679678 54.419727411987651 0 54.419727411987651 0.7937933881189565 0 0 0 0 -74.474507292135968 68.605433720996629 0 68.605433720996629 -32.31236734066141 0 0 0 0 -60.055743903765688 42.416367942982333 0 42.416367942982333 -20.304049024991571 0 0 0 0 -63.791564237777493 42.777045453307665 0 42.777045453307665 -13.217397560747145 0 0 0 0 -78.611454289766698 39.743562625762877 0 39.743562625762877 -8.966304885851514 0 0 0 0 -66.089965496194054 34.135898061398962 0 34.135898061398962 -13.819620721655156 0 0 0 0 -70.40159827239404 35.060619537967341 0 35.060619537967341 -6.8064553778770005 0 0 0 0 -64.735798010093276 41.16653803018221 0 41.16653803018221 -11.560330353817335 0 0 0 0 -53.956772828343674 33.442442480354657 0 33.442442480354657 -17.760177653255596 0 0 0 0 -51.045601395671838 34.374032792321145 0 34.374032792321145 -15.610697688533151 0 0 0 0 -38.598445335694123 29.477369337765634 0 29.477369337765634 -17.228957667204423 0 0 0 0 -53.943034088304557 31.011162894837753 0 31.011162894837753 -14.7735049220164 0 0 0 0 0.49479926012987363 -1.0006893571943749 0 -1.0006893571943749 -0.20305983235375535 0 0 0 0 -70.927599853464926 18.950303268604216 0 18.950303268604216 -4.2005185486683558 0 0 0 0 -50.14170305175503 27.589658166201843 0 27.589658166201843 -11.731878670879496 0 0 0 0 -46.754834642939386 8.2375114578918556 0 8.2375114578918556 0.29640863601259326 0 0 0 0 -53.172825060522882 36.142472587449731 0 36.142472587449731 -9.462908808013708 0 0 0 0 -21.153516209087684 33.076978751649222 0 33.076978751649222 -35.28277868446618 0 0 0 0 -325.35635028200704 12.316248882210942 0 12.316248882210942 159.10849123828143 0 0 0 0 -179.61208506628464 -101.7839157321481 0 -101.7839157321481 51.196862408118022 0 0 0 0 -3.7653616433713637 0.55977908479800931 0 0.55977908479800931 -0.076724049900501801 0 0 0 0 -16.436700967562501 197.47229504060763 0 197.47229504060763 -171.55825706059767 0 0 0 0 -15.237925747467671 -37.25497984833612 0 -37.25497984833612 45.025858407087753 0 0 0 0 -158.72664830738358 -1.8071888039755777 0 -1.8071888039755777 42.834939889231123 0 0 0 0 -96.502796832661261 59.186183960463723 0 59.186183960463723 125.63224447430605 0 0 0 0 -43.122898307832656 -18.540651738139331 0 -18.540651738139331 -61.708704436580888 0 0 0 0 -15.937789168902157 19.450360899431018 0 19.450360899431018 0.84270379655653382 0 0 0 0 -6.5259802003084815 0.30241073662949702 0 0.30241073662949702 -0.23239504936447197 0 0 0 0 4.4133440653421872 -0.11829321436201212 0 -0.11829321436201212 -1.8860899320848095 0 0 0 0 -246.35161409602733 -24.862042694067895 0 -24.862042694067895 42.584784139087105 0 0 0 0 26.833377643910353 -11.196576987682988 0 -11.196576987682988 -30.536949337347949 0 0 0 0 -291.54678343455817 39.317283622895275 0 39.317283622895275 66.31914135167176 0 0 0 0 -76.817899594299888 29.007006215654314 0 29.007006215654314 -1.3073902384085159 0 0 0 0 -83.671444033403532 34.785209877233228 0 34.785209877233228 -0.06639311291533545 0 0 0 0 -62.548544766745181 -114.88413164779331 0 -114.88413164779331 -59.746930846859868 0 0 0 0 -25.000165660032735 -8.7951754282518948 0 -8.7951754282518948 14.023151775117 0 0 0 0 -132.39304573575828 86.671677046187767 0 86.671677046187767 26.410675802484093 0 0 0 0 6.7323646574960776 19.891039590071429 0 19.891039590071429 -4.0152169932117294 0 0 0 0 -50.41371482082468 -109.02489644435471 0 -109.02489644435471 -357.87403617947132 0 0 0 0 -123.15659898263402 92.154063197697724 0 92.154063197697724 -150.74508375907044 0 0 0 0 -73.240726457940582 -2.291699582789029 0 -2.291699582789029 50.25124192433168 0 0 0 0 -32.834756444679982 -9.0219459020973289 0 -9.0219459020973289 13.907496245933924 0 0 0 0 -75.301976477827793 21.962945707928988 0 21.962945707928988 16.675879896442439 0 0 0 0 -109.54831818772072 50.652959938438357 0 50.652959938438357 32.968664964071451 0 0 0 0 -96.300164311927801 65.646223662965667 0 65.646223662965667 -3.4140204120028557 0 0 0 0 -73.863776376252645 73.693149834799783 0 73.693149834799783 -0.7374308801737044 0 0 0 0 -107.73254946563247 23.469337607119314 0 23.469337607119314 43.783973879931636 0 0 0 0 -98.523445172955689 34.706786957596194 0 34.706786957596194 55.530082341941579 0 0 0 0 -188.48288514485466 99.753518974038855 0 99.753518974038855 35.738959716629864 0 0 0 0 -259.12830293353181 -77.497156068971904 0 -77.497156068971904 120.86005139844977 0 0 0 0 -85.021838126398507 79.560918684961223 0 79.560918684961223 66.072390942037202 0 0 0 0 -63.779902626978583 -27.076732891327765 0 -27.076732891327765 29.676138746990773 0 0 0 0 28.827379509690218 -102.70991669361501 0 -102.70991669361501 69.128079131393633 0 0 0 0 -5.9845892985943863 3.4923374089206618 0 3.4923374089206618 7.1343056613017239 0 0 0 0 -6.8595649314379727 -0.94806424446235837 0 -0.94806424446235837 -1.7650416156688489 0 0 0 0 -170.25094161758352 263.76899156668821 0 263.76899156668821 43.46012693444942 0 0 0 0 47.827247337969311 90.737437092728996 0 90.737437092728996 -70.769042479549171 0 0 0 0 -117.46465503386571 45.587398119327133 0 45.587398119327133 -82.420672380673778 0 0 0 0 -130.7408085752686 76.57982582851875 0 76.57982582851875 -58.686338048559037 0 0 0 0 -78.696906873876287 76.230892345422888 0 76.230892345422888 -89.005437442257858 0 0 0 0 -0.51078979117687595 -1.0386877921832252 0 -1.0386877921832252 -1.2036545047867284 0 0 0 0 -302.65319355737302 72.919588747062363 0 72.919588747062363 -58.385866204652757 0 0 0 0 -23.723539620069459 -70.453070155670986 0 -70.453070155670986 -29.631414587750669 0 0 0 0 -228.09485691627924 -95.828548110832884 0 -95.828548110832884 -20.372420133568056 0 0 0 0 -90.301192240054661 -198.4627428987354 0 -198.4627428987354 -7.7090644124204459 0 0 0 0 -183.1397153871003 243.53022118761845 0 243.53022118761845 -136.73903473403135 0 0 0 0 94.272119369001302 63.948190483928428 0 63.948190483928428 -137.14868161848557 0 0 0 0 273.8938303921459 -107.36814124871917 0 -107.36814124871917 -64.662327838602664 0 0 0 0 0.34756194814590913 0.25897707744779552 0 0.25897707744779552 2.4484889437827615 0 0 0 0 -53.572366475862509 77.015876271347537 0 77.015876271347537 12.158228114292974 0 0 0 0 -265.75434697855962 -304.91053069048883 0 -304.91053069048883 -88.546831198784162 0 0 0 0 -390.87316125529469 156.0409536555718 0 156.0409536555718 123.10754681145923 0 0 0 0 -150.79913087844034 68.276609035152816 0 68.276609035152816 50.302041587979147 0 0 0 0 -202.78033525916544 247.11413706620985 0 247.11413706620985 -145.02410094254407 0 0 0 0 -38.528196325714816 73.678457768122144 0 73.678457768122144 -112.25273650614162 0 0 0 0 -81.906472304075805 104.18717186102835 0 104.18717186102835 -42.320582854665247 0 0 0 0 -81.76166838905192 113.20309450420956 0 113.20309450420956 3.1159717106132518 0 0 0 0 28.820054034860732 -14.120242734997092 0 -14.120242734997092 -64.12121214302806 0 0 0 0 11.93970810996052 99.519315702133468 0 99.519315702133468 -262.55570472132456 0 0 0 0 -404.58790753177891 -76.263613854965485 0 -76.263613854965485 -0.73629654498392938 0 0 0 0 -458.92879730336426 154.93484620301484 0 154.93484620301484 -4.4351817145473547 0 0 0 0 -3.4010771791952834 2.5878963469549205 0 2.5878963469549205 -2.1789545949370339 0 0 0 0 -164.11831064827129 -79.016387939849722 0 -79.016387939849722 -6.3350206573518335 0 0 0 0 -287.73265492566861 54.214018395627967 0 54.214018395627967 -11.833010644733889 0 0 0 0 -24.751042522693751 8.069805500483092 0 8.069805500483092 -30.053304405872268 0 0 0 0 -53.059120791091118 11.664631792077486 0 11.664631792077486 -18.431588755349814 0 0 0 0 -132.32851775986637 -33.639297037362525 0 -33.639297037362525 -11.826143494939956 0 0 0 0 -171.41461763193001 12.379936697187208 0 12.379936697187208 -16.547168778906389 0 0 0 0 -214.56461739720544 -2.814373386265288 0 -2.814373386265288 7.4426504547715098 0 0 0 0 -219.33367739591631 23.386390192879059 0 23.386390192879059 -91.119256842131946 0 0 0 0 -302.31040078530714 -100.59216701084253 0 -100.59216701084253 -19.210994118767161 0 0 0 0 -229.95025356187398 45.772456115486982 0 45.772456115486982 -58.521462544293634 0 0 0 0 -211.29593076265883 74.77025246818198 0 74.77025246818198 -100.87132046075729 0 0 0 0 -221.02920579916099 96.606559377589804 0 96.606559377589804 4.283694780353315 0 0 0 0 -33.122868285296136 -9.4880173456551802 0 -9.4880173456551802 2.6383268589268596 0 0 0 0 -23.960366613275255 9.6968530806190074 0 9.6968530806190074 1.4289186756843222 0 0 0 0 -0.23190644687142026 0.06660384910748407 0 0.06660384910748407 0.22138211694031001 0 0 0 0 -44.904309645280591 -2.389556638720137 0 -2.389556638720137 -1.1071675312523439 0 0 0 0 -21.343263982354983 1.2293050558129277 0 1.2293050558129277 -4.7366244845191403 0 0 0 0 -30.783536288377945 1.6654428652320306 0 1.6654428652320306 -0.50030242767510202 0 0 0 0 -29.648311967069276 27.221646903964867 0 27.221646903964867 -18.287374775532953 0 0 0 0 -49.670986827099114 26.761820127372971 0 26.761820127372971 -10.72902586890234 0 0 0 0 -7.6163967523461906 5.2409809089097052 0 5.2409809089097052 -3.9036143393935845 0 0 0 0 -42.346199657591569 -0.65204907646655386 0 -0.65204907646655386 -1.4958957159242345 0 0 0 0 5.6282054703660833 23.26706196729603 0 23.26706196729603 -19.498950457194042 0 0 0 0 -0.48226289320233207 -0.58714874680445917 0 -0.58714874680445917 -0.92427724760659391 0 0 0 0 -24.926787123578833 -21.524857723134915 0 -21.524857723134915 -2.0364328062032655 0 0 0 0 -5.7729017783130985 34.92522547122212 0 34.92522547122212 1.1522365282768732 0 0 0 0 -45.531967996423191 25.209422918706878 0 25.209422918706878 -31.276325673135034 0 0 0 0 -41.41564379556803 35.289449938622965 0 35.289449938622965 -15.93322637767551 0 0 0 0 -47.927545678016031 36.855401288339181 0 36.855401288339181 -15.921302358214234 0 0 0 0 -45.526722750211775 31.87670529731966 0 31.87670529731966 -31.144372974315047 0 0 0 0 -47.044382383206539 30.433220116772389 0 30.433220116772389 -23.660557703708832 0 0 0 0 -26.518565291058621 45.902028158937924 0 45.902028158937924 -48.021628408201764 0 0 0 0 -77.010980287494021 35.526739572968836 0 35.526739572968836 4.1786120622799672 0 0 0 0 -47.137753311850247 10.101740483335107 0 10.101740483335107 -1.2466702997803623 0 0 0 0 -46.861362775685848 -3.9696724880752754 0 -3.9696724880752754 20.188305320052677 0 0 0 0 -61.084653125566547 14.415332429745149 0 14.415332429745149 29.100792517037803 0 0 0 0 47.905586275650421 166.33671158045081 0 166.33671158045081 -67.07307538343639 0 0 0 0 -43.100964893288619 33.917987242434322 0 33.917987242434322 22.396821905858673 0 0 0 0 -9.4064281335986379 6.8619752375647138 0 6.8619752375647138 -4.937489085877254 0 0 0 0 -7.7704064031131566 -3.9114404601505655 0 -3.9114404601505655 -9.3263484828367993 0 0 0 0 -39.357237941381754 -4.5262309242440288 0 -4.5262309242440288 -4.731651107114546 0 0 0 0 -13.996531284858065 21.097656821820198 0 21.097656821820198 -14.340225144491605 0 0 0 0 18.803853784833336 18.258322751566915 0 18.258322751566915 -20.187146881935405 0 0 0 0 10.931161784730648 28.373974699100462 0 28.373974699100462 -2.9001482469802511 0 0 0 0 -29.640781449154019 19.71225726843727 0 19.71225726843727 60.391127483827859 0 0 0 0 -14.015330685800166 9.150550419423638 0 9.150550419423638 -4.9451174128521744 0 0 0 0 -39.656643640730181 -152.02059488382179 0 -152.02059488382179 -44.226942734748263 0 0 0 0 -61.418897974217543 48.246762415185458 0 48.246762415185458 -12.411214997549905 0 0 0 0 -40.563764271297259 44.370274997360411 0 44.370274997360411 -19.02751952472704 0 0 0 0 -0.81908947371388763 1.0758016866459776 0 1.0758016866459776 -0.34567795249015654 0 0 0 0 -12.766764290485298 33.599822884672449 0 33.599822884672449 -20.521174603233703 0 0 0 0 -5.1379773539565576 -21.813865662956616 0 -21.813865662956616 10.385174264009947 0 0 0 0 -2.3102018580785142 -0.73633423632944073 0 -0.73633423632944073 0.27498345352236964 0 0 0 0 7.5618283977019018 17.480931120389414 0 17.480931120389414 -2.0762796057488231 0 0 0 0 -2.7292504848446697 -1.2239639023882773 0 -1.2239639023882773 0.92001370474827127 0 0 0 0 -8.7418878924363526 -6.3128073479228988 0 -6.3128073479228988 7.1836188289762504 0 0 0 0 -17.802395759914418 -4.5579202217088834 0 -4.5579202217088834 8.3545047973049424 0 0 0 0 -9.4273118341807276 -0.12383776516617218 0 -0.12383776516617218 10.22466993971193 0 0 0 0 -10.357663511753117 -1.0607423687536173 0 -1.0607423687536173 7.9079216435643902 0 0 0 0 -11.673604168595773 5.5604345983208532 0 5.5604345983208532 1.1248215140857845 0 0 0 0 -3.1679782894272535 0.82032408695222614 0 0.82032408695222614 0.32721540566702467 0 0 0 0 -9.6141073438083993 0.83534239636060192 0 0.83534239636060192 3.8462661865086645 0 0 0 0 -10.392427037433663 3.2693246286157489 0 3.2693246286157489 0.24984875905170156 0 0 0 0 -19.691126141147834 -9.6800129566086923 0 -9.6800129566086923 6.6257984201715772 0 0 0 0 -3.9469607851832542 -0.0066428676607870329 0 -0.0066428676607870329 -0.64199101982436391 0 0 0 0 -5.999210787092494 2.9761094525325262 0 2.9761094525325262 1.8066269327519531 0 0 0 0 -25.099592190919793 3.9374099583689599 0 3.9374099583689599 3.2931457838793676 0 0 0 0 -15.9390006637841 -1.5608419095201214 0 -1.5608419095201214 4.8392214312447095 0 0 0 0 -8.551597582467366 -1.8807687655439622 0 -1.8807687655439622 4.3603668644395839 0 0 0 0 -7.7995199414047534 -0.42295097780865376 0 -0.42295097780865376 2.5737047460431173 0 0 0 0 -13.818638406664832 0.96256339109265809 0 0.96256339109265809 3.409431664527915 0 0 0 0 -10.612626160906075 0.6467340151619112 0 0.6467340151619112 2.939509018475178 0 0 0 0 -7.9392821145468702 0.73457086033395846 0 0.73457086033395846 0.84321937616952081 0 0 0 0 -4.221693564686575 -0.27812440578941278 0 -0.27812440578941278 -1.2300810768292649 0 0 0 0 -1.9792810449384071 2.7321745068359604 0 2.7321745068359604 0.95791587345502416 0 0 0 0 -15.317694857047172 -0.8156111979140519 0 -0.8156111979140519 2.5696976354803382 0 0 0 0 -26.648984806088265 -1.0250735147637613 0 -1.0250735147637613 3.6608365289854419 0 0 0 0 -16.701824416315503 0.58796879217195297 0 0.58796879217195297 1.1730528294267515 0 0 0 0 -14.743203931295284 -5.9368246330033756 0 -5.9368246330033756 -2.2412692929347031 0 0 0 0 -18.212109294923721 10.228123348993051 0 10.228123348993051 -6.6347119516459969 0 0 0 0 -13.843944606938749 -16.188276574689382 0 -16.188276574689382 -13.853766553572996 0 0 0 0 -1.8045960121380631 -2.1116021719516311 0 -2.1116021719516311 -7.0307313029835541 0 0 0 0 -47.820660780795151 -9.2396684681983743 0 -9.2396684681983743 1.6940825816255938 0 0 0 0 0.87721586533126583 0.31682207740904289 0 0.31682207740904289 -1.0763336874254767 0 0 0 0 -1.2363251989513877 3.107031535159976 0 3.107031535159976 -1.628458678002378 0 0 0 0 -6.9531190176667224 6.26568638359615 0 6.26568638359615 -1.7083428753461476 0 0 0 0 -12.36856697568146 5.2498266744245328 0 5.2498266744245328 -0.83474325683609862 0 0 0 0 -8.1157665487260715 3.7790303337458653 0 3.7790303337458653 -0.99040276782624981 0 0 0 0 -1.933843368475209 3.7698400452788405 0 3.7698400452788405 -3.16187544805166 0 0 0 0 -3.9383000168672879 4.8981526053208597 0 4.8981526053208597 -1.0882796589609285 0 0 0 0 -0.66705746420802825 0.20398782990093167 0 0.20398782990093167 -0.082876283484840968 0 0 0 0 1.6635480386903509 10.167544677678734 0 10.167544677678734 -32.523423330761972 0 0 0 0 -2.3747652811289299 7.7780122483495404 0 7.7780122483495404 -16.895057918954805 0 0 0 0 -7.8145517379161902 19.59720265477948 0 19.59720265477948 1.7918376551009629 0 0 0 0 -12.519364296603271 9.3666636498473412 0 9.3666636498473412 8.6636731910545279 0 0 0 0 -3.2315963469117435 2.0023231907591139 0 2.0023231907591139 -0.51849342885741168 0 0 0 0 5.2367952154309023 8.3905173781987408 0 8.3905173781987408 -1.9787808767473687 0 0 0 0 -33.215468790418527 19.81830586796589 0 19.81830586796589 -12.405036137101717 0 0 0 0 -10.409856007216149 -16.191862796901297 0 -16.191862796901297 -15.325850702056265 0 0 0 0 5.3207099568826379 6.8607468917096455 0 6.8607468917096455 -23.303488680546387 0 0 0 0 -73.0882386495432 -37.213068730432198 0 -37.213068730432198 67.841369717443257 0 0 0 0 -5.7621457310124242 20.632457429248184 0 20.632457429248184 -20.541952429962393 0 0 0 0 -0.81895551458106297 -0.6648095959210707 0 -0.6648095959210707 -0.032890399652371796 0 0 0 0 41.690331501435139 56.702982801956423 0 56.702982801956423 -53.134477625606188 0 0 0 0 -41.053999841016775 12.938106628364654 0 12.938106628364654 -24.447855327483111 0 0 0 0 -42.726527457420161 4.1468828292669828 0 4.1468828292669828 -0.044585154042268552 0 0 0 0 -90.659675430433708 -12.293336707056602 0 -12.293336707056602 7.682286651485712 0 0 0 0 -23.751569232226757 -12.463511302123035 0 -12.463511302123035 -4.2784266721319026 0 0 0 0 -35.703183776269725 -2.3072981151337171 0 -2.3072981151337171 18.016205238512626 0 0 0 0 5.5550253921683179 3.9970313140855653 0 3.9970313140855653 -6.9409155802632325 0 0 0 0 -1.6111924347396211 1.0570564185158311 0 1.0570564185158311 -0.11366357296631793 0 0 0 0 8.0175394444959238 6.9550317213925581 0 6.9550317213925581 0.92985281637330353 0 0 0 0 -2.7161860892192635 12.338800576303049 0 12.338800576303049 10.219602339246148 0 0 0 0 1.0451798506837804 1.4389078532983353 0 1.4389078532983353 -0.0006920654799274571 0 0 0 0 -6.1362654148397269 6.3808061362994799 0 6.3808061362994799 4.3887841863955757 0 0 0 0 -5.7882692875282373 6.0775913255796779 0 6.0775913255796779 6.756904840142246 0 0 0 0 -0.61408000039872945 0.076551756088605316 0 0.076551756088605316 0.16844391117432378 0 0 0 0 -6.5538067246961873 0.66133627776175796 0 0.66133627776175796 -0.0023719042911913846 0 0 0 0 -12.242368904604518 0.20845215351434376 0 0.20845215351434376 1.0984126711097701 0 0 0 0 -6.8710721572994089 -0.07739749989529443 0 -0.07739749989529443 0.80433233443024577 0 0 0 0 -1.4977653130415369 0.083889146629473998 0 0.083889146629473998 0.066238052756747365 0 0 0 0 -248.14908173491131 -44.573304759682337 0 -44.573304759682337 -15.089828034336218 0 0 0 0 -248.04044217779187 -34.270026440311874 0 -34.270026440311874 -14.192541055299223 0 0 0 0 -274.05090512555762 -44.699797371669689 0 -44.699797371669689 -17.88706713505222 0 0 0 0 -300.50588872769731 -29.428475165593539 0 -29.428475165593539 -23.535120495524765 0 0 0 0 -239.49990676179732 -55.918332935884116 0 -55.918332935884116 -61.582147492181527 0 0 0 0 -173.57059631519951 -37.258577954365037 0 -37.258577954365037 -21.524203146916644 0 0 0 0 -217.06281653000042 -17.019415262666762 0 -17.019415262666762 -9.0450979299339309 0 0 0 0 -76.328056980506517 -20.173204251266597 0 -20.173204251266597 -21.929895598449558 0 0 0 0 -144.55550518571545 15.955733283482079 0 15.955733283482079 6.6907753020402936 0 0 0 0 -61.859388548647985 59.849512452030638 0 59.849512452030638 -25.643344266750972 0 0 0 0 -214.84523408685345 -7.8577273917491794 0 -7.8577273917491794 2.9404104622143734 0 0 0 0 -109.10101361397392 5.8026196855766408 0 5.8026196855766408 -9.7540834045609728 0 0 0 0 -229.475641232013 32.154047046941507 0 32.154047046941507 -1.0111830365988705 0 0 0 0 -120.53482150516356 54.36554265868655 0 54.36554265868655 2.5400487534660385 0 0 0 0 -228.81000466260593 -51.402578209829414 0 -51.402578209829414 -14.324515111771673 0 0 0 0 -194.94090745000722 -21.57073538487273 0 -21.57073538487273 -7.7343144467388782 0 0 0 0 -228.32556244474108 -46.906444389425005 0 -46.906444389425005 -32.270188416118131 0 0 0 0 -245.66806138628453 -46.633358017846064 0 -46.633358017846064 -15.345715579028241 0 0 0 0 -0.70335738467753117 -0.36252156252128032 0 -0.36252156252128032 -0.14602136807572555 0 0 0 0 24.727363887289357 -60.087969435819396 0 -60.087969435819396 -28.816122441045238 0 0 0 0 -121.63277053138881 -94.945282560342434 0 -94.945282560342434 -32.651376052492232 0 0 0 0 -201.49485543261835 -1.9396621217951544 0 -1.9396621217951544 0.020575728908970643 0 0 0 0 -232.95833453902014 -33.477034340736203 0 -33.477034340736203 -30.752628074821963 0 0 0 0 -244.06536150949432 -19.721034789074057 0 -19.721034789074057 -0.016860917611711129 0 0 0 0 -269.9563715476761 -37.202486381642359 0 -37.202486381642359 -9.7378586057681389 0 0 0 0 -279.1646768822684 -27.650568776048424 0 -27.650568776048424 0.0065373607071581904 0 0 0 0 -279.14240542599509 -27.594357087803754 0 -27.594357087803754 0.14816975958893153 0 0 0 0 -278.51315631136822 -35.515930652749226 0 -35.515930652749226 -10.855951756828112 0 0 0 0 -283.91709180176986 -32.781415503534269 0 -32.781415503534269 0.20737819833043369 0 0 0 0 -271.71570322340995 -28.398589783373435 0 -28.398589783373435 -4.7196522174664466 0 0 0 0 -277.60171835884103 -25.853119390987466 0 -25.853119390987466 1.9508461733825442 0 0 0 0 -279.11833569245937 -27.569311803445029 0 -27.569311803445029 0.0088813720443293408 0 0 0 0 -296.41624334899097 -43.820107224000132 0 -43.820107224000132 1.2490733229480071 0 0 0 0 -282.21667290543155 -29.111609699075235 0 -29.111609699075235 7.7179496547410338 0 0 0 0 -292.93973069859203 -49.359471954636092 0 -49.359471954636092 5.731427465461465 0 0 0 0 -271.60020426741539 -65.897607748232929 0 -65.897607748232929 -15.450861349961883 0 0 0 0 -281.68518693784426 -26.407584740528691 0 -26.407584740528691 -17.716598402891925 0 0 0 0 -254.22975366514584 -47.933956119872747 0 -47.933956119872747 -35.690068198397341 0 0 0 0 -262.94898811521489 -24.850234681968196 0 -24.850234681968196 -80.838137414872449 0 0 0 0 -0.8347903697856367 0.47236647048775637 0 0.47236647048775637 -0.70198765385798889 0 0 0 0 -169.46432145053041 -68.90682400920339 0 -68.90682400920339 -74.597010475027005 0 0 0 0 -256.1733901835978 -99.08783534082869 0 -99.08783534082869 -24.482805573445034 0 0 0 0 -252.53380238718819 -109.77950486646139 0 -109.77950486646139 -36.76998740676855 0 0 0 0 -303.60918352026783 -84.830359178797138 0 -84.830359178797138 -23.296717213060745 0 0 0 0 -301.75282499058812 -66.375053928857596 0 -66.375053928857596 4.0317355655747349 0 0 0 0 -310.16607518786623 -59.85056241049918 0 -59.85056241049918 -0.49686547835321448 0 0 0 0 -358.99524771117285 -84.69353171216747 0 -84.69353171216747 0.5357307621653149 0 0 0 0 -337.53516142680019 -122.69565145971363 0 -122.69565145971363 -24.377782525632512 0 0 0 0 -337.93856071461886 -88.784827915504763 0 -88.784827915504763 -4.6883257777651011 0 0 0 0 -455.22947946560453 -131.62585077758058 0 -131.62585077758058 -2.4684202659368566 0 0 0 0 -460.17313583203941 -106.6469763438479 0 -106.6469763438479 -29.252805580307154 0 0 0 0 -360.7548928460601 -254.21752181357016 0 -254.21752181357016 -91.439938767406204 0 0 0 0 -104.64665296724706 -86.372446929132707 0 -86.372446929132707 -127.11738482429163 0 0 0 0 -1.0890599427114438 1.0099681621545216 0 1.0099681621545216 -2.3406895013801026 0 0 0 0 -244.30302376773398 -126.7406280346314 0 -126.7406280346314 -69.322284854169993 0 0 0 0 -287.52188958217448 -79.623088448598992 0 -79.623088448598992 -82.339553056330161 0 0 0 0 -159.71234311255103 -150.26778875187082 0 -150.26778875187082 -81.514591514968686 0 0 0 0 -177.29687391702828 -6.1012660303044655 0 -6.1012660303044655 -71.644351786025425 0 0 0 0 -1.3067464526238979 1.1803980685205886 0 1.1803980685205886 -1.9275149700085268 0 0 0 0 -214.03199578159547 -88.144939874338888 0 -88.144939874338888 -48.078675136491256 0 0 0 0 -247.68936331036821 -143.66829297046081 0 -143.66829297046081 -69.935972740531383 0 0 0 0 -289.78922861289175 10.711394928226809 0 10.711394928226809 -43.689153174862781 0 0 0 0 -145.65523998688514 -21.662644495889779 0 -21.662644495889779 -33.548715036387875 0 0 0 0 -334.30206092219305 15.20903003532942 0 15.20903003532942 -26.32053230829743 0 0 0 0 -0.65616033477938629 -0.28022463978797418 0 -0.28022463978797418 0.29787696316273649 0 0 0 0 -251.18411777435176 -8.0561668289491948 0 -8.0561668289491948 -83.436210669555408 0 0 0 0 -252.51932039577696 -7.1365901707983355 0 -7.1365901707983355 -34.952214717842708 0 0 0 0 -351.50038778517774 41.241269068135253 0 41.241269068135253 -61.744013345119981 0 0 0 0 -357.37153507980838 54.010036774279143 0 54.010036774279143 -51.882739898625289 0 0 0 0 -362.37400013860315 -27.943949385167201 0 -27.943949385167201 7.4574959825952476 0 0 0 0 -495.36312669710969 24.873967584061006 0 24.873967584061006 -1.8097168197737119 0 0 0 0 -289.84994101879528 18.364518208549789 0 18.364518208549789 -55.784262743453496 0 0 0 0 -358.72931889322354 28.031299903601791 0 28.031299903601791 -30.292824274068607 0 0 0 0 -299.95938488174579 -9.3163080932469313 0 -9.3163080932469313 -6.6300282139823992 0 0 0 0 -356.37700350473733 -24.703907750930636 0 -24.703907750930636 9.1945378418490691 0 0 0 0 -321.6595644290428 -38.397497529186353 0 -38.397497529186353 10.790114503399209 0 0 0 0 -313.05824975283758 9.1493151946393425 0 9.1493151946393425 8.7164703713698799 0 0 0 0 -289.65244449336751 -5.9673865222505427 0 -5.9673865222505427 15.726763811051939 0 0 0 0 -297.70598148522708 43.129535898737238 0 43.129535898737238 -7.2620091026731188 0 0 0 0 -215.37546395958634 41.833961236204487 0 41.833961236204487 -11.289894118764963 0 0 0 0 -189.02327886107378 16.936814728080503 0 16.936814728080503 0.133436111070111 0 0 0 0 -176.39540052700613 41.026592142642329 0 41.026592142642329 3.8037437807969354 0 0 0 0 -234.77117670836014 1.3821231057174224 0 1.3821231057174224 18.875966665646772 0 0 0 0 -244.60395277688076 10.831737697319802 0 10.831737697319802 14.88703893064573 0 0 0 0 -182.73080794680573 17.619071730836861 0 17.619071730836861 9.4804013809818315 0 0 0 0 -293.70720522937336 -17.880976236993693 0 -17.880976236993693 22.131446918977296 0 0 0 0 -321.12704678562841 -31.325102305868917 0 -31.325102305868917 18.790165944147788 0 0 0 0 -282.23089522668306 -24.103692918445709 0 -24.103692918445709 11.289729129778753 0 0 0 0 -282.39415997449032 -15.905207341023006 0 -15.905207341023006 16.547557540991775 0 0 0 0 -252.30086502424092 -4.5400199483020671 0 -4.5400199483020671 16.053498314945557 0 0 0 0 -237.58102823513036 -11.20896111002096 0 -11.20896111002096 8.2272136626654557 0 0 0 0 -246.53705871582861 -3.431772401656735 0 -3.431772401656735 12.077375548979745 0 0 0 0 -252.06758053071826 -18.046607715957915 0 -18.046607715957915 0.0085267848251684951 0 0 0 0 -232.39119876270706 3.9450584182283013 0 3.9450584182283013 12.8887833403057 0 0 0 0 -221.488046072016 -11.13842329260893 0 -11.13842329260893 0.0079975675331346741 0 0 0 0 -188.9871501233938 7.0985555835021179 0 7.0985555835021179 -0.55762818920618895 0 0 0 0 -154.32609277992742 0.64587322335311192 0 0.64587322335311192 -4.4755976862897739 0 0 0 0 -154.19425771824172 -14.610177594117179 0 -14.610177594117179 -12.04598547174723 0 0 0 0 -182.50888891841441 -11.43460014561342 0 -11.43460014561342 -0.0088212650684211438 0 0 0 0 -156.80190032551218 -23.044504553741291 0 -23.044504553741291 -11.728145432024661 0 0 0 0 -155.77073374701286 -18.576190220287064 0 -18.576190220287064 -0.0060515957569812961 0 0 0 0 -158.51209667780313 -18.058850786045991 0 -18.058850786045991 13.960872812933594 0 0 0 0 -172.12427352486702 -42.536779401539498 0 -42.536779401539498 -2.9541531369782206 0 0 0 0 -142.00147240732622 -28.781447977767989 0 -28.781447977767989 -9.5056978610947027 0 0 0 0 -145.07170668297113 -19.855507291925107 0 -19.855507291925107 -28.281828441381514 0 0 0 0 -151.14678721171367 -43.912567555454139 0 -43.912567555454139 -32.293609862386134 0 0 0 0 -154.71900892919803 -40.041070071886701 0 -40.041070071886701 -14.13390113786744 0 0 0 0 -110.28407311944466 -49.626682576140254 0 -49.626682576140254 -33.849763020294859 0 0 0 0 -184.95789899760712 -54.123124053115191 0 -54.123124053115191 -7.955419212221102 0 0 0 0 -160.11115028829954 -88.676183113097693 0 -88.676183113097693 -23.090757135170008 0 0 0 0 -121.34543321974706 -29.122494866316227 0 -29.122494866316227 -64.688635927858471 0 0 0 0 -185.90367836315272 61.381427749204235 0 61.381427749204235 -47.271806509648478 0 0 0 0 -179.35680627365718 -8.5433147346795764 0 -8.5433147346795764 6.3028687058948449 0 0 0 0 -77.959858389127476 -6.0084256731306329 0 -6.0084256731306329 -11.384427811351912 0 0 0 0 -0.39250069693483169 -0.11170967509951879 0 -0.11170967509951879 0.22695264781648467 0 0 0 0 -119.21555556747626 -17.708417691464803 0 -17.708417691464803 -31.045622007330842 0 0 0 0 -88.580278078519768 -52.265228832039078 0 -52.265228832039078 -12.959393950176658 0 0 0 0 -212.0087438332921 -96.623304399644113 0 -96.623304399644113 -9.5384184485494661 0 0 0 0 -116.65316804266331 -9.5467265743721175 0 -9.5467265743721175 -1.1085469800734085 0 0 0 0 -100.24122333516789 -31.157655289743243 0 -31.157655289743243 -6.1188057938284164 0 0 0 0 -48.743590403835697 11.963549516167843 0 11.963549516167843 45.279570315782522 0 0 0 0 -35.028086383113987 -2.2844383060078286 0 -2.2844383060078286 -11.333474108709712 0 0 0 0 -100.4497435758858 -37.281124955478091 0 -37.281124955478091 10.041384501583472 0 0 0 0 8.2249795991519932 6.1743326042726778 0 6.1743326042726778 19.999001549677729 0 0 0 0 9.6633854357642122 105.09340667209521 0 105.09340667209521 114.37975520686641 0 0 0 0 -104.20565229390922 20.667428405843907 0 20.667428405843907 56.657070419453035 0 0 0 0 -102.60702613918329 21.334759717712675 0 21.334759717712675 16.442762047062395 0 0 0 0 -37.204491676573525 17.703623446951731 0 17.703623446951731 2.3261702804853854 0 0 0 0 -66.441653417943598 -5.8452230356586465 0 -5.8452230356586465 0.11371569475669144 0 0 0 0 -101.20590120958514 4.6088459273148299 0 4.6088459273148299 3.5834587977592998 0 0 0 0 -117.57329560762082 23.984744765952424 0 23.984744765952424 22.908798621102694 0 0 0 0 -145.95033564685582 -16.276370564305079 0 -16.276370564305079 0.00037000201459928811 0 0 0 0 -170.4949051376243 -40.264847845295265 0 -40.264847845295265 -8.2906477165907404 0 0 0 0 -219.68804830148292 8.3471367431244232 0 8.3471367431244232 55.995808992679969 0 0 0 0 -200.74435264110798 -30.263652883471877 0 -30.263652883471877 -9.5008495329440272 0 0 0 0 -210.76667655726487 -38.776737221153795 0 -38.776737221153795 -10.740420392743999 0 0 0 0 -222.79789548749977 -26.753786070342954 0 -26.753786070342954 -8.7734578267661618 0 0 0 0 -173.18795725835662 -51.730504062506384 0 -51.730504062506384 -12.141527422470347 0 0 0 0 -201.74101133923978 -46.571444747647689 0 -46.571444747647689 -10.744502331144041 0 0 0 0 -218.87263814658218 -64.651846519849073 0 -64.651846519849073 -4.2603512978283788 0 0 0 0 -223.53870854625711 -53.854109021254914 0 -53.854109021254914 16.027001488386674 0 0 0 0 -231.03109492099611 -41.84309379737789 0 -41.84309379737789 8.0846530583572473 0 0 0 0 -200.65073081708397 -42.022702548302597 0 -42.022702548302597 -0.72607625752942795 0 0 0 0 -235.24431210250623 -23.073194442670044 0 -23.073194442670044 20.777326295452013 0 0 0 0 -233.0455576404056 -30.346304544389767 0 -30.346304544389767 10.179043471481663 0 0 0 0 -231.06110974742842 -24.869721596617424 0 -24.869721596617424 8.3743163076933342 0 0 0 0 1.3127156130128128 -2.8490073550372585 0 -2.8490073550372585 -11.360178381134071 0 0 0 0 -232.21034152132052 -29.779931681743619 0 -29.779931681743619 1.3091375265817646 0 0 0 0 -237.73822768046375 -31.361669085980466 0 -31.361669085980466 10.745309459129487 0 0 0 0 -239.04699531149527 -24.59545499022601 0 -24.59545499022601 30.947877706343604 0 0 0 0 -232.00014161554282 -31.359034642767028 0 -31.359034642767028 -28.56605025654369 0 0 0 0 -235.94865164661314 -24.128400070456848 0 -24.128400070456848 -5.0567936786803784 0 0 0 0 -224.91724086253089 -20.781921473959528 0 -20.781921473959528 -26.576398013788776 0 0 0 0 -242.3130797680351 -44.995400894431839 0 -44.995400894431839 -23.780923587064422 0 0 0 0 -229.07659159967443 -44.19594391286023 0 -44.19594391286023 -41.990760765737548 0 0 0 0 -2.4855134166544701 -2.3628565696728998 0 -2.3628565696728998 -0.60919000932623635 0 0 0 0 -293.53466357890284 -49.697704624235641 0 -49.697704624235641 15.330708728030686 0 0 0 0 -313.62057845665549 -92.881123230595847 0 -92.881123230595847 -17.164588318744961 0 0 0 0 166.4637747505185 108.78645703983541 0 108.78645703983541 39.760485656632767 0 0 0 0 79.848937373710214 34.512785592920373 0 34.512785592920373 72.084669211942924 0 0 0 0 -6.2516309951461153 80.715242449399227 0 80.715242449399227 49.662485098875038 0 0 0 0 -11.338417673192453 73.328176157433916 0 73.328176157433916 78.43897815443006 0 0 0 0 -10.417236096420197 -3.416848466038843 0 -3.416848466038843 7.9019548208413433 0 0 0 0 -11.323136312552379 38.054580523095595 0 38.054580523095595 -6.8739448283790807 0 0 0 0 34.749297727656085 78.709627186912698 0 78.709627186912698 57.218416774597486 0 0 0 0 -8.9569099469081266 64.574765180737188 0 64.574765180737188 92.773204957293387 0 0 0 0 30.486790159484372 42.275983678779113 0 42.275983678779113 89.972295765771619 0 0 0 0 -1.3380108451892738 -15.410787657516039 0 -15.410787657516039 -28.278083611382499 0 0 0 0 -47.803942748170812 75.973437646134073 0 75.973437646134073 114.36104706706075 0 0 0 0 -13.823581135773082 -1.7823061389820936 0 -1.7823061389820936 8.1232318719576195 0 0 0 0 -146.19524790911237 -83.764399689638026 0 -83.764399689638026 42.67439282948061 0 0 0 0 -14.004949841542839 -11.29618580705403 0 -11.29618580705403 -2.8980561876554702 0 0 0 0 -0.6874946148192862 -2.5206774422443856 0 -2.5206774422443856 -0.68265863229647161 0 0 0 0 -15.846974036037864 -27.971381112826748 0 -27.971381112826748 -41.201201038153613 0 0 0 0 -20.956781038126792 -1.53499776857808 0 -1.53499776857808 -15.058183580637717 0 0 0 0 -22.705235586065101 -10.098468492633742 0 -10.098468492633742 -2.135194501222486 0 0 0 0 10.523906151545816 1.0079815343046903 0 1.0079815343046903 -19.248231266592484 0 0 0 0 0.60178689985650635 -3.4883185611302423 0 -3.4883185611302423 -4.7425971309139419 0 0 0 0 -226.66443233237078 119.39776565829243 0 119.39776565829243 -46.658863367571598 0 0 0 0 -73.170584467516164 71.315439776290674 0 71.315439776290674 -83.592196064102751 0 0 0 0 -4.5887281119944134 -2.0473308966778356 0 -2.0473308966778356 -0.35838939417481874 0 0 0 0 -398.33955538526061 59.632801106391781 0 59.632801106391781 30.358791260702048 0 0 0 0 -192.83223710706079 -56.741727118101977 0 -56.741727118101977 16.354414704958231 0 0 0 0 -265.2143241931044 -31.902481166202847 0 -31.902481166202847 45.612950551495643 0 0 0 0 -259.66714922329993 -64.918550478412925 0 -64.918550478412925 24.021002596421738 0 0 0 0 -236.47938387426257 -82.886968003366377 0 -82.886968003366377 37.921719434386773 0 0 0 0 -220.81253646728874 -79.402500861869513 0 -79.402500861869513 7.8007942509699717 0 0 0 0 -441.69459809976979 -143.80802366976377 0 -143.80802366976377 20.73023140063377 0 0 0 0 -168.85473539846862 -191.59084715470703 0 -191.59084715470703 -381.39541184143661 0 0 0 0 -81.668754230253398 4.2374329132933894 0 4.2374329132933894 -149.65200865130834 0 0 0 0 -459.35538917800295 120.99724089565467 0 120.99724089565467 -159.9158478558042 0 0 0 0 -357.88162042075419 -61.541145471505843 0 -61.541145471505843 41.555096373579886 0 0 0 0 -102.60476522245153 11.843876350693563 0 11.843876350693563 30.942723835573645 0 0 0 0 -81.46376134591992 139.83845099817847 0 139.83845099817847 95.763589984086138 0 0 0 0 -106.03635086293161 -12.394506139864802 0 -12.394506139864802 97.911553250920406 0 0 0 0 -219.59731535907486 -79.83533140298016 0 -79.83533140298016 102.21749807423453 0 0 0 0 -207.07129799888207 -235.43988078019856 0 -235.43988078019856 -224.86929134653499 0 0 0 0 -181.7874769881164 -281.00103358469539 0 -281.00103358469539 -444.68288157272661 0 0 0 0 -171.89762481194339 -101.46064018504114 0 -101.46064018504114 -117.6640965357719 0 0 0 0 -520.33100779240249 -280.64424073980371 0 -280.64424073980371 -172.64708040894868 0 0 0 0 90.599568364928928 12.154340381536397 0 12.154340381536397 -177.31614430653235 0 0 0 0 -1.645189996389874 0.26723369475547543 0 0.26723369475547543 -0.20305097060114585 0 0 0 0 -84.544283387454925 -138.39030770618908 0 -138.39030770618908 -255.69107694467235 0 0 0 0 -114.70627932350908 -100.73349979851605 0 -100.73349979851605 -39.744755665168441 0 0 0 0 -116.21965731825912 -106.78630851853814 0 -106.78630851853814 -63.725999151652275 0 0 0 0 -115.44218091477524 -98.102622306313151 0 -98.102622306313151 -66.819814293467061 0 0 0 0 -73.334294636137201 -73.624951017727085 0 -73.624951017727085 -54.814475122669137 0 0 0 0 -118.37580396273916 -118.71860820667445 0 -118.71860820667445 -97.593522672274503 0 0 0 0 -25.011830533061584 -98.212872405276769 0 -98.212872405276769 -133.66614821820176 0 0 0 0 -89.014713154698256 8.0392542865624819 0 8.0392542865624819 -79.72347454828855 0 0 0 0 -8.5871519305655966 -56.542275496579663 0 -56.542275496579663 -92.637207364876303 0 0 0 0 -47.782859024067875 -125.06568524444189 0 -125.06568524444189 -161.5543388346768 0 0 0 0 -29.439238332241075 -88.693170955365986 0 -88.693170955365986 24.214888254919288 0 0 0 0 -191.69747842941433 30.021545555186208 0 30.021545555186208 12.069082921310155 0 0 0 0 -0.13998302640395366 0.070406804946770762 0 0.070406804946770762 1.2964387793626522 0 0 0 0 -195.49988623884565 28.9584406108915 0 28.9584406108915 21.324783800779869 0 0 0 0 -0.81009550178548295 -0.34589078837454679 0 -0.34589078837454679 0.4503755596418838 0 0 0 0 -177.61509911885878 102.24969967637281 0 102.24969967637281 43.890088604132529 0 0 0 0 -35.552108167335973 37.946520030154787 0 37.946520030154787 -51.92385790196618 0 0 0 0 -64.63238893291782 -20.508514195300876 0 -20.508514195300876 -1.3259447374238107 0 0 0 0 -25.628501691637211 0.60719474315681055 0 0.60719474315681055 -19.783717880748412 0 0 0 0 -36.311865514013334 -29.672754460338524 0 -29.672754460338524 -67.139944024686599 0 0 0 0 -208.00722415823839 -102.17329900102335 0 -102.17329900102335 -25.161757054757199 0 0 0 0 -44.355963470101415 -120.19457606603922 0 -120.19457606603922 -90.212583192040654 0 0 0 0 -147.10421581224819 -60.883348725670395 0 -60.883348725670395 2.6284781870618588 0 0 0 0 294.62228230750043 169.99004644457784 0 169.99004644457784 -21.526197448886485 0 0 0 0 -61.033203497165232 3.6074412731105241 0 3.6074412731105241 31.993672863696275 0 0 0 0 66.261555504439457 31.582399850749312 0 31.582399850749312 126.71217563766714 0 0 0 0 81.121331787857343 23.972784451794297 0 23.972784451794297 -234.52101554474214 0 0 0 0 -117.09658899586793 60.113505387941828 0 60.113505387941828 60.205996992536939 0 0 0 0 120.29467801926512 53.925135062495542 0 53.925135062495542 68.619072731911047 0 0 0 0 73.101996813958976 120.91112266307152 0 120.91112266307152 -3.2879173315429853 0 0 0 0 -0.19000263193007072 -0.16214053959319585 0 -0.16214053959319585 5.245225332415548 0 0 0 0 264.7778981730371 229.50102855825276 0 229.50102855825276 -29.01017615099147 0 0 0 0 -35.957650312542683 -39.575815457749997 0 -39.575815457749997 3.4004763972834553 0 0 0 0 -0.20928916513520335 0.52873961359860289 0 0.52873961359860289 -0.75442053025354139 0 0 0 0 -225.29053402339196 -56.279289577127088 0 -56.279289577127088 -17.071295614988458 0 0 0 0 -15.009714079096739 50.383065714613508 0 50.383065714613508 -1.6798992006280002 0 0 0 0 -192.2576734099639 35.003783504555201 0 35.003783504555201 7.6893970490825154 0 0 0 0 -195.60377201529627 33.347232363651131 0 33.347232363651131 16.330719755531049 0 0 0 0 -273.3657324200758 -3.8175753378420154 0 -3.8175753378420154 -12.762459552423707 0 0 0 0 -274.06890500741792 -8.6634277625633445 0 -8.6634277625633445 7.8332108621750649 0 0 0 0 -171.67102816380793 3.8841836698642282 0 3.8841836698642282 -11.322367333004536 0 0 0 0 -109.95752202406584 -76.059229593560531 0 -76.059229593560531 -18.08028137258475 0 0 0 0 10.53690750428359 13.465182917072525 0 13.465182917072525 -34.734372151471007 0 0 0 0 -184.52412940269278 -33.020891547662529 0 -33.020891547662529 28.074451407681408 0 0 0 0 -98.518933913444926 33.273672899792189 0 33.273672899792189 -5.4673338962711568 0 0 0 0 -348.23471617985342 140.14646902982639 0 140.14646902982639 29.295980578918716 0 0 0 0 -461.13017633023992 -104.69260764409387 0 -104.69260764409387 47.139461490598933 0 0 0 0 -653.72845616879567 72.929604796704965 0 72.929604796704965 -9.2869043146649801 0 0 0 0 -58.674263485605479 103.26693475842922 0 103.26693475842922 -37.651901003274816 0 0 0 0 -2.8062400747198808 -0.85934190590100457 0 -0.85934190590100457 0.11535826121506432 0 0 0 0 -9.969038788667234 -1.9161082677602224 0 -1.9161082677602224 1.2415323095115183 0 0 0 0 -9.2651595386414556 -2.1570822142501811 0 -2.1570822142501811 9.9313086734066474 0 0 0 0 -19.101008278956215 -60.808145762832979 0 -60.808145762832979 31.451918343620036 0 0 0 0 -4.6956290499474562 18.896477625891521 0 18.896477625891521 -83.558913216093742 0 0 0 0 -172.45436030635028 -278.31299535379657 0 -278.31299535379657 -181.46632240743742 0 0 0 0 -11.009262874117553 -5.0331532210182033 0 -5.0331532210182033 6.9109136417530523 0 0 0 0 -420.79731687996536 -538.11396506402707 0 -538.11396506402707 -345.85137325201754 0 0 0 0 -5.3892038033638414 -3.6468357294069236 0 -3.6468357294069236 -1.2838644345082786 0 0 0 0 -64.557651973082102 -152.23672827121482 0 -152.23672827121482 -537.71207061747589 0 0 0 0 -19.271846039613592 -8.0759985531130951 0 -8.0759985531130951 -10.339892203100248 0 0 0 0 -21.596614896705432 -2.6945276217031733 0 -2.6945276217031733 11.229365708229238 0 0 0 0 -11.073375960214122 -1.9425555139766644 0 -1.9425555139766644 6.5791373992233577 0 0 0 0 -31.311348898918368 -6.6341861732863663 0 -6.6341861732863663 7.093059615596303 0 0 0 0 -9.167826911149632 -4.519498061591789 0 -4.519498061591789 -2.4354524464557699 0 0 0 0 -5.8725684624324686 0.36583591839249152 0 0.36583591839249152 3.540329536599665 0 0 0 0 -40.975288287849253 -20.430658286148322 0 -20.430658286148322 5.1968890460402264 0 0 0 0 -30.29810950832325 -5.6779637968902534 0 -5.6779637968902534 -6.0175109638948925 0 0 0 0 -4.8523242283117725 20.581076922704483 0 20.581076922704483 1.6190287885929138 0 0 0 0 -1.770898944890348 0.72925720460764865 0 0.72925720460764865 5.9656631269809903 0 0 0 0 -32.317779989299112 2.4105772111974204 0 2.4105772111974204 17.760155206137107 0 0 0 0 13.496676082242629 -27.545425247934986 0 -27.545425247934986 11.760446278309132 0 0 0 0 -17.497471601222145 -5.5512727539890037 0 -5.5512727539890037 1.1557572999373642 0 0 0 0 13.431477734382497 -23.987039771913146 0 -23.987039771913146 -24.933193191452801 0 0 0 0 12.561275235260837 4.4108893111366569 0 4.4108893111366569 3.7300490843532828 0 0 0 0 -2.9196594805639506 0.24347163716298326 0 0.24347163716298326 1.107188921256538 0 0 0 0 -36.771135754650459 13.615385494305826 0 13.615385494305826 40.140870128499955 0 0 0 0 50.006261693895794 105.61164878900956 0 105.61164878900956 141.33867593783907 0 0 0 0 -3.1245037965759224 -3.0256119143524813 0 -3.0256119143524813 9.9025588509760603 0 0 0 0 30.405500108572596 70.445337054688025 0 70.445337054688025 229.83851264825535 0 0 0 0 34.457989340982749 124.64694004393687 0 124.64694004393687 126.03010073713506 0 0 0 0 41.872433201697277 95.518532796171741 0 95.518532796171741 98.742612814819495 0 0 0 0 7.0587765103555284 133.81635175326414 0 133.81635175326414 155.93736228027069 0 0 0 0 -111.47788889271033 11.962327435368024 0 11.962327435368024 188.94729237005959 0 0 0 0 58.740182825797092 29.652883349076944 0 29.652883349076944 80.793122845804191 0 0 0 0 -94.823666241809406 -3.9420402893877622 0 -3.9420402893877622 80.638330509223806 0 0 0 0 -14.374293373730325 42.103871365231043 0 42.103871365231043 54.994743000747974 0 0 0 0 59.877844210182957 83.689358757557102 0 83.689358757557102 62.461809985697528 0 0 0 0 -103.25772816237441 -57.957318884755779 0 -57.957318884755779 30.399188229858282 0 0 0 0 -82.900858933811833 -53.609060524289873 0 -53.609060524289873 31.287600956940878 0 0 0 0 -98.667929492459734 -42.03512103936265 0 -42.03512103936265 24.443314798382744 0 0 0 0 -108.97721230084426 -54.60434382641597 0 -54.60434382641597 33.711370312599684 0 0 0 0 -94.575362105722888 11.081505589702829 0 11.081505589702829 90.740167741505445 0 0 0 0 -135.62244253484823 -24.755343769219962 0 -24.755343769219962 88.164934777832968 0 0 0 0 -84.247741171362577 -22.22370687722514 0 -22.22370687722514 45.733375784108603 0 0 0 0 -96.510609079850838 -35.665923942865675 0 -35.665923942865675 58.118240581843565 0 0 0 0 -39.940619994857116 -9.5084525057700375 0 -9.5084525057700375 30.960310441836384 0 0 0 0 -141.61970099023165 -55.310643510045338 0 -55.310643510045338 33.203199656230936 0 0 0 0 -63.281838286036873 -13.599953151916338 0 -13.599953151916338 57.98027829221428 0 0 0 0 -57.247878105938071 9.5635670209502166 0 9.5635670209502166 48.570840546343334 0 0 0 0 -45.945914183284913 -51.595967906285637 0 -51.595967906285637 87.67306066769288 0 0 0 0 -52.620163154497277 -63.238163182545577 0 -63.238163182545577 68.075204867159755 0 0 0 0 -49.195404238888443 -16.366553144218763 0 -16.366553144218763 -2.4393106469523529 0 0 0 0 -17.88283824366485 2.2780799419267908 0 2.2780799419267908 13.173176058225453 0 0 0 0 -35.455350730975624 -14.103468404368186 0 -14.103468404368186 -2.9803828284664178 0 0 0 0 -29.130589437314484 10.029824103968167 0 10.029824103968167 47.85822201819019 0 0 0 0 -31.316361709643388 -9.0314687618777043 0 -9.0314687618777043 3.8684131117463494 0 0 0 0 -26.339126901009536 -1.1196969075013499 0 -1.1196969075013499 9.347336701337893 0 0 0 0 -38.924398773999201 -13.184256178431269 0 -13.184256178431269 8.6536168606796764 0 0 0 0 -31.444164001281024 -11.51832469723513 0 -11.51832469723513 -1.4707962198053792 0 0 0 0 -8.1314509126869865 -0.28428031115203112 0 -0.28428031115203112 5.3521781124991987 0 0 0 0 -35.533426872709242 -20.519589103973203 0 -20.519589103973203 -2.7062738124650423 0 0 0 0 -15.313600852346894 -3.9113406014561392 0 -3.9113406014561392 5.3394851572634119 0 0 0 0 -16.663402616513167 -5.8363910662673391 0 -5.8363910662673391 8.2335723021439318 0 0 0 0 -15.609377760090865 -5.806313824449262 0 -5.806313824449262 6.5177631217422913 0 0 0 0 -17.051083280195371 -8.1393578243180258 0 -8.1393578243180258 4.1551544601015857 0 0 0 0 -15.923168799839914 -42.085436826737805 0 -42.085436826737805 17.546317825439701 0 0 0 0 -30.661728102221758 -7.7558697992014132 0 -7.7558697992014132 0.67281682819051092 0 0 0 0 -23.633524075128662 -11.487093436969417 0 -11.487093436969417 -3.6723769930185881 0 0 0 0 -11.138663735545165 -10.59605092276702 0 -10.59605092276702 5.2023932907728376 0 0 0 0 234.54488915424008 300.39358418730706 0 300.39358418730706 318.20265605943223 0 0 0 0 -2.4491309441661429 -1.783563799889663 0 -1.783563799889663 1.9207549469304794 0 0 0 0 -2.5945537301486183 54.791566425852466 0 54.791566425852466 441.78060907222516 0 0 0 0 -2.3531581712040861 -2.2235646466242613 0 -2.2235646466242613 2.5268735533059652 0 0 0 0 -150.22768217360135 245.13785401655264 0 245.13785401655264 444.21241452434265 0 0 0 0 -49.538934897563649 -110.20354585495406 0 -110.20354585495406 349.88848757478502 0 0 0 0 -398.91772148712334 -172.44755964563507 0 -172.44755964563507 366.93191379364282 0 0 0 0 -10.963589007038252 -5.530455383217884 0 -5.530455383217884 -1.5548255063658385 0 0 0 0 -68.570409483800177 146.8745443443529 0 146.8745443443529 241.00785701927703 0 0 0 0 -179.48454820770712 3.6422241111883977 0 3.6422241111883977 68.60889792630951 0 0 0 0 -110.25558824415884 -6.6847841713671912 0 -6.6847841713671912 57.944384396431815 0 0 0 0 -113.45323932245265 -67.09905210728175 0 -67.09905210728175 153.96425469647056 0 0 0 0 -2.7382543391431682 -35.364038636760597 0 -35.364038636760597 49.794307972769047 0 0 0 0 -177.60553808545228 -82.427996669356617 0 -82.427996669356617 37.576741730925733 0 0 0 0 -122.6000482017007 -4.4184206925350509 0 -4.4184206925350509 20.255381309008953 0 0 0 0 -33.110795083866833 -79.696778290550242 0 -79.696778290550242 37.268298196805517 0 0 0 0 18.623835620790487 -109.91870551900411 0 -109.91870551900411 79.239759699196611 0 0 0 0 -47.00339399673976 -86.958095963144615 0 -86.958095963144615 190.92583877054676 0 0 0 0 -14.150113768458937 -6.9161207364106261 0 -6.9161207364106261 4.7929301536405298 0 0 0 0 59.880396293359809 -12.696919963907476 0 -12.696919963907476 -4.0632984803283989 0 0 0 0 61.472519920835111 -286.11874736751855 0 -286.11874736751855 -184.08778144661119 0 0 0 0 -5.7496768542332575 -114.05773620012405 0 -114.05773620012405 -12.341356246303803 0 0 0 0 -4.8941872143441287 -139.29793452136386 0 -139.29793452136386 -34.537667556453016 0 0 0 0 134.46852828204283 -60.812776078973457 0 -60.812776078973457 -127.64705110887735 0 0 0 0 -307.13876396989508 -215.90618050528929 0 -215.90618050528929 -32.083365488732397 0 0 0 0 -410.49332477031203 9.8711263287677866 0 9.8711263287677866 28.645529902898488 0 0 0 0 -364.10302382503141 28.194449031058411 0 28.194449031058411 -46.505180955127571 0 0 0 0 -1.5997705222140155 0.042018907323353005 0 0.042018907323353005 0.91877575198137595 0 0 0 0 65.463402570669132 242.50620520530265 0 242.50620520530265 64.707375048994891 0 0 0 0 25.635486953586224 286.81254315668775 0 286.81254315668775 378.76960691222484 0 0 0 0 179.28748639118567 146.05314390701187 0 146.05314390701187 -65.396176301837841 0 0 0 0 132.86149964573269 180.84693975322534 0 180.84693975322534 -87.337697439651492 0 0 0 0 152.97982056020555 95.011767791708508 0 95.011767791708508 -11.978233494813139 0 0 0 0 84.249423548331833 136.33920244942374 0 136.33920244942374 -31.561142454077526 0 0 0 0 26.549849045099108 -10.91091069872391 0 -10.91091069872391 -148.25364942011765 0 0 0 0 43.421201701421523 15.031348216973583 0 15.031348216973583 -199.8198369343786 0 0 0 0 -33.440074276124506 106.16328733169212 0 106.16328733169212 44.006294017513483 0 0 0 0 67.860920628660097 61.72600361076411 0 61.72600361076411 -134.40875477112968 0 0 0 0 -958.78581473688246 54.219908114600912 0 54.219908114600912 35.812618217055388 0 0 0 0 -467.69496956837247 -682.6746548287847 0 -682.6746548287847 -573.7561339961012 0 0 0 0 -242.4976317450346 -260.7733844946456 0 -260.7733844946456 170.92932890092447 0 0 0 0 282.57961751598486 306.28006613556886 0 306.28006613556886 -166.94603175919292 0 0 0 0 -65.257266698958119 25.93470737101643 0 25.93470737101643 -198.38270725109749 0 0 0 0 -79.18836062525952 137.5445520105884 0 137.5445520105884 -779.81948229847785 0 0 0 0 -158.86543297595927 -235.16380017942629 0 -235.16380017942629 -349.31869073397218 0 0 0 0 161.87648807919322 77.685169109481421 0 77.685169109481421 -387.66567012644828 0 0 0 0 10.570632595685311 -97.588162700822068 0 -97.588162700822068 -237.84073211619761 0 0 0 0 -203.98153731857747 -141.81295225823862 0 -141.81295225823862 -173.71613019607321 0 0 0 0 -668.39057901713022 -60.091548344536363 0 -60.091548344536363 52.664216199211296 0 0 0 0 -559.92723667078826 -537.38042158830285 0 -537.38042158830285 -613.10194811980818 0 0 0 0 -502.70498890108865 41.462799597654794 0 41.462799597654794 19.094007923240497 0 0 0 0 -444.81095767693478 -64.066096810249292 0 -64.066096810249292 -35.051428786624456 0 0 0 0 -269.6558076710935 68.206220813691289 0 68.206220813691289 -46.46741231759006 0 0 0 0 -225.49992206240859 5.9670419714470881 0 5.9670419714470881 -31.173085796646774 0 0 0 0 -0.68975679916968602 -1.1725042489105846 0 -1.1725042489105846 -0.92176714874777321 0 0 0 0 -511.3116149752168 183.12209680525484 0 183.12209680525484 106.64097985842 0 0 0 0 -203.91116859854083 45.086771047184811 0 45.086771047184811 4.9664356490989121 0 0 0 0 -9.7444760890595035 -2.4323466368462476 0 -2.4323466368462476 0.029442422351140474 0 0 0 0 362.03190715164237 97.740129800976774 0 97.740129800976774 -305.18837229358769 0 0 0 0 -352.7210548330404 -374.05067560513044 0 -374.05067560513044 -97.170624504229181 0 0 0 0 70.86725163256051 -182.39796766731774 0 -182.39796766731774 -662.97190370693079 0 0 0 0 -41.060682614028337 -513.99862371879044 0 -513.99862371879044 -998.10552142765573 0 0 0 0 51.579316634242787 -221.89445606896277 0 -221.89445606896277 -138.12404107777456 0 0 0 0 -166.02422186562035 -450.16918865022535 0 -450.16918865022535 -294.76787637670509 0 0 0 0 -334.83459824191232 -239.88293807091895 0 -239.88293807091895 194.36762765154253 0 0 0 0 -25.06504045362243 -3.1604597215261574 0 -3.1604597215261574 0.86930649315594266 0 0 0 0 -449.08539643294353 -395.68840866998698 0 -395.68840866998698 77.496820745321202 0 0 0 0 -4.4614609337525337 -1.1156515343664921 0 -1.1156515343664921 -2.2905807518104835 0 0 0 0 -105.31633254447661 -125.63477243971647 0 -125.63477243971647 78.427328153033159 0 0 0 0 -95.815995912795188 -2.5802744889765563 0 -2.5802744889765563 185.65112608610843 0 0 0 0 22.890100964134035 -10.522980298640505 0 -10.522980298640505 -125.22110285419149 0 0 0 0 -38.457205546903424 -20.902415276167631 0 -20.902415276167631 13.277603637655375 0 0 0 0 -16.954902341487468 -45.876151479421878 0 -45.876151479421878 35.013463579735799 0 0 0 0 -18.788890791906624 -29.891186974321116 0 -29.891186974321116 -51.712187437762623 0 0 0 0 -17.962213276608963 5.1999481174125322 0 5.1999481174125322 -23.48171789552498 0 0 0 0 2.9417925244342769 4.7418635524163619 0 4.7418635524163619 -23.653553158677596 0 0 0 0 -62.975529902843846 -52.360541826961025 0 -52.360541826961025 62.592935704078627 0 0 0 0 -37.911663705628854 8.0980809207873339 0 8.0980809207873339 -1.1110071237801353 0 0 0 0 568.3324657563935 72.486793828271402 0 72.486793828271402 41.223054163738198 0 0 0 0 -4.6572452620588507 -6.5108928830860293 0 -6.5108928830860293 4.6760333118374469 0 0 0 0 -32.776857517442181 -1.1236692748502062 0 -1.1236692748502062 2.4745006844383948 0 0 0 0 -159.20541295502335 36.559787985050889 0 36.559787985050889 249.77267273868563 0 0 0 0 27.143237340955238 96.889155211226125 0 96.889155211226125 -331.6808965459918 0 0 0 0 -171.06459162970714 -309.9627233393295 0 -309.9627233393295 -152.33793366736774 0 0 0 0 -293.34933696272492 -370.26276237229467 0 -370.26276237229467 -179.05282871459463 0 0 0 0 -444.56639420562715 -46.214711241038863 0 -46.214711241038863 192.11034975573367 0 0 0 0 83.511970976069279 174.46046392076232 0 174.46046392076232 76.933458371677943 0 0 0 0 -215.83665330757503 -263.08140425345624 0 -263.08140425345624 5.1362767168281671 0 0 0 0 -109.44686701004684 -175.17664371979095 0 -175.17664371979095 2.0662673385556225 0 0 0 0 -92.567640547000337 -165.3193539976902 0 -165.3193539976902 -29.189590645731329 0 0 0 0 -334.07801205663418 -239.45316887972911 0 -239.45316887972911 -9.6622689610085501 0 0 0 0 -111.53087573345738 13.732600709679232 0 13.732600709679232 20.559709157569955 0 0 0 0 -2.8396479864240973 -12.366672102833263 0 -12.366672102833263 -40.160690386060992 0 0 0 0 -2.0303915962140309 -2.8974431188714789 0 -2.8974431188714789 4.8754810809722358 0 0 0 0 78.713177587022074 -91.757247388946652 0 -91.757247388946652 -97.461437141925288 0 0 0 0 -458.33615146565717 -308.24704218036663 0 -308.24704218036663 -42.739371602760684 0 0 0 0 -348.06354050106893 46.16676809911371 0 46.16676809911371 18.491583743406181 0 0 0 0 43.142213980376255 -413.31449277642457 0 -413.31449277642457 -328.27333475164801 0 0 0 0 -2.2776735880053991 -4.1431033382745071 0 -4.1431033382745071 -3.2545538514778896 0 0 0 0 -2.4423304673884161 0.87185671034756496 0 0.87185671034756496 2.1131144003837354 0 0 0 0 -32.712728692538803 -38.699908837351813 0 -38.699908837351813 6.8271478277792994 0 0 0 0 -115.05278055167946 24.151488307350348 0 24.151488307350348 13.132110502535852 0 0 0 0 -140.82157645018742 -23.531571940488107 0 -23.531571940488107 59.990134848076195 0 0 0 0 -143.98334031313425 -63.218252570074583 0 -63.218252570074583 45.509160864868136 0 0 0 0 -30.463056932880136 2.9921523515431545 0 2.9921523515431545 3.4674865652323206 0 0 0 0 -60.211656324099749 31.018270361308169 0 31.018270361308169 -25.404093291155618 0 0 0 0 -49.157026239583502 -31.123552300972278 0 -31.123552300972278 -33.867929815548962 0 0 0 0 -2.0607800902671443 2.7221587436082473 0 2.7221587436082473 49.470544391358089 0 0 0 0 -26.551355385090574 -27.183522815927176 0 -27.183522815927176 37.998481479383372 0 0 0 0 -44.649283872269734 1.3113233552725205 0 1.3113233552725205 75.963561908520205 0 0 0 0 6.7538252103840932 32.928156798084501 0 32.928156798084501 69.657981967157127 0 0 0 0 -146.64730228808912 -75.458866525167764 0 -75.458866525167764 -2.745025509547304 0 0 0 0 -234.47735250557889 -50.9302832640833 0 -50.9302832640833 -9.2212651128775178 0 0 0 0 -3.5457044280624643 -0.96004498791087656 0 -0.96004498791087656 0.2469925031275455 0 0 0 0 1.277003389236711 -2.5819151216433767 0 -2.5819151216433767 -1.4832626265386368 0 0 0 0 4.9136807103756581 -6.9651853895049243 0 -6.9651853895049243 -2.5855381090045686 0 0 0 0 -102.82275951377233 -64.986992258676992 0 -64.986992258676992 -13.940893579121621 0 0 0 0 -91.911530010198476 -5.8890860362398598 0 -5.8890860362398598 3.2081069731531215 0 0 0 0 -90.133243001517258 -58.025071162507174 0 -58.025071162507174 -81.168515977128209 0 0 0 0 -102.35775996294979 -52.673933549268668 0 -52.673933549268668 -19.106816795849227 0 0 0 0 -152.7070565836375 -14.730245582075071 0 -14.730245582075071 8.2848429161995227 0 0 0 0 -160.18232133582933 -125.7828845221502 0 -125.7828845221502 -91.074701682818613 0 0 0 0 -58.633069654919382 24.070308970188137 0 24.070308970188137 13.07417005442494 0 0 0 0 0.7936776633723639 36.298100287462603 0 36.298100287462603 -7.4568805149247055 0 0 0 0 -24.593604085173865 -50.824949915315756 0 -50.824949915315756 -3.4429958907089713 0 0 0 0 -79.581487406860106 -24.933019211481906 0 -24.933019211481906 -2.0501214144223923 0 0 0 0 -101.16312537119666 -54.112137286926099 0 -54.112137286926099 -10.45301142891276 0 0 0 0 -45.985649221042308 -3.2192827031403297 0 -3.2192827031403297 1.5887767408603395 0 0 0 0 -23.599344552039014 1.892390566423849 0 1.892390566423849 17.144555669257791 0 0 0 0 -46.912234063631331 -42.677816023744526 0 -42.677816023744526 23.406229405034537 0 0 0 0 -41.413852522309753 -19.882234020567921 0 -19.882234020567921 7.8175541323575999 0 0 0 0 -26.040795964840072 -17.111143525704271 0 -17.111143525704271 -6.94381738928098 0 0 0 0 -19.768756519490125 -42.533678112429925 0 -42.533678112429925 3.8921050297317379 0 0 0 0 -3.8160939836379839 -21.597783806119878 0 -21.597783806119878 4.9747145270230249 0 0 0 0 24.547514991782009 -11.905218619182222 0 -11.905218619182222 -6.0359324716418996 0 0 0 0 7.4739857279710122 -47.13425448717885 0 -47.13425448717885 -45.632016492635557 0 0 0 0 -2.3529001097922446 -12.674652984844442 0 -12.674652984844442 2.8425569889550388 0 0 0 0 -15.725115903638653 37.659707066396322 0 37.659707066396322 67.563614624085858 0 0 0 0 -4.4865934259133269 -2.9112334187270292 0 -2.9112334187270292 -0.54920589147312615 0 0 0 0 -59.438261492032325 -42.023736836668832 0 -42.023736836668832 41.155761616066684 0 0 0 0 -46.232126021805016 -45.286241398953052 0 -45.286241398953052 -24.715130718961518 0 0 0 0 -30.740666856891039 -28.204333095048923 0 -28.204333095048923 -67.263237507479971 0 0 0 0 -6.9646915532012201 -8.8976493638336347 0 -8.8976493638336347 -0.62180543337050231 0 0 0 0 -28.530761808375246 -26.44063880806425 0 -26.44063880806425 -30.029627723329213 0 0 0 0 -8.46731599439984 1.3857714099234357 0 1.3857714099234357 0.76294861674264602 0 0 0 0 -17.581502210742656 57.345885282850048 0 57.345885282850048 26.705953765134836 0 0 0 0 -56.781557172660541 25.498852394490541 0 25.498852394490541 14.931321719437619 0 0 0 0 -34.433335065368738 -50.859291848028988 0 -50.859291848028988 18.789083022504428 0 0 0 0 -85.928224452221002 22.082741360508862 0 22.082741360508862 -74.16289250936984 0 0 0 0 -59.665128363974077 2.3916188474749482 0 2.3916188474749482 3.6931773824149081 0 0 0 0 -60.007473423374904 -19.095485017429951 0 -19.095485017429951 -69.313220518559717 0 0 0 0 -5.8344963939525769 -32.944639331398321 0 -32.944639331398321 -15.398179188432323 0 0 0 0 -45.350669926534465 -30.154041059550764 0 -30.154041059550764 -10.199010565882418 0 0 0 0 -36.566595045363727 -27.24940305982885 0 -27.24940305982885 -11.345957230873449 0 0 0 0 -21.347684248175938 4.1427923719336377 0 4.1427923719336377 -2.0356734389288249 0 0 0 0 -36.3286348850379 -6.5293673696592123 0 -6.5293673696592123 -7.9737970425655362 0 0 0 0 -53.028951885265997 -6.0316711105087961 0 -6.0316711105087961 -7.9868628220297069 0 0 0 0 -55.049486127136333 -3.6013231030758561 0 -3.6013231030758561 1.8941321419497399 0 0 0 0 -113.29210226554278 -2.250494102446055 0 -2.250494102446055 2.6260225340238321 0 0 0 0 -75.617204451940779 -51.226559701922724 0 -51.226559701922724 12.624188127829143 0 0 0 0 -39.14237612665238 -4.922003581030026 0 -4.922003581030026 -3.4788905984269149 0 0 0 0 -60.616236861333164 5.9959565261866601 0 5.9959565261866601 -3.0033942056070373 0 0 0 0 -52.06328263036994 10.215883708469619 0 10.215883708469619 -6.8708348694281085 0 0 0 0 -64.011037360069167 -16.578735845062056 0 -16.578735845062056 -13.959727054970926 0 0 0 0 -68.352724244905403 2.6528764513273018 0 2.6528764513273018 -0.471803996884546 0 0 0 0 -52.45528136320354 11.44565563284732 0 11.44565563284732 -3.4963878276503237 0 0 0 0 -39.989090718212537 -44.896330151832444 0 -44.896330151832444 -40.223412972987717 0 0 0 0 2.9080965895045665 -37.398487083065447 0 -37.398487083065447 -53.507563196603769 0 0 0 0 -19.294612713994866 -35.130451084718743 0 -35.130451084718743 -38.539199991865644 0 0 0 0 -2.8730514522139856 -14.976199766202171 0 -14.976199766202171 -41.796918337879106 0 0 0 0 -26.853930128687352 -0.27398414410799887 0 -0.27398414410799887 -1.1416140878422993 0 0 0 0 -33.9146286469404 -9.4881791267839617 0 -9.4881791267839617 -12.290924289188524 0 0 0 0 -105.01874441114705 12.208840798987694 0 12.208840798987694 -47.399858593820682 0 0 0 0 -48.423975873403833 -55.359192103302576 0 -55.359192103302576 -58.308756744000107 0 0 0 0 -10.877458669103362 6.0789933869239121 0 6.0789933869239121 15.584064935146444 0 0 0 0 14.780122080745059 -2.3343190473963205 0 -2.3343190473963205 -83.210781371030293 0 0 0 0 -162.53443846488881 -115.62728387250218 0 -115.62728387250218 6.1398117621927213 0 0 0 0 -3.6082367235030119 -1.0263318540420627 0 -1.0263318540420627 -0.35942198427183625 0 0 0 0 -187.99348661888507 143.79588663091215 0 143.79588663091215 -97.547124175680892 0 0 0 0 -10.159408931966169 -2.0642835489604394 0 -2.0642835489604394 -0.45473571339531027 0 0 0 0 -29.644869990181178 8.6103211198462759 0 8.6103211198462759 4.7070417455151983 0 0 0 0 -29.200015111244284 9.7180607389636862 0 9.7180607389636862 6.8754492184393712 0 0 0 0 -91.304332952175173 88.094776785617796 0 88.094776785617796 -75.046931177419765 0 0 0 0 -31.467798261779535 22.62084551564476 0 22.62084551564476 -3.6874540812063969 0 0 0 0 -23.874079142384289 -16.576457329486857 0 -16.576457329486857 6.2075021406280939 0 0 0 0 -14.824431557623029 5.6134609070668375 0 5.6134609070668375 36.120339903077138 0 0 0 0 -13.046112709926092 -26.444482310379954 0 -26.444482310379954 41.156284939944157 0 0 0 0 -7.6796386305541091 -6.8649391876779191 0 -6.8649391876779191 -1.0435670193542137 0 0 0 0 -23.412850594104384 -16.558947545955562 0 -16.558947545955562 10.075669961426456 0 0 0 0 -29.287682743357436 -12.425868243280092 0 -12.425868243280092 48.785987977025798 0 0 0 0 -21.771316230646335 -9.6071878142638525 0 -9.6071878142638525 4.6392765805758245 0 0 0 0 -14.586803540975069 -4.1149292579783108 0 -4.1149292579783108 -0.32647411095758194 0 0 0 0 -27.060957477428019 -6.832392401525567 0 -6.832392401525567 -11.271786710148263 0 0 0 0 -34.942264416131366 -13.014397444689848 0 -13.014397444689848 -7.0101241808247323 0 0 0 0 -75.711423609711346 -25.475913583622173 0 -25.475913583622173 0.19416241234102927 0 0 0 0 -2.5060694535743124 -8.9085628788649984 0 -8.9085628788649984 -6.6092739424301428 0 0 0 0 -18.984927076046006 -16.122288459936044 0 -16.122288459936044 -6.5099817066488868 0 0 0 0 -29.065295097396302 -3.0560151630305654 0 -3.0560151630305654 -1.7058363935539091 0 0 0 0 -30.071601358889893 0.99662969089206399 0 0.99662969089206399 -4.0772569774280782 0 0 0 0 -37.032628448709147 -7.7809354176411034 0 -7.7809354176411034 -4.4504867818491221 0 0 0 0 -85.605462118401192 -4.5024986932603497 0 -4.5024986932603497 13.036049979316886 0 0 0 0 -36.678923057035718 -13.043439316093782 0 -13.043439316093782 -14.881413936178888 0 0 0 0 -33.50307190253784 -3.1729689640582492 0 -3.1729689640582492 0.79779143988127155 0 0 0 0 -49.072035219738609 -2.3632619130687544 0 -2.3632619130687544 -4.6553422335946379 0 0 0 0 -3.0315406452180866 2.8285914420188689 0 2.8285914420188689 1.4314652399100778 0 0 0 0 -58.021064221498818 -30.357728636296315 0 -30.357728636296315 2.351009253778102 0 0 0 0 -94.691730889080645 26.458904429322729 0 26.458904429322729 31.742908403126876 0 0 0 0 -41.809832893115242 -14.59683585823997 0 -14.59683585823997 -4.5888845905712561 0 0 0 0 -51.383061743348662 -9.925534858495439 0 -9.925534858495439 52.323486059947072 0 0 0 0 -42.381413515395252 9.2453238261650768 0 9.2453238261650768 4.6857464635334622 0 0 0 0 -51.71834490634501 2.896755978484407 0 2.896755978484407 0.60065021537775465 0 0 0 0 -6.9470625403046142 -60.082562806389433 0 -60.082562806389433 -8.7685121219105895 0 0 0 0 -37.351374096192501 -9.2483198074244726 0 -9.2483198074244726 -2.0492951197320375 0 0 0 0 -3.2087127628709879 -5.1498155518937843 0 -5.1498155518937843 0.54715022386748302 0 0 0 0 -42.904020452555415 4.6261186976822728 0 4.6261186976822728 -2.328111371381965 0 0 0 0 -79.893573533305243 -89.229151209159454 0 -89.229151209159454 67.438239411908398 0 0 0 0 -32.668365549587179 -106.6196910247736 0 -106.6196910247736 -132.67552343549914 0 0 0 0 -24.513695148401894 8.8872845199653057 0 8.8872845199653057 -12.048858635687338 0 0 0 0 -23.849255774286576 34.98661286853303 0 34.98661286853303 168.96728190318072 0 0 0 0 -0.77405656616227247 -1.0014265517475494 0 -1.0014265517475494 0.63291684558053829 0 0 0 0 -107.41639246944396 -36.338580899686576 0 -36.338580899686576 126.71074196739869 0 0 0 0 -26.9540611935372 -23.3609023562326 0 -23.3609023562326 92.491668115548691 0 0 0 0 -11.103752748327679 -50.203388753010131 0 -50.203388753010131 48.067971308896631 0 0 0 0 -19.417263029383321 -54.124654036913611 0 -54.124654036913611 55.529622325447235 0 0 0 0 -8.0896360349433962 -3.8835313634358499 0 -3.8835313634358499 29.686715953827843 0 0 0 0 -12.987634460807385 -60.826761668974314 0 -60.826761668974314 29.439214725437523 0 0 0 0 0.98248372664238559 -124.7245441627075 0 -124.7245441627075 -47.864252529723217 0 0 0 0 -9.1087114860856673 -81.467248115342727 0 -81.467248115342727 28.243734637368675 0 0 0 0 -61.224729982030112 -55.287846221438372 0 -55.287846221438372 15.924731411584219 0 0 0 0 -8.1457317057336667 -3.0930517347613886 0 -3.0930517347613886 2.0449279005528407 0 0 0 0 -48.461910335819994 -14.14629111163265 0 -14.14629111163265 -53.358689038838293 0 0 0 0 -69.550669149743044 -3.9316490475193859 0 -3.9316490475193859 -9.6551809011098157 0 0 0 0 -83.212428496772191 -42.066644076377997 0 -42.066644076377997 -11.092037191440795 0 0 0 0 -85.748601804167265 -23.687770686559787 0 -23.687770686559787 -26.030173765409018 0 0 0 0 -57.536455984867644 -40.560321832842874 0 -40.560321832842874 13.441742420092851 0 0 0 0 -11.774773904646281 -41.254810427448547 0 -41.254810427448547 -13.145720282081129 0 0 0 0 -11.334271589032141 -32.537585622272672 0 -32.537585622272672 -2.1192052977321509 0 0 0 0 47.705567208038701 -60.050468061770346 0 -60.050468061770346 -8.8155940503140471 0 0 0 0 -78.312695753331354 -60.727800165906302 0 -60.727800165906302 -11.403285185534969 0 0 0 0 -0.19953404570041755 0.90341845567347434 0 0.90341845567347434 2.0295356191402618 0 0 0 0 -69.807681959930051 -43.991909831999919 0 -43.991909831999919 -16.001088039554361 0 0 0 0 -64.715204939828254 -32.214505701597091 0 -32.214505701597091 -18.580070128973603 0 0 0 0 -67.854958904023079 -44.391517012555937 0 -44.391517012555937 -17.978450841935228 0 0 0 0 -74.843585047667148 -34.598741604802854 0 -34.598741604802854 -17.427430641772844 0 0 0 0 -74.703387278772425 -34.11355484186106 0 -34.11355484186106 -17.305371227544583 0 0 0 0 -32.833265130208019 -31.683663639217002 0 -31.683663639217002 -34.825819445257366 0 0 0 0 -66.273824418793083 -27.702324713736289 0 -27.702324713736289 -50.060078486102611 0 0 0 0 -50.579331803513924 -45.945822458123075 0 -45.945822458123075 -28.953383871280948 0 0 0 0 -59.894091401452897 -51.785535357369554 0 -51.785535357369554 -48.7662013516765 0 0 0 0 -63.882198189021437 -37.768274503759358 0 -37.768274503759358 12.174894848784675 0 0 0 0 -71.279671730881091 -55.842024995799875 0 -55.842024995799875 -40.177453724112638 0 0 0 0 -7.1368469853723298 -2.1694607134340487 0 -2.1694607134340487 0.29913431182167471 0 0 0 0 -38.211433991484142 -4.9319149323198737 0 -4.9319149323198737 6.5972958248085094 0 0 0 0 -59.182888005088898 -36.855607428156873 0 -36.855607428156873 -29.175964636497156 0 0 0 0 -70.22591694095172 -42.394334571515174 0 -42.394334571515174 -29.400515180621369 0 0 0 0 -54.002066952292807 -41.584303956584563 0 -41.584303956584563 -40.537688759110097 0 0 0 0 -58.986418442145805 -46.113112922113942 0 -46.113112922113942 -37.833525928488598 0 0 0 0 -56.267175713961478 -43.407115312286805 0 -43.407115312286805 -25.903870788339646 0 0 0 0 -52.58988160037552 -52.749319897037822 0 -52.749319897037822 -40.577271811457649 0 0 0 0 -45.620543565615662 -40.36689632875823 0 -40.36689632875823 -37.084322568747666 0 0 0 0 -44.817848265593057 -44.711568782913673 0 -44.711568782913673 -53.985027647162497 0 0 0 0 -53.612148850166705 28.913377436189876 0 28.913377436189876 24.816171276470868 0 0 0 0 -26.687196854520067 5.1641408942176099 0 5.1641408942176099 14.678370184831527 0 0 0 0 -41.667380440543639 -17.729875725509373 0 -17.729875725509373 -30.989321312734774 0 0 0 0 -34.345225248478528 -25.825986331912645 0 -25.825986331912645 -46.732166422225191 0 0 0 0 -98.099785427126335 -12.610650197113955 0 -12.610650197113955 54.869875839371161 0 0 0 0 -74.187345746366191 -15.538544912373936 0 -15.538544912373936 16.13445098002785 0 0 0 0 -115.83430448151194 -47.978037934334907 0 -47.978037934334907 -5.8620730617685695 0 0 0 0 -67.676944417093182 -55.751428495935443 0 -55.751428495935443 -35.994008032159854 0 0 0 0 -34.97934120267746 -15.047854810591275 0 -15.047854810591275 -20.27220405756907 0 0 0 0 -0.76310246802313486 -35.869451153654609 0 -35.869451153654609 -55.476841752815744 0 0 0 0 -6.4125247581541771 -34.104452604598919 0 -34.104452604598919 -121.08282258512736 0 0 0 0 2.5811906412563985 -5.6228245110073658 0 -5.6228245110073658 -34.846659515207648 0 0 0 0 -35.403747590371495 -32.300096699350661 0 -32.300096699350661 -84.398210693911096 0 0 0 0 -93.442979489256686 -63.092095242473533 0 -63.092095242473533 -27.208824061045561 0 0 0 0 -87.933215056938934 -0.13285913143454309 0 -0.13285913143454309 1.7521388893871972 0 0 0 0 -73.97561225161553 -1.2301078406420629 0 -1.2301078406420629 4.7300247914290594 0 0 0 0 -90.383162490354152 -67.738353805902079 0 -67.738353805902079 -39.297162054304863 0 0 0 0 -55.736076168033833 -35.215857576766552 0 -35.215857576766552 -13.645480685328948 0 0 0 0 1.8663712637535355 -9.6372102782979709 0 -9.6372102782979709 -20.645840782953201 0 0 0 0 2.5380932162079262 3.6683207171076901 0 3.6683207171076901 -13.594560657601505 0 0 0 0 0.57962085701629462 -1.0113879041480942 0 -1.0113879041480942 -1.3532427815743606 0 0 0 0 1.3032157727589038 -10.780018402755047 0 -10.780018402755047 -3.548474988471753 0 0 0 0 2.0668906605876316 -2.9866508879510292 0 -2.9866508879510292 -4.2226490276226443 0 0 0 0 -3.6554920820199186 -6.5353093028800231 0 -6.5353093028800231 -6.3695536395584895 0 0 0 0 -32.971022996069223 3.0947874286921433 0 3.0947874286921433 -4.3388210437769885 0 0 0 0 -38.106785342104558 -28.654826463844984 0 -28.654826463844984 -20.090396389933403 0 0 0 0 -44.10757195453516 -18.108819590205371 0 -18.108819590205371 -3.3122936534673499 0 0 0 0 -16.005010449094698 -20.915406583755384 0 -20.915406583755384 -5.7590846883747417 0 0 0 0 -22.11616921204768 -6.0481104362189058 0 -6.0481104362189058 4.5031631860301786 0 0 0 0 8.7022352569874784 3.2395717409061717 0 3.2395717409061717 -4.741839670353329 0 0 0 0 -8.9874297219284927 3.9497382640802243 0 3.9497382640802243 0.11003589648498746 0 0 0 0 -0.90172310352184581 1.4655040857712152 0 1.4655040857712152 0.98130703032216271 0 0 0 0 -4.2196527523410623 -8.0852564993481337 0 -8.0852564993481337 -0.92310725259767423 0 0 0 0 -23.962055900839914 -15.408160269571084 0 -15.408160269571084 -3.349680684165051 0 0 0 0 -11.616745186773187 -17.88499213923069 0 -17.88499213923069 -23.803975093858298 0 0 0 0 -54.955223109071085 -43.588479785953666 0 -43.588479785953666 -31.057859905460759 0 0 0 0 -29.203699384830543 -35.954037610855266 0 -35.954037610855266 -43.980823682023583 0 0 0 0 -6.8061498537354055 -15.727431220730097 0 -15.727431220730097 -16.473194075281953 0 0 0 0 -28.747264817822725 -11.965324137610651 0 -11.965324137610651 -6.4066068153201741 0 0 0 0 6.2152038632339099 -15.043446586636236 0 -15.043446586636236 -6.7439024890450412 0 0 0 0 -13.215586464390071 -1.6535689500911417 0 -1.6535689500911417 -3.5864055147042109 0 0 0 0 21.1057786271449 2.4871740691019397 0 2.4871740691019397 -8.6279541428399966 0 0 0 0 -0.50497869051185518 1.660733759470844 0 1.660733759470844 0.92917666630764106 0 0 0 0 -81.707086092130339 -28.357248020500094 0 -28.357248020500094 -10.119534249127355 0 0 0 0 -56.220008231466636 -20.343073727255444 0 -20.343073727255444 -10.52319863386964 0 0 0 0 -88.610462214346626 -36.738534946374003 0 -36.738534946374003 -11.47544641596879 0 0 0 0 -2.3946014894141143 0.23494184939163176 0 0.23494184939163176 0.75606985570526941 0 0 0 0 -44.910281261705677 -23.002874838360015 0 -23.002874838360015 -9.9451381066197655 0 0 0 0 -5.3211772858121549 -8.5559993584975711 0 -8.5559993584975711 0.51954275917876203 0 0 0 0 -3.9329549450048944 -9.5941433901591608 0 -9.5941433901591608 -1.8080410547770498 0 0 0 0 -24.059350661467761 -14.23470445408293 0 -14.23470445408293 -7.4912626464472396 0 0 0 0 -23.841296879480069 -3.1962381034608143 0 -3.1962381034608143 -9.5205993875952117 0 0 0 0 -2.5912219859555421 -2.4523065165552751 0 -2.4523065165552751 0.33375053310262714 0 0 0 0 -44.525806665347773 -24.692242369512314 0 -24.692242369512314 -6.5292954854057825 0 0 0 0 -54.429071419574029 -16.453529803632023 0 -16.453529803632023 0.15317585142202006 0 0 0 0 -27.350035534327617 -10.223564989642909 0 -10.223564989642909 -6.1165603848385217 0 0 0 0 -26.974629437929252 -6.1971616091022952 0 -6.1971616091022952 2.5653857719416919 0 0 0 0 2.4928331459259567 -17.108350265873469 0 -17.108350265873469 -18.948920813930606 0 0 0 0 -51.038517626671819 -27.746957877511988 0 -27.746957877511988 -12.016336221986307 0 0 0 0 30.35875692753325 2.1085249056453677 0 2.1085249056453677 -59.774123845272698 0 0 0 0 -29.561205140533275 -31.07650937287417 0 -31.07650937287417 -32.826051440887454 0 0 0 0 -14.022822189594876 -21.218448610648196 0 -21.218448610648196 -11.418614000802151 0 0 0 0 -5.322191717219539 -13.725383096380938 0 -13.725383096380938 -6.7268826772078683 0 0 0 0 -21.559967192146615 -14.504463847226013 0 -14.504463847226013 -3.057368208189911 0 0 0 0 41.65144336000958 -0.093721471254639255 0 -0.093721471254639255 -12.780764999478379 0 0 0 0 -5.8764900793975485 -6.9945469985365065 0 -6.9945469985365065 -7.0691528624929125 0 0 0 0 11.60023858542263 -18.619905436117733 0 -18.619905436117733 -75.468446355231208 0 0 0 0 -36.980926126430859 -14.388205971314619 0 -14.388205971314619 -8.4300822422487727 0 0 0 0 3.5296444642814322 -2.9231705636377185 0 -2.9231705636377185 -4.9189206988830048 0 0 0 0 -34.496512861049268 -25.219042475187052 0 -25.219042475187052 -17.22096061474258 0 0 0 0 -51.084200968893128 -11.321111344217115 0 -11.321111344217115 -1.3646732018141847 0 0 0 0 -84.233223049741355 -54.420955012887134 0 -54.420955012887134 -24.663609610611957 0 0 0 0 -68.303549660704448 -31.824772776376449 0 -31.824772776376449 -9.2307031240736706 0 0 0 0 -105.4046018646186 -53.361523791738136 0 -53.361523791738136 -29.698157507169526 0 0 0 0 -31.580599534077919 -56.991174179365771 0 -56.991174179365771 -58.107254790653769 0 0 0 0 -2.5241028702935466 0.81196925648831098 0 0.81196925648831098 0.99820604243876154 0 0 0 0 -33.756272016064031 -79.042016347737672 0 -79.042016347737672 -95.536352107013954 0 0 0 0 -27.608642982901074 -61.321205797888069 0 -61.321205797888069 -66.933287735959311 0 0 0 0 -73.592665334712365 -81.923245992828924 0 -81.923245992828924 -53.844103174956217 0 0 0 0 -47.305403364480298 -49.25838216695297 0 -49.25838216695297 -37.101395320425581 0 0 0 0 -50.486497041318216 -57.52636534848989 0 -57.52636534848989 -28.359868981580803 0 0 0 0 -42.877017724400503 -66.981818393388494 0 -66.981818393388494 -55.348899471215191 0 0 0 0 -37.552836563219898 -59.351815973179782 0 -59.351815973179782 -45.339842554341885 0 0 0 0 -1.0787287784961848 1.4465764161102328 0 1.4465764161102328 0.37064515158675349 0 0 0 0 -124.72337514818355 -164.05194493047247 0 -164.05194493047247 -105.05907106833047 0 0 0 0 -6.5153536663201521 -5.8918151732459592 0 -5.8918151732459592 -21.283064872039176 0 0 0 0 -117.54812495437318 -34.180956389047481 0 -34.180956389047481 -41.26577037676725 0 0 0 0 -184.68507852221956 -75.418747557988809 0 -75.418747557988809 -17.646081556435547 0 0 0 0 -37.757452542253304 -56.062994402523145 0 -56.062994402523145 -57.588522168612144 0 0 0 0 -55.558025629834447 -58.67815235490059 0 -58.67815235490059 -68.406622699461877 0 0 0 0 -80.125693116959837 -77.169145165931184 0 -77.169145165931184 -45.042380326269267 0 0 0 0 -2.1478223625122155 0.44928934413852062 0 0.44928934413852062 1.3740025568023597 0 0 0 0 -77.761714247536929 -34.908780215536567 0 -34.908780215536567 -46.93993514052454 0 0 0 0 -38.433224908469128 -40.637156752432247 0 -40.637156752432247 -37.87484896609385 0 0 0 0 -65.988810440700036 -50.859649275376796 0 -50.859649275376796 -23.604854567304756 0 0 0 0 -37.099280656111659 -51.577810487781335 0 -51.577810487781335 -11.641191689747586 0 0 0 0 3.9928477579378523 -32.005463477590183 0 -32.005463477590183 -34.24293940662028 0 0 0 0 -39.636076729933848 -39.234778268705213 0 -39.234778268705213 -27.297529175240925 0 0 0 0 -53.192862134150346 -56.859895082110597 0 -56.859895082110597 -29.743940109678988 0 0 0 0 -29.623189031408401 -48.05256527332881 0 -48.05256527332881 -54.878145387987388 0 0 0 0 -145.62006577268039 82.46022907513975 0 82.46022907513975 79.134995261605582 0 0 0 0 16.22255359243718 -115.97197600226991 0 -115.97197600226991 -170.22978872326664 0 0 0 0 -57.102451456012204 30.104956805975235 0 30.104956805975235 -245.0178900363523 0 0 0 0 -61.021160741727726 -73.727525550731286 0 -73.727525550731286 -23.351805436025643 0 0 0 0 -177.81440772451606 -25.284625694781255 0 -25.284625694781255 -31.863950165352435 0 0 0 0 -6.3248064666004211 -2.3074681825719381 0 -2.3074681825719381 -40.397963386410765 0 0 0 0 -87.865519986415165 94.995660287229327 0 94.995660287229327 -13.857208738613281 0 0 0 0 -27.154574167470855 -69.648520636975718 0 -69.648520636975718 -252.80706498710765 0 0 0 0 9.839663283628397e-05 -1.7179388293898512 0 -1.7179388293898512 -2.040771315085848 0 0 0 0 9.9540190316765802 -2.8624582141356996 0 -2.8624582141356996 49.242957006234406 0 0 0 0 31.156598612760718 -47.385918332156621 0 -47.385918332156621 -66.120188322532726 0 0 0 0 -4.7633972360752637 -1.9035473927272051 0 -1.9035473927272051 -1.3229512004272124 0 0 0 0 -4.7826088282454293 -10.978101070507364 0 -10.978101070507364 -91.555245331973993 0 0 0 0 -5.4063530910202928 -4.2398517910001203 0 -4.2398517910001203 -0.023390699441105056 0 0 0 0 -11.472331775861676 -29.299149473818261 0 -29.299149473818261 -26.687468937649101 0 0 0 0 -33.779436934659316 -47.911888086917202 0 -47.911888086917202 -41.419708148310065 0 0 0 0 -50.323486193650751 -70.082826207435119 0 -70.082826207435119 -8.2822479871522603 0 0 0 0 3.1945697964911233 -73.222112280017939 0 -73.222112280017939 -24.115095712147706 0 0 0 0 -51.21865302976471 -41.601654397670245 0 -41.601654397670245 -18.791568428487608 0 0 0 0 -56.612974128365749 -42.283074519943455 0 -42.283074519943455 -15.808893076649838 0 0 0 0 -29.45963880646741 -32.602029276280518 0 -32.602029276280518 -14.052801497420432 0 0 0 0 -46.246949828411744 -28.817998741525571 0 -28.817998741525571 -9.0414106058983634 0 0 0 0 -25.180408594114084 -14.404195820927612 0 -14.404195820927612 -8.0030991244824197 0 0 0 0 -24.236623209479148 -17.423502297388268 0 -17.423502297388268 -3.8422643592214172 0 0 0 0 -34.980479713944078 -22.536313158805797 0 -22.536313158805797 -4.3092190296836179 0 0 0 0 -33.486402146736509 -31.807015272573608 0 -31.807015272573608 -18.755292586855759 0 0 0 0 -8.9186276447616137 -2.3156477247899758 0 -2.3156477247899758 -1.6242829769215357 0 0 0 0 -39.39097939763451 -37.832831562530657 0 -37.832831562530657 -18.569373627256656 0 0 0 0 -40.82091093251438 -15.551483172892546 0 -15.551483172892546 -10.290200548174653 0 0 0 0 -33.146027522481745 -13.989979942482876 0 -13.989979942482876 -44.681714190480079 0 0 0 0 -51.276716441338067 -29.311282497143338 0 -29.311282497143338 -10.75227074041976 0 0 0 0 -37.913526362455741 0.6418241035640051 0 0.6418241035640051 19.020693445544794 0 0 0 0 -22.730632371807587 -21.431219775701493 0 -21.431219775701493 -13.488097075444728 0 0 0 0 -92.753827572742011 -92.1069791787952 0 -92.1069791787952 57.449757026394764 0 0 0 0 -180.54560621583369 9.0943218798583985 0 9.0943218798583985 8.6334819672235881 0 0 0 0 -106.91440459001751 28.608163870097997 0 28.608163870097997 122.66235912773823 0 0 0 0 -19.23907287357622 -2.2194819476383856 0 -2.2194819476383856 5.2947974877615662 0 0 0 0 -0.75898799817269946 -1.2817061064961903 0 -1.2817061064961903 0.023542534081299249 0 0 0 0 12.841378407341836 -45.837474657226949 0 -45.837474657226949 -73.551298226313975 0 0 0 0 -39.501882159063825 -41.643693533013789 0 -41.643693533013789 -1.6734932921040127 0 0 0 0 -15.870595603251331 -0.59696700574590977 0 -0.59696700574590977 7.7608395603899192 0 0 0 0 -18.611208218935644 -34.90156458573432 0 -34.90156458573432 -49.729108543947348 0 0 0 0 -17.800639995335587 26.148016220390538 0 26.148016220390538 29.585517581774297 0 0 0 0 -27.988512433279539 72.35093599243676 0 72.35093599243676 104.45017068751437 0 0 0 0 -60.764691682128614 -165.92658438480606 0 -165.92658438480606 -132.05987804889872 0 0 0 0 -1.6060910277043661 -0.2982553350777053 0 -0.2982553350777053 0.62169867404394774 0 0 0 0 8.7664638486858166 -21.692152656366165 0 -21.692152656366165 -92.864774576567299 0 0 0 0 -90.973032198678993 -39.44780947474348 0 -39.44780947474348 27.765884325453392 0 0 0 0 -3.1955086552840726 0.65712597201682854 0 0.65712597201682854 1.2429344231635207 0 0 0 0 -40.206788895906357 -87.940984054949183 0 -87.940984054949183 -74.564243967171251 0 0 0 0 -30.360876724087575 -10.989784235412287 0 -10.989784235412287 47.256443057358638 0 0 0 0 -8.0977902671947959 -48.26961989141266 0 -48.26961989141266 -10.146579158418973 0 0 0 0 -29.599321976696956 -36.769619531388912 0 -36.769619531388912 -6.3217907262992021 0 0 0 0 -14.986194008368329 -23.496732414667036 0 -23.496732414667036 -21.883932056650792 0 0 0 0 -26.357704727128294 -37.084763233016659 0 -37.084763233016659 -21.168759309749817 0 0 0 0 -47.003120155379293 -20.218066347394029 0 -20.218066347394029 -8.563844110425606 0 0 0 0 -49.692944119822641 -33.76804450798204 0 -33.76804450798204 -16.606771439560475 0 0 0 0 -29.073808671309962 -37.182590026033836 0 -37.182590026033836 -34.093766119713862 0 0 0 0 7.0658362951561173 -13.827072357214121 0 -13.827072357214121 -29.794522926752471 0 0 0 0 -14.335500117143965 -32.654016216662541 0 -32.654016216662541 -40.401413037600065 0 0 0 0 -12.625539553293493 -40.183759462190949 0 -40.183759462190949 -64.5244628847895 0 0 0 0 -15.796949510333093 -5.3191889857023025 0 -5.3191889857023025 1.2985411119472294 0 0 0 0 -14.520661181333708 -39.152816429006748 0 -39.152816429006748 -63.690851925741299 0 0 0 0 -36.477217225270579 -19.435004991231608 0 -19.435004991231608 -31.926593872414287 0 0 0 0 -10.722545294469455 -5.4340295994712173 0 -5.4340295994712173 0.0017423312080444399 0 0 0 0 8.0987683805869892 -8.6522768716527025 0 -8.6522768716527025 -71.611171763172024 0 0 0 0 2.969624063097541 -2.6720670361581185 0 -2.6720670361581185 -8.4391477522375968 0 0 0 0 -16.303145993362705 -37.612996361487987 0 -37.612996361487987 -64.274595881846494 0 0 0 0 -6.3823120409693672 -6.1483249537844902 0 -6.1483249537844902 0.29601459089053817 0 0 0 0 -8.9601080248976359 -5.5439559058240011 0 -5.5439559058240011 -0.57401269393074306 0 0 0 0 -6.6442291035491508 -21.984201622214641 0 -21.984201622214641 -76.241436367025926 0 0 0 0 -12.783603126310481 -36.032398191027049 0 -36.032398191027049 -109.85056146398892 0 0 0 0 -13.203471573709976 -38.404706311353181 0 -38.404706311353181 -65.479704339156314 0 0 0 0 -18.071530237422849 -46.596966436626708 0 -46.596966436626708 -53.535481008368663 0 0 0 0 -24.583059034252074 -57.764736404712423 0 -57.764736404712423 -34.055405092715546 0 0 0 0 -37.980236174400488 -38.219655937116798 0 -38.219655937116798 -13.224872172854504 0 0 0 0 -31.468550404315465 -69.392164870907536 0 -69.392164870907536 -44.132643209581978 0 0 0 0 -24.992946283295169 -44.862964742842735 0 -44.862964742842735 -89.252605188495465 0 0 0 0 -35.951834109204356 -60.305452968715485 0 -60.305452968715485 -58.547743565644581 0 0 0 0 -17.828791693726089 -69.655449892324668 0 -69.655449892324668 -141.61709416054097 0 0 0 0 0.92792803385640354 3.4890484216434068 0 3.4890484216434068 -3.9057346243869686 0 0 0 0 -3.2509435756073799 -3.5291347605423979 0 -3.5291347605423979 -0.005540955026597392 0 0 0 0 -0.25476523325954759 -0.81122928788699156 0 -0.81122928788699156 -2.4772397640009083 0 0 0 0 -50.502457469207002 -58.496697513805316 0 -58.496697513805316 -95.376433441804124 0 0 0 0 -3.9878009587991983 -5.6274245054182392 0 -5.6274245054182392 -0.043482841445191683 0 0 0 0 -1.2067688911862149 -0.55691899103858411 0 -0.55691899103858411 -1.3221109420663066 0 0 0 0 -56.786259882239392 -140.07164051276158 0 -140.07164051276158 -262.86725335703716 0 0 0 0 -34.66979072997492 -24.152764605693456 0 -24.152764605693456 -109.61096262498999 0 0 0 0 -148.53179363284289 -51.833457126901635 0 -51.833457126901635 68.226549952726543 0 0 0 0 -8.7830039746622788 -53.323989675489756 0 -53.323989675489756 -107.11703440783924 0 0 0 0 -26.483738471462857 22.798017605675341 0 22.798017605675341 12.289204747026815 0 0 0 0 -16.988899228998939 4.7386538182662719 0 4.7386538182662719 19.100815778100941 0 0 0 0 -71.730310949960767 -32.429941836036505 0 -32.429941836036505 -29.127542206719227 0 0 0 0 1.7260901120274923 2.5994495021825443 0 2.5994495021825443 0.87762538502910203 0 0 0 0 -79.396318000974134 -54.336690383121777 0 -54.336690383121777 -42.568896643892003 0 0 0 0 -44.943257515697042 -11.488457883197555 0 -11.488457883197555 17.756178657130476 0 0 0 0 33.250628352376225 38.901785560241592 0 38.901785560241592 31.745893467170163 0 0 0 0 -33.697854970870083 0.41653399626741816 0 0.41653399626741816 8.9900278523107282 0 0 0 0 -5.2348686699035056 0.016134496198759507 0 0.016134496198759507 -1.4719591446008913 0 0 0 0 -92.612118544675468 -62.9719767606598 0 -62.9719767606598 -28.994616742216749 0 0 0 0 -29.723749853472327 -9.0836549844104866 0 -9.0836549844104866 3.0959664793044794 0 0 0 0 -41.966445521378773 -11.570061097282178 0 -11.570061097282178 3.8343262545604375 0 0 0 0 -47.79154019671023 -25.362046474775639 0 -25.362046474775639 -37.739253293564616 0 0 0 0 -55.704674491702463 -64.571757046861876 0 -64.571757046861876 -43.723776835180615 0 0 0 0 -87.007380416325759 -48.289902870365495 0 -48.289902870365495 -32.778269859401007 0 0 0 0 -130.92976454900054 -26.16095296289177 0 -26.16095296289177 -26.072347030701167 0 0 0 0 -2.400690842282529 0.71422247738455269 0 0.71422247738455269 1.2194930009797957 0 0 0 0 -55.704976467837696 -38.007370910999271 0 -38.007370910999271 -27.473289895377548 0 0 0 0 -39.630561615107581 -57.543602974006262 0 -57.543602974006262 -72.221642464030083 0 0 0 0 -13.260642711858964 -50.675042662867781 0 -50.675042662867781 -24.264517964604352 0 0 0 0 -4.6525735310133314 -13.690216454907386 0 -13.690216454907386 -20.624107940928468 0 0 0 0 8.0547708593558056 -14.784988927957016 0 -14.784988927957016 -24.357196417403344 0 0 0 0 -30.33045826513262 -52.265874744418852 0 -52.265874744418852 -32.309398583574193 0 0 0 0 -38.466780919727171 -25.384240260043953 0 -25.384240260043953 -9.3280205213250156 0 0 0 0 10.191843843142124 -27.835701290159477 0 -27.835701290159477 -43.107373353932417 0 0 0 0 -35.874257522649714 -27.971540350059513 0 -27.971540350059513 -28.581192448472393 0 0 0 0 -54.899272075010231 -30.128846622893434 0 -30.128846622893434 -27.568254612191595 0 0 0 0 -27.347644784234944 -42.954469568618038 0 -42.954469568618038 -25.090023549350008 0 0 0 0 -35.022293790963886 -15.904059035602131 0 -15.904059035602131 -4.1174151936220369 0 0 0 0 -29.335874288374328 -12.00294593364746 0 -12.00294593364746 5.4848507749200408 0 0 0 0 -15.659242594585521 -18.310285266281653 0 -18.310285266281653 -44.76345154536466 0 0 0 0 -54.076437847979832 -21.513438510055494 0 -21.513438510055494 -13.218759437281733 0 0 0 0 -1.8562343545584099 0.34157966979090304 0 0.34157966979090304 1.454548961203983 0 0 0 0 -5.6235510067781433 -19.741223981042822 0 -19.741223981042822 -33.193117863333327 0 0 0 0 -18.106451189494692 -5.3868513623481791 0 -5.3868513623481791 0.73766605378303496 0 0 0 0 -40.812308111719176 -3.0823245513045094 0 -3.0823245513045094 1.9012438591228147 0 0 0 0 -19.775902090426825 -3.9891666035744571 0 -3.9891666035744571 -0.00047678508594677354 0 0 0 0 -24.968866686978117 -4.5378285181327023 0 -4.5378285181327023 2.1817309234140621 0 0 0 0 -35.443835589612718 -4.2737721632885757 0 -4.2737721632885757 2.2096762934322594 0 0 0 0 -12.033236927708003 -2.7851729164527654 0 -2.7851729164527654 -0.5603737414527914 0 0 0 0 -28.205916800748895 -8.5811250771274565 0 -8.5811250771274565 10.507185869359386 0 0 0 0 -53.600662104799994 -20.175632534407669 0 -20.175632534407669 21.097741319503257 0 0 0 0 -23.089426179649308 -8.1896844532441264 0 -8.1896844532441264 -3.6631197532220767 0 0 0 0 -15.406200699781195 -7.995005949462282 0 -7.995005949462282 3.4976151602896506 0 0 0 0 -57.772104724783276 -40.716841179942094 0 -40.716841179942094 4.0772656511035166 0 0 0 0 -37.455603085440089 -3.7035929472765758 0 -3.7035929472765758 12.954053708794845 0 0 0 0 -4.6664062548079528 -27.830521904883383 0 -27.830521904883383 29.844872078716008 0 0 0 0 -29.961197733131485 0.89037889431606287 0 0.89037889431606287 0.014340338229458911 0 0 0 0 -31.390640111916525 1.8414947822238847 0 1.8414947822238847 1.0369789138319769 0 0 0 0 -27.499785154897836 2.7732562957099085 0 2.7732562957099085 1.2140359166973043 0 0 0 0 -26.773267654052688 5.1044324096569316 0 5.1044324096569316 6.9404331917197561 0 0 0 0 -21.320558170649747 7.0048974736914911 0 7.0048974736914911 -0.023574835476836323 0 0 0 0 -250.84795319845944 212.81884302881053 0 212.81884302881053 79.312569967552463 0 0 0 0 -124.17522722255671 -195.00179306630992 0 -195.00179306630992 -11.129219323080179 0 0 0 0 -64.26625046825211 -65.89397538658659 0 -65.89397538658659 190.2688258214969 0 0 0 0 -25.128586177417617 1.9269622412678551 0 1.9269622412678551 -0.027579535524181964 0 0 0 0 -4.7173051939862489 -35.961966832225215 0 -35.961966832225215 -30.558351648349799 0 0 0 0 85.932137720883475 -76.737149178517484 0 -76.737149178517484 -256.18691411847249 0 0 0 0 103.73616370105447 -5.4646798225212478 0 -5.4646798225212478 -33.938153256239303 0 0 0 0 -248.74778860791321 354.42058765417289 0 354.42058765417289 172.63290461644647 0 0 0 0 -48.539716241683919 2.4199365154767989 0 2.4199365154767989 5.5340856252570143 0 0 0 0 -57.818635777737654 8.2579237309396376 0 8.2579237309396376 31.559367748326167 0 0 0 0 -45.149927255650255 -16.00573140780125 0 -16.00573140780125 -0.46382482288026949 0 0 0 0 -44.793236229714239 -29.380303048464839 0 -29.380303048464839 6.4170838188045192 0 0 0 0 -47.216595136502292 -30.762989748901646 0 -30.762989748901646 12.836643219381244 0 0 0 0 -124.32931847448162 -249.50271974451184 0 -249.50271974451184 13.228831821207223 0 0 0 0 -131.48820714989415 -8.6727756437728658 0 -8.6727756437728658 275.23125421177133 0 0 0 0 -57.887605389388881 5.7575517650164443 0 5.7575517650164443 4.4710250413998907 0 0 0 0 20.388748426106758 196.81935138734605 0 196.81935138734605 -261.91989610731071 0 0 0 0 20.734005072466971 -76.782906160973198 0 -76.782906160973198 -253.22092580531285 0 0 0 0 -6.7664833725619644 -0.15245687814504016 0 -0.15245687814504016 -0.35500348370593593 0 0 0 0 -38.162658151981304 -36.346636039170562 0 -36.346636039170562 6.4742692386319494 0 0 0 0 -39.886137021916511 -30.731182435943083 0 -30.731182435943083 -10.621324850880683 0 0 0 0 -5.9211661242831042 1.4755174093523351 0 1.4755174093523351 -0.42565502934408023 0 0 0 0 -42.089687899875571 183.01342633911401 0 183.01342633911401 -75.09303932832637 0 0 0 0 -58.20326710514928 -189.18375900712584 0 -189.18375900712584 -269.06206411441531 0 0 0 0 39.748140520547167 95.296430232331886 0 95.296430232331886 -1.468061926157592 0 0 0 0 -192.36228178037709 58.607907967499777 0 58.607907967499777 310.98314826260912 0 0 0 0 85.333809928153642 25.441823180758604 0 25.441823180758604 -107.8700394933349 0 0 0 0 -17.024149271398755 1.8409361610850503 0 1.8409361610850503 0.026578483213202539 0 0 0 0 -47.507856387805077 -15.083668165401241 0 -15.083668165401241 1.7571800575801195 0 0 0 0 -48.286668070293672 -10.911096329470778 0 -10.911096329470778 -8.6299449093756024 0 0 0 0 -138.99917068351351 2.0441708473392977 0 2.0441708473392977 0.018373985165869196 0 0 0 0 -98.327331081585726 -108.60039198775652 0 -108.60039198775652 -60.128775025990933 0 0 0 0 -144.14273678529571 4.1330514262154363 0 4.1330514262154363 26.69343576745554 0 0 0 0 -0.11630308307931614 -0.14785506678416027 0 -0.14785506678416027 -0.44428478931878629 0 0 0 0 -210.65677835953829 -115.64853947790414 0 -115.64853947790414 -0.08975995505161842 0 0 0 0 -327.49835201340829 -284.82435530867446 0 -284.82435530867446 -114.27371826360098 0 0 0 0 -154.25606331780705 -223.34898663837274 0 -223.34898663837274 -277.27849536456779 0 0 0 0 -70.479611320857657 -99.258578802183706 0 -99.258578802183706 -305.43158428122217 0 0 0 0 -1.971950451975232 0.75052930788496752 0 0.75052930788496752 -0.12837093520388013 0 0 0 0 -157.47538969779271 -132.74934956228935 0 -132.74934956228935 -133.03117041948065 0 0 0 0 52.970151150919264 -44.52220850453395 0 -44.52220850453395 -213.73213769252538 0 0 0 0 43.501913336105645 147.43259707610102 0 147.43259707610102 80.07229959102466 0 0 0 0 -9.397632313077338 -15.578699885994411 0 -15.578699885994411 24.762614278508977 0 0 0 0 -1.4692225648058255 -0.55969922669653727 0 -0.55969922669653727 0.36229659213203252 0 0 0 0 11.389490873873001 -7.283586891404525 0 -7.283586891404525 -101.18447314913196 0 0 0 0 34.674287014280708 63.521079105153248 0 63.521079105153248 107.0037354009919 0 0 0 0 -46.280481618625345 -23.883103630702372 0 -23.883103630702372 -46.067923577548612 0 0 0 0 -5.4166671852802608 -2.7521996369382578 0 -2.7521996369382578 1.1867297446898359 0 0 0 0 -286.50605173931763 485.50692702450453 0 485.50692702450453 -1112.8567686473871 0 0 0 0 -424.50565032976738 265.12125372369871 0 265.12125372369871 174.32475161908292 0 0 0 0 -79.752149346255464 -671.06229265887555 0 -671.06229265887555 521.75697030790002 0 0 0 0 -462.64739386537258 -164.95745390409053 0 -164.95745390409053 -0.15386707629873428 0 0 0 0 -626.3617178200293 -362.72202119549263 0 -362.72202119549263 -183.79453827132659 0 0 0 0 -437.24545208898053 -238.545006983897 0 -238.545006983897 -163.57960928987455 0 0 0 0 -301.030715045541 -255.23756254029882 0 -255.23756254029882 -245.16836655813637 0 0 0 0 -332.56464703725942 -79.204013449227929 0 -79.204013449227929 64.517761669190463 0 0 0 0 4.3405487056224956 -82.832934540872088 0 -82.832934540872088 -130.43773579781538 0 0 0 0 -154.45291814230586 42.851132425065835 0 42.851132425065835 39.856052104180627 0 0 0 0 -90.116411069167953 -75.094131281943504 0 -75.094131281943504 -218.17413599508981 0 0 0 0 -425.03656398606108 -165.0920447473851 0 -165.0920447473851 -47.539737024639749 0 0 0 0 -230.07509778891108 105.97460245831348 0 105.97460245831348 257.14641592964608 0 0 0 0 -35.633596302199294 -19.423579290163161 0 -19.423579290163161 -19.673180997094278 0 0 0 0 -19.888729507544156 -2.284716214637303 0 -2.284716214637303 1.407448754265691 0 0 0 0 -57.214059008081676 -15.177868653613132 0 -15.177868653613132 -1.1469985989122051 0 0 0 0 -20.831046102801338 -0.11901478319168746 0 -0.11901478319168746 4.47038179369315 0 0 0 0 -16.828305085008921 0.30590237770054785 0 0.30590237770054785 4.0608155312936685 0 0 0 0 -19.131447715582908 -1.5627783086777072 0 -1.5627783086777072 2.9379095670292372 0 0 0 0 -15.132966800018806 0.78615765944741511 0 0.78615765944741511 6.0409985737075491 0 0 0 0 -15.928808972784076 4.0216575796165444 0 4.0216575796165444 3.4273512787256077 0 0 0 0 108.63684999677935 -39.291195692274769 0 -39.291195692274769 -9.6443211119345733 0 0 0 0 77.120094150843215 84.204166544771709 0 84.204166544771709 -34.902447275939103 0 0 0 0 -126.16843966062879 11.789399002059895 0 11.789399002059895 33.311251700401044 0 0 0 0 -73.241641870416061 -2.6559426861639963 0 -2.6559426861639963 2.8272760069526157 0 0 0 0 -13.051257807537468 17.207907947844475 0 17.207907947844475 4.7253967145268287 0 0 0 0 -49.85322145599639 -24.233065996943878 0 -24.233065996943878 8.5903313517478637 0 0 0 0 -8.9270119066524671 -6.3905033559718163 0 -6.3905033559718163 1.8750997223928625 0 0 0 0 -51.282443889234855 2.9558299615470673 0 2.9558299615470673 -4.8825635397928551 0 0 0 0 -20.723191366510491 -4.2722722833917999 0 -4.2722722833917999 4.681796609703988 0 0 0 0 -85.759456565579967 -6.2853587494448107 0 -6.2853587494448107 37.088363328274909 0 0 0 0 -55.123682290453871 8.4327604134529963 0 8.4327604134529963 7.6389717219842055 0 0 0 0 -28.929263214919104 17.051872509824463 0 17.051872509824463 1.895332740680624 0 0 0 0 -49.397210228093172 10.492711922997998 0 10.492711922997998 4.2267631795841654 0 0 0 0 -79.818037121794987 19.354185020499756 0 19.354185020499756 10.691973481430637 0 0 0 0 -13.264077485277085 75.110942319667117 0 75.110942319667117 29.479508202996556 0 0 0 0 -66.26102824201007 6.3262523628363851 0 6.3262523628363851 -22.413043067495323 0 0 0 0 -58.678058773022713 22.075911304098895 0 22.075911304098895 22.129670284168242 0 0 0 0 -15.901988358837759 3.0507731160846845 0 3.0507731160846845 7.7481352499219556 0 0 0 0 -366.9394808887082 -191.9015012699175 0 -191.9015012699175 -105.5006547070407 0 0 0 0 53.268617814639583 61.764849098993537 0 61.764849098993537 -41.712909901050281 0 0 0 0 -146.72028254895849 149.49386262353136 0 149.49386262353136 127.19657421937126 0 0 0 0 -63.498865363564647 21.348569316934615 0 21.348569316934615 -1.90077066786511 0 0 0 0 38.736962575043435 -20.2228498052012 0 -20.2228498052012 -174.8482706227305 0 0 0 0 -55.321749326303689 -5.8596807459151705 0 -5.8596807459151705 -16.876357535326179 0 0 0 0 -18.739858409787601 5.921574270021793 0 5.921574270021793 10.951004149030249 0 0 0 0 -103.2764673046986 -13.413946600951363 0 -13.413946600951363 64.509055945518071 0 0 0 0 -62.619175293228182 9.1189124962931345 0 9.1189124962931345 45.846753708330368 0 0 0 0 -46.009755906627106 -69.621783314334778 0 -69.621783314334778 16.987129939915548 0 0 0 0 -6.4590174413775046 10.117935187474558 0 10.117935187474558 2.9958589779960594 0 0 0 0 -282.32432694562158 1.1119213635707936 0 1.1119213635707936 81.452618354734639 0 0 0 0 -128.54670082167286 -77.475422210863371 0 -77.475422210863371 75.443986140015653 0 0 0 0 1.1174187527066621 2.1643696646336537 0 2.1643696646336537 1.9310666381974286 0 0 0 0 50.434272744310874 70.359653829111437 0 70.359653829111437 20.280267879761141 0 0 0 0 -3.3569518469521427 1.5690803242419236 0 1.5690803242419236 15.240748916721728 0 0 0 0 70.753790900296735 60.679251029383479 0 60.679251029383479 3.3976352496907225 0 0 0 0 -0.71635209805823052 0.89743628983435997 0 0.89743628983435997 0.25728682998570584 0 0 0 0 -11.686671894298343 26.367146484822626 0 26.367146484822626 10.762308124714622 0 0 0 0 -18.62919011719714 129.44880270920476 0 129.44880270920476 -72.307422394367563 0 0 0 0 -1.0286580043026774 1.6561329461281247 0 1.6561329461281247 -0.31635723049791098 0 0 0 0 -79.142273202283832 199.09631149322342 0 199.09631149322342 146.20993702367863 0 0 0 0 5.7404152771123336 -66.102522565909908 0 -66.102522565909908 -30.026574338128853 0 0 0 0 -372.413237878769 -13.131426634411213 0 -13.131426634411213 245.04838244752167 0 0 0 0 -64.934690280962968 125.41034579954615 0 125.41034579954615 156.12283019886661 0 0 0 0 -173.672607792083 29.861250591630778 0 29.861250591630778 75.547362818984311 0 0 0 0 -145.75253556825919 -79.897224945026323 0 -79.897224945026323 -1.8239243893967796 0 0 0 0 -173.7941744400232 -42.521785051513916 0 -42.521785051513916 36.119513309471586 0 0 0 0 -140.62959247481194 -63.558999426060296 0 -63.558999426060296 43.771261193183989 0 0 0 0 -134.34488945005796 -159.83012049909846 0 -159.83012049909846 -85.339957523584189 0 0 0 0 -176.09227268288669 -124.57299010723966 0 -124.57299010723966 33.819400694067838 0 0 0 0 -213.53195481830699 -173.53696688632186 0 -173.53696688632186 -30.206210613436838 0 0 0 0 -195.34455870796228 -179.89768997812712 0 -179.89768997812712 -28.880969067077956 0 0 0 0 -54.742908997795894 -113.78586466550837 0 -113.78586466550837 -91.709275939881309 0 0 0 0 -78.410789912893961 -78.959916296856136 0 -78.959916296856136 -41.04642716684134 0 0 0 0 -103.13253265977983 -104.27314167395105 0 -104.27314167395105 -61.80384011768956 0 0 0 0 -100.24875789818907 -115.30744206980076 0 -115.30744206980076 -34.427009410202572 0 0 0 0 -1.2751227911121532 -1.3714977841796099 0 -1.3714977841796099 -13.214875148353258 0 0 0 0 -1.0380456618190408 0.93213982070183476 0 0.93213982070183476 1.3977952169218057 0 0 0 0 -105.01920341118966 -103.942372299211 0 -103.942372299211 -49.471194274605978 0 0 0 0 -106.39030198461842 -96.124618447973489 0 -96.124618447973489 -61.561053659463489 0 0 0 0 -114.35488424105279 -94.583022959682694 0 -94.583022959682694 -58.776531463030096 0 0 0 0 -131.97209624717652 -77.852934440212039 0 -77.852934440212039 -63.124879056832668 0 0 0 0 -67.650875235063722 -23.277715570465261 0 -23.277715570465261 -56.583385107011281 0 0 0 0 -111.34216714612558 -93.00511635143971 0 -93.00511635143971 -30.639033274333826 0 0 0 0 -103.44510940376495 -89.381613545643631 0 -89.381613545643631 -64.363922820800326 0 0 0 0 -97.960955081958673 -62.484280328006207 0 -62.484280328006207 -42.765650280324735 0 0 0 0 -106.71918870038644 -90.364594674850139 0 -90.364594674850139 -36.977785663651048 0 0 0 0 -104.41814472127589 -45.400039716760602 0 -45.400039716760602 3.3365131626419497 0 0 0 0 -111.98530469516118 -60.002691579367706 0 -60.002691579367706 -18.429015709029045 0 0 0 0 -96.248973365392885 -29.452710129321986 0 -29.452710129321986 6.1745159475553919 0 0 0 0 -104.60883950778953 -63.24725887270165 0 -63.24725887270165 -27.799340625331752 0 0 0 0 -83.201456531096483 -44.75645651025161 0 -44.75645651025161 -40.292699257330241 0 0 0 0 -90.898812706844183 -26.554981005311674 0 -26.554981005311674 -4.3703567147956619 0 0 0 0 -110.67971155181294 -65.829792304355124 0 -65.829792304355124 -29.391700957999092 0 0 0 0 -99.071404634523788 -62.11236223824335 0 -62.11236223824335 -74.922144203494781 0 0 0 0 -113.39666107905941 -51.007665509575872 0 -51.007665509575872 -35.381059889895823 0 0 0 0 -101.41581263530679 -59.472573249025118 0 -59.472573249025118 -29.875380333610337 0 0 0 0 -76.723518748476636 -81.399236223213848 0 -81.399236223213848 -73.643783761675877 0 0 0 0 -53.931375737243798 -24.777924440707693 0 -24.777924440707693 -29.639651483991656 0 0 0 0 -68.221553565895192 -34.241682239269267 0 -34.241682239269267 -19.285859001857716 0 0 0 0 -22.580622582914657 -33.369761347153144 0 -33.369761347153144 -55.957758585807596 0 0 0 0 -61.344059787217702 -21.418757911838384 0 -21.418757911838384 0.018355283622440766 0 0 0 0 -75.136148405232234 -18.894636710379928 0 -18.894636710379928 13.091128521102974 0 0 0 0 -53.674399916235416 -0.41337034482057788 0 -0.41337034482057788 3.3670768821161801 0 0 0 0 -58.050641388806071 10.9577384360705 0 10.9577384360705 21.14289041153279 0 0 0 0 -71.547123111166002 19.891562924109166 0 19.891562924109166 46.618241096868132 0 0 0 0 -58.316198838736454 28.913239649522893 0 28.913239649522893 32.540069827482057 0 0 0 0 -55.949030540532021 31.37698730443104 0 31.37698730443104 19.369212895137935 0 0 0 0 -65.526514989704339 7.2093296158698337 0 7.2093296158698337 6.2668855664718475 0 0 0 0 -47.050109622461605 21.677630757632414 0 21.677630757632414 -0.14324695700474877 0 0 0 0 -41.433614717483579 32.97513856224532 0 32.97513856224532 19.509991214526963 0 0 0 0 -75.978624762297841 55.049920702335839 0 55.049920702335839 52.715863208281917 0 0 0 0 -113.07495628822653 -9.3221786738045012 0 -9.3221786738045012 53.875278855065972 0 0 0 0 -105.83129780124 4.1380623842443356 0 4.1380623842443356 27.761744416958209 0 0 0 0 -122.56283448881004 -38.29393127759954 0 -38.29393127759954 10.711980351124112 0 0 0 0 -76.411576243044692 -11.068144338848924 0 -11.068144338848924 11.907557860747687 0 0 0 0 -95.263201723864768 8.8882321632399908 0 8.8882321632399908 29.869694771386548 0 0 0 0 -2500.3618998859674 134.85781864320188 0 134.85781864320188 171.83034319697254 0 0 0 0 -409.25407876852114 72.452582446917233 0 72.452582446917233 102.79362478428567 0 0 0 0 -36.745390661289235 -23.34254259052026 0 -23.34254259052026 -11.152243459709517 0 0 0 0 -10.171899711897655 13.935852731254428 0 13.935852731254428 23.887218018684393 0 0 0 0 -122.87313886003722 -28.789806282919074 0 -28.789806282919074 123.83860096334411 0 0 0 0 -1593.3059850979771 344.71247353120879 0 344.71247353120879 -2.4040109561733942 0 0 0 0 -2496.739440885453 812.01853260577195 0 812.01853260577195 -185.55658536098397 0 0 0 0 -10.379283630107778 -2.2745770795154527 0 -2.2745770795154527 0.92743568046027725 0 0 0 0 -278.50480191641691 -356.38527042484793 0 -356.38527042484793 -488.24538236353516 0 0 0 0 -2484.8198169601114 -1.6003664238943547 0 -1.6003664238943547 1.1315006805485726 0 0 0 0 -6.8121646836748146 -1.6828791213986563 0 -1.6828791213986563 3.5829108155320579 0 0 0 0 -28.337402591741011 13.7300682700076 0 13.7300682700076 -185.96748386323765 0 0 0 0 -626.71247021553427 14.813588622111865 0 14.813588622111865 86.574200944722634 0 0 0 0 -625.93146080527367 12.03555354663979 0 12.03555354663979 -91.744830712709415 0 0 0 0 -621.36536113464535 -199.20776624995739 0 -199.20776624995739 0.05784337298301423 0 0 0 0 -1192.947898036422 147.4463139688304 0 147.4463139688304 122.86117109835186 0 0 0 0 -1410.7139111646557 -261.74914301568657 0 -261.74914301568657 0.34701506428680512 0 0 0 0 -1423.2299776230539 441.51565455383599 0 441.51565455383599 -16.143110289977585 0 0 0 0 -307.58285876988521 -861.98646905918906 0 -861.98646905918906 -756.36830230583928 0 0 0 0 -3230.9876771845593 505.48576370525552 0 505.48576370525552 -12.453526688043951 0 0 0 0 -12.985627208647344 -8.6138441776090957 0 -8.6138441776090957 -7.4451863997223757 0 0 0 0 -2385.0618079193555 -1084.106484891606 0 -1084.106484891606 -661.86313839021977 0 0 0 0 -1292.0094856457727 -225.27475505683094 0 -225.27475505683094 -397.95273365110779 0 0 0 0 -1016.8873653459159 -549.49475894092234 0 -549.49475894092234 -230.46229468402515 0 0 0 0 -1505.7631409610658 -715.00465152704021 0 -715.00465152704021 -239.26654810905939 0 0 0 0 -1431.4120741394436 -482.02550053996572 0 -482.02550053996572 -282.76533437738033 0 0 0 0 -2312.2109170899603 -602.92646766718849 0 -602.92646766718849 43.394226697220802 0 0 0 0 -1524.3674736111861 -274.83191174258718 0 -274.83191174258718 178.76053462810756 0 0 0 0 -1560.4275790901429 -536.1929464404119 0 -536.1929464404119 3.3665318170390037 0 0 0 0 -1184.1659474083863 -347.94839443056759 0 -347.94839443056759 0.056709358268427323 0 0 0 0 -1032.4470443351383 -528.87662465869391 0 -528.87662465869391 -174.47532237220366 0 0 0 0 -784.16059313094593 -265.7130709628359 0 -265.7130709628359 -0.14258067286575418 0 0 0 0 -768.17150509334897 -471.50506694135538 0 -471.50506694135538 -231.251984423311 0 0 0 0 -915.72370115078229 -358.83617543793952 0 -358.83617543793952 -114.49718546988666 0 0 0 0 -353.85237697301636 -298.96154669268992 0 -298.96154669268992 -401.03581473234874 0 0 0 0 -453.31374009897991 -92.212884637391284 0 -92.212884637391284 -218.64114526087235 0 0 0 0 -718.32114828596423 -575.24016313528944 0 -575.24016313528944 -384.90445343051795 0 0 0 0 -695.59588500649261 -126.6839230988366 0 -126.6839230988366 -309.26950131319325 0 0 0 0 -89.279588654195322 -342.38800700829188 0 -342.38800700829188 -319.77159225571393 0 0 0 0 -244.03167312759615 112.58543062406727 0 112.58543062406727 148.29525824680661 0 0 0 0 -59.735892576183915 13.569640400381346 0 13.569640400381346 -1.6353571408626282 0 0 0 0 -75.692907642463979 -9.9013679940213137 0 -9.9013679940213137 196.88763132194435 0 0 0 0 -77.199754384553671 -97.478509083945767 0 -97.478509083945767 25.200610959578853 0 0 0 0 -110.92224445015017 5.4689279969067002 0 5.4689279969067002 409.15355838234689 0 0 0 0 -857.38135566443088 -179.44749183619308 0 -179.44749183619308 19.179021414377758 0 0 0 0 -46.474810976621058 9.4231837806612191 0 9.4231837806612191 -0.33931933975490525 0 0 0 0 -526.83893462102424 -517.20620736445574 0 -517.20620736445574 -392.12366549769291 0 0 0 0 -64.139092248448833 -225.87352733399456 0 -225.87352733399456 -58.963726860045426 0 0 0 0 -19.536345849941199 2.6056040245143066 0 2.6056040245143066 -0.32302825561432202 0 0 0 0 -493.31346530940209 765.36815512396811 0 765.36815512396811 194.7221357565183 0 0 0 0 -2592.1872331210689 -1638.7364628724076 0 -1638.7364628724076 -980.18676513305536 0 0 0 0 -2272.0267134407004 -439.92257869884213 0 -439.92257869884213 -9.1932033317469291 0 0 0 0 -1520.2635547907194 -849.44829951866234 0 -849.44829951866234 -244.59929111350223 0 0 0 0 -1324.888167539415 -417.18005599686387 0 -417.18005599686387 -953.13764948429116 0 0 0 0 -2553.0086243748156 -155.53677192706502 0 -155.53677192706502 -82.309050495157067 0 0 0 0 -2584.1534817450884 -786.1027294681212 0 -786.1027294681212 129.58914347887185 0 0 0 0 -1162.8506466852014 -201.21447182223469 0 -201.21447182223469 -60.686723725607408 0 0 0 0 -1574.8396689820911 -798.82005816315962 0 -798.82005816315962 -2.9059500205568156 0 0 0 0 -2336.0773509350693 -472.43207427621707 0 -472.43207427621707 96.637677010280683 0 0 0 0 -2134.1310608785643 -685.21711110434023 0 -685.21711110434023 11.286126093719986 0 0 0 0 -1776.0861693316474 -766.5964403295327 0 -766.5964403295327 -1017.5757258780673 0 0 0 0 -3159.0368012272702 -121.59176186867671 0 -121.59176186867671 -266.50720207860763 0 0 0 0 -1463.3865708888916 -652.67183090685296 0 -652.67183090685296 -581.31988216447189 0 0 0 0 -1779.6111865717467 -724.78875317996039 0 -724.78875317996039 -361.61084524628575 0 0 0 0 -1534.8269140819757 -512.92811031057477 0 -512.92811031057477 25.605106154503574 0 0 0 0 -1961.7529344644099 -195.12222080446315 0 -195.12222080446315 -106.95376233687102 0 0 0 0 -887.43853653199039 62.498569965869819 0 62.498569965869819 -74.505253647606878 0 0 0 0 -3.3891795388724457 5.3404828585001525 0 5.3404828585001525 -2.1317107531589738 0 0 0 0 -381.40059962149098 -159.91480949121245 0 -159.91480949121245 -322.90564575727069 0 0 0 0 -1459.7724608311764 -595.96156782274159 0 -595.96156782274159 -356.82274719375278 0 0 0 0 -1540.1893274485628 -420.88107505360449 0 -420.88107505360449 66.817250326335852 0 0 0 0 -2.9752658394329226 0.979342247992804 0 0.979342247992804 -2.4306203661957104 0 0 0 0 -2499.9341451961482 -108.33191514990007 0 -108.33191514990007 42.655953172257085 0 0 0 0 -2281.8013220546782 -143.33369740311798 0 -143.33369740311798 -235.75238947591581 0 0 0 0 -2417.7672454351123 -89.187338980256271 0 -89.187338980256271 40.332168705448538 0 0 0 0 -2499.7233504779069 -41.794582905285395 0 -41.794582905285395 35.970293606671255 0 0 0 0 -1033.3955473376845 -424.84764026860881 0 -424.84764026860881 252.66239419698087 0 0 0 0 -2.0609238651422768 12.252948145877241 0 12.252948145877241 7.6971131113120661 0 0 0 0 -52.346066135964065 -15.078473419207079 0 -15.078473419207079 -396.35284430574194 0 0 0 0 -2274.247933128112 72.780037457153782 0 72.780037457153782 90.927095371285077 0 0 0 0 -2500.0394580788379 -539.19720907430155 0 -539.19720907430155 129.95510218989088 0 0 0 0 -2330.1914372967321 -555.80526598608242 0 -555.80526598608242 43.750195448819326 0 0 0 0 -2309.1346006782587 -659.3426329116387 0 -659.3426329116387 80.637107429428326 0 0 0 0 -2044.7136332928712 -527.21041307244286 0 -527.21041307244286 40.810629400799904 0 0 0 0 -2136.9597606210518 -642.52177312088668 0 -642.52177312088668 83.979882716092206 0 0 0 0 -2296.0728787378466 -498.6119131358621 0 -498.6119131358621 37.01355488343691 0 0 0 0 -2310.3909426284081 -546.61622277919059 0 -546.61622277919059 16.012493119999398 0 0 0 0 -2499.6351929596567 -411.15691697275508 0 -411.15691697275508 -79.043057528311309 0 0 0 0 -2240.9979976108807 -376.87772225022803 0 -376.87772225022803 -429.67240951611745 0 0 0 0 -1691.6652318652195 -466.61138407007422 0 -466.61138407007422 -405.2103722146303 0 0 0 0 -2026.9520722435773 -552.99149391075548 0 -552.99149391075548 -158.81470938091553 0 0 0 0 -2240.8316643845242 -410.20875750432759 0 -410.20875750432759 -250.07504819345013 0 0 0 0 -2015.8987705734135 -616.82818196644303 0 -616.82818196644303 -5.6342488640763975 0 0 0 0 -1934.8958335740681 -802.27598893915206 0 -802.27598893915206 -289.27008054060968 0 0 0 0 -1670.2774484119282 -748.12719174129097 0 -748.12719174129097 -438.01105127327105 0 0 0 0 -2455.5881301396075 -997.03871315439631 0 -997.03871315439631 -212.3253052752797 0 0 0 0 -1986.6818278805258 -573.50858307862029 0 -573.50858307862029 128.98141676622123 0 0 0 0 -1504.3654551390864 -430.15137564566362 0 -430.15137564566362 -9.0945569003077082 0 0 0 0 -1548.5832360648747 -473.3383679942408 0 -473.3383679942408 38.557632565994368 0 0 0 0 -1519.2269911021431 -500.90043043513731 0 -500.90043043513731 -7.2162220445802774 0 0 0 0 -1932.1905996029527 -547.52440530219155 0 -547.52440530219155 94.114601047862479 0 0 0 0 -1900.4844073618224 -566.25734012075463 0 -566.25734012075463 -67.19017341026418 0 0 0 0 -2012.0833980745592 -619.10188032118776 0 -619.10188032118776 119.18219590901673 0 0 0 0 -1630.766971789948 -601.94776052826239 0 -601.94776052826239 13.307145031638385 0 0 0 0 -953.70863383194956 -464.04535415920174 0 -464.04535415920174 -73.112754638767527 0 0 0 0 -603.64307758470386 -66.374171539970163 0 -66.374171539970163 -21.575415052223036 0 0 0 0 -959.41334383089998 -470.66670162532228 0 -470.66670162532228 -9.5433395403431547 0 0 0 0 -81.776184391659626 -222.69912266735128 0 -222.69912266735128 -184.41590139624583 0 0 0 0 -432.27550389448947 18.462758530098839 0 18.462758530098839 -21.607841961781414 0 0 0 0 -430.31266796597629 -19.880120912217471 0 -19.880120912217471 -176.13675415821726 0 0 0 0 -945.2373655863048 -239.21117987645084 0 -239.21117987645084 -57.432330765109079 0 0 0 0 -907.84460622088955 -299.69727520270789 0 -299.69727520270789 -18.100876873069161 0 0 0 0 -1569.8999849954562 -381.86177092800142 0 -381.86177092800142 48.028073382906598 0 0 0 0 -1074.949355328059 -5.2980824488785672 0 -5.2980824488785672 -51.030974931887471 0 0 0 0 -2187.0897445508535 320.49103754065385 0 320.49103754065385 301.06091301729248 0 0 0 0 -484.67357814595016 121.75027158217156 0 121.75027158217156 -130.76087673790255 0 0 0 0 -619.42830837774818 -100.32128564278794 0 -100.32128564278794 -155.93851130725875 0 0 0 0 -84.321181507617439 -146.69258924585012 0 -146.69258924585012 -143.8965512586617 0 0 0 0 -104.31394467027712 42.773756378790438 0 42.773756378790438 -180.11825497265312 0 0 0 0 -39.62249863789657 -46.672449691027467 0 -46.672449691027467 -22.095983887859347 0 0 0 0 -30.869259140134091 -64.877386494026553 0 -64.877386494026553 -35.695109769292685 0 0 0 0 160.05314222305606 -18.852087099179585 0 -18.852087099179585 -101.14270197407433 0 0 0 0 -7.109258958051214 182.30177121315447 0 182.30177121315447 48.917338321248671 0 0 0 0 -27.811217383401527 -89.297539112826826 0 -89.297539112826826 24.277046600465059 0 0 0 0 -90.451496341825987 227.68853117990284 0 227.68853117990284 52.265244364744262 0 0 0 0 -84.95043998806068 30.48184552322207 0 30.48184552322207 -118.57966594542361 0 0 0 0 85.680513006194815 35.710536461890229 0 35.710536461890229 -46.890057779065046 0 0 0 0 -9.0541922673856305 15.052245315790586 0 15.052245315790586 -7.881692583373396 0 0 0 0 160.62227901085134 223.85118303748553 0 223.85118303748553 -339.05026080086111 0 0 0 0 7.3124202892577159 -3.1675578267908691 0 -3.1675578267908691 -9.7424945953255246 0 0 0 0 -2.0809205125130461 1.0039189032646973 0 1.0039189032646973 0.065705549777576172 0 0 0 0 -167.34754579648506 -284.73745850320597 0 -284.73745850320597 108.30135875059999 0 0 0 0 -15.84719984956552 13.312785198258965 0 13.312785198258965 -6.2605605202573891 0 0 0 0 -42.893597204494654 23.196949870599859 0 23.196949870599859 -15.191859114052505 0 0 0 0 -41.852816769762285 11.743873418656335 0 11.743873418656335 37.360384568540894 0 0 0 0 -19.409316820886858 -2.29275263191942 0 -2.29275263191942 -1.918692338693567 0 0 0 0 -65.379069525908562 -17.99769779781127 0 -17.99769779781127 -11.936435883648301 0 0 0 0 -25.372608099780336 18.915239046313445 0 18.915239046313445 14.195531090279019 0 0 0 0 -50.247415680889389 26.473966783533797 0 26.473966783533797 13.084852913741543 0 0 0 0 -10.679899862903753 4.3539363627927088 0 4.3539363627927088 -4.2378396255201052 0 0 0 0 -18.002444595709676 23.82654825298107 0 23.82654825298107 10.762906312103496 0 0 0 0 -16.984169459668919 -37.207816315002333 0 -37.207816315002333 16.707287609201444 0 0 0 0 16.209108867296891 -24.811760365685188 0 -24.811760365685188 -6.9607253175215646 0 0 0 0 -21.744670232983481 84.990232717370475 0 84.990232717370475 -73.05550966350863 0 0 0 0 -2.8008404084393987 -55.595168162229584 0 -55.595168162229584 -51.682798529668617 0 0 0 0 -14.332291638420429 -76.236482604370821 0 -76.236482604370821 -204.4918199754585 0 0 0 0 -41.057537951619452 -53.861970223604828 0 -53.861970223604828 10.347849333635622 0 0 0 0 -17.794990265385422 -30.153726145660698 0 -30.153726145660698 15.589254395259388 0 0 0 0 -73.875777463433167 -63.921372691894206 0 -63.921372691894206 85.22347040414752 0 0 0 0 -67.940795498336229 -239.30796665576219 0 -239.30796665576219 -409.51267770578261 0 0 0 0 -7.4518199479176417 -1.1491828817414813 0 -1.1491828817414813 1.3151829527655365 0 0 0 0 -32.761931585678127 -1.273774921200669 0 -1.273774921200669 -0.26008330871270924 0 0 0 0 -73.907131963445863 14.361081903817734 0 14.361081903817734 25.75055574647569 0 0 0 0 -50.880488371760293 -39.669729266663126 0 -39.669729266663126 -2.8294509251157152 0 0 0 0 -38.28121817407893 -2.0845971799928229 0 -2.0845971799928229 -0.45930519183112084 0 0 0 0 -498.05210089866159 -341.59692782117355 0 -341.59692782117355 80.487088488190608 0 0 0 0 -341.89625248928496 85.057921300190344 0 85.057921300190344 161.60138273654562 0 0 0 0 -520.58558720229485 -271.29397723350274 0 -271.29397723350274 -118.06955380982077 0 0 0 0 -940.03994835054618 -507.32448065412314 0 -507.32448065412314 -56.70576905632322 0 0 0 0 -1522.2177034243796 -595.98784944502484 0 -595.98784944502484 -59.378943171763581 0 0 0 0 -907.98447711546578 -568.07025588961994 0 -568.07025588961994 -172.98843462668719 0 0 0 0 -1621.2104130326134 -628.30796420569277 0 -628.30796420569277 -39.088366770042001 0 0 0 0 -1568.476053975246 -733.00122240290705 0 -733.00122240290705 -402.86340106730324 0 0 0 0 -2096.0663630043418 -735.14069511123614 0 -735.14069511123614 -188.86238057773056 0 0 0 0 -1986.5603895989261 -563.90852484901825 0 -563.90852484901825 46.370129323269779 0 0 0 0 -1981.6630855099029 -964.74100527747817 0 -964.74100527747817 -532.61470306752403 0 0 0 0 -1979.8443936096699 -671.50668417788211 0 -671.50668417788211 -283.44017721418385 0 0 0 0 -862.55475777343963 -1045.3685212232738 0 -1045.3685212232738 -745.66451889643827 0 0 0 0 -529.71719428187498 -926.3657443360114 0 -926.3657443360114 -681.98996360782121 0 0 0 0 -997.19195308482449 -38.025106433750352 0 -38.025106433750352 -3.1135916936684112 0 0 0 0 -3.9245148758245989 1.5995954484932948 0 1.5995954484932948 -0.39250608123210029 0 0 0 0 -24.177431098666332 4.8043494064333245 0 4.8043494064333245 -0.1626372947013075 0 0 0 0 -71.033768988736711 37.120252274965281 0 37.120252274965281 261.77627915708717 0 0 0 0 79.553990146341675 -180.64483499108474 0 -180.64483499108474 8.9423006554354743 0 0 0 0 -125.47081812893157 116.18231813148597 0 116.18231813148597 -157.90994232779218 0 0 0 0 -281.22335828028008 44.112564631690589 0 44.112564631690589 -75.921667801090223 0 0 0 0 -435.02580787932675 -108.12627443510394 0 -108.12627443510394 -134.45518482627369 0 0 0 0 -1229.807580332119 -335.97058383402805 0 -335.97058383402805 -122.65367279579414 0 0 0 0 -1130.6887696488557 191.35280851460485 0 191.35280851460485 -134.72286286754075 0 0 0 0 -1664.4126917658068 573.62396726970996 0 573.62396726970996 182.60653667256611 0 0 0 0 -2513.9668451830275 -692.6032563977343 0 -692.6032563977343 9.7734059803107698 0 0 0 0 -2820.3239844847431 -827.15685903771487 0 -827.15685903771487 -300.33685139330925 0 0 0 0 -262.06221342974823 611.35145809146445 0 611.35145809146445 165.20736341385282 0 0 0 0 -9.5077316936375809 2.4063268152547082 0 2.4063268152547082 -0.70868347698778411 0 0 0 0 -2317.3340503164727 -1667.4356324951673 0 -1667.4356324951673 -938.51497881741909 0 0 0 0 -2371.5231504750918 -475.45597176453049 0 -475.45597176453049 -669.24570148568614 0 0 0 0 -1835.5172666948711 -794.57813275827993 0 -794.57813275827993 -806.33848675414629 0 0 0 0 -2199.3055930933442 -1068.6726452523403 0 -1068.6726452523403 -245.72625400571795 0 0 0 0 -2500.7895147787385 -852.80168719929895 0 -852.80168719929895 -360.03138931632469 0 0 0 0 -2247.7722531767067 -698.78828355653604 0 -698.78828355653604 -266.41387295167254 0 0 0 0 -2312.919258741771 -666.44870848474159 0 -666.44870848474159 -277.8238635641589 0 0 0 0 -2249.8965281643468 -533.6126186539326 0 -533.6126186539326 -15.139518224587091 0 0 0 0 -2499.5726263946599 -646.48611778274528 0 -646.48611778274528 -3.6680138807783189 0 0 0 0 -4.0571433057365027 -0.1452870032439364 0 -0.1452870032439364 -0.8893448019600223 0 0 0 0 -118.16797102219425 8.3465723238994087 0 8.3465723238994087 -11.959038506565776 0 0 0 0 -119.61893351045046 -6.8559711641826482 0 -6.8559711641826482 -22.177675892267871 0 0 0 0 -256.99356816281943 -45.112506929487154 0 -45.112506929487154 39.899019698952088 0 0 0 0 -242.0830511706954 -58.426209586109053 0 -58.426209586109053 1.7944474685668865 0 0 0 0 -246.93189628038817 -14.739638741309477 0 -14.739638741309477 -48.545112808018985 0 0 0 0 -312.05726527935622 -68.795062681677564 0 -68.795062681677564 12.636457391964427 0 0 0 0 11.510410696580948 13.945176875010361 0 13.945176875010361 -75.141940192722814 0 0 0 0 -79.18636936465191 -5.3486329248890456 0 -5.3486329248890456 -20.784566016869576 0 0 0 0 -0.56943777062646461 0.68757961568361736 0 0.68757961568361736 -0.05127887953077348 0 0 0 0 -39.55801809921104 -5.04318951865298 0 -5.04318951865298 -7.0431079022378071 0 0 0 0 -7.8342886319369427 -29.384410500867034 0 -29.384410500867034 -71.094783654066077 0 0 0 0 1.3204440490513889 -1.1358480863209337 0 -1.1358480863209337 -4.2461878775033552 0 0 0 0 -70.684475763624505 -29.685022452211683 0 -29.685022452211683 -0.98016207540877076 0 0 0 0 -39.159127415681724 -49.737631925177993 0 -49.737631925177993 -38.994630153609251 0 0 0 0 1.5389752845585463 -11.468048889460988 0 -11.468048889460988 -28.462690937171828 0 0 0 0 -0.31504849259363255 -30.108241452281618 0 -30.108241452281618 -7.1448214403726524 0 0 0 0 1.4454606785549871 -7.1436666072313812 0 -7.1436666072313812 -12.674396413107573 0 0 0 0 -4.2355776920958306 -17.155731805518599 0 -17.155731805518599 -29.73979279209334 0 0 0 0 -24.936817711946787 -22.612724674679384 0 -22.612724674679384 7.7010921460368991 0 0 0 0 -23.288985142819001 -16.027939891249844 0 -16.027939891249844 1.5179331241264435 0 0 0 0 -20.356116678449325 5.1396963216197946 0 5.1396963216197946 16.984125539052002 0 0 0 0 -77.091728219045763 -34.651496605560965 0 -34.651496605560965 33.856219184662677 0 0 0 0 -14.465921647844311 -9.6912767725123601 0 -9.6912767725123601 -5.4846975323890081 0 0 0 0 -17.356433033186477 -10.940254232962161 0 -10.940254232962161 -3.3677532483075083 0 0 0 0 -3.9508059187801337 0.0079821225542815455 0 0.0079821225542815455 0.2841906396081697 0 0 0 0 2.2788436637347331 -1.8096682371328825 0 -1.8096682371328825 -9.3499567424698853 0 0 0 0 -19.391818952954054 -14.668723092909318 0 -14.668723092909318 -6.6037418572886963 0 0 0 0 -12.2064534712772 -10.571315515985702 0 -10.571315515985702 -9.6856016514003045 0 0 0 0 -38.616965861965582 -21.196992497028987 0 -21.196992497028987 -0.62011115502286884 0 0 0 0 -4.2549927775864518 -0.98411216293995096 0 -0.98411216293995096 0.79408822518281141 0 0 0 0 -25.839461967560055 -16.083427988525273 0 -16.083427988525273 -77.770295354519476 0 0 0 0 -11.562335698159586 -7.16421108188365 0 -7.16421108188365 -6.7640071339171755 0 0 0 0 -107.97010092424898 -200.87852707841353 0 -200.87852707841353 -234.13811457193788 0 0 0 0 -41.879733905316243 -40.813006287094709 0 -40.813006287094709 -10.712179883792487 0 0 0 0 -2.3833907075813272 -2.3093380250150304 0 -2.3093380250150304 -2.1263516221489827 0 0 0 0 -24.922882384858895 -152.07227889070299 0 -152.07227889070299 -522.90225364485877 0 0 0 0 28.04089304068475 1.3258499664375449 0 1.3258499664375449 -183.33090221997566 0 0 0 0 -8.0907663773811294 -5.2674186120697541 0 -5.2674186120697541 -3.6388647602809892 0 0 0 0 -140.94662557467382 -3.3340031828618066 0 -3.3340031828618066 2.2477203531707346 0 0 0 0 -144.71243807085193 -21.168476715547769 0 -21.168476715547769 -14.164933293544436 0 0 0 0 -223.50536793912761 30.72174922825252 0 30.72174922825252 11.642002339864803 0 0 0 0 -393.48050124027213 -48.863163240965491 0 -48.863163240965491 45.053817581669819 0 0 0 0 -652.02123945615313 78.955882196386256 0 78.955882196386256 13.641414483390463 0 0 0 0 -220.99428814735074 -231.58540133966187 0 -231.58540133966187 -515.19936945769405 0 0 0 0 -443.44416604106664 -421.96704991311117 0 -421.96704991311117 -260.69101493873359 0 0 0 0 -607.27868336629945 128.44621629711622 0 128.44621629711622 -91.000351978158278 0 0 0 0 -95.703984526004206 -28.35705114475445 0 -28.35705114475445 -11.111507475603958 0 0 0 0 -109.6048961512206 -1.2879737929266639 0 -1.2879737929266639 -57.089223638280544 0 0 0 0 12.569853376939136 -61.924988888186363 0 -61.924988888186363 -79.554362813026273 0 0 0 0 -73.25525525437115 -42.757445934325915 0 -42.757445934325915 14.917832485056465 0 0 0 0 94.175094404810807 49.491520561554808 0 49.491520561554808 -23.989985018139578 0 0 0 0 -184.9947667978704 -155.34011588088788 0 -155.34011588088788 -158.34961721054856 0 0 0 0 -139.70898126357497 -42.729128073198694 0 -42.729128073198694 6.8137117438991481 0 0 0 0 -72.76689986835845 16.516045673862322 0 16.516045673862322 21.664509469653524 0 0 0 0 -5.5060272010778135 29.327296005206136 0 29.327296005206136 7.8292854080327743 0 0 0 0 -0.77989908373656647 1.3933773220478542 0 1.3933773220478542 -0.85658848825284384 0 0 0 0 37.578398584040769 35.79894502238443 0 35.79894502238443 -14.513983347340627 0 0 0 0 -9.470985662313204 12.91055264799077 0 12.91055264799077 -4.0630169203527817 0 0 0 0 -132.18108087811561 38.404851889864858 0 38.404851889864858 19.560306224906753 0 0 0 0 -0.40947094147503549 0.62112417083058347 0 0.62112417083058347 -0.29835752785389502 0 0 0 0 53.392349140707665 -6.1276770185918394 0 -6.1276770185918394 -54.180374148537794 0 0 0 0 -101.87046674274461 8.4767858090579011 0 8.4767858090579011 -39.516207902750921 0 0 0 0 -78.032272388401907 15.933812718472041 0 15.933812718472041 -41.793658489095606 0 0 0 0 -64.561831863567932 -28.564260383080864 0 -28.564260383080864 -7.9952728577031849 0 0 0 0 39.672609545472369 -26.316435011579642 0 -26.316435011579642 -58.075304989595452 0 0 0 0 -213.7993821553282 -37.175136391173851 0 -37.175136391173851 -10.765281492311033 0 0 0 0 -182.99604579213337 -83.483170973900997 0 -83.483170973900997 -10.609027673826859 0 0 0 0 -65.82281056750071 -62.598171429928016 0 -62.598171429928016 -46.603569220190138 0 0 0 0 -79.351510864176817 -27.633906156379965 0 -27.633906156379965 -36.483337903983738 0 0 0 0 -223.20472621872614 -53.471622859124182 0 -53.471622859124182 0.08067866082387809 0 0 0 0 -170.67631975680706 -28.724156480464558 0 -28.724156480464558 -22.338258819945395 0 0 0 0 -219.60993613841129 -49.799029419016279 0 -49.799029419016279 0.23598634755262538 0 0 0 0 -169.91563249017781 -28.676135883556071 0 -28.676135883556071 -26.724501459060889 0 0 0 0 -218.49288474517743 61.064704660265079 0 61.064704660265079 -15.814395197024169 0 0 0 0 -238.43956770745717 -55.79986862506712 0 -55.79986862506712 5.821153921603468 0 0 0 0 -241.86830343238626 -51.240827709098639 0 -51.240827709098639 2.1022627239685789 0 0 0 0 -1.817703213509958 -16.891109651047827 0 -16.891109651047827 -23.413600146630813 0 0 0 0 -1.6413775609835284 19.96417939156936 0 19.96417939156936 -6.0160495129941864 0 0 0 0 -121.79147592361005 21.511852081058123 0 21.511852081058123 -20.34357813834049 0 0 0 0 -57.468714337679558 -6.1746849414125791 0 -6.1746849414125791 -21.035211012771157 0 0 0 0 -35.518195777747678 11.687929436614354 0 11.687929436614354 -18.901246618339428 0 0 0 0 -12.371145607184189 -4.115611474773246 0 -4.115611474773246 -0.92311655633215262 0 0 0 0 -59.699698535820062 -43.157374797786133 0 -43.157374797786133 26.462805495807629 0 0 0 0 -23.92974882904673 -38.550257727977396 0 -38.550257727977396 24.953665770422276 0 0 0 0 -53.532332186063286 -97.556437618780819 0 -97.556437618780819 -110.97214242884183 0 0 0 0 -15.004733353121992 -25.568164687659873 0 -25.568164687659873 -46.674079423444709 0 0 0 0 -93.350302466024004 -46.778013314336022 0 -46.778013314336022 -16.210249284722522 0 0 0 0 -17.102112046370166 -31.569276215944683 0 -31.569276215944683 -21.517666708317392 0 0 0 0 -503.15790833158462 -164.77602226573924 0 -164.77602226573924 -36.897112144123184 0 0 0 0 -147.12026600568788 -155.50593951975588 0 -155.50593951975588 -281.94398219386972 0 0 0 0 -20.857901572679111 39.391156771246187 0 39.391156771246187 -36.362993845584697 0 0 0 0 -4.6003643455946985 -1.6598521887743551 0 -1.6598521887743551 -0.66808947456424961 0 0 0 0 -300.02167620572436 107.78425200921788 0 107.78425200921788 -11.305429796276485 0 0 0 0 -279.87942014129658 -309.51220459289516 0 -309.51220459289516 12.031692952415142 0 0 0 0 -50.098330103797707 -167.78408260948777 0 -167.78408260948777 -290.52288477029424 0 0 0 0 -387.93235174533766 174.5655402278644 0 174.5655402278644 -89.831302449245641 0 0 0 0 8.8528746828087606 23.151027765210529 0 23.151027765210529 -43.224071626893533 0 0 0 0 -73.252616687877889 -3.4924792707013239 0 -3.4924792707013239 -26.464552306793394 0 0 0 0 -34.361065677821898 -7.2523533885233746 0 -7.2523533885233746 -115.47034920490478 0 0 0 0 -221.36681692271668 -118.63292398685667 0 -118.63292398685667 -73.635306554475846 0 0 0 0 -120.13702884993108 -52.711721137991617 0 -52.711721137991617 -31.034150546801357 0 0 0 0 -101.35481903818436 -1.07995043217187 0 -1.07995043217187 -25.690077344902875 0 0 0 0 -175.79562864141917 9.2307140819063989 0 9.2307140819063989 -0.76994869125974219 0 0 0 0 -76.09259701983683 -19.38575191936593 0 -19.38575191936593 -35.179531947709165 0 0 0 0 -209.2601496407442 -75.303802127624067 0 -75.303802127624067 -22.921668855325152 0 0 0 0 -229.80275405944121 -76.404461716174353 0 -76.404461716174353 -15.601849485576167 0 0 0 0 -39.882457956016879 -25.832629539226218 0 -25.832629539226218 25.263862392493593 0 0 0 0 -9.0011581603394006 -1.1885832896844022 0 -1.1885832896844022 6.4638508042316971 0 0 0 0 -17.008629666393205 -15.955739227811428 0 -15.955739227811428 -11.733890846045025 0 0 0 0 -2.367156597979303 -3.214030637996089 0 -3.214030637996089 -1.549031614813341 0 0 0 0 17.007913010325865 4.7465990813502685 0 4.7465990813502685 -19.142643062103616 0 0 0 0 -21.150593786063837 -25.029192573403634 0 -25.029192573403634 -18.555413549112018 0 0 0 0 -62.176290473842528 8.7123186699777762 0 8.7123186699777762 4.9278621181701965 0 0 0 0 4.9793409488702309 1.0767351895808588 0 1.0767351895808588 -45.653118868312959 0 0 0 0 -40.784282339594938 -13.150214572153118 0 -13.150214572153118 -59.60649465424558 0 0 0 0 -11.860534335690318 12.601014253414405 0 12.601014253414405 -44.268185485054119 0 0 0 0 -8.497312144303578 6.277361405514057 0 6.277361405514057 -44.680761805579323 0 0 0 0 -10.477995900117094 -13.541051628553305 0 -13.541051628553305 -1.4535528749802324 0 0 0 0 -36.671174072260328 17.151503627455213 0 17.151503627455213 -34.013382633595029 0 0 0 0 -98.415280991612235 -39.182194208818146 0 -39.182194208818146 2.6534464368708086 0 0 0 0 -53.385103840738793 -3.557725336236615 0 -3.557725336236615 -23.136167563237905 0 0 0 0 -20.914209388298332 24.230748403902453 0 24.230748403902453 -5.5572748350821257 0 0 0 0 -31.864180384483916 14.200851827991528 0 14.200851827991528 9.4828471689288563 0 0 0 0 1.9837860342231579 27.68995989781024 0 27.68995989781024 -53.847443825442099 0 0 0 0 -16.286776904722501 86.863824206404615 0 86.863824206404615 70.187987249284333 0 0 0 0 -61.762545564770335 6.4979794978888403 0 6.4979794978888403 4.4759532812035649 0 0 0 0 -49.600348229869269 40.178388273330029 0 40.178388273330029 23.520276907749576 0 0 0 0 -67.727978165703462 -13.586774677704199 0 -13.586774677704199 -56.775838230854561 0 0 0 0 -45.601749740122614 -39.524016446818706 0 -39.524016446818706 -66.381132179232054 0 0 0 0 -99.078111599015756 -47.947651142416987 0 -47.947651142416987 -3.821613245358094 0 0 0 0 15.350537030579289 -13.376098208841711 0 -13.376098208841711 -23.21437100442904 0 0 0 0 -44.315537177804799 -42.491487710395518 0 -42.491487710395518 -32.195808926119753 0 0 0 0 -25.5637876903711 -57.465032757904055 0 -57.465032757904055 64.356621193740011 0 0 0 0 -59.654165317195293 -54.9714878330185 0 -54.9714878330185 65.05224099348834 0 0 0 0 -66.691763719565643 -99.598040949479469 0 -99.598040949479469 49.999144816987609 0 0 0 0 -7.4439916510782496 -0.41322679768427406 0 -0.41322679768427406 -3.7619906749723668 0 0 0 0 -52.622027001718379 17.329655098650619 0 17.329655098650619 30.946050393550536 0 0 0 0 -1.931561178105067 0.34731984423736151 0 0.34731984423736151 1.4649749712886617 0 0 0 0 -17.015657466974517 -25.787125526617274 0 -25.787125526617274 6.5694753547827531 0 0 0 0 15.676056807655186 -19.182994646176439 0 -19.182994646176439 13.677719634318692 0 0 0 0 1.169500315020656 -2.9603613443236725 0 -2.9603613443236725 -4.9366564597910054 0 0 0 0 331.559321572513 -280.85947965244941 0 -280.85947965244941 9.0357317839770985 0 0 0 0 -347.3169358907071 218.9466227686753 0 218.9466227686753 -60.12880703808645 0 0 0 0 -428.99862747739826 21.116383939895059 0 21.116383939895059 294.02361592407669 0 0 0 0 -79.082480811824098 -64.745099156163519 0 -64.745099156163519 -16.291129798190923 0 0 0 0 -123.45325379956921 -68.93555176617474 0 -68.93555176617474 -8.0296641009843626 0 0 0 0 -229.44353211434645 36.27365684060328 0 36.27365684060328 -14.560800151169587 0 0 0 0 -172.96592255009273 -12.734113116065373 0 -12.734113116065373 2.5972604381777273 0 0 0 0 -121.52780295871344 7.1747953392869022 0 7.1747953392869022 -46.082604224296603 0 0 0 0 -91.867732205617358 -29.455732081287238 0 -29.455732081287238 5.9358071029412542 0 0 0 0 -91.938501287404506 -51.49562362348064 0 -51.49562362348064 -2.397315670084339 0 0 0 0 -106.43962634174932 -27.884018019819877 0 -27.884018019819877 19.517862397164663 0 0 0 0 -65.770632925234437 7.0676367960393929 0 7.0676367960393929 4.7089354976249602 0 0 0 0 -103.14730988906376 158.06629634942237 0 158.06629634942237 157.03632851563543 0 0 0 0 -68.863554519480942 5.4839841331530241 0 5.4839841331530241 3.95261175685292 0 0 0 0 -52.213293849137699 -43.552688512524099 0 -43.552688512524099 45.289150454506853 0 0 0 0 -133.18738407209457 111.21685019073902 0 111.21685019073902 204.03494468571171 0 0 0 0 -29.002855606238882 -232.80311087546715 0 -232.80311087546715 28.493791342292525 0 0 0 0 -15.478132346325197 3.9793840992141867 0 3.9793840992141867 2.6142012808959496 0 0 0 0 -269.09509637509473 16.398731987436804 0 16.398731987436804 16.627906502306359 0 0 0 0 -68.324791593251575 272.10763487820122 0 272.10763487820122 307.84449151630554 0 0 0 0 -79.578674131833068 5.1849322365725037 0 5.1849322365725037 7.1549938652392449 0 0 0 0 87.343696377382912 218.96492617987715 0 218.96492617987715 -18.938141456293124 0 0 0 0 -94.773976295834245 54.289532537969812 0 54.289532537969812 17.000046928644451 0 0 0 0 -140.50536662500144 30.948352394006662 0 30.948352394006662 5.9681849502085242 0 0 0 0 -108.6657716792688 -97.457758425955944 0 -97.457758425955944 -50.14575739810607 0 0 0 0 -181.85249460018531 -122.92815067919037 0 -122.92815067919037 -58.982150667958649 0 0 0 0 -123.87174885665445 61.772624419267686 0 61.772624419267686 30.538889603208645 0 0 0 0 -85.428925305139273 -95.305553407316893 0 -95.305553407316893 -58.344393450064672 0 0 0 0 -175.36173627113749 -39.323933065334131 0 -39.323933065334131 -40.752500771261111 0 0 0 0 -71.284069821245794 11.971141651843936 0 11.971141651843936 -27.157883520455925 0 0 0 0 -102.47465913008273 -105.27776572981475 0 -105.27776572981475 -58.977695867881266 0 0 0 0 -120.27328001532078 -108.54882070903227 0 -108.54882070903227 -50.686705340159278 0 0 0 0 -18.828942156909761 115.21953319720149 0 115.21953319720149 99.711003439164188 0 0 0 0 -71.159651776778247 9.5830256945468264 0 9.5830256945468264 9.8041092314386749 0 0 0 0 -13.457678268108804 -0.27617718190379037 0 -0.27617718190379037 -0.24172253825449985 0 0 0 0 41.108232250650872 61.782479327431872 0 61.782479327431872 -52.248387649940469 0 0 0 0 -69.569297315580116 47.697827427121183 0 47.697827427121183 165.26701672033892 0 0 0 0 -95.379047153106512 -20.777022705754916 0 -20.777022705754916 -29.52752044946439 0 0 0 0 -25.082127696116459 22.547053338615882 0 22.547053338615882 -44.587909148452127 0 0 0 0 -13.921088589220744 45.386532857468978 0 45.386532857468978 9.894154652555585 0 0 0 0 -34.538396678367008 49.804655407731644 0 49.804655407731644 11.42129567914003 0 0 0 0 -18.732678255810249 -3.1113520906559771 0 -3.1113520906559771 -3.4555656693755381 0 0 0 0 -338.49926269442949 -654.01955823721414 0 -654.01955823721414 -32.962054259178785 0 0 0 0 49.734360976555763 -19.784731289676074 0 -19.784731289676074 -269.95034398005021 0 0 0 0 -99.823902592357626 -6.6937361635161778 0 -6.6937361635161778 -73.898020951912258 0 0 0 0 -441.05135510470791 -211.86332534784935 0 -211.86332534784935 -121.55503110584777 0 0 0 0 -588.63118076846376 95.18248711893736 0 95.18248711893736 29.377716035640788 0 0 0 0 -1.5893570344703249 -3.0915576301373449 0 -3.0915576301373449 -6.0488651499381421 0 0 0 0 378.08970732251328 182.84129394724414 0 182.84129394724414 259.18094668056324 0 0 0 0 -332.90793742325604 70.976021396067807 0 70.976021396067807 7.7740566972458964 0 0 0 0 -352.85717275081151 33.152239714614041 0 33.152239714614041 25.854789418910514 0 0 0 0 -236.96986761532753 -61.853428926410061 0 -61.853428926410061 -40.743308242707371 0 0 0 0 -216.00355137416955 56.494081743332913 0 56.494081743332913 -7.5572310558893605 0 0 0 0 52.669284961173616 62.781176175988207 0 62.781176175988207 -15.078946544400821 0 0 0 0 -420.77993939431781 0.58825341570621958 0 0.58825341570621958 -20.137316091314915 0 0 0 0 -52.447263714119345 5.7105969544933828 0 5.7105969544933828 -1.3326113585953863 0 0 0 0 -75.521439825955895 -40.126427304191452 0 -40.126427304191452 -15.04147348296965 0 0 0 0 -70.20388229117998 -10.057598890200097 0 -10.057598890200097 -68.523216967164899 0 0 0 0 -43.903086650127534 -22.114554895733278 0 -22.114554895733278 -59.107346800622054 0 0 0 0 -91.147997400208624 -41.46032036559518 0 -41.46032036559518 -10.74329877399316 0 0 0 0 -115.38823080414113 15.173208380263929 0 15.173208380263929 3.1615281372555728 0 0 0 0 -180.95537833562958 -60.603072353880748 0 -60.603072353880748 18.445944988208112 0 0 0 0 -196.62142424887088 31.095631813155521 0 31.095631813155521 -4.4253945815094085 0 0 0 0 -78.683278876300392 -33.39340619993186 0 -33.39340619993186 -19.886248452143036 0 0 0 0 -67.551549736621382 -55.258770386176082 0 -55.258770386176082 17.87228958277592 0 0 0 0 -19.33764540861921 -27.803546992096926 0 -27.803546992096926 -93.42500404420116 0 0 0 0 17.251075627507817 68.053203899179039 0 68.053203899179039 10.733998455700466 0 0 0 0 -435.58698088962274 -41.975667736918268 0 -41.975667736918268 -75.723111488632185 0 0 0 0 -328.28855854121866 -132.73894710589866 0 -132.73894710589866 -20.689361312977667 0 0 0 0 -1.5498890230222138 0.80062054201500032 0 0.80062054201500032 0.030638199452241111 0 0 0 0 0.43605179160748264 2.0150454781442768 0 2.0150454781442768 0.037502849610481448 0 0 0 0 -169.88774635444952 -58.986421745584721 0 -58.986421745584721 -33.618759558918555 0 0 0 0 -171.72041473405807 -64.272825484548321 0 -64.272825484548321 -18.544649793480176 0 0 0 0 -387.69296985005803 5.6724754554934407 0 5.6724754554934407 41.818391196368793 0 0 0 0 -244.14985815480759 18.453836378169626 0 18.453836378169626 41.267281120281027 0 0 0 0 -193.26069868212289 22.004293091634963 0 22.004293091634963 -6.3940886156565853 0 0 0 0 -82.89729536453342 -1.3143213796702184 0 -1.3143213796702184 -14.454426242924455 0 0 0 0 -40.852109168257812 68.727834274504289 0 68.727834274504289 -69.483834178063034 0 0 0 0 -257.00311644471549 104.16047757346462 0 104.16047757346462 -28.334024026662064 0 0 0 0 6.2054643002629746 -49.955023448054931 0 -49.955023448054931 -46.583479364172149 0 0 0 0 -86.77762316852386 15.450710600272487 0 15.450710600272487 4.7051788774574561 0 0 0 0 -3.8043106571003733 -0.96902748103908465 0 -0.96902748103908465 0.27882050505549749 0 0 0 0 -0.32958026627319015 -0.99057951474339223 0 -0.99057951474339223 -2.3887521259371436 0 0 0 0 -76.122533846898477 4.506236457606974 0 4.506236457606974 -21.255396024951551 0 0 0 0 -2.2764115342870355 5.1907224121889612 0 5.1907224121889612 -29.140738149665481 0 0 0 0 -184.93771425489103 -35.294463683795129 0 -35.294463683795129 90.40531477793138 0 0 0 0 -16.377648701141879 6.9257878883604462 0 6.9257878883604462 -17.065266200981569 0 0 0 0 -5.7090565279741323 1.8859103428324318 0 1.8859103428324318 -7.5610324795153048 0 0 0 0 -16.316065318776964 5.8996419377954226 0 5.8996419377954226 -9.2868903574404058 0 0 0 0 -8.4839086573928455 5.0750856268910391 0 5.0750856268910391 -3.4669157722146942 0 0 0 0 -6.0548170599795412 0.36813303264989372 0 0.36813303264989372 -9.2936725864835346 0 0 0 0 -12.603009538235028 0.0062638906399063998 0 0.0062638906399063998 -5.8996325558710332 0 0 0 0 -13.757951814674016 -15.088684820864728 0 -15.088684820864728 6.7262823011733417 0 0 0 0 -3.4587089079616433 -0.21782639005017046 0 -0.21782639005017046 1.2310763103324778 0 0 0 0 -14.09135125335888 1.1128640604467819 0 1.1128640604467819 -1.7824277815943788 0 0 0 0 -39.17593713694805 -2.5322015445740362 0 -2.5322015445740362 14.732156911253696 0 0 0 0 -16.750511847732746 6.2760298788148967 0 6.2760298788148967 -2.5666392889502383 0 0 0 0 -9.8935951466797363 1.1051078277038489 0 1.1051078277038489 -0.1563061126978802 0 0 0 0 -15.948457406175294 -0.18462802923477284 0 -0.18462802923477284 -0.51748528171469843 0 0 0 0 -10.012629586024559 -0.37581158419561689 0 -0.37581158419561689 -3.1409909109279397 0 0 0 0 -13.201325304202328 -3.7607662773598349 0 -3.7607662773598349 9.1250841663968458 0 0 0 0 -15.636188253808491 -3.4081960499166222 0 -3.4081960499166222 4.9323158634397597 0 0 0 0 -24.639118966528983 7.7803188917636632 0 7.7803188917636632 -1.5882201975130723 0 0 0 0 -17.109728135464138 0.28285849067947311 0 0.28285849067947311 4.39985945789158 0 0 0 0 -11.993149379825795 2.4747696617583017 0 2.4747696617583017 1.7448745563724035 0 0 0 0 -16.563732702801644 3.0434047045655461 0 3.0434047045655461 7.0939023338078186 0 0 0 0 -16.332408239784854 -1.2481283460174382 0 -1.2481283460174382 3.8751124179834733 0 0 0 0 -90.093230693970327 -21.84361189954916 0 -21.84361189954916 36.515341768456437 0 0 0 0 -7.9152327730278351 -0.79581440136190551 0 -0.79581440136190551 -0.58095398108885377 0 0 0 0 80.733284622408974 -121.51708834585861 0 -121.51708834585861 -178.1519829225781 0 0 0 0 0.093218360117854004 -4.637277516334251 0 -4.637277516334251 -6.5020469833693149 0 0 0 0 -21.357796497171876 -5.4659808239147196 0 -5.4659808239147196 -4.3619297104851285 0 0 0 0 -21.832345654813253 -9.7798057987088214 0 -9.7798057987088214 -5.2785999056234232 0 0 0 0 -5.6913687680865781 -7.1109047979741611 0 -7.1109047979741611 -3.7976401778286668 0 0 0 0 -43.213784777053661 -14.166610577273786 0 -14.166610577273786 -7.6916357959962625 0 0 0 0 -20.387588091526595 -10.471763539352764 0 -10.471763539352764 -2.2615443759104892 0 0 0 0 -31.358956515658065 -11.704151994561471 0 -11.704151994561471 -3.1599580189185872 0 0 0 0 -32.754049000763189 -16.493362785832005 0 -16.493362785832005 -8.8811501586560553 0 0 0 0 -22.480135332196369 4.0692846425240532 0 4.0692846425240532 17.981007153235623 0 0 0 0 -16.802962315463056 5.6084270358075976 0 5.6084270358075976 10.922009519262241 0 0 0 0 -42.892775629879907 -22.335282082613048 0 -22.335282082613048 -5.6873393947353179 0 0 0 0 -43.197174243901827 -20.046072067619207 0 -20.046072067619207 -3.8435078433503804 0 0 0 0 -44.144078000936133 -20.034353916763848 0 -20.034353916763848 -8.464657561162312 0 0 0 0 -20.191362208250212 8.7813549397492352 0 8.7813549397492352 7.8057428335357599 0 0 0 0 -18.021071354145533 9.0815806599848656 0 9.0815806599848656 7.2333445973672497 0 0 0 0 -13.588061693376595 -11.917203460857532 0 -11.917203460857532 -5.6059453615044781 0 0 0 0 -40.966833161874092 -15.978014641754271 0 -15.978014641754271 -4.7792041224893183 0 0 0 0 -2.4118627830554971 -1.2696318028026443 0 -1.2696318028026443 0.80876056892133263 0 0 0 0 -45.544708623307088 -38.421941075519953 0 -38.421941075519953 -24.390123753559237 0 0 0 0 -48.309453579233377 -14.979339074552627 0 -14.979339074552627 -10.42013250225591 0 0 0 0 -40.912462133550434 -18.446820785135969 0 -18.446820785135969 -11.016339359604899 0 0 0 0 -22.216105164807232 -24.358937976388916 0 -24.358937976388916 -20.484802245379797 0 0 0 0 -40.541391113205464 -21.509747623957082 0 -21.509747623957082 -7.2376338735493846 0 0 0 0 -33.790471266693203 -22.12706679103394 0 -22.12706679103394 -8.715250534201914 0 0 0 0 -65.145033234723087 -31.294955626176488 0 -31.294955626176488 -0.55419085480752983 0 0 0 0 -67.7845279511439 -22.827005559993154 0 -22.827005559993154 19.353064528342657 0 0 0 0 -48.467035364978074 -22.219288427382708 0 -22.219288427382708 -12.242368742427971 0 0 0 0 -51.751583506258612 -15.044075572771817 0 -15.044075572771817 -5.5333192293401225 0 0 0 0 -16.055229168265214 -4.2898406045392221 0 -4.2898406045392221 3.7197722631863144 0 0 0 0 -17.352820409774424 -11.603436526077687 0 -11.603436526077687 -2.3008931239532693 0 0 0 0 -8.1673927083465969 -10.600921573941378 0 -10.600921573941378 -16.218563039878063 0 0 0 0 -9.439413741311153 -6.0784375995503552 0 -6.0784375995503552 -0.79914040472112191 0 0 0 0 -14.444816119807939 -2.745077207441323 0 -2.745077207441323 3.8461573090200467 0 0 0 0 -8.4059972958111757 7.1321799574562874 0 7.1321799574562874 12.935425136256526 0 0 0 0 -3.1699064307372637 2.3025317414139863 0 2.3025317414139863 0.47518835140220084 0 0 0 0 -133.02988578472286 -294.95120064531875 0 -294.95120064531875 -231.01434380246064 0 0 0 0 -111.18822530093894 177.1567876168665 0 177.1567876168665 119.79816195830699 0 0 0 0 -9.3032434063914984 -11.010685592735967 0 -11.010685592735967 -14.147721551558814 0 0 0 0 33.530003268504515 -286.26527220223261 0 -286.26527220223261 16.527379175177657 0 0 0 0 -157.00858300203799 -45.721619053001348 0 -45.721619053001348 -35.22288141205695 0 0 0 0 -3.1514256193321586 -1.38275106165651 0 -1.38275106165651 -2.4828492272707492 0 0 0 0 -47.267054855452443 -2.5404597652168377 0 -2.5404597652168377 1.0273934625361107 0 0 0 0 -27.078313228233831 -1.5503165069673877 0 -1.5503165069673877 5.4860372981331356 0 0 0 0 -935.50014248765365 -1091.1880849823881 0 -1091.1880849823881 -1778.9771501092989 0 0 0 0 -2498.3573506404864 -1107.725973714458 0 -1107.725973714458 -630.67750698388943 0 0 0 0 -12.419378082086283 -2.2136177785716313 0 -2.2136177785716313 -1.5013458004747713 0 0 0 0 169.55999596390393 -233.01420628029905 0 -233.01420628029905 -1129.876115054778 0 0 0 0 231.25459210713143 -474.55411641450689 0 -474.55411641450689 -564.89664097713853 0 0 0 0 -2491.7769052344556 -299.43287568112521 0 -299.43287568112521 825.27356879119782 0 0 0 0 -1201.1988731031306 21.299376435343138 0 21.299376435343138 351.27721485557669 0 0 0 0 -791.93860721150122 -1472.4901002425968 0 -1472.4901002425968 -747.7994546979163 0 0 0 0 -8.8617082077658864 -5.408631125731894 0 -5.408631125731894 -1.484282452649391 0 0 0 0 -1399.7976235100869 -1098.081711605611 0 -1098.081711605611 -245.2656370505461 0 0 0 0 -2494.6128266424671 -1503.691569349365 0 -1503.691569349365 -144.50841444419615 0 0 0 0 -1704.4445481468847 -517.99534863037138 0 -517.99534863037138 -144.73567086326767 0 0 0 0 210.1305200714487 321.07292964152583 0 321.07292964152583 74.539444759677167 0 0 0 0 -885.07945231793815 534.18374307234808 0 534.18374307234808 61.04540948780334 0 0 0 0 -940.13803107947751 -392.93851243773315 0 -392.93851243773315 -335.43372554436007 0 0 0 0 -2.0802543377285474 -131.25232769899327 0 -131.25232769899327 -102.73224848942752 0 0 0 0 -406.54464719792304 -238.88503726516731 0 -238.88503726516731 -88.70291884538193 0 0 0 0 -1.9530609901473497 -0.64512375789315968 0 -0.64512375789315968 -0.041726447836519354 0 0 0 0 -108.06738835376746 60.876052843903111 0 60.876052843903111 45.498370122880374 0 0 0 0 -231.73501957149711 55.847174863405314 0 55.847174863405314 316.72673541821786 0 0 0 0 -446.00649578490084 -433.63262761808352 0 -433.63262761808352 235.10908159271628 0 0 0 0 -5.5075834852121801 -0.22725869755519312 0 -0.22725869755519312 -1.3477326561516281 0 0 0 0 -866.91884859545826 -58.465809642528342 0 -58.465809642528342 331.58668937971186 0 0 0 0 288.39580130680042 203.35284070496087 0 203.35284070496087 -519.18208420144549 0 0 0 0 -505.19490249856608 -392.26375819771579 0 -392.26375819771579 253.06900223855013 0 0 0 0 -29.111441129214654 -608.55739831466281 0 -608.55739831466281 -409.24202635891527 0 0 0 0 -9.0367489718822753 -5.0228553308268271 0 -5.0228553308268271 -1.516867633220454 0 0 0 0 -965.85106933052521 12.767575093798484 0 12.767575093798484 810.74879906993215 0 0 0 0 -31.798826585787012 -4.5526337350305504 0 -4.5526337350305504 0.16030789503960036 0 0 0 0 -685.05597531187414 -64.704888298136382 0 -64.704888298136382 366.27561084062563 0 0 0 0 -43.348327005278605 -2.9400338592885547 0 -2.9400338592885547 0.58303839738534924 0 0 0 0 -16.487184928540955 1.2770930376009346 0 1.2770930376009346 -2.7384492905848674 0 0 0 0 -24.144562840490835 0.86941286412866248 0 0.86941286412866248 -8.3575249962440807 0 0 0 0 -9.3234917674629258 1.1539226806188481 0 1.1539226806188481 -3.5849131619253285 0 0 0 0 -37.845652650859847 9.1908146867438063 0 9.1908146867438063 -1.1770107960928726 0 0 0 0 -52.594308043233468 21.618530156347333 0 21.618530156347333 -6.8089935299904027 0 0 0 0 -23.044528968725615 2.1805864046677081 0 2.1805864046677081 -4.8025137441797012 0 0 0 0 -9.7374024253367537 -4.5299332985215983 0 -4.5299332985215983 -8.804060493783048 0 0 0 0 -17.271034559853433 -0.55261784732738306 0 -0.55261784732738306 -5.4036276556525991 0 0 0 0 -22.325064691198634 3.5744882988639617 0 3.5744882988639617 -6.1866329407702469 0 0 0 0 -40.601238497409213 -4.0130430988601802 0 -4.0130430988601802 -7.064539495831923 0 0 0 0 -24.873771318278159 -7.3312925894078944 0 -7.3312925894078944 0.44927716555275765 0 0 0 0 -14.147054304008932 -4.1007835678357552 0 -4.1007835678357552 -5.1325545375768877 0 0 0 0 -25.497281886357968 -8.6675841003655592 0 -8.6675841003655592 -7.6541545116214831 0 0 0 0 -13.254452080385363 -9.8445836088478416 0 -9.8445836088478416 -15.73815184875366 0 0 0 0 -34.689330178556702 2.9974294824673962 0 2.9974294824673962 -17.612278275243625 0 0 0 0 -11.083739970670134 8.4260184197168257 0 8.4260184197168257 -4.6001137493068223 0 0 0 0 -10.916151721430651 2.0150645023750826 0 2.0150645023750826 -19.599887218291997 0 0 0 0 -19.232511813594741 0.088716774642932705 0 0.088716774642932705 -0.533368167068625 0 0 0 0 -38.803936875607178 -5.1613148421633923 0 -5.1613148421633923 -1.7086545494112215 0 0 0 0 -9.6951327995338943 -13.129293568062621 0 -13.129293568062621 -23.212865436362335 0 0 0 0 -8.7635928403110839 -1.0775017199236245 0 -1.0775017199236245 -5.5624495500918947 0 0 0 0 1.5176273353072673 0.62808264769012823 0 0.62808264769012823 -2.069981174805994 0 0 0 0 -7.1685398468107451 27.026651906725306 0 27.026651906725306 56.671122782988562 0 0 0 0 -3.8600166081363412 1.2951824776652359 0 1.2951824776652359 -0.37368830460566893 0 0 0 0 -73.989093155374576 14.484905338835688 0 14.484905338835688 24.834782612419303 0 0 0 0 -53.25614503126053 43.010286586843534 0 43.010286586843534 34.012526734727089 0 0 0 0 0.080066025681183817 -0.071870796114282598 0 -0.071870796114282598 -0.30564480919571846 0 0 0 0 111.87856250687764 9.3940846693508604 0 9.3940846693508604 -135.20344087566167 0 0 0 0 -154.27073279682281 21.220885929740561 0 21.220885929740561 2.7340617360550823 0 0 0 0 67.082890096484334 54.629406068208141 0 54.629406068208141 -83.94844289981927 0 0 0 0 -3.6905416749506941 8.477747742526148 0 8.477747742526148 -11.17472044746529 0 0 0 0 -35.810486197922728 -34.094239012317303 0 -34.094239012317303 3.4503786167643966 0 0 0 0 18.414224423686392 -14.407728893176909 0 -14.407728893176909 -59.131724182971084 0 0 0 0 -7.5631041649335131 10.311243340832718 0 10.311243340832718 -16.185984764569032 0 0 0 0 -5.0236808728413962 40.91494528896343 0 40.91494528896343 -2.1281396299486914 0 0 0 0 27.484927451219846 5.100640435106925 0 5.100640435106925 -25.300805663859819 0 0 0 0 -29.591954461284331 -4.6686412710823788 0 -4.6686412710823788 -19.396096517190927 0 0 0 0 -37.795561176196316 30.035858316668737 0 30.035858316668737 -88.619229892867224 0 0 0 0 -34.229137360194727 -1.2362993093954628 0 -1.2362993093954628 -14.961599490967274 0 0 0 0 22.101210623801308 46.737300945211473 0 46.737300945211473 -31.768453149327797 0 0 0 0 -121.73805959773017 -52.705046567351019 0 -52.705046567351019 -41.232742249682815 0 0 0 0 -58.399060595711489 -15.37818062914198 0 -15.37818062914198 -25.067205343278147 0 0 0 0 -74.869202270630922 28.99982410785924 0 28.99982410785924 -32.850862378325473 0 0 0 0 -123.57946400096262 -32.3011853594885 0 -32.3011853594885 -114.25782291341966 0 0 0 0 -145.17093732284411 -17.085625519494897 0 -17.085625519494897 -40.463577943115865 0 0 0 0 -229.24292912711098 4.4609753165259463 0 4.4609753165259463 -62.375781513378115 0 0 0 0 -285.25787758068327 -126.73899894503029 0 -126.73899894503029 -96.718744598548824 0 0 0 0 -632.58219428523444 -233.33943242078385 0 -233.33943242078385 -113.94427140753032 0 0 0 0 -198.85353852056869 -61.238554947289231 0 -61.238554947289231 -58.128347173966176 0 0 0 0 -192.55393265388921 104.21498249197748 0 104.21498249197748 -26.213457753922739 0 0 0 0 4.5690334642529535 8.8936363288219837 0 8.8936363288219837 -2.0926308324499878 0 0 0 0 22.732879216368019 -331.75661526150634 0 -331.75661526150634 -199.52087679452552 0 0 0 0 -314.79317440530576 327.5441449648074 0 327.5441449648074 18.604145986388176 0 0 0 0 -7.2998062971455511 -45.654161358359033 0 -45.654161358359033 4.6848039379401598 0 0 0 0 -15.687416939130344 -23.625411491557315 0 -23.625411491557315 3.035622862063974 0 0 0 0 -15.043657715411427 -22.951330458869279 0 -22.951330458869279 -3.838280972731809 0 0 0 0 145.59400472260313 38.343405401485143 0 38.343405401485143 -117.84937230834475 0 0 0 0 -8.2227134272689 -39.202567353999257 0 -39.202567353999257 -23.782330195543182 0 0 0 0 7.6089250307413749 -17.916557728138287 0 -17.916557728138287 -13.590212618109945 0 0 0 0 -3.4295879403071865 -5.6420702209534461 0 -5.6420702209534461 -0.034992178521420669 0 0 0 0 42.54106600425439 -17.687700716739528 0 -17.687700716739528 -58.769027646318136 0 0 0 0 -83.376283453791984 -73.390171990445197 0 -73.390171990445197 0.22275048862684343 0 0 0 0 -5.2663003109119018 -43.537675594659504 0 -43.537675594659504 17.418708248948406 0 0 0 0 -30.686960328278218 -13.618456384799387 0 -13.618456384799387 -2.5565120809203137 0 0 0 0 -0.81660925488196767 -7.8751348127843794 0 -7.8751348127843794 -0.47478084045793545 0 0 0 0 -37.591647592387744 -71.083375665955828 0 -71.083375665955828 0.16214223339750333 0 0 0 0 -72.000658156226564 -18.222742029748588 0 -18.222742029748588 17.857763256116982 0 0 0 0 -111.53723696718225 -19.330299912505325 0 -19.330299912505325 18.007424748688891 0 0 0 0 -322.91614015918458 -81.329604628735979 0 -81.329604628735979 38.216266150315278 0 0 0 0 -21.43486481929779 30.554814048582426 0 30.554814048582426 15.271671532826225 0 0 0 0 -12.163079179772467 23.805303478541077 0 23.805303478541077 -6.9909071044542088 0 0 0 0 -134.11597553435422 -15.826877615776993 0 -15.826877615776993 36.353301331631883 0 0 0 0 -17.114464729235067 32.102556598769183 0 32.102556598769183 12.072512285600762 0 0 0 0 -44.446316730964014 -14.749997407060512 0 -14.749997407060512 -0.20087421304630304 0 0 0 0 -45.081482202991538 1.809285551351536 0 1.809285551351536 -5.2185175244712809 0 0 0 0 -39.033545522135682 -2.3002368252555243 0 -2.3002368252555243 -13.942741323206064 0 0 0 0 -35.314721314025519 -7.2740425467384284 0 -7.2740425467384284 -15.35634548080418 0 0 0 0 -51.698741368683841 -116.82925857620552 0 -116.82925857620552 -11.46270430006507 0 0 0 0 -16.988860677258344 27.116620972514042 0 27.116620972514042 -0.42803699890237112 0 0 0 0 -20.669420431206021 -8.713744957903053 0 -8.713744957903053 0.79357552938074383 0 0 0 0 -14.885163597358872 9.8956391103338461 0 9.8956391103338461 -3.8651518818077166 0 0 0 0 -48.69572265512943 0.65191053995920356 0 0.65191053995920356 0.75657268551503876 0 0 0 0 -43.312531262792618 5.1955216735296403 0 5.1955216735296403 -5.2887094938149755 0 0 0 0 -10.447277328591461 4.4910635573869797 0 4.4910635573869797 1.5194181375191085 0 0 0 0 -3.6360802781925941 0.80955642381739779 0 0.80955642381739779 -1.8238795024539236 0 0 0 0 -22.907758600043053 -9.4567061637038705 0 -9.4567061637038705 -47.464408536744259 0 0 0 0 -3.3248149368378215 3.1115119520244043 0 3.1115119520244043 -4.015031764196741 0 0 0 0 26.363201303913229 40.466287112533962 0 40.466287112533962 -33.367252942551659 0 0 0 0 -29.774429670913378 -78.929509540085064 0 -78.929509540085064 -13.827796029126887 0 0 0 0 0.4529270153769831 -0.1929296235468243 0 -0.1929296235468243 -1.4145850511257061 0 0 0 0 38.262782630966512 -49.920286800791587 0 -49.920286800791587 -9.55146231579306 0 0 0 0 -124.43362183938734 13.790677940685498 0 13.790677940685498 34.848237136349553 0 0 0 0 -64.337888758011104 101.23131308434932 0 101.23131308434932 9.1373536041171519 0 0 0 0 -20.688805037578277 0.051643645761203061 0 0.051643645761203061 -49.515614651057859 0 0 0 0 -21.865716870100186 -5.7915347108252249 0 -5.7915347108252249 -58.722648255357058 0 0 0 0 -98.51406315787608 20.402882224361463 0 20.402882224361463 10.658920900829855 0 0 0 0 -61.245462996837887 -68.845300750393847 0 -68.845300750393847 111.83690396020435 0 0 0 0 -100.48120548642328 10.902957018667479 0 10.902957018667479 16.506757015858625 0 0 0 0 -113.4899622736375 36.6836914779579 0 36.6836914779579 69.879051645688122 0 0 0 0 -154.01932516754823 81.178653234865095 0 81.178653234865095 42.615104826733671 0 0 0 0 -170.12236354052584 3.5642713234483949 0 3.5642713234483949 164.17032243076454 0 0 0 0 -94.602955638627463 73.205253302089176 0 73.205253302089176 9.6481953724717151 0 0 0 0 -62.775651866151748 76.913776122788349 0 76.913776122788349 8.5693129890059705 0 0 0 0 -115.79326183338526 48.940122422668708 0 48.940122422668708 4.7476181382113509 0 0 0 0 -19.012906095482322 36.777164027045728 0 36.777164027045728 -35.941542343606955 0 0 0 0 -30.776955439723679 3.3860114612745207 0 3.3860114612745207 -68.563077956522363 0 0 0 0 -97.578969472433528 20.699396653492556 0 20.699396653492556 1.5097549186516517 0 0 0 0 -47.860534779611044 4.3649335959175914 0 4.3649335959175914 16.878583128510627 0 0 0 0 6.2517610373033676 60.918837327933034 0 60.918837327933034 53.043177714233025 0 0 0 0 -3.021169693756578 0.28307882413853491 0 0.28307882413853491 0.11048137455058615 0 0 0 0 -91.2993495916744 19.698627064626862 0 19.698627064626862 14.352325698195727 0 0 0 0 -75.997779385023023 -29.857992876001276 0 -29.857992876001276 -40.280221418971394 0 0 0 0 -34.432093520692433 14.773274238859926 0 14.773274238859926 6.4219693575455494 0 0 0 0 -30.800096366387152 -4.4059657220354893 0 -4.4059657220354893 -50.028294476462548 0 0 0 0 -36.651648169945474 -8.8726172056333326 0 -8.8726172056333326 -11.356374847584448 0 0 0 0 -44.774846635731592 -13.575020531084078 0 -13.575020531084078 36.052399939805809 0 0 0 0 -24.524733839576363 -14.260253084380306 0 -14.260253084380306 -3.842015435794087 0 0 0 0 -41.238702552047471 -6.0813232613221544 0 -6.0813232613221544 12.985942456180226 0 0 0 0 -30.988674296819227 0.059623793747761056 0 0.059623793747761056 -8.3227640805935152 0 0 0 0 -10.858040389890691 -2.9460585968652566 0 -2.9460585968652566 -7.4174022415359087 0 0 0 0 -55.249646353518983 12.923147103591418 0 12.923147103591418 20.217207576260535 0 0 0 0 -23.118259426304974 7.7156206537299781 0 7.7156206537299781 -0.5408245305373014 0 0 0 0 -11.712863114242282 -15.963352446123832 0 -15.963352446123832 -37.472510058581896 0 0 0 0 -18.185372379495675 -49.389115406951397 0 -49.389115406951397 37.725576073174516 0 0 0 0 -15.863044387024274 -63.392985539982327 0 -63.392985539982327 -53.276118591949796 0 0 0 0 -35.098279878748144 -96.189985440577914 0 -96.189985440577914 166.43268199570207 0 0 0 0 10.574494354594208 24.159398945369691 0 24.159398945369691 -113.19703525863628 0 0 0 0 -11.879893378165434 69.247362348197925 0 69.247362348197925 89.942270174357702 0 0 0 0 -17.639654789766631 6.6087482891693341 0 6.6087482891693341 -2.9828003686883049 0 0 0 0 -14.72832976595555 13.388052353845346 0 13.388052353845346 6.3368593945526754 0 0 0 0 9.3599366101298074 21.148170004911123 0 21.148170004911123 1.0472082900741952 0 0 0 0 9.6519065268166742 27.076417927540348 0 27.076417927540348 -32.677055978465603 0 0 0 0 -0.97661263314915914 1.7412181653957786 0 1.7412181653957786 -0.53147453942607203 0 0 0 0 38.324561640729371 26.675087594660056 0 26.675087594660056 -65.452876773902204 0 0 0 0 -28.722308076346962 46.37609966179906 0 46.37609966179906 -68.923325523218267 0 0 0 0 -6.2470089063044725 75.074017789494107 0 75.074017789494107 -32.676776204191334 0 0 0 0 201.89309409663838 161.80417266797485 0 161.80417266797485 -99.744764317179175 0 0 0 0 -35.506897900054355 -79.6241039141931 0 -79.6241039141931 -163.40656542222544 0 0 0 0 147.68625871493714 11.730531574484694 0 11.730531574484694 -205.27081374416645 0 0 0 0 -1.3956067080899857 -1.1601737263229346 0 -1.1601737263229346 -0.17492603606180673 0 0 0 0 7.5927527471430949 -30.046427254847842 0 -30.046427254847842 12.729415952126478 0 0 0 0 -21.237948388251695 1.8897740329238042 0 1.8897740329238042 0.093013406898472678 0 0 0 0 -37.405061131288676 -167.46592469605571 0 -167.46592469605571 -245.00034506679646 0 0 0 0 -926.63177662765884 161.68751423109956 0 161.68751423109956 -205.71324522669889 0 0 0 0 -38.393119542515706 -345.94297891084688 0 -345.94297891084688 -153.7431798234345 0 0 0 0 -51.411920493419871 -19.462652887059729 0 -19.462652887059729 -136.90953772060459 0 0 0 0 -2496.1637070168963 189.23372798177201 0 189.23372798177201 472.81224840517137 0 0 0 0 -1647.0688456728967 -87.122216014690082 0 -87.122216014690082 443.50951979476241 0 0 0 0 -1294.366251964866 -408.81361284038798 0 -408.81361284038798 190.10923040039171 0 0 0 0 -1213.7356208795209 807.68850213768883 0 807.68850213768883 -365.26517315557084 0 0 0 0 -9.8882047301299849 0.11479906132532075 0 0.11479906132532075 -0.49026428672810085 0 0 0 0 -1229.489815580775 -731.95564446034814 0 -731.95564446034814 -188.18013561782806 0 0 0 0 -1287.422982006141 90.531407393718752 0 90.531407393718752 340.27972500815616 0 0 0 0 -2496.6564417234135 -422.15670876726324 0 -422.15670876726324 348.77517092613181 0 0 0 0 -30.057781929343037 171.89968264829997 0 171.89968264829997 -219.09598928264845 0 0 0 0 -414.53736981350812 -527.92703741193156 0 -527.92703741193156 -346.2867416356919 0 0 0 0 -72.515478603752854 -289.40171355258786 0 -289.40171355258786 -342.29112830414971 0 0 0 0 -699.97133451113041 733.39617954073753 0 733.39617954073753 -166.08307920266103 0 0 0 0 -2494.3987332446791 211.99178283091607 0 211.99178283091607 339.63817814146063 0 0 0 0 26.455295582891267 -236.06017667502817 0 -236.06017667502817 -134.91912241879749 0 0 0 0 -758.38348523167042 -668.81194767193199 0 -668.81194767193199 -260.37885367054901 0 0 0 0 0.81829764741138789 1.8097387841127137 0 1.8097387841127137 -1.3482662448011626 0 0 0 0 30.780595996086959 67.525315221772644 0 67.525315221772644 -137.62929330531881 0 0 0 0 -594.90599929505697 142.03509716969563 0 142.03509716969563 334.62499334369897 0 0 0 0 -0.040805810457660741 0.32089420245958067 0 0.32089420245958067 -1.8186735965745968 0 0 0 0 105.39940406382993 -113.44009555713471 0 -113.44009555713471 -411.25175034910512 0 0 0 0 -2495.9605278983554 -175.74198332898919 0 -175.74198332898919 458.84367316855361 0 0 0 0 -2495.0296801797813 564.12712133724779 0 564.12712133724779 190.51348175763178 0 0 0 0 -954.12739731076363 108.47546127856178 0 108.47546127856178 303.67942062140054 0 0 0 0 -990.32508993423835 -360.3630268129088 0 -360.3630268129088 55.947021473204934 0 0 0 0 -1856.5766273926602 -437.94790036657349 0 -437.94790036657349 207.10251721347939 0 0 0 0 -934.56678013267629 708.95035125610684 0 708.95035125610684 -268.69041989815111 0 0 0 0 -10.762223690820051 0.35791868758485568 0 0.35791868758485568 -0.037129647990861943 0 0 0 0 -2492.8845547678152 -226.0598301375698 0 -226.0598301375698 433.99608590666219 0 0 0 0 510.81222828669343 42.375295715525681 0 42.375295715525681 -173.43731757755887 0 0 0 0 273.94144052261254 -267.60738992945181 0 -267.60738992945181 -190.45426799538839 0 0 0 0 262.32451020179724 315.13725806915699 0 315.13725806915699 -193.05479140947702 0 0 0 0 -861.08757812853241 642.21199419917809 0 642.21199419917809 -250.12582332033566 0 0 0 0 -153.79497253837371 76.848742645239554 0 76.848742645239554 -143.57434735116919 0 0 0 0 1.2573696844547158 -138.67516533901164 0 -138.67516533901164 -47.26848739485888 0 0 0 0 -438.76409841574059 -195.13639503323714 0 -195.13639503323714 6.1483267535560913 0 0 0 0 976.64399201068045 -368.08974079741847 0 -368.08974079741847 -521.06590489036603 0 0 0 0 79.182890104955732 21.043393699047556 0 21.043393699047556 -437.04370145626046 0 0 0 0 22.854677567967883 -485.89017119164708 0 -485.89017119164708 184.42954138126584 0 0 0 0 -12.613992794213118 96.979838438021318 0 96.979838438021318 257.35426472911803 0 0 0 0 77.297584653817466 179.44872790978388 0 179.44872790978388 195.65821578753105 0 0 0 0 -782.58320404026017 -145.54093142157464 0 -145.54093142157464 303.95765459386274 0 0 0 0 -16.605257769594594 -0.087359264185614016 0 -0.087359264185614016 0.51121307982132547 0 0 0 0 386.39632579072349 232.66002916438222 0 232.66002916438222 -133.87732734532472 0 0 0 0 506.545072621695 88.047495797105498 0 88.047495797105498 279.05889714473147 0 0 0 0 63.721174608675938 92.836955122532345 0 92.836955122532345 -34.5735616111604 0 0 0 0 -15.343615052603127 -3.267013605677846 0 -3.267013605677846 107.83586640002983 0 0 0 0 -152.70086994386111 122.62829026474398 0 122.62829026474398 -141.91532079961399 0 0 0 0 -262.04241707454639 -50.803073152136676 0 -50.803073152136676 -57.811858466686488 0 0 0 0 -2.961462242105803 -0.76831807522658924 0 -0.76831807522658924 0.11993634095835407 0 0 0 0 -374.32250165689629 75.397018814282944 0 75.397018814282944 -29.896065613558676 0 0 0 0 -155.77319383610757 60.990256622921635 0 60.990256622921635 -25.44246856224072 0 0 0 0 -143.06868053947983 44.339059732763587 0 44.339059732763587 -31.218622632809645 0 0 0 0 -99.121836526755033 66.804617695014002 0 66.804617695014002 -27.607744837543578 0 0 0 0 -130.08629821489012 16.523287720350709 0 16.523287720350709 -30.555318861160742 0 0 0 0 -155.33031694208876 6.3666101406504936 0 6.3666101406504936 15.531673795335678 0 0 0 0 -140.23297843863293 9.8565839014870562 0 9.8565839014870562 13.207308358142427 0 0 0 0 -129.56339391695292 2.0535178826304445 0 2.0535178826304445 16.366640098037351 0 0 0 0 -134.91523422256796 7.4600758444113353 0 7.4600758444113353 21.167853359894934 0 0 0 0 -129.33507884814753 0.58052659424845388 0 0.58052659424845388 12.68544679657704 0 0 0 0 -111.62941645451428 20.480989493060292 0 20.480989493060292 23.117769458138042 0 0 0 0 -96.655671716187499 19.258450460999427 0 19.258450460999427 15.754827273716501 0 0 0 0 -110.92745308109807 28.669933489556911 0 28.669933489556911 20.414424126581821 0 0 0 0 -10.675930899068387 1.4272796358490112 0 1.4272796358490112 0.33611181188925121 0 0 0 0 11.163549264854737 39.948219105454655 0 39.948219105454655 -11.653243411097833 0 0 0 0 -61.590903216914739 69.719287733134479 0 69.719287733134479 19.389624773512942 0 0 0 0 -48.142811830071878 38.996668273574699 0 38.996668273574699 4.3265553644051806 0 0 0 0 -97.139431145411436 10.61685706346276 0 10.61685706346276 14.482791722913021 0 0 0 0 -49.985560610067225 8.3842930467174028 0 8.3842930467174028 -3.9972702690679398 0 0 0 0 -24.700844924548605 20.471767339928046 0 20.471767339928046 2.7169820499780917 0 0 0 0 -19.989418831069997 20.958717190609377 0 20.958717190609377 -20.860480944252799 0 0 0 0 -16.074618435567572 34.550266241231299 0 34.550266241231299 3.9858444030601277 0 0 0 0 -19.707820985968283 50.116697292208528 0 50.116697292208528 -47.373594344659182 0 0 0 0 -65.644857435960148 25.347456032542368 0 25.347456032542368 18.152625181167494 0 0 0 0 -17.119539473673285 59.331326001804257 0 59.331326001804257 -112.36553064892007 0 0 0 0 8.3889337794462335 -62.270966566552545 0 -62.270966566552545 235.92205272489707 0 0 0 0 4.9673553744032688 8.5863756974200669 0 8.5863756974200669 -48.155233382526639 0 0 0 0 -5.8992768087978575 -0.13660104389084093 0 -0.13660104389084093 0.13475654217104055 0 0 0 0 -71.674696315210895 140.97705006592528 0 140.97705006592528 -148.05329883085489 0 0 0 0 -39.151412677245389 68.941984959713693 0 68.941984959713693 -102.91627319021319 0 0 0 0 -127.51973406641082 119.90399775277668 0 119.90399775277668 -52.937278936978544 0 0 0 0 -24.556370227858679 47.028571258491269 0 47.028571258491269 -75.087209508929163 0 0 0 0 -221.13834742652762 89.639227160075365 0 89.639227160075365 97.691955135949144 0 0 0 0 -132.04958258456509 84.535452557122099 0 84.535452557122099 39.266540003364042 0 0 0 0 -194.91330365365138 175.04170836655283 0 175.04170836655283 -37.958771426803651 0 0 0 0 -9.0548365765874337 0.43605635981140622 0 0.43605635981140622 -0.94592464041717061 0 0 0 0 -9.1033589662947634 11.154453394563035 0 11.154453394563035 -12.569342132694089 0 0 0 0 -560.76852741007315 -185.20411214887437 0 -185.20411214887437 297.01481701986802 0 0 0 0 -40.175555313730911 1.4808533780337712 0 1.4808533780337712 -6.4518556120239055 0 0 0 0 -61.253385964225345 1.7681797960790391 0 1.7681797960790391 -3.2132907991118884 0 0 0 0 -38.191892227825583 9.2627543722807584 0 9.2627543722807584 -7.7966523423092973 0 0 0 0 -30.833122729777799 6.5464696375673643 0 6.5464696375673643 -5.0139128979879732 0 0 0 0 -3.5794056360231155 1.5582683704148828 0 1.5582683704148828 -2.9595532883858606 0 0 0 0 308.2525130962913 -253.4927208143813 0 -253.4927208143813 -359.09802474033307 0 0 0 0 -6.6788425325428431 3.4857395653447334 0 3.4857395653447334 -7.0910639387720185 0 0 0 0 -63.133076094740318 34.172473744040531 0 34.172473744040531 6.0466259234570856 0 0 0 0 -37.20818534341015 5.5625916049639841 0 5.5625916049639841 -8.9372995322605675 0 0 0 0 -66.632112521421732 -13.452131814654479 0 -13.452131814654479 9.8761531450445545 0 0 0 0 -135.41793703335134 -64.97557163034503 0 -64.97557163034503 -6.0264092894569785 0 0 0 0 -65.083442660958099 2.0735213508014567 0 2.0735213508014567 -8.5340813910434008 0 0 0 0 -121.80771549571546 -22.913161275181665 0 -22.913161275181665 28.508397934286222 0 0 0 0 -22.60778072920299 -5.0199706141741665 0 -5.0199706141741665 4.1511175810611558 0 0 0 0 37.32420051207373 31.007076397599008 0 31.007076397599008 -12.248751404353754 0 0 0 0 8.3038135403257911 78.717497114006676 0 78.717497114006676 -24.474093185580841 0 0 0 0 -102.9117377078037 62.164782918926505 0 62.164782918926505 175.75086715189036 0 0 0 0 -90.913836821698169 34.777070400382968 0 34.777070400382968 -8.4145298380311715 0 0 0 0 -3.6553337307979277 3.8757639878854064 0 3.8757639878854064 -4.5422784014363806 0 0 0 0 -61.25131955494362 1.6404522939491244 0 1.6404522939491244 -5.7158920025512998 0 0 0 0 -22.867471337914321 4.2587624363275296 0 4.2587624363275296 -3.1218821526248828 0 0 0 0 -34.279288981901615 17.314642256747216 0 17.314642256747216 -2.8785769135973025 0 0 0 0 -14.612832130014512 9.1351787025056499 0 9.1351787025056499 -2.6591395839627481 0 0 0 0 -0.85797904820475779 19.092136219406459 0 19.092136219406459 1.2808261630240341 0 0 0 0 -126.6274083037215 -8.7898824567731708 0 -8.7898824567731708 -5.448136922640515 0 0 0 0 -22.31084629941223 5.566454255658166 0 5.566454255658166 -0.89453345515735627 0 0 0 0 -41.976567007391168 34.105592053640635 0 34.105592053640635 47.717740975117067 0 0 0 0 -14.516508112303052 6.5833913403757531 0 6.5833913403757531 6.1089401828344005 0 0 0 0 -10.423899745224411 13.551314277213962 0 13.551314277213962 -9.6082118628503856 0 0 0 0 -23.729798612030748 28.946790567394821 0 28.946790567394821 48.130282912766688 0 0 0 0 5.4618655743070121 45.286421534024612 0 45.286421534024612 23.838007273687936 0 0 0 0 -9.2865035864724632 27.587800120961219 0 27.587800120961219 9.5229381992458002 0 0 0 0 -17.040360284496273 37.356227927387181 0 37.356227927387181 17.443999847488158 0 0 0 0 -19.3139264295678 41.43030603590023 0 41.43030603590023 13.125202110557666 0 0 0 0 -23.52532787367241 19.806937248531376 0 19.806937248531376 16.401220446505249 0 0 0 0 15.040999387278134 46.194090579650947 0 46.194090579650947 9.7866116758791577 0 0 0 0 -10.877582251202456 3.6147699532823516 0 3.6147699532823516 0.28515835679249513 0 0 0 0 -35.516853650933626 34.503310907820833 0 34.503310907820833 17.25954837557606 0 0 0 0 -10.823258392496506 2.1881262292097716 0 2.1881262292097716 0.71982971752188973 0 0 0 0 28.322380182685265 56.325731360970565 0 56.325731360970565 -7.4853792978865386 0 0 0 0 171.8067893910702 40.159464930177592 0 40.159464930177592 -9.5535474510061249 0 0 0 0 -27.196791301414123 54.150662345190824 0 54.150662345190824 10.529773902795569 0 0 0 0 -23.256447038646002 61.416555949774192 0 61.416555949774192 15.437271646671888 0 0 0 0 3.6664182385138702 89.854538159337153 0 89.854538159337153 19.661938100853149 0 0 0 0 -50.749117159153684 52.788880215547124 0 52.788880215547124 50.389110288233042 0 0 0 0 -71.339537355443554 4.0659188848314898 0 4.0659188848314898 11.048340866713716 0 0 0 0 -1.1961832584713488 1.6911525162508241 0 1.6911525162508241 0.3970857714808318 0 0 0 0 -115.68284408305408 8.3386073729936925 0 8.3386073729936925 31.071491103352855 0 0 0 0 33.61248205047832 73.320491261567724 0 73.320491261567724 15.999466185928213 0 0 0 0 -18.823232902625023 25.29325637726356 0 25.29325637726356 10.441809566015763 0 0 0 0 193.02683723396422 170.12702699572947 0 170.12702699572947 27.730963123093716 0 0 0 0 -0.48120348957174741 0.64622076682296736 0 0.64622076682296736 0.18077171031298711 0 0 0 0 70.147946944389332 42.583107001582675 0 42.583107001582675 27.236296101376865 0 0 0 0 -354.89806164066613 -16.323640211868906 0 -16.323640211868906 101.32597254687607 0 0 0 0 -15.671679697405125 -10.976020135974068 0 -10.976020135974068 86.752837625724169 0 0 0 0 -160.63402993452473 153.30956195850968 0 153.30956195850968 75.78013941678114 0 0 0 0 -121.07347728615628 90.25265742153826 0 90.25265742153826 79.663115602478683 0 0 0 0 -8.6397365820014329 102.92195669805238 0 102.92195669805238 -7.4329021276103049 0 0 0 0 -0.029586538568445064 0.24450380764236002 0 0.24450380764236002 0.10619987939337605 0 0 0 0 -100.96174563758541 -16.775473571476596 0 -16.775473571476596 -42.498220381631654 0 0 0 0 -29.951914291323192 8.7894790179420852 0 8.7894790179420852 6.600600182824337 0 0 0 0 -61.882266282253113 49.459682329724501 0 49.459682329724501 -40.86012693871362 0 0 0 0 -156.16729638231664 3.5401953185084949 0 3.5401953185084949 26.257218235213259 0 0 0 0 -15.438714725471073 13.631141537615349 0 13.631141537615349 -31.735683172628796 0 0 0 0 63.279399219711195 102.56067735052557 0 102.56067735052557 35.225169296498279 0 0 0 0 -0.014860873664501284 -0.041495763651958839 0 -0.041495763651958839 -0.18778954912798795 0 0 0 0 -10.930480571892669 3.8027326544261726 0 3.8027326544261726 15.892580910961644 0 0 0 0 -72.871065962710418 68.962509294107804 0 68.962509294107804 -6.5424995813391433 0 0 0 0 87.099871369809989 18.285420999744474 0 18.285420999744474 9.0362165240198919 0 0 0 0 166.47403294039032 57.082986370417075 0 57.082986370417075 14.669584487532575 0 0 0 0 -207.97163959886689 11.733737175959789 0 11.733737175959789 58.933785418525076 0 0 0 0 0.6969937440392231 1.8284190529947999 0 1.8284190529947999 9.7957002677037615 0 0 0 0 6.4953463198266945 -3.9628929889299229 0 -3.9628929889299229 30.790442241849632 0 0 0 0 0.92573103081648966 0.73013821864591222 0 0.73013821864591222 1.2130422940797736 0 0 0 0 -161.43847311691025 35.190683166552844 0 35.190683166552844 113.05421064662914 0 0 0 0 -148.71319594177839 28.433685915919341 0 28.433685915919341 60.071651460375506 0 0 0 0 -184.46579202975045 32.192224799413452 0 32.192224799413452 79.028449605228161 0 0 0 0 -140.98711560496304 -3.1041181636792317 0 -3.1041181636792317 -0.93639242744029616 0 0 0 0 -193.87241835747409 -6.0919958514932659 0 -6.0919958514932659 54.797048214775714 0 0 0 0 -106.32883121673149 40.390209007476187 0 40.390209007476187 31.213685866676315 0 0 0 0 -117.70310328555388 63.04995534682007 0 63.04995534682007 66.090249963535825 0 0 0 0 -88.01123679284683 57.826979430868505 0 57.826979430868505 6.0184314836372437 0 0 0 0 -91.787740807012597 59.297631361069307 0 59.297631361069307 21.962610735867202 0 0 0 0 -8.8864238849746471 63.026534733545304 0 63.026534733545304 10.912209738599358 0 0 0 0 -30.390597703453334 16.192294199351061 0 16.192294199351061 -2.9221944166114326 0 0 0 0 -45.434036959033619 27.640084678432913 0 27.640084678432913 4.8511720620761025 0 0 0 0 0.18277805425623228 30.22294340203689 0 30.22294340203689 4.6408854343349049 0 0 0 0 -30.734360473075792 26.858471312264168 0 26.858471312264168 -8.4511683922314518 0 0 0 0 -21.817673377230676 34.195220102517851 0 34.195220102517851 4.4549832850955227 0 0 0 0 -19.23001844240288 18.463728781917467 0 18.463728781917467 -6.0860868456342478 0 0 0 0 -82.340759091954169 -31.475344806616476 0 -31.475344806616476 7.028810667655307 0 0 0 0 -67.480821574811671 25.280984164374786 0 25.280984164374786 24.345180184673154 0 0 0 0 -45.838988562422287 13.46040039901991 0 13.46040039901991 2.4901602734948742 0 0 0 0 -42.88743746734508 20.475467693912833 0 20.475467693912833 0.32861873995761925 0 0 0 0 -33.60436704312999 18.595713044386148 0 18.595713044386148 4.9811132881718247 0 0 0 0 -42.611049711468922 15.505269603744523 0 15.505269603744523 2.6822322036186961 0 0 0 0 -29.411318378237539 23.093409854462688 0 23.093409854462688 0.43122410202148842 0 0 0 0 -52.167359480341474 13.233930676601176 0 13.233930676601176 5.4245506516399473 0 0 0 0 -95.51299892062616 14.102051679684621 0 14.102051679684621 8.9879085762702289 0 0 0 0 -77.797958667253624 38.803787416315458 0 38.803787416315458 21.05610375778366 0 0 0 0 -105.915878069256 24.697277217178907 0 24.697277217178907 17.612736884476362 0 0 0 0 -122.07363576618718 1.7978956669124386 0 1.7978956669124386 1.2274853414187419 0 0 0 0 -108.49389427111601 25.763910536164076 0 25.763910536164076 -2.9279665406094466 0 0 0 0 -107.71381448466673 21.180893575677487 0 21.180893575677487 15.455269243954262 0 0 0 0 -113.3160015327885 39.48144357450667 0 39.48144357450667 16.384525204256988 0 0 0 0 -62.947530234487203 12.826732505081281 0 12.826732505081281 12.776761630648252 0 0 0 0 -106.34949652074101 32.129733629461953 0 32.129733629461953 9.8839213282915352 0 0 0 0 -4.6375848480312563 1.6598238894325625 0 1.6598238894325625 3.2995155592430638 0 0 0 0 -118.16137542631714 28.770830850279594 0 28.770830850279594 13.777811469237349 0 0 0 0 -93.954759406773519 26.863007277819861 0 26.863007277819861 11.372436515835489 0 0 0 0 -139.16325524987406 14.149424004639968 0 14.149424004639968 14.098803380285062 0 0 0 0 -78.075447363875355 1.8101851142713485 0 1.8101851142713485 1.9180531688841711 0 0 0 0 -105.61136241582062 18.38418593818119 0 18.38418593818119 14.390015356840195 0 0 0 0 -84.160635309381178 11.546955560798779 0 11.546955560798779 -1.541848738848671 0 0 0 0 -93.585052294447451 -4.5228820577647184 0 -4.5228820577647184 -14.506833088931671 0 0 0 0 -165.28804768066038 -54.18886608292155 0 -54.18886608292155 -42.366679670959229 0 0 0 0 -53.93049569411442 35.154844318355188 0 35.154844318355188 -14.336238267161216 0 0 0 0 16.731382464253244 7.2451162581102615 0 7.2451162581102615 -8.6115968849287299 0 0 0 0 -4.4312756218844243 100.40833777649226 0 100.40833777649226 28.851816545186011 0 0 0 0 104.44336194831703 295.0118810844715 0 295.0118810844715 -155.31814714586108 0 0 0 0 112.74490170441277 144.46851767325825 0 144.46851767325825 10.761964165839345 0 0 0 0 -18.204007988331739 5.3668100582110796 0 5.3668100582110796 2.6798165324306211 0 0 0 0 -73.462929030727537 69.831020749886193 0 69.831020749886193 64.545022832113318 0 0 0 0 -66.239160377459484 122.34545082698151 0 122.34545082698151 153.87899679868315 0 0 0 0 -62.933106406409024 36.907618780245684 0 36.907618780245684 136.30011393000132 0 0 0 0 -436.96185915612051 159.62001846775343 0 159.62001846775343 -60.56430122652165 0 0 0 0 76.289842600504926 186.68761274515964 0 186.68761274515964 170.86933566447624 0 0 0 0 -523.04962542264184 -138.14819762996348 0 -138.14819762996348 -113.01863052318561 0 0 0 0 -28.571258835958414 19.098860495086029 0 19.098860495086029 -18.333522033980138 0 0 0 0 4.4284169297666267 -42.482487391279818 0 -42.482487391279818 -273.64817298292564 0 0 0 0 -36.33764296305997 -13.217187937953344 0 -13.217187937953344 -8.0679212446352206 0 0 0 0 -877.57172760419417 333.0881873769049 0 333.0881873769049 184.2747702218943 0 0 0 0 -160.28548395149301 13.260167820483389 0 13.260167820483389 18.13899971660976 0 0 0 0 -173.29769990427531 -5.8711129118335066 0 -5.8711129118335066 12.909015072544207 0 0 0 0 -129.33055063785559 39.826091843490758 0 39.826091843490758 27.677868086312628 0 0 0 0 -133.96970669079019 13.948938366258062 0 13.948938366258062 4.730110705617335 0 0 0 0 -14.705054071491334 -22.258316395573598 0 -22.258316395573598 -12.309997286837556 0 0 0 0 -941.63828840149074 533.98708639671236 0 533.98708639671236 -146.97089885337931 0 0 0 0 -1805.8096386824059 92.567079769997761 0 92.567079769997761 258.80567121550837 0 0 0 0 -1613.2650928936957 177.23879385468439 0 177.23879385468439 240.01495190550378 0 0 0 0 -2499.0565116339931 85.149729536772412 0 85.149729536772412 500.19827808287624 0 0 0 0 -1850.9527820246331 357.68619938605548 0 357.68619938605548 342.99637984419849 0 0 0 0 -1609.6244172585202 916.05003085790588 0 916.05003085790588 -412.32365228181754 0 0 0 0 -2499.6634694384629 667.29423986948223 0 667.29423986948223 236.15065882937557 0 0 0 0 -63.740184107889249 -41.701927120993901 0 -41.701927120993901 96.318910116079451 0 0 0 0 -1492.1539926530945 445.50832901787624 0 445.50832901787624 -154.93181295615156 0 0 0 0 -19.860512664651772 -15.618756110273436 0 -15.618756110273436 -6.7885605393505788 0 0 0 0 -77.483526249850911 85.505814346453803 0 85.505814346453803 57.624348064831111 0 0 0 0 -2498.5182287133193 1312.5459670823691 0 1312.5459670823691 -562.68913939706169 0 0 0 0 -9.8565832090758647 -4.5403734656665495 0 -4.5403734656665495 -2.7243369350650122 0 0 0 0 -83.530698602366101 78.721208310569864 0 78.721208310569864 -5.7220748027998525 0 0 0 0 -172.34062763872498 106.1744452553088 0 106.1744452553088 217.08695793949005 0 0 0 0 -525.99093633815573 380.55875941710019 0 380.55875941710019 47.156324896410581 0 0 0 0 -93.089573438372028 -8.5353335820226803 0 -8.5353335820226803 0.31324006631823798 0 0 0 0 -152.85033457694271 -34.108341344795704 0 -34.108341344795704 324.95614452103337 0 0 0 0 -136.40527861148621 -115.58101098587838 0 -115.58101098587838 133.64362688081724 0 0 0 0 -85.685292290182588 -150.40334951991906 0 -150.40334951991906 178.32207805904443 0 0 0 0 -31.36863633344251 -85.182739236516866 0 -85.182739236516866 -17.893807285929597 0 0 0 0 -92.410541576584365 -74.770255566154901 0 -74.770255566154901 111.53654386401831 0 0 0 0 -50.725996619039506 -52.671942607891197 0 -52.671942607891197 1.239925971017442 0 0 0 0 -67.746602611757581 -9.3783211532142516 0 -9.3783211532142516 0.065089329260950235 0 0 0 0 -34.325440491540121 -98.144699336279544 0 -98.144699336279544 52.534973942194711 0 0 0 0 -119.04162071786322 -6.5042530350467587 0 -6.5042530350467587 19.77347742881966 0 0 0 0 54.074563484799 -5.6514039492562915 0 -5.6514039492562915 -202.87415365976892 0 0 0 0 -29.705844220214203 -46.104680089821613 0 -46.104680089821613 -149.04830790500966 0 0 0 0 111.85281413897428 102.30682277440678 0 102.30682277440678 -3.8082232104106879 0 0 0 0 -9.5597505806726986 44.216526487217152 0 44.216526487217152 -147.25230583895313 0 0 0 0 -93.512885935169834 67.937188491336542 0 67.937188491336542 -17.605787280715958 0 0 0 0 -81.144530800802016 -6.4360377197272509 0 -6.4360377197272509 0.14978044328378526 0 0 0 0 -45.626119199906498 40.652895974926878 0 40.652895974926878 111.1795275556442 0 0 0 0 -56.731036331622818 -4.5377372299813032 0 -4.5377372299813032 46.928036986321786 0 0 0 0 4.0915513458021451 -2.665961560355754 0 -2.665961560355754 8.4174764856579714 0 0 0 0 -84.065883589651094 21.522835285623671 0 21.522835285623671 118.25726453415336 0 0 0 0 -82.916762307826502 19.284710525805167 0 19.284710525805167 37.980268417285515 0 0 0 0 -59.293138099114003 -2.6832093541524955 0 -2.6832093541524955 48.375363103378049 0 0 0 0 -68.955892821619273 -23.087369478650999 0 -23.087369478650999 30.920925139779683 0 0 0 0 -109.86589554821148 -24.830165505073637 0 -24.830165505073637 72.967424440066225 0 0 0 0 -37.085118840276664 5.370293716327069 0 5.370293716327069 23.351941312195777 0 0 0 0 -50.716447168993909 7.3484523475387959 0 7.3484523475387959 41.579790990253059 0 0 0 0 -24.203882876572607 34.619677865154927 0 34.619677865154927 56.051392131069406 0 0 0 0 -12.885525675562349 22.911817854257606 0 22.911817854257606 20.822758276217428 0 0 0 0 -3.9257593909715434 0.15326797274147452 0 0.15326797274147452 0.57795763811594902 0 0 0 0 59.507707788261541 66.265522966675235 0 66.265522966675235 45.891618534304143 0 0 0 0 -81.237861092919047 -1.354897624980822 0 -1.354897624980822 -1.1025641888277278 0 0 0 0 -87.924388346997148 -30.209220712975224 0 -30.209220712975224 -29.581505018620646 0 0 0 0 -17.694639456541609 24.500849486104016 0 24.500849486104016 96.105576353780634 0 0 0 0 -60.523161545192124 21.584155665804701 0 21.584155665804701 -3.9525060111057257 0 0 0 0 -7.4589048836597769 6.0988874659751993 0 6.0988874659751993 -5.6104281144796913 0 0 0 0 -14.853834679861393 71.997073070825536 0 71.997073070825536 88.092443834052744 0 0 0 0 50.768169362158915 62.823791610094247 0 62.823791610094247 -3.9125916151251658 0 0 0 0 -2.5357380274635801 2.2351397828148123 0 2.2351397828148123 -2.1077203836301841 0 0 0 0 20.009802467723603 123.81097108150567 0 123.81097108150567 -19.955449777281046 0 0 0 0 -435.73427582718068 -117.63925240840422 0 -117.63925240840422 -25.768879879847645 0 0 0 0 -488.60630583543661 118.64172091003735 0 118.64172091003735 -13.352169923280599 0 0 0 0 -297.17861150260251 25.133276883639383 0 25.133276883639383 26.998193326985529 0 0 0 0 -181.67322699681972 -93.892468853550781 0 -93.892468853550781 -23.584679206079613 0 0 0 0 -53.052699249376019 -2.6039622069266102 0 -2.6039622069266102 -27.840676306067508 0 0 0 0 -227.62909663690516 2.9376347322107677 0 2.9376347322107677 32.687163183277789 0 0 0 0 -268.77692785862746 24.965924719543409 0 24.965924719543409 2.4534899994255284 0 0 0 0 -141.62497716897997 -0.6914656807934989 0 -0.6914656807934989 -8.1579902852679425 0 0 0 0 -254.71224630438883 -4.6393610284293345 0 -4.6393610284293345 -8.2170329929576837 0 0 0 0 -83.741656885180419 -50.973115130035239 0 -50.973115130035239 -33.004735078277733 0 0 0 0 -114.88737638664952 25.447928515013587 0 25.447928515013587 4.6986363193198031 0 0 0 0 -135.07281765737753 -22.495559632815457 0 -22.495559632815457 125.23504513495891 0 0 0 0 -268.91202674891974 207.79381161095807 0 207.79381161095807 -246.28621595936909 0 0 0 0 -62.762623510086996 -2.0322461405276044 0 -2.0322461405276044 -82.846843992322647 0 0 0 0 -243.79448420985409 100.25303035443227 0 100.25303035443227 -45.128199799234608 0 0 0 0 -149.37413870231376 32.403040174598345 0 32.403040174598345 49.343838943157152 0 0 0 0 -176.75412967226475 -23.097872536103409 0 -23.097872536103409 43.305814255152654 0 0 0 0 -71.853130964644151 48.873628883573019 0 48.873628883573019 32.065270652119807 0 0 0 0 -18.947823233245721 -3.2933191738280598 0 -3.2933191738280598 1.8598352445619302 0 0 0 0 -113.86094170299384 -76.399640606748392 0 -76.399640606748392 31.6299837943684 0 0 0 0 -120.6636485479612 -38.85514833212801 0 -38.85514833212801 94.00696718526342 0 0 0 0 -95.891013061529137 -6.9809656036666805 0 -6.9809656036666805 2.2355219075850812 0 0 0 0 -87.139634093266068 -7.1799416024953189 0 -7.1799416024953189 26.923265449269024 0 0 0 0 -164.60811559502508 525.93661564329705 0 525.93661564329705 -48.285533063625508 0 0 0 0 -519.63025290283258 553.8288908245022 0 553.8288908245022 -73.33631919427819 0 0 0 0 -81.32237036859442 16.741950570203926 0 16.741950570203926 791.4190192701808 0 0 0 0 511.60341982478712 -170.3666033526647 0 -170.3666033526647 -944.80978666274859 0 0 0 0 -31.682269795630901 -1.0122572052879413 0 -1.0122572052879413 10.216091420143 0 0 0 0 386.33594256590732 -416.19064074832932 0 -416.19064074832932 -146.4303010306603 0 0 0 0 -61.812301481590112 187.8436359265354 0 187.8436359265354 -462.67318585802423 0 0 0 0 -100.19731578708965 -8.043326969486257 0 -8.043326969486257 -0.20652947365158747 0 0 0 0 -204.3614820832463 -48.289181544249232 0 -48.289181544249232 286.42729378122726 0 0 0 0 -234.96395822857448 9.8554004121242542 0 9.8554004121242542 159.53580232312106 0 0 0 0 -85.306995885341166 -98.829443784290106 0 -98.829443784290106 73.773721096236386 0 0 0 0 -209.61782780693829 111.73304480288994 0 111.73304480288994 16.59295827455739 0 0 0 0 -167.51040296309299 19.907999032126114 0 19.907999032126114 106.43985964414401 0 0 0 0 -163.95952985194788 102.08393110290822 0 102.08393110290822 -36.009842506189671 0 0 0 0 -292.74164778739942 32.105984368107329 0 32.105984368107329 2.6214324119623598 0 0 0 0 -443.71696579797208 215.41813017186723 0 215.41813017186723 22.164826116897984 0 0 0 0 -0.82702512220243563 0.87064899584168387 0 0.87064899584168387 0.12808812824246996 0 0 0 0 -547.51715547771255 -9.4168657670935545 0 -9.4168657670935545 69.362090643339798 0 0 0 0 24.204724145385626 -15.39921417145149 0 -15.39921417145149 -7.840471945962463 0 0 0 0 -135.60567678260486 -249.7289506107262 0 -249.7289506107262 251.92339046283496 0 0 0 0 -99.422359611633979 -10.313264829475699 0 -10.313264829475699 0.090731171500596286 0 0 0 0 205.6762989203271 -195.14712948468832 0 -195.14712948468832 -335.4196450866574 0 0 0 0 -136.54903989215563 -61.198753021373022 0 -61.198753021373022 302.8774876570364 0 0 0 0 -58.199101437490754 39.35348512635619 0 39.35348512635619 97.396217888832552 0 0 0 0 -152.21696740578773 111.84914946907975 0 111.84914946907975 29.383274012791276 0 0 0 0 -101.1805037139311 58.530030661458454 0 58.530030661458454 132.84727046744422 0 0 0 0 -112.32032367768647 -5.4790303789869199 0 -5.4790303789869199 58.606839964535538 0 0 0 0 -209.42273603161084 80.655877423316952 0 80.655877423316952 -74.188814376676078 0 0 0 0 -250.29901321800389 57.776393497096137 0 57.776393497096137 40.831497552362862 0 0 0 0 -150.6096110768849 42.086452047302828 0 42.086452047302828 -31.136081829270324 0 0 0 0 -225.04060046270388 34.880913891173577 0 34.880913891173577 -15.400770006586072 0 0 0 0 -197.34610686065753 11.149281537771913 0 11.149281537771913 -51.500573574705186 0 0 0 0 -204.94701614819951 -25.717500964595985 0 -25.717500964595985 -189.13950675590695 0 0 0 0 -127.20841332517466 53.39810706855792 0 53.39810706855792 12.911489131977305 0 0 0 0 -1.3624864455024266 1.8567921306845854 0 1.8567921306845854 0.28536258876148501 0 0 0 0 -260.67206700850693 -8.3437551939814512 0 -8.3437551939814512 -2.5396449079880767 0 0 0 0 -180.43021224036511 85.671709409432822 0 85.671709409432822 19.858593055259917 0 0 0 0 -189.60823497676392 89.751008569069768 0 89.751008569069768 18.52334188356167 0 0 0 0 -214.23297856778481 48.607813075369677 0 48.607813075369677 42.883655513567419 0 0 0 0 -165.50900910572273 80.410088475309067 0 80.410088475309067 3.3332629465176069 0 0 0 0 -145.51779435779281 31.600789923614684 0 31.600789923614684 38.102422663944026 0 0 0 0 -118.35498819626264 46.089003551115638 0 46.089003551115638 69.263676835523256 0 0 0 0 -116.57555605474226 39.529364802670216 0 39.529364802670216 4.8032182516085413 0 0 0 0 -236.49514159498358 -40.488294921804368 0 -40.488294921804368 9.2876122385473536 0 0 0 0 -255.64218405594465 32.025064554549942 0 32.025064554549942 63.306715702475685 0 0 0 0 -146.917941646705 -10.883064986775025 0 -10.883064986775025 85.478128683496379 0 0 0 0 -285.67330328620028 -79.508554013204844 0 -79.508554013204844 16.554065399874617 0 0 0 0 -330.86394626743913 -157.923085033397 0 -157.923085033397 -119.38085879994696 0 0 0 0 -319.06101715407567 -23.998948260054021 0 -23.998948260054021 11.246722404389629 0 0 0 0 -352.46410797913268 1.7737080780816541 0 1.7737080780816541 -2.1066477659969678 0 0 0 0 -229.69982782666193 -18.852440233165737 0 -18.852440233165737 -11.532141855191639 0 0 0 0 -334.01951303320311 -16.30854245622686 0 -16.30854245622686 -53.012730623118841 0 0 0 0 -385.23574596693743 -157.04573580352826 0 -157.04573580352826 2.1033056805249544 0 0 0 0 -441.16625097378164 -73.912077652385506 0 -73.912077652385506 16.352854032226787 0 0 0 0 -226.82470783205827 -83.544288015913935 0 -83.544288015913935 2.0273300624839976 0 0 0 0 -0.063188149955749395 -42.075899111521949 0 -42.075899111521949 -58.339925305817815 0 0 0 0 -224.86731764861543 -82.822829022251426 0 -82.822829022251426 -18.435651898580772 0 0 0 0 -0.87606686509388965 5.0133765248814939 0 5.0133765248814939 -24.829872325521137 0 0 0 0 -309.43701666677407 8.8938818737244674 0 8.8938818737244674 68.682778531313033 0 0 0 0 -383.28903601051206 -156.54234017231829 0 -156.54234017231829 34.034592514107146 0 0 0 0 -3.0576497433204111 -0.98812934213434822 0 -0.98812934213434822 -0.62669138231401611 0 0 0 0 -35.687693606512767 -162.90401396758261 0 -162.90401396758261 -201.80644600536425 0 0 0 0 31.553848983605349 16.183999446756843 0 16.183999446756843 -229.37031013101478 0 0 0 0 -182.93796485138955 -205.20832616332132 0 -205.20832616332132 -40.093769957516088 0 0 0 0 -303.89629954048178 -24.911901961229773 0 -24.911901961229773 96.932926015398152 0 0 0 0 -2.196963470305036 -69.975140002082014 0 -69.975140002082014 -18.482471740928759 0 0 0 0 -0.65048591368758935 -83.598303168530265 0 -83.598303168530265 -22.353467989938395 0 0 0 0 -2.6978493993838129 -75.147406088818343 0 -75.147406088818343 -50.000259129511505 0 0 0 0 21.979041120321618 -25.80040831402323 0 -25.80040831402323 -4.6221757370518581 0 0 0 0 18.476539833478455 -10.399028805464695 0 -10.399028805464695 -19.112016510026251 0 0 0 0 13.791393374452454 -27.121735952678662 0 -27.121735952678662 -5.4521126237881283 0 0 0 0 -82.464778395291432 -50.378752372202371 0 -50.378752372202371 11.081471548495756 0 0 0 0 -33.211731222278104 -38.578609661006567 0 -38.578609661006567 -18.040123860708263 0 0 0 0 19.740662766239666 -64.754018606289435 0 -64.754018606289435 -0.046756141013247543 0 0 0 0 -0.42111386912108628 -8.2677862798490818 0 -8.2677862798490818 -4.7423283163904468 0 0 0 0 -1.0128405764462514 -41.16674365787685 0 -41.16674365787685 -36.957938285986074 0 0 0 0 5.9437962640648383 -13.506356203865717 0 -13.506356203865717 -5.2696780163299586 0 0 0 0 27.442978696217324 -18.094046447507935 0 -18.094046447507935 -31.548950445944456 0 0 0 0 -4.5040341692574657 -22.269681018219671 0 -22.269681018219671 -10.363032650490368 0 0 0 0 -32.114554437338484 -24.360245544854891 0 -24.360245544854891 -7.4549382309719938 0 0 0 0 -12.596987986537879 -13.376486885230406 0 -13.376486885230406 4.4455545435278099 0 0 0 0 -19.296062356346464 -23.543077066049943 0 -23.543077066049943 -6.7528277288071452 0 0 0 0 -31.969415862139073 -25.992937055702953 0 -25.992937055702953 -5.4176629015994422 0 0 0 0 -31.701479460769406 -18.115484142502737 0 -18.115484142502737 -3.7358228962721114 0 0 0 0 -9.1652042372098173 -4.0416079957575599 0 -4.0416079957575599 -1.2708692669753354 0 0 0 0 -20.157238918446637 -37.746477487284665 0 -37.746477487284665 -22.079871666321196 0 0 0 0 -24.8123881089276 -18.232132282466821 0 -18.232132282466821 -10.279489788403318 0 0 0 0 -49.543197228482313 -30.2997713010609 0 -30.2997713010609 10.872184246232791 0 0 0 0 -30.070426613368767 -6.0321474974809224 0 -6.0321474974809224 21.577803274881262 0 0 0 0 -30.252181466410548 -30.695067520211524 0 -30.695067520211524 5.7266289928102196 0 0 0 0 -22.056208258991319 -21.822467642163247 0 -21.822467642163247 -37.934397787676062 0 0 0 0 -39.960225289934897 -54.037201763393114 0 -54.037201763393114 -52.891107000184093 0 0 0 0 -3.3813111613141409 0.47470199665357482 0 0.47470199665357482 1.1463987411119589 0 0 0 0 -24.060230718149796 28.615684305895229 0 28.615684305895229 70.268897822168583 0 0 0 0 -54.196801637550379 -9.5443779498802996 0 -9.5443779498802996 32.559651733376086 0 0 0 0 -48.320319625147931 -46.570611845512758 0 -46.570611845512758 14.285696570704204 0 0 0 0 -23.174392294167774 23.728706646241335 0 23.728706646241335 37.792045777759995 0 0 0 0 -99.417381137344819 -140.48411862686271 0 -140.48411862686271 -85.394925185883039 0 0 0 0 -1.7906280031841035 -0.19808538006099585 0 -0.19808538006099585 0.92285843824633673 0 0 0 0 -154.95775858665365 -112.95266999348269 0 -112.95266999348269 -34.383398182571909 0 0 0 0 1.6084482317455695 9.2491512087981391 0 9.2491512087981391 7.1174818472661627 0 0 0 0 -112.59666082321201 -83.487063861755814 0 -83.487063861755814 -92.05442065371858 0 0 0 0 -66.353111863652884 -45.558504628098945 0 -45.558504628098945 -81.384071374711311 0 0 0 0 -45.459397416605725 -20.277321530974518 0 -20.277321530974518 -50.822761539191561 0 0 0 0 -98.048273054882884 -32.464628531591188 0 -32.464628531591188 3.3305769600085569 0 0 0 0 -123.67848099713774 -62.827142004951838 0 -62.827142004951838 -32.524712145577723 0 0 0 0 8.4135284209423844 47.362326653631044 0 47.362326653631044 7.0470047552944379 0 0 0 0 -140.34048425079072 -10.579964798358219 0 -10.579964798358219 -20.068165417631462 0 0 0 0 -173.37048381752356 29.460238544139429 0 29.460238544139429 61.131394523298241 0 0 0 0 -1.2337446284762255 0.56641126232388395 0 0.56641126232388395 1.7006603296740117 0 0 0 0 -78.327853110800788 -105.8331697312974 0 -105.8331697312974 -82.672616044480947 0 0 0 0 -262.16602594726282 4.9473000187535945 0 4.9473000187535945 39.930214487354533 0 0 0 0 -212.27074307031944 -26.694548459839098 0 -26.694548459839098 56.645068807284133 0 0 0 0 -2.2079234241368084 -0.37632775262869211 0 -0.37632775262869211 1.0642783436357561 0 0 0 0 12.518920454594536 38.593657571444055 0 38.593657571444055 -9.2130373862264605 0 0 0 0 -243.95497405444985 -141.25071003750145 0 -141.25071003750145 -65.351211464418157 0 0 0 0 -34.158316113864203 89.199782671563753 0 89.199782671563753 78.419119909177425 0 0 0 0 -67.099804456643142 17.101270597612711 0 17.101270597612711 -10.798421304545627 0 0 0 0 -15.834198952979932 31.269655713410657 0 31.269655713410657 -73.437428507243567 0 0 0 0 -13.39255120076632 19.06442803397249 0 19.06442803397249 -17.416382781406242 0 0 0 0 -35.446100727710473 -41.075404892192637 0 -41.075404892192637 -38.346591919093953 0 0 0 0 -39.848854556973492 -47.197053949408627 0 -47.197053949408627 -34.033001642381805 0 0 0 0 -110.6000398949127 4.0605623991773427 0 4.0605623991773427 -4.9111426088893495 0 0 0 0 -47.596724055827508 -16.30780938449243 0 -16.30780938449243 -53.975002893545479 0 0 0 0 -52.028281288304697 -32.742280993726126 0 -32.742280993726126 -15.378104374093709 0 0 0 0 -97.313712210473568 -78.596906078393431 0 -78.596906078393431 1.9579249488334654 0 0 0 0 -49.411825932523243 -38.564020425893887 0 -38.564020425893887 27.970332435379532 0 0 0 0 -119.72237573557322 0.46413541845686268 0 0.46413541845686268 13.796636095219128 0 0 0 0 -95.843039238872734 45.813035238833891 0 45.813035238833891 -38.691631854776915 0 0 0 0 -81.407740933316745 0.211442724948256 0 0.211442724948256 -24.314834554696063 0 0 0 0 -87.537772016061353 -78.698177656451662 0 -78.698177656451662 -23.962448937479621 0 0 0 0 13.412039492345139 -26.576507094533717 0 -26.576507094533717 -3.0222797212799906 0 0 0 0 -85.984449748596489 -55.519500250077499 0 -55.519500250077499 -42.709827314554332 0 0 0 0 -188.96322495899312 -171.02551588073652 0 -171.02551588073652 -84.297123313708653 0 0 0 0 1.8691457699702099 -8.6986762011403727 0 -8.6986762011403727 -4.7677206401629881 0 0 0 0 -449.82520256923635 97.886969618306466 0 97.886969618306466 -39.152729331174669 0 0 0 0 -192.49878723035454 -127.89829450717957 0 -127.89829450717957 -102.67076707680962 0 0 0 0 -10.610179346197663 -1.8623827740756553 0 -1.8623827740756553 -2.8040157007633049 0 0 0 0 184.24253013034831 -165.27194415600979 0 -165.27194415600979 -103.53662265436685 0 0 0 0 161.06759025859901 63.384220122010447 0 63.384220122010447 -8.1242598324222399 0 0 0 0 -484.84978508958193 42.300852421210493 0 42.300852421210493 33.982984469556868 0 0 0 0 -199.24219860570884 194.72427181904641 0 194.72427181904641 49.934326445962711 0 0 0 0 70.876169349852717 -63.753858168798047 0 -63.753858168798047 -165.60092554688435 0 0 0 0 -48.847422091800581 65.839166515670172 0 65.839166515670172 -113.05627803825246 0 0 0 0 -51.736828136799886 41.760900558363574 0 41.760900558363574 -259.15268088660241 0 0 0 0 -318.09733228435198 82.952886610587825 0 82.952886610587825 -51.806089685781444 0 0 0 0 -41.126355746759145 57.214639599954126 0 57.214639599954126 -99.257349464974141 0 0 0 0 35.374701923121393 -6.0651948073204949 0 -6.0651948073204949 -112.58137217014388 0 0 0 0 27.678429823821716 -41.504232921354628 0 -41.504232921354628 -48.646996538466738 0 0 0 0 12.352505088385442 -10.714288784243422 0 -10.714288784243422 -74.114718262564111 0 0 0 0 -34.940696147383278 -58.560912889083284 0 -58.560912889083284 -8.6464255205601148 0 0 0 0 -46.136677683271955 -43.045277249306992 0 -43.045277249306992 -29.558177119045013 0 0 0 0 -17.768808164986694 -64.578199707706972 0 -64.578199707706972 -8.2091737652177983 0 0 0 0 -57.947447889122486 -49.176564779931255 0 -49.176564779931255 61.916748867445449 0 0 0 0 -53.158018497808371 -38.617816483752563 0 -38.617816483752563 121.2839901668217 0 0 0 0 -56.416906260292308 -17.887310750123262 0 -17.887310750123262 41.229174976129798 0 0 0 0 127.4052549607477 -82.491705266579174 0 -82.491705266579174 -69.936309708054495 0 0 0 0 64.227345800970397 -7.2332246170524286 0 -7.2332246170524286 56.967606536262792 0 0 0 0 20.758065632386206 -127.71866150198423 0 -127.71866150198423 95.255347594550585 0 0 0 0 311.36678727906656 -338.90118374016765 0 -338.90118374016765 225.62358207122293 0 0 0 0 -51.757603220168676 -29.052933239107006 0 -29.052933239107006 -25.267797633648115 0 0 0 0 -52.790689030167414 -30.632275815217781 0 -30.632275815217781 -22.009658934484833 0 0 0 0 -9.3879674975111449 -0.99107445035115305 0 -0.99107445035115305 7.4641073821838386 0 0 0 0 -51.91956804926226 -19.023944461039537 0 -19.023944461039537 0.71746593081207211 0 0 0 0 -60.244593817080386 3.6883010547846879 0 3.6883010547846879 59.232556779391871 0 0 0 0 -56.053684179427364 -27.1065310601698 0 -27.1065310601698 -20.391382202325076 0 0 0 0 -56.051621236517576 -27.361815121874564 0 -27.361815121874564 -2.4936176733590401 0 0 0 0 -69.440173089285963 -38.389874917238558 0 -38.389874917238558 -6.963942852908076 0 0 0 0 -43.471560172423779 -28.808120574178702 0 -28.808120574178702 -13.924007561011649 0 0 0 0 -54.936808647922589 -31.302764624043448 0 -31.302764624043448 -14.463609453288882 0 0 0 0 -30.574151725238973 -25.716614210281712 0 -25.716614210281712 -14.218943369075363 0 0 0 0 -56.62475537739374 -25.585463531869209 0 -25.585463531869209 -8.87279339624979 0 0 0 0 -62.119765546463896 -13.321188730811627 0 -13.321188730811627 25.073730068325972 0 0 0 0 -29.315432310530014 -21.286647342873948 0 -21.286647342873948 16.328932356813311 0 0 0 0 -535.16609295521721 -31.416673373120148 0 -31.416673373120148 371.07714821522541 0 0 0 0 -27.413775651391916 -92.148174912732998 0 -92.148174912732998 -83.894412708547407 0 0 0 0 -104.44609577878146 -87.51826937544206 0 -87.51826937544206 -24.846974468458939 0 0 0 0 2.2591524448196338 -4.3480372376146974 0 -4.3480372376146974 -3.4985884696774985 0 0 0 0 -14.159542945894145 -63.515575630039621 0 -63.515575630039621 -60.972221485920727 0 0 0 0 -95.299206477297048 -22.276326855903847 0 -22.276326855903847 2.0006296052293919 0 0 0 0 -73.597236084409815 -38.22249369379449 0 -38.22249369379449 -14.937059369302794 0 0 0 0 -56.175527093501103 -20.01855195131694 0 -20.01855195131694 2.2880956182885175 0 0 0 0 -82.550435978481801 -49.840562156504461 0 -49.840562156504461 3.0035678803615156 0 0 0 0 -44.705224160807617 -27.548617397092798 0 -27.548617397092798 -5.6991000017504501 0 0 0 0 -70.992175862815202 -24.381280046096208 0 -24.381280046096208 2.6503152914001475 0 0 0 0 -27.992249317715483 -10.490833065638341 0 -10.490833065638341 9.0392907182645104 0 0 0 0 -55.140189004454442 -27.138218324374975 0 -27.138218324374975 4.2025369416886065 0 0 0 0 -59.147914324582416 -19.118488266543409 0 -19.118488266543409 -3.0765896303328191 0 0 0 0 -64.234898794715264 -13.430270519933401 0 -13.430270519933401 5.1902455109916446 0 0 0 0 -55.896540694469877 -10.265248442599841 0 -10.265248442599841 6.3066224406456968 0 0 0 0 -63.596556631666317 -25.690233258403168 0 -25.690233258403168 0.92771092380371556 0 0 0 0 -68.174368769683497 -31.105674584377994 0 -31.105674584377994 10.628404700644751 0 0 0 0 -56.540549613997015 -15.70788450860611 0 -15.70788450860611 2.3509714584612706 0 0 0 0 -62.74881440275567 -25.166175058694989 0 -25.166175058694989 0.98112248057805118 0 0 0 0 -67.344516641212977 -21.752899021664916 0 -21.752899021664916 41.840738200663822 0 0 0 0 -85.817272679227244 -40.687653475558136 0 -40.687653475558136 8.2084360212188585 0 0 0 0 -61.275741390800434 -14.088427329125128 0 -14.088427329125128 5.8357199048440336 0 0 0 0 -64.919289172548815 -16.299047918862925 0 -16.299047918862925 12.94937292859413 0 0 0 0 -8.8613916945641513 -8.205611793961161 0 -8.205611793961161 5.7218491767802178 0 0 0 0 -76.637174058132587 -37.879283251443091 0 -37.879283251443091 -2.2626383908304479 0 0 0 0 -63.007741514295049 -13.109761239077613 0 -13.109761239077613 19.03798661032306 0 0 0 0 -55.799837411881526 -45.58631860904211 0 -45.58631860904211 -16.200434293305079 0 0 0 0 0.68451536087005493 -1.1349978248911654 0 -1.1349978248911654 6.6673310232918706 0 0 0 0 -81.855179646276156 -68.621829953688803 0 -68.621829953688803 -7.0425213373191582 0 0 0 0 -69.036301702268247 -32.250896471249575 0 -32.250896471249575 -4.4536055576452895 0 0 0 0 -62.813036185601959 -25.156383742585604 0 -25.156383742585604 2.1540690693823308 0 0 0 0 -71.380739643741435 -26.931814701132453 0 -26.931814701132453 9.8743712121013232 0 0 0 0 -69.902360475385649 -26.694455726959063 0 -26.694455726959063 7.1331731383802435 0 0 0 0 -75.216529849779363 -32.33220249382591 0 -32.33220249382591 -4.4232813095681536 0 0 0 0 -70.798482112215424 -33.754544337737684 0 -33.754544337737684 -3.966103491380693 0 0 0 0 -56.15853257884919 -19.369320723940859 0 -19.369320723940859 1.7200463584014187 0 0 0 0 -76.636341697347234 -27.547557918108339 0 -27.547557918108339 11.593791058477223 0 0 0 0 -62.115404351956386 -19.913485526681598 0 -19.913485526681598 10.198503203945279 0 0 0 0 -60.950435337463205 -19.488785261663907 0 -19.488785261663907 7.1429933057938797 0 0 0 0 -30.24608649189819 0.69537866706070872 0 0.69537866706070872 24.51745666242315 0 0 0 0 -62.034422818294843 -15.491233704727833 0 -15.491233704727833 16.295041980490623 0 0 0 0 -87.092989401084196 -192.59961599255666 0 -192.59961599255666 -226.9984637175221 0 0 0 0 -37.342008856350724 4.306325453477875 0 4.306325453477875 20.392632527378623 0 0 0 0 -72.166307171954941 -28.843602842676319 0 -28.843602842676319 -0.53986903706163503 0 0 0 0 -218.06270492008204 -212.85375664796391 0 -212.85375664796391 -179.84417033221894 0 0 0 0 -216.19537751337111 -216.64320607107084 0 -216.64320607107084 -230.02040515083991 0 0 0 0 -1.087439835615335 -0.35364895273917618 0 -0.35364895273917618 3.6037073103511581 0 0 0 0 -60.330231011910655 -25.614881857243745 0 -25.614881857243745 2.1765776671830821 0 0 0 0 -72.013694152429707 -17.461615130774362 0 -17.461615130774362 2.4641462116333059 0 0 0 0 -43.920944266417791 -3.6526739610708319 0 -3.6526739610708319 20.059319055681044 0 0 0 0 -43.610068132905326 -13.580538931526235 0 -13.580538931526235 -9.2414898815832203 0 0 0 0 -42.272715100278219 -36.393138867368634 0 -36.393138867368634 5.9855892460223004 0 0 0 0 -39.861741921410612 -48.024537598897723 0 -48.024537598897723 -48.101171915327541 0 0 0 0 -55.761518685400006 -19.597162765242047 0 -19.597162765242047 -13.791115703140349 0 0 0 0 -68.220544479578166 -30.638869328006422 0 -30.638869328006422 9.0502617630120312 0 0 0 0 -1033.0591585016214 166.36522058767196 0 166.36522058767196 -226.53821348310419 0 0 0 0 -42.659973170146252 8.6217423714877039 0 8.6217423714877039 17.116624670998156 0 0 0 0 -65.504393098882247 -38.43732135082837 0 -38.43732135082837 -24.727110512787476 0 0 0 0 -11.588703530384464 -418.33774918551842 0 -418.33774918551842 -303.77715196403153 0 0 0 0 -2.9190425195284924 -3.9618178486062225 0 -3.9618178486062225 -6.0243697330133248 0 0 0 0 315.00186329023586 -441.05908813739575 0 -441.05908813739575 -308.69245675405432 0 0 0 0 -1323.3972899688133 100.09450038299127 0 100.09450038299127 108.08418491104538 0 0 0 0 -1042.8140089608983 -1377.6468472389122 0 -1377.6468472389122 148.90772992188158 0 0 0 0 -62.392630591664329 19.449452286543988 0 19.449452286543988 -65.533708161088725 0 0 0 0 -41.496007982610863 9.058586853362776 0 9.058586853362776 16.76539654374244 0 0 0 0 -130.00102135865109 -122.51518711235005 0 -122.51518711235005 -130.82496573839526 0 0 0 0 -3.4683825690046159 -3.5977503073495174 0 -3.5977503073495174 -2.0228520095654172 0 0 0 0 -137.86731201249631 -309.17119173325074 0 -309.17119173325074 -165.21708492271659 0 0 0 0 36.075878770597967 -246.99274882677742 0 -246.99274882677742 -536.79982793432055 0 0 0 0 -354.72474657153913 -140.29473539832691 0 -140.29473539832691 -192.50392521773279 0 0 0 0 -200.67668342554862 -437.78678242399724 0 -437.78678242399724 -251.80126628616358 0 0 0 0 115.42276224125959 -96.193926509452808 0 -96.193926509452808 115.15881934864137 0 0 0 0 -318.5010053711444 -161.07546180309191 0 -161.07546180309191 208.59859210078503 0 0 0 0 73.493496999917625 128.34362563785811 0 128.34362563785811 -210.63577519107162 0 0 0 0 -117.36636682717199 4.9176429357020197 0 4.9176429357020197 237.60995987559926 0 0 0 0 61.885025596256128 -65.797026889347876 0 -65.797026889347876 -76.775637696173362 0 0 0 0 26.838769790470906 -230.7090252602585 0 -230.7090252602585 -200.19440989756231 0 0 0 0 -169.26151328027117 -74.328857613505306 0 -74.328857613505306 278.84171260051903 0 0 0 0 -13.101467004450051 -5.2606928240811683 0 -5.2606928240811683 -2.1249494896431513 0 0 0 0 -52.652198860378348 60.223563372208844 0 60.223563372208844 -27.53141253220565 0 0 0 0 -0.050771583886671579 47.140920555059211 0 47.140920555059211 120.11052930304163 0 0 0 0 42.053718003351605 61.111096374003893 0 61.111096374003893 81.064020171935908 0 0 0 0 -20.306419511277468 -8.0232765500081165 0 -8.0232765500081165 -0.57662678356988506 0 0 0 0 -17.699505916236376 58.782331801054134 0 58.782331801054134 114.21395389458081 0 0 0 0 9.2306594613519337 99.874613904018929 0 99.874613904018929 39.862815684183602 0 0 0 0 91.929939463569099 81.932468535979297 0 81.932468535979297 -56.042879512474656 0 0 0 0 126.52193751553932 -16.288308474166115 0 -16.288308474166115 76.082053307134061 0 0 0 0 -107.31538745071339 129.85837864531851 0 129.85837864531851 88.079194793217084 0 0 0 0 -71.995507840692881 -59.917720038544189 0 -59.917720038544189 74.117145665785756 0 0 0 0 -553.12762252482389 -116.83863159156135 0 -116.83863159156135 92.318827206248159 0 0 0 0 -328.58600930981538 392.33468525986757 0 392.33468525986757 -283.43783011101641 0 0 0 0 -127.73035332285872 78.566558922375407 0 78.566558922375407 41.37431981210193 0 0 0 0 462.57663017995219 144.53218157800188 0 144.53218157800188 -190.60846720840254 0 0 0 0 0.99538671240727883 -0.0003588653301562772 0 -0.0003588653301562772 -7.2155797782549538 0 0 0 0 161.79867687557999 392.59345492795046 0 392.59345492795046 -151.48357001326985 0 0 0 0 -83.972491559608898 -349.33927629021264 0 -349.33927629021264 48.811001898654126 0 0 0 0 -128.41007346158221 -124.84138286893904 0 -124.84138286893904 -73.207531394846228 0 0 0 0 -562.43665133017385 -611.35652476906807 0 -611.35652476906807 -507.09361492384733 0 0 0 0 15.584033629695114 -128.03285632004236 0 -128.03285632004236 -520.01235238958179 0 0 0 0 -7.1361507367064227 -3.6568278661442157 0 -3.6568278661442157 -6.3807925394626714 0 0 0 0 -59.857170715195025 49.044846132835119 0 49.044846132835119 -336.73110651372099 0 0 0 0 17.979536196252411 -86.804605302981145 0 -86.804605302981145 -215.28568113553501 0 0 0 0 -185.15463358462148 -181.51883449302113 0 -181.51883449302113 -188.75571410091652 0 0 0 0 -27.376201609829877 -148.29083145511458 0 -148.29083145511458 -228.74694399949976 0 0 0 0 -8.530706324538226 -6.0189085158751894 0 -6.0189085158751894 -3.9358431629756954 0 0 0 0 -86.725488723159287 -206.98717864241507 0 -206.98717864241507 -328.16713966640236 0 0 0 0 -39.665874780328522 -265.26514256051701 0 -265.26514256051701 -294.08736314071041 0 0 0 0 -123.91991888874236 -290.22917084900769 0 -290.22917084900769 -200.45919319986251 0 0 0 0 -85.140179563339188 -215.08399423374476 0 -215.08399423374476 -173.7543289095338 0 0 0 0 -188.07808898186931 -384.13307742615575 0 -384.13307742615575 -417.63086838044046 0 0 0 0 3.0599718509038212 -61.089925176770066 0 -61.089925176770066 -81.629218175058895 0 0 0 0 -66.560751355263164 -160.89943640445031 0 -160.89943640445031 -65.44110301250484 0 0 0 0 -116.96016543707083 -106.72356309797138 0 -106.72356309797138 120.29880315479616 0 0 0 0 -7.406667918599851 -158.32349049941357 0 -158.32349049941357 -12.871303462740926 0 0 0 0 29.430212342047525 -104.62574973525406 0 -104.62574973525406 64.673967097102206 0 0 0 0 15.073519343841326 -89.735780062436874 0 -89.735780062436874 -5.5821283572915128 0 0 0 0 57.756673623314782 -132.30646449992923 0 -132.30646449992923 -27.342809081201494 0 0 0 0 92.709077347310085 -75.339313431254595 0 -75.339313431254595 -38.322636671399707 0 0 0 0 121.65078449282737 -87.558717100643932 0 -87.558717100643932 -9.0806897880560484 0 0 0 0 135.92119133407323 -108.74604360623664 0 -108.74604360623664 -19.001496257711096 0 0 0 0 152.11597908539261 -67.660074007339631 0 -67.660074007339631 -7.4095918946670167 0 0 0 0 187.21639671605953 -86.699757562295673 0 -86.699757562295673 -28.318045368891319 0 0 0 0 125.40491129676593 -89.811565020391328 0 -89.811565020391328 -15.024909639056261 0 0 0 0 96.71411525646181 -103.28547370896194 0 -103.28547370896194 -10.61992846310423 0 0 0 0 112.69167088940594 -79.697044285219917 0 -79.697044285219917 19.506744395120052 0 0 0 0 -28.992891408553987 -2.7936063144236982 0 -2.7936063144236982 4.9036516494551279 0 0 0 0 116.38377056826721 -46.602301317299236 0 -46.602301317299236 8.6686887093003406 0 0 0 0 -4.2305273091143576 0.76423809274540844 0 0.76423809274540844 3.2142178130567602 0 0 0 0 71.453012043435592 -59.177303849159301 0 -59.177303849159301 48.362756203075833 0 0 0 0 -2.5868880970976216 -1.2451623595377939 0 -1.2451623595377939 3.3214245371106843 0 0 0 0 40.69239302283313 -23.036277803115542 0 -23.036277803115542 33.120262681464069 0 0 0 0 -27.399367980341367 -5.0955333913591048 0 -5.0955333913591048 -4.5287194651941718 0 0 0 0 109.98345193858404 -63.927881266727866 0 -63.927881266727866 -12.900083752492577 0 0 0 0 92.766832914101542 -18.174825339936888 0 -18.174825339936888 -16.198759239679632 0 0 0 0 142.92019210668514 -32.682835340239563 0 -32.682835340239563 -12.235700036510977 0 0 0 0 53.699404588791367 -41.089056965418251 0 -41.089056965418251 30.397639604874144 0 0 0 0 94.306044555994504 11.367838542320117 0 11.367838542320117 -18.279703754081368 0 0 0 0 -43.457704522836138 -4.4201395880352976 0 -4.4201395880352976 32.521469930447864 0 0 0 0 0.47507588583292559 -0.89018051702435486 0 -0.89018051702435486 2.0313565380076231 0 0 0 0 194.05423342504946 -12.968909822581281 0 -12.968909822581281 -29.051587579650459 0 0 0 0 171.24405073761591 0.49726666764780703 0 0.49726666764780703 -23.018492181197388 0 0 0 0 122.80691540187399 9.8097871054599182 0 9.8097871054599182 -24.427861825425708 0 0 0 0 154.80356182657124 -32.438395864166409 0 -32.438395864166409 -17.593473602389508 0 0 0 0 163.70643218097393 -35.12736805967188 0 -35.12736805967188 -24.43046927377975 0 0 0 0 159.08959225405852 -63.071027716138957 0 -63.071027716138957 -15.525110242246328 0 0 0 0 148.04621988815416 -51.332839978156798 0 -51.332839978156798 -20.316040019428897 0 0 0 0 190.39613613593974 -42.423759530831262 0 -42.423759530831262 -20.049854527291814 0 0 0 0 176.31456638230884 -50.330896485397489 0 -50.330896485397489 -24.365501448738598 0 0 0 0 188.76254744100152 -32.711197171612639 0 -32.711197171612639 -20.334973874977777 0 0 0 0 178.25816925952677 -27.33124154369284 0 -27.33124154369284 -20.512688512750174 0 0 0 0 207.97782739547256 -21.592831682034785 0 -21.592831682034785 -14.978456300557809 0 0 0 0 194.59973319563142 -45.947693894806719 0 -45.947693894806719 -18.570207910117006 0 0 0 0 223.68760614481289 -32.365425741519175 0 -32.365425741519175 -12.286335325171649 0 0 0 0 220.40189953119261 -28.231415705111885 0 -28.231415705111885 -16.626592992131918 0 0 0 0 169.93866559474554 -66.512507767021134 0 -66.512507767021134 -8.919029006670371 0 0 0 0 208.02201534825144 -72.598038830418091 0 -72.598038830418091 -12.370319702051574 0 0 0 0 217.96232349937782 -48.889251225508929 0 -48.889251225508929 -2.2739696190542986 0 0 0 0 200.43689567935508 -2.2432528851575171 0 -2.2432528851575171 3.2500017901434148 0 0 0 0 216.68932392916759 -32.586861507247477 0 -32.586861507247477 -6.3438513783817143 0 0 0 0 243.71369535337726 -19.293037079658006 0 -19.293037079658006 19.230293857394599 0 0 0 0 247.67081233064528 -35.935251876833718 0 -35.935251876833718 -6.289276666191995 0 0 0 0 238.32038394155097 12.628804827257369 0 12.628804827257369 7.9636670108975522 0 0 0 0 193.51066692448512 -14.509202753573334 0 -14.509202753573334 -14.593863640927339 0 0 0 0 -22.567496663592465 8.2072464490878474 0 8.2072464490878474 -11.578118015056589 0 0 0 0 482.58900039951914 -19.494295626539611 0 -19.494295626539611 -59.30906481366128 0 0 0 0 -2.7053996742984054 -4.9149800315508685 0 -4.9149800315508685 -26.986086926883218 0 0 0 0 0.24118458035028212 0.2514762204619494 0 0.2514762204619494 0.50603999906091479 0 0 0 0 0.37097792195784507 -0.38516085963288305 0 -0.38516085963288305 1.1970422170785009 0 0 0 0 334.00378872876172 -3.5536390198822687 0 -3.5536390198822687 21.246697523022704 0 0 0 0 308.84773584471259 -30.933805822174918 0 -30.933805822174918 64.263966869359137 0 0 0 0 323.73025239503477 10.602177627828723 0 10.602177627828723 6.363117079912854 0 0 0 0 252.37172533673584 -28.47934029936016 0 -28.47934029936016 28.664076078618564 0 0 0 0 256.71455960029562 -23.005463309831612 0 -23.005463309831612 57.526766980078719 0 0 0 0 305.3487122978986 -6.5612975719793667 0 -6.5612975719793667 32.98539604520829 0 0 0 0 308.84773584469804 -30.93380582222062 0 -30.93380582222062 64.263966869368232 0 0 0 0 270.63508448980792 -38.132176283915499 0 -38.132176283915499 7.7735466550939236 0 0 0 0 239.25721475632918 -68.422013770511256 0 -68.422013770511256 15.127406701510608 0 0 0 0 288.48059541677139 -42.692032311664619 0 -42.692032311664619 0.41761920540284336 0 0 0 0 286.26388657848292 -2.7162105960615008 0 -2.7162105960615008 45.569413016811723 0 0 0 0 356.44896036290447 66.965226838257877 0 66.965226838257877 68.517923692398654 0 0 0 0 322.50825580550008 35.942417885578834 0 35.942417885578834 114.67692095928237 0 0 0 0 308.84773584455252 -30.933805822314753 0 -30.933805822314753 64.263966869380965 0 0 0 0 296.68457579931419 -17.724069817785676 0 -17.724069817785676 35.496724153844298 0 0 0 0 385.92166126988013 29.209646706813146 0 29.209646706813146 22.143383812798675 0 0 0 0 325.66209973741206 20.303016775782226 0 20.303016775782226 51.065937672407017 0 0 0 0 413.74144533177605 5.0459562026992444 0 5.0459562026992444 -11.198610404006558 0 0 0 0 416.34181608255312 55.534179448214445 0 55.534179448214445 8.5396617205205985 0 0 0 0 339.07635696906073 -11.538167942569999 0 -11.538167942569999 -0.070075113663733646 0 0 0 0 330.72695318730257 -50.331813379759751 0 -50.331813379759751 -25.824663898959443 0 0 0 0 384.40562845478416 -37.96912666800597 0 -37.96912666800597 -32.201698676634805 0 0 0 0 -62.098999122208625 -43.925086280990513 0 -43.925086280990513 46.21190945620674 0 0 0 0 264.29793429769779 -82.510041100455396 0 -82.510041100455396 -19.027376717676134 0 0 0 0 181.32825460693493 -47.183875266567156 0 -47.183875266567156 77.549993926032016 0 0 0 0 372.76722719041209 -131.3754234910316 0 -131.3754234910316 14.32234737672934 0 0 0 0 455.9102767190343 -98.413339316977613 0 -98.413339316977613 -43.646066557256745 0 0 0 0 184.39819482877647 -57.166613333079567 0 -57.166613333079567 -9.6553254528125194 0 0 0 0 263.68835840890097 -106.05978405172755 0 -106.05978405172755 21.770129683932055 0 0 0 0 205.9801855134283 -28.833873237674766 0 -28.833873237674766 4.0295901066551778 0 0 0 0 195.1609193754739 -53.841941252612855 0 -53.841941252612855 -25.320456818712955 0 0 0 0 119.21049262724773 22.808081284810442 0 22.808081284810442 17.775834190271325 0 0 0 0 104.17848085068181 -6.4474785674009354 0 -6.4474785674009354 -38.452720578174649 0 0 0 0 112.94349538234746 -47.346870813957253 0 -47.346870813957253 20.751396134323841 0 0 0 0 108.74529140969707 -22.962977495787655 0 -22.962977495787655 -43.963799428317543 0 0 0 0 195.30867759799003 -38.638255747871426 0 -38.638255747871426 -13.943959945200049 0 0 0 0 231.26796285162709 -81.4922812566125 0 -81.4922812566125 13.740358999193546 0 0 0 0 281.52984449767973 -16.476376445711708 0 -16.476376445711708 16.289217281923811 0 0 0 0 156.46590029656363 -83.755659704440404 0 -83.755659704440404 13.221530697605033 0 0 0 0 220.36406746090506 -57.562881754656019 0 -57.562881754656019 33.205228534530306 0 0 0 0 221.82999064485557 -51.731760044165753 0 -51.731760044165753 -5.8424704794572335 0 0 0 0 195.69299241379304 -93.017125918436449 0 -93.017125918436449 -0.63113610528444042 0 0 0 0 130.34264131066084 -49.827059039567985 0 -49.827059039567985 -25.45810302113091 0 0 0 0 60.978247077255219 -42.850721839201583 0 -42.850721839201583 -71.177592004762005 0 0 0 0 26.586939199172775 -102.90650624849815 0 -102.90650624849815 -34.824756166490602 0 0 0 0 9.7355706157140958 -49.337109278834419 0 -49.337109278834419 -50.626128032336965 0 0 0 0 83.052396273218619 -80.987676548961872 0 -80.987676548961872 -13.456788639873594 0 0 0 0 52.724678880971624 -33.574911709248454 0 -33.574911709248454 -17.651514714166296 0 0 0 0 42.911693371235742 40.400444517426649 0 40.400444517426649 -38.352467732657715 0 0 0 0 40.009034456646987 26.289721060038346 0 26.289721060038346 -95.987250679596855 0 0 0 0 -5.5563612709229346 23.457973605855841 0 23.457973605855841 -64.222045350637472 0 0 0 0 44.339147237637007 -0.30738312621951991 0 -0.30738312621951991 -101.00656572369098 0 0 0 0 -86.402756153642258 91.349517794528538 0 91.349517794528538 -112.90501440533149 0 0 0 0 -4.3216782956537827 32.68972226401366 0 32.68972226401366 -173.61016541252047 0 0 0 0 -53.30635620013345 -8.0057722454301938 0 -8.0057722454301938 -111.21604331696028 0 0 0 0 2.4646380345930083 -19.991797823175887 0 -19.991797823175887 -142.88004026150293 0 0 0 0 -62.942401656306174 -83.762521132910479 0 -83.762521132910479 -80.550732138839749 0 0 0 0 -123.59772135225353 112.52997186261436 0 112.52997186261436 -99.998987440809287 0 0 0 0 -68.174562706604775 138.23522749266112 0 138.23522749266112 -110.80292859655628 0 0 0 0 -36.303923746010696 87.666022577172953 0 87.666022577172953 -126.61940450248926 0 0 0 0 -38.711426146302983 85.943229496491313 0 85.943229496491313 -64.722545819134325 0 0 0 0 26.785238543990999 50.78867997315001 0 50.78867997315001 -76.288765360568959 0 0 0 0 -3.2601736858559889 116.3221236183058 0 116.3221236183058 -88.025220375719528 0 0 0 0 -39.43539299353597 78.01321572765977 0 78.01321572765977 -128.59336320681405 0 0 0 0 -19.219447365867381 99.471257211555439 0 99.471257211555439 -132.06855609052928 0 0 0 0 20.167958530353644 112.38597048378415 0 112.38597048378415 -130.04444190596405 0 0 0 0 11.181413193087792 43.026814285761702 0 43.026814285761702 -42.909946025710042 0 0 0 0 102.4048341064663 41.945280196153135 0 41.945280196153135 -71.83299730403678 0 0 0 0 29.441011760161928 69.089736495933948 0 69.089736495933948 -21.611488541198014 0 0 0 0 74.94361089251106 25.272936513665854 0 25.272936513665854 27.315605913909167 0 0 0 0 148.0658923097908 -89.208706739587683 0 -89.208706739587683 71.662177623709795 0 0 0 0 251.79097243805063 -92.144300318821365 0 -92.144300318821365 -0.41101717085257405 0 0 0 0 50.57769915013705 -12.374286052179741 0 -12.374286052179741 -117.07842869631622 0 0 0 0 320.49461812165828 129.7635745870657 0 129.7635745870657 -194.74058916415652 0 0 0 0 73.346261464055715 107.92568933629309 0 107.92568933629309 68.293168487698495 0 0 0 0 466.19547586013869 150.96215131067947 0 150.96215131067947 -150.4813352495712 0 0 0 0 215.61592228440713 -81.560225234958807 0 -81.560225234958807 -611.85412058238944 0 0 0 0 67.190942989878749 81.17740579726069 0 81.17740579726069 -252.90574804674725 0 0 0 0 -224.61375568796939 -146.35044918446783 0 -146.35044918446783 -279.32659657960176 0 0 0 0 -9.7217758058983463 -5.376638730294296 0 -5.376638730294296 -1.6758180122088717 0 0 0 0 -84.190240117968642 -342.01308144244467 0 -342.01308144244467 -532.77843147180442 0 0 0 0 -69.208309906566242 -6.8394815309793469 0 -6.8394815309793469 9.0396121942122623 0 0 0 0 -77.068240444183175 -18.80794012239221 0 -18.80794012239221 21.716758554964372 0 0 0 0 -65.352417955342389 -16.611316120733932 0 -16.611316120733932 -15.275658337598543 0 0 0 0 -80.86177998536732 -18.260202695996668 0 -18.260202695996668 10.680174981745949 0 0 0 0 -97.066971304258914 -11.571759004364594 0 -11.571759004364594 -10.656730459884443 0 0 0 0 -80.730990165699041 -22.620806450237524 0 -22.620806450237524 -28.798584902398943 0 0 0 0 -82.559768098522909 -32.474306379715472 0 -32.474306379715472 12.133194247998176 0 0 0 0 -55.674296429438982 -17.344948807771289 0 -17.344948807771289 12.916517387691783 0 0 0 0 -119.59145485207591 -41.979444227083633 0 -41.979444227083633 9.2086061887375763 0 0 0 0 -184.66492073489644 -45.598864613077239 0 -45.598864613077239 -20.590370822208342 0 0 0 0 0.95642453959010254 7.1113634729382706 0 7.1113634729382706 0.35719219435948135 0 0 0 0 -2.0960658488496335 -13.516511499995353 0 -13.516511499995353 7.8597495293300561 0 0 0 0 -103.61332778110591 -38.930647008513915 0 -38.930647008513915 -199.54005280513593 0 0 0 0 -75.565668443803617 -3.5876548116866047 0 -3.5876548116866047 11.462216514976308 0 0 0 0 -134.67781551755252 59.811223055230016 0 59.811223055230016 51.210075617194889 0 0 0 0 -61.432116110298011 73.700967863387987 0 73.700967863387987 39.688227200351321 0 0 0 0 -6.6648030529306794 10.252235267213585 0 10.252235267213585 9.8984885259252504 0 0 0 0 -49.378422804831644 -57.940024767917976 0 -57.940024767917976 -12.094953185813864 0 0 0 0 -100.28943155218121 -26.95549501566984 0 -26.95549501566984 -249.9886201871559 0 0 0 0 -40.520226499931596 40.44215394442017 0 40.44215394442017 -222.48560796628226 0 0 0 0 -15.793454214803205 33.807938965182075 0 33.807938965182075 -225.03767296018032 0 0 0 0 -6.7509862908773357 -23.149247521408597 0 -23.149247521408597 -345.25730126420058 0 0 0 0 -175.16622607734462 -113.73253563708658 0 -113.73253563708658 -274.53907835517384 0 0 0 0 -183.86484329111408 -73.746191652124253 0 -73.746191652124253 -324.88141814359483 0 0 0 0 -74.190167500364623 -130.90654504151098 0 -130.90654504151098 -447.86782777870667 0 0 0 0 -77.696791474852944 37.538187725522221 0 37.538187725522221 -197.1773068600196 0 0 0 0 -75.431799349757426 -13.502349979985862 0 -13.502349979985862 0.90436895491256486 0 0 0 0 -30.166955517564929 -66.647867963414342 0 -66.647867963414342 -48.46454697531226 0 0 0 0 -64.134538456317387 -86.680098078900642 0 -86.680098078900642 48.016232582354974 0 0 0 0 -42.408083291149524 29.565552103709706 0 29.565552103709706 -195.55827685783606 0 0 0 0 -67.185785387708165 -19.336220441600744 0 -19.336220441600744 73.657440787407268 0 0 0 0 -133.28523658674385 -66.4117108765696 0 -66.4117108765696 167.77364044429351 0 0 0 0 -74.441731909253576 96.450534096823048 0 96.450534096823048 -96.579845075858884 0 0 0 0 -88.537865262122068 79.722181217052821 0 79.722181217052821 -116.42817204157745 0 0 0 0 -65.190599932697495 -11.636046080077197 0 -11.636046080077197 -1.808710938459571 0 0 0 0 -37.266994725447645 12.161338604642662 0 12.161338604642662 17.140105943404809 0 0 0 0 -76.992061280896451 -16.862766139753923 0 -16.862766139753923 -1.8806624256500015 0 0 0 0 34.543242248095339 40.160855932499544 0 40.160855932499544 44.701905364312552 0 0 0 0 -4.0251953480824909 2.017823092728257 0 2.017823092728257 0.17261326994426263 0 0 0 0 -54.219744196367174 -24.732214705683106 0 -24.732214705683106 13.812169433915187 0 0 0 0 -31.714133356807302 -18.897757445932754 0 -18.897757445932754 2.0665630698129238 0 0 0 0 -39.190564554310185 -8.8603577916143195 0 -8.8603577916143195 16.82007696910398 0 0 0 0 -58.534214572966448 -24.557864579383818 0 -24.557864579383818 15.465722526943409 0 0 0 0 -20.499668021075422 -10.892108435835762 0 -10.892108435835762 12.600967610155221 0 0 0 0 -23.541295235881009 -0.73085575983459705 0 -0.73085575983459705 16.877929789891322 0 0 0 0 -434.95825168569718 -40.901796677912898 0 -40.901796677912898 -28.769706364218109 0 0 0 0 -47.318121489806799 -30.529461232261383 0 -30.529461232261383 -17.280831917611067 0 0 0 0 -64.65737077023914 100.30491616466406 0 100.30491616466406 -37.95677901527597 0 0 0 0 21.975379473640714 41.141781714612989 0 41.141781714612989 49.743164891443485 0 0 0 0 -775.01399674858294 9.4691548718778904 0 9.4691548718778904 43.518122591181964 0 0 0 0 -70.669423744517047 0.81182314775809417 0 0.81182314775809417 37.102016476388009 0 0 0 0 -329.34300744740904 -28.401549009094197 0 -28.401549009094197 -37.374635841409145 0 0 0 0 -346.29888038228637 -380.92986834036583 0 -380.92986834036583 -152.44461939199118 0 0 0 0 -596.64232026078389 -234.39464804433146 0 -234.39464804433146 -16.904093128016029 0 0 0 0 0.37354772681455017 -1.7027972812011569 0 -1.7027972812011569 -11.155868361660822 0 0 0 0 -24.612319525172097 -32.173248552218865 0 -32.173248552218865 7.1965770943688767 0 0 0 0 357.86221631494482 -199.27916961460323 0 -199.27916961460323 -204.78455447989109 0 0 0 0 -0.059991594557069261 -0.46124477714677425 0 -0.46124477714677425 -5.3015198205693714 0 0 0 0 -457.17299643157457 -215.89204740781952 0 -215.89204740781952 69.54398926032718 0 0 0 0 -490.82830616033607 -318.90940304090782 0 -318.90940304090782 -30.632600526184433 0 0 0 0 -300.86304729853873 -228.40082496429568 0 -228.40082496429568 -20.473184977187771 0 0 0 0 -292.41878453977733 -304.16895413551219 0 -304.16895413551219 -189.14053375548247 0 0 0 0 -466.60876391314378 -463.33085988371022 0 -463.33085988371022 -202.96495798052513 0 0 0 0 -2.3739696483522437 0.32137610878047695 0 0.32137610878047695 0.58281407226745507 0 0 0 0 39.788108308831397 67.199869641830276 0 67.199869641830276 100.60963563591304 0 0 0 0 -66.232051505552462 -3.7155617858673891 0 -3.7155617858673891 6.5034964302903333 0 0 0 0 104.06196136480867 144.51347804051875 0 144.51347804051875 15.436580399572449 0 0 0 0 -70.36581989629849 -11.626353101274844 0 -11.626353101274844 17.336894422175078 0 0 0 0 -46.740747729620566 3.8011609898419394 0 3.8011609898419394 13.183781457779752 0 0 0 0 -540.86972229444655 12.959077557083219 0 12.959077557083219 -8.436643145596463 0 0 0 0 385.15915575575491 -4.9714927026120677 0 -4.9714927026120677 -425.72421619185479 0 0 0 0 -581.97492222624896 -440.4174411194881 0 -440.4174411194881 -170.38102234182224 0 0 0 0 82.339264954794885 -559.67866839070018 0 -559.67866839070018 -357.19655429341401 0 0 0 0 -45.126936820867726 3.5074066934756942 0 3.5074066934756942 13.669160416764718 0 0 0 0 -64.405246036047174 -7.8185955750295761 0 -7.8185955750295761 11.870321067649627 0 0 0 0 -83.293016908915888 21.674523258719773 0 21.674523258719773 52.149485844754054 0 0 0 0 -88.706851112823642 5.2754027446644614 0 5.2754027446644614 50.224787570159606 0 0 0 0 -97.119643595375237 7.60034915200049 0 7.60034915200049 56.213788033434867 0 0 0 0 -118.48499549902044 -23.977328547375691 0 -23.977328547375691 39.520655884237385 0 0 0 0 -58.535806995234452 -10.86566486229367 0 -10.86566486229367 41.67399400465024 0 0 0 0 -55.704722392663825 -8.071870118025231 0 -8.071870118025231 -3.1868879357731785 0 0 0 0 -64.518377815291231 -18.83428998867964 0 -18.83428998867964 -0.079682604062397466 0 0 0 0 -59.10463878894916 -17.395921407706865 0 -17.395921407706865 22.337126888399098 0 0 0 0 -42.052798920570233 -21.302353858885045 0 -21.302353858885045 -0.58927098855017235 0 0 0 0 -81.938229090243112 -54.147307299293061 0 -54.147307299293061 33.157766298890238 0 0 0 0 -90.107479368314671 -45.975003480576106 0 -45.975003480576106 25.264508011682665 0 0 0 0 -129.49844639276125 -48.262469896719267 0 -48.262469896719267 29.121967106083048 0 0 0 0 -117.17062211116718 -59.042392584762638 0 -59.042392584762638 35.955846983714764 0 0 0 0 -130.53801098210533 -56.470043685166729 0 -56.470043685166729 14.849276827614631 0 0 0 0 -220.45771060575498 -8.6016015468921978 0 -8.6016015468921978 -7.6896317460323189 0 0 0 0 -130.69950469534888 -133.19339161658399 0 -133.19339161658399 -81.72125144907659 0 0 0 0 -125.77777425052409 -0.27618665889917793 0 -0.27618665889917793 5.037945374499941 0 0 0 0 -156.19636988250204 -30.906634635931368 0 -30.906634635931368 32.509998081481172 0 0 0 0 -107.25009111024519 -25.133304611249059 0 -25.133304611249059 33.184834202773345 0 0 0 0 -126.79453298807493 -13.145842116996391 0 -13.145842116996391 35.895857029761373 0 0 0 0 -100.52237665045868 10.65589812273447 0 10.65589812273447 47.944504770797721 0 0 0 0 -73.142391377317836 2.8103956350282715 0 2.8103956350282715 52.639237009165299 0 0 0 0 -104.57176045132655 22.203632103653035 0 22.203632103653035 46.988260005663506 0 0 0 0 -11.252801028793328 26.014656304002074 0 26.014656304002074 32.355928192456304 0 0 0 0 -162.70382745657116 -9.1032887945539187 0 -9.1032887945539187 32.518993369737927 0 0 0 0 -83.59019291378263 0.05424787019330779 0 0.05424787019330779 19.885235341588668 0 0 0 0 -93.413894924569831 31.070403796025516 0 31.070403796025516 51.471418508654097 0 0 0 0 -147.9193612290328 -60.15074102340941 0 -60.15074102340941 -27.988532886003895 0 0 0 0 -131.77110423032718 -30.709566365657565 0 -30.709566365657565 1.2334154057007254 0 0 0 0 -193.14580199171178 -70.971439754182029 0 -70.971439754182029 -23.028751178949733 0 0 0 0 -85.91924826707691 10.649852928885139 0 10.649852928885139 -0.97648999732336961 0 0 0 0 -196.65994624548557 30.691617463612857 0 30.691617463612857 -0.5312616927021736 0 0 0 0 -1.0701995654496272 -0.82464725237557701 0 -0.82464725237557701 -0.59060785681239381 0 0 0 0 -309.00778634733479 93.443463491416225 0 93.443463491416225 -24.022191612420102 0 0 0 0 -69.665653787706106 50.520201843110499 0 50.520201843110499 -21.59515972626923 0 0 0 0 -18.2438321680238 -106.12599327594671 0 -106.12599327594671 -39.669834795166935 0 0 0 0 -288.1229175154881 -134.94759441302401 0 -134.94759441302401 -48.579012724338099 0 0 0 0 -166.97566157276015 -74.986196045002998 0 -74.986196045002998 -25.304525285890577 0 0 0 0 -158.60495063960116 -108.29533848366327 0 -108.29533848366327 -53.78544989038528 0 0 0 0 -170.82524371708359 -102.77312157625727 0 -102.77312157625727 -54.767949302624402 0 0 0 0 -63.277662322248943 -21.571942377074492 0 -21.571942377074492 -14.642481747850979 0 0 0 0 -1.3715443747047402 -2.5924195540773383 0 -2.5924195540773383 0.7826874111077089 0 0 0 0 -198.56107446645547 -64.7081884517861 0 -64.7081884517861 -14.454743593511921 0 0 0 0 1.0750989145115852 -1.3527434762729911 0 -1.3527434762729911 -1.6732228423914641 0 0 0 0 -127.2310543331987 -71.295876166934477 0 -71.295876166934477 -36.905014755397133 0 0 0 0 -127.67394900998261 -86.155063062004956 0 -86.155063062004956 -155.5460557517672 0 0 0 0 34.111829118857713 313.13649208443661 0 313.13649208443661 -825.43409750360252 0 0 0 0 149.58938632859463 -491.7265938140082 0 -491.7265938140082 72.87857057497672 0 0 0 0 -51.623164151729725 -86.140328658095314 0 -86.140328658095314 -92.11308246248791 0 0 0 0 -51.499034338636648 -88.352039327913886 0 -88.352039327913886 -57.498428081059956 0 0 0 0 -153.41922436714685 -113.63060451769438 0 -113.63060451769438 -24.206218160205935 0 0 0 0 3.7205105453598861 -2.9385314506199549 0 -2.9385314506199549 3.851027382591274 0 0 0 0 -68.828202395423432 -32.787855432095625 0 -32.787855432095625 10.823718812408856 0 0 0 0 38.878963678820583 -7.0415356572329983 0 -7.0415356572329983 -230.20779616312257 0 0 0 0 -34.448726514339796 45.990224884019767 0 45.990224884019767 161.33662262333155 0 0 0 0 15.966043513297336 -17.902242187900299 0 -17.902242187900299 -24.508964504002961 0 0 0 0 26.501220226768964 51.017119528060675 0 51.017119528060675 32.578993159677339 0 0 0 0 -55.691152252489701 -72.259770256481715 0 -72.259770256481715 -26.069452418254485 0 0 0 0 23.482770240247191 53.635784336531287 0 53.635784336531287 39.360538535429441 0 0 0 0 -25.873636985061566 6.281401623128346 0 6.281401623128346 23.538249424664592 0 0 0 0 -59.203266724936839 -2.353638160030755 0 -2.353638160030755 19.512056136608294 0 0 0 0 -81.140684490426793 -10.06163715861959 0 -10.06163715861959 -13.213583055518846 0 0 0 0 -39.792950791001203 -53.762346623468972 0 -53.762346623468972 29.348774405819654 0 0 0 0 -99.807423802911217 -45.668400592306085 0 -45.668400592306085 18.606362261332379 0 0 0 0 -99.180293131175858 -17.849788051820042 0 -17.849788051820042 3.7220733394026411 0 0 0 0 -28.983255007720857 8.8532340298103662 0 8.8532340298103662 20.185768922479721 0 0 0 0 -97.667689991303632 -45.129085033130195 0 -45.129085033130195 -6.4851814339242537 0 0 0 0 -17.421952952841821 70.897611193947341 0 70.897611193947341 55.742481259310807 0 0 0 0 -81.633013452410523 -22.480018363308488 0 -22.480018363308488 -13.370322136616323 0 0 0 0 27.707819615992776 22.923879772960845 0 22.923879772960845 8.583938269554892 0 0 0 0 -39.156705150395283 24.272545066689418 0 24.272545066689418 71.660170070350205 0 0 0 0 -97.889303550022305 22.862326671183837 0 22.862326671183837 32.359981280137617 0 0 0 0 -37.767185936463648 34.421328393230851 0 34.421328393230851 17.860702196757302 0 0 0 0 -0.58554511142099841 -0.098882323687586648 0 -0.098882323687586648 1.4017467676308417 0 0 0 0 -5.3536061302147573 16.099498894929638 0 16.099498894929638 -26.062797563794902 0 0 0 0 -54.666085499638029 -10.055851391640601 0 -10.055851391640601 4.0934706033040129 0 0 0 0 -20.029655994898349 48.393119453347026 0 48.393119453347026 -18.151710360592915 0 0 0 0 -18.146640232604113 40.714722766937939 0 40.714722766937939 12.483193723950535 0 0 0 0 -3.708110345918044 -1.3538063747711959 0 -1.3538063747711959 0.97197736001608526 0 0 0 0 -20.917898112573312 -15.337038056483834 0 -15.337038056483834 81.245092559634713 0 0 0 0 13.700119438231923 23.147510209531902 0 23.147510209531902 12.764227733465304 0 0 0 0 -22.313025133815245 8.2073964884375528 0 8.2073964884375528 21.865182443688354 0 0 0 0 -32.01755126423086 17.094194900040748 0 17.094194900040748 74.715625514645581 0 0 0 0 -14.086134825003683 17.759854620832812 0 17.759854620832812 27.369651707249432 0 0 0 0 1.843582039422472 -4.5767499671710539 0 -4.5767499671710539 41.331862214418834 0 0 0 0 -11.514900021778885 14.971439181424103 0 14.971439181424103 34.727431228315254 0 0 0 0 -4.9251376165902343 2.3291744990832832 0 2.3291744990832832 7.2945961463683879 0 0 0 0 -2.4049076051596785 7.5205131021630223 0 7.5205131021630223 24.527730178093407 0 0 0 0 -19.22577229567105 11.930586099490029 0 11.930586099490029 50.803206264383334 0 0 0 0 -9.925377665378619 14.911514118463856 0 14.911514118463856 27.882416466254654 0 0 0 0 -20.553913557159831 23.147390632912902 0 23.147390632912902 24.635693038081172 0 0 0 0 -7.3912199899350526 17.49577194526637 0 17.49577194526637 19.214592915415778 0 0 0 0 -1.7752622421669457 8.3684163654915196 0 8.3684163654915196 8.0828966983735153 0 0 0 0 -5.7552847871388906 5.0045745337004348 0 5.0045745337004348 11.235541056210931 0 0 0 0 -0.87013289806782268 12.246094234907559 0 12.246094234907559 16.636412710804507 0 0 0 0 -6.8469009948894382 11.218764963720787 0 11.218764963720787 17.376257819059902 0 0 0 0 5.3063308063232455 15.587662609712609 0 15.587662609712609 15.532244150165589 0 0 0 0 -2.2163980425388417 3.6861126517370622 0 3.6861126517370622 8.6795754068343687 0 0 0 0 1.0096839752222877 -2.6608546722072788 0 -2.6608546722072788 10.862932906671631 0 0 0 0 -0.95789876967083387 4.3786338664595235 0 4.3786338664595235 7.475719327972433 0 0 0 0 2.8815050768462243 3.1839762687159237 0 3.1839762687159237 12.8054082798335 0 0 0 0 1.3415471486514434 4.9289024895733746 0 4.9289024895733746 7.9159095402756066 0 0 0 0 -0.22507666054190167 2.007323608222336 0 2.007323608222336 2.8162460210703983 0 0 0 0 13.147669423662592 20.828762703993561 0 20.828762703993561 7.3751337321373285 0 0 0 0 16.755606242360955 33.588311336857032 0 33.588311336857032 49.987430033654164 0 0 0 0 -6.2228629879971606 -0.15881309299317792 0 -0.15881309299317792 4.639285313381535 0 0 0 0 -33.428578899911372 69.570169597866425 0 69.570169597866425 -11.787010219279409 0 0 0 0 -8.407864801454707 -4.2235717974463114 0 -4.2235717974463114 -32.760064224149517 0 0 0 0 -72.565562452175072 -15.580229144492421 0 -15.580229144492421 12.023357716046462 0 0 0 0 -42.288536803920579 21.211719194512057 0 21.211719194512057 18.345868516203382 0 0 0 0 -3.0544390971637654 -1.3247404389980133 0 -1.3247404389980133 2.5597114373529255 0 0 0 0 -9.4439492929814151 6.9616319402516638 0 6.9616319402516638 15.470284297005492 0 0 0 0 -4.3563647110817811 5.0204475269652491 0 5.0204475269652491 11.555756092616894 0 0 0 0 -4.3415320432869748 8.3542806976027464 0 8.3542806976027464 15.082865601294927 0 0 0 0 -1.369228615949396 7.4860245816971656 0 7.4860245816971656 10.03871696580245 0 0 0 0 -6.8736623725126265 10.69235675244181 0 10.69235675244181 17.201622303249678 0 0 0 0 -5.6941616318945307 9.9067537532528149 0 9.9067537532528149 16.122915573416321 0 0 0 0 -10.136728134793387 3.9382973321700803 0 3.9382973321700803 9.7938627754441967 0 0 0 0 -2.4458951529450133 4.7706161872006305 0 4.7706161872006305 6.2961184346481787 0 0 0 0 5.5022158079082146 14.566572237699702 0 14.566572237699702 18.139203064842889 0 0 0 0 1.5647571571693675 1.4268611314096731 0 1.4268611314096731 1.1898523884723153 0 0 0 0 -13.4359304963873 6.1780342486754307 0 6.1780342486754307 16.507607901145093 0 0 0 0 -11.984685615419039 1.4710638280005668 0 1.4710638280005668 4.2359930072520315 0 0 0 0 -22.370278736940236 -11.13721945697074 0 -11.13721945697074 17.073568315683985 0 0 0 0 -61.287193858152023 4.9146534164204922 0 4.9146534164204922 27.762838682054053 0 0 0 0 -38.494827390561113 -4.8144761589095708 0 -4.8144761589095708 16.346089246284038 0 0 0 0 -39.483701270917663 -24.934695436744619 0 -24.934695436744619 24.263315452150039 0 0 0 0 -10.618673394506914 -30.090508867933295 0 -30.090508867933295 23.111288721064057 0 0 0 0 -87.468803143347031 2.2326312785048685 0 2.2326312785048685 113.75476424967371 0 0 0 0 -37.679295451940561 -18.069483314840312 0 -18.069483314840312 49.948027690353911 0 0 0 0 -22.13607482551015 187.80960886227717 0 187.80960886227717 -5.4825049061078062 0 0 0 0 -87.962469568738015 21.278941422840944 0 21.278941422840944 65.19982143489284 0 0 0 0 -65.811127223227231 30.509813425915695 0 30.509813425915695 45.048370598581187 0 0 0 0 -95.181513840187108 54.285234919520917 0 54.285234919520917 37.813590454901941 0 0 0 0 -106.78834446347901 78.35344202584497 0 78.35344202584497 51.342647683320592 0 0 0 0 -80.592606581456494 12.363950826629093 0 12.363950826629093 75.480918885873962 0 0 0 0 -120.34891883664022 60.883354019661226 0 60.883354019661226 94.536485814328898 0 0 0 0 -92.606951458818912 27.310484179591882 0 27.310484179591882 96.036333677103357 0 0 0 0 -9.8636341758237904 -15.934144530872857 0 -15.934144530872857 -0.0041680749136503437 0 0 0 0 0.86868116682801144 0.36277379439263768 0 0.36277379439263768 -3.4260094956781906 0 0 0 0 25.845888884723536 38.180511221605911 0 38.180511221605911 25.302192695045051 0 0 0 0 -7.9873775001688045 -8.8260629714604875 0 -8.8260629714604875 -6.0832859741935863 0 0 0 0 -3.3247527013227227 5.1385997599195434 0 5.1385997599195434 16.151120287295271 0 0 0 0 -7.5808730993503559 -5.2372870508579012 0 -5.2372870508579012 13.388030247431288 0 0 0 0 -9.6497111398930429 4.0867935999565361 0 4.0867935999565361 -5.998898407426168 0 0 0 0 1.3641861750242441 3.4139041038246489 0 3.4139041038246489 -1.5504901976460204 0 0 0 0 5.4542619902531442 26.49491344113369 0 26.49491344113369 12.680530373676447 0 0 0 0 -11.562844374740962 -0.309225049234783 0 -0.309225049234783 11.814988832057679 0 0 0 0 21.345819720532745 16.016915440146477 0 16.016915440146477 4.787392094542156 0 0 0 0 -4.2006655190489255 8.8638712514846247 0 8.8638712514846247 15.199218679124442 0 0 0 0 -26.762623597038328 5.4338080845705008 0 5.4338080845705008 -1.714659987583218 0 0 0 0 2.9152725465673086 6.1961044799678291 0 6.1961044799678291 8.5519188024438133 0 0 0 0 -11.738945141314616 17.750413035227211 0 17.750413035227211 10.60807485350233 0 0 0 0 -8.8149506082263542 18.507643505522537 0 18.507643505522537 19.572974305649268 0 0 0 0 2.8714409585259659 10.233948720068241 0 10.233948720068241 15.296552464193123 0 0 0 0 -8.8319533354533633 19.421345100995609 0 19.421345100995609 5.4597717495835241 0 0 0 0 -31.079058692514081 26.346422929938853 0 26.346422929938853 9.9119987706217216 0 0 0 0 -73.214272943456308 9.8574422748915822 0 9.8574422748915822 3.87219625752914 0 0 0 0 -42.91618337057298 -4.761706625231227 0 -4.761706625231227 -2.9132667148260225 0 0 0 0 -28.633086913308944 17.558560490361742 0 17.558560490361742 10.31456200113098 0 0 0 0 -47.128193170094164 -32.270944927244273 0 -32.270944927244273 -11.350434589026463 0 0 0 0 -56.441931194101926 -33.507446935338521 0 -33.507446935338521 -1.2325744491336081 0 0 0 0 -101.10182820619957 -53.830036860440259 0 -53.830036860440259 -6.9100041412348219 0 0 0 0 -127.69844847735658 17.517200232944106 0 17.517200232944106 21.101413983149541 0 0 0 0 -161.37733191201187 -43.466483916190327 0 -43.466483916190327 26.899414304629317 0 0 0 0 -63.882785673835315 -7.1348230042003706 0 -7.1348230042003706 -1.1301020502455685 0 0 0 0 -38.495797777832195 49.902479687898449 0 49.902479687898449 0.67148078880927642 0 0 0 0 -105.62717166704533 45.449920318788372 0 45.449920318788372 -32.161112115776632 0 0 0 0 0.038564998984298882 0.70879964713427057 0 0.70879964713427057 1.0893427956521116 0 0 0 0 -194.92118511772424 4.245113408058387 0 4.245113408058387 20.393961866714733 0 0 0 0 -176.24270038149552 -22.308348749860215 0 -22.308348749860215 14.27994101184413 0 0 0 0 -251.83076950638497 4.1516260965918264 0 4.1516260965918264 5.030484949291349 0 0 0 0 -0.96064254627702894 0.082390581374639282 0 0.082390581374639282 0.76853552216800836 0 0 0 0 -260.27460502168105 58.404364833288128 0 58.404364833288128 -6.0067938269269234 0 0 0 0 -7.0629382034312584 -59.791507514258683 0 -59.791507514258683 35.252194363029048 0 0 0 0 -280.70865725041222 -1.0340537544921062 0 -1.0340537544921062 19.334520159210115 0 0 0 0 -32.533101046603406 -13.64341614402656 0 -13.64341614402656 19.354554101479152 0 0 0 0 -100.16324297737447 -95.800330191012108 0 -95.800330191012108 62.191942820190889 0 0 0 0 -40.525163586207782 44.559912811612548 0 44.559912811612548 -21.973832316143671 0 0 0 0 -274.37116471662011 -15.752581359711712 0 -15.752581359711712 13.01285896265108 0 0 0 0 -257.89910636035347 -23.696690610758196 0 -23.696690610758196 8.0753376463726454 0 0 0 0 -239.492348051921 -75.549900988533409 0 -75.549900988533409 82.743799584766748 0 0 0 0 -229.02319494537369 10.693059467133935 0 10.693059467133935 -20.792058929298946 0 0 0 0 -169.37022952425468 -1.6385124471180461 0 -1.6385124471180461 -34.473551430752195 0 0 0 0 -258.67989960584964 55.414169947619484 0 55.414169947619484 -31.105238441363326 0 0 0 0 -142.2872261472512 78.218881640350446 0 78.218881640350446 -30.511989381666808 0 0 0 0 -100.79514463248779 71.287807634706041 0 71.287807634706041 -29.167212244727125 0 0 0 0 -196.03184240879636 46.214433481511605 0 46.214433481511605 -0.19272188750255737 0 0 0 0 14.065811398351798 5.084698741392458 0 5.084698741392458 -54.374723842566937 0 0 0 0 -16.073237710166723 -8.8245572604459994 0 -8.8245572604459994 -14.580939256298734 0 0 0 0 -1.0241687598212081 0.067783094141624645 0 0.067783094141624645 -1.2516383863889162 0 0 0 0 -12.428469418722671 29.082521065941364 0 29.082521065941364 -58.606772563282902 0 0 0 0 22.190006711520255 -1.0226441306886045 0 -1.0226441306886045 -36.670455289719939 0 0 0 0 35.873639623332565 18.878757494786555 0 18.878757494786555 13.898923752100927 0 0 0 0 -4.7831983875377944 4.541503355788123 0 4.541503355788123 -0.1868777215172237 0 0 0 0 -21.429783054743893 1.5584542954220524 0 1.5584542954220524 8.0109924309983853 0 0 0 0 -28.977200385372271 23.226586627563393 0 23.226586627563393 15.78910303302564 0 0 0 0 -14.924964673411523 20.022831159879161 0 20.022831159879161 16.645157335766271 0 0 0 0 2.8757279011449555 26.704813956811662 0 26.704813956811662 12.793422204069429 0 0 0 0 2.0671226461709011 7.8699910055702276 0 7.8699910055702276 -9.6372410332851359 0 0 0 0 -8.2465775679503963 8.1541038464435474 0 8.1541038464435474 -6.1041665344967946 0 0 0 0 -39.098529799397511 -21.724138441421019 0 -21.724138441421019 2.1355530301193539 0 0 0 0 22.606958681314609 11.613255268818186 0 11.613255268818186 -32.655016705291018 0 0 0 0 -28.937040259945206 -13.515935952582367 0 -13.515935952582367 4.7357108742762648 0 0 0 0 -5.1129073193754948 13.068389246844433 0 13.068389246844433 -6.4374357934443633 0 0 0 0 -447.25061561039183 50.276492940044591 0 50.276492940044591 266.43805408023763 0 0 0 0 -20.135717051773099 19.237946022940378 0 19.237946022940378 30.104711389518343 0 0 0 0 -9.9793169568292797 8.5230525766673964 0 8.5230525766673964 14.24319088780976 0 0 0 0 -12.323684901665871 3.0990312714683625 0 3.0990312714683625 0.00063838654094361402 0 0 0 0 -32.105209186197641 3.452435312767264 0 3.452435312767264 0.17595650993984435 0 0 0 0 -17.121081786186551 8.212556423112801 0 8.212556423112801 14.087318931306072 0 0 0 0 -31.464714649744565 12.181671658434198 0 12.181671658434198 30.461537073348154 0 0 0 0 615.10169232514454 -273.17565412727708 0 -273.17565412727708 208.82260410609888 0 0 0 0 -10.191467576492386 -0.63483824120496024 0 -0.63483824120496024 -2.4221994119622252 0 0 0 0 3.5710212690755725 34.490946032798092 0 34.490946032798092 39.210524803671433 0 0 0 0 614.7975858017162 -116.44920631349669 0 -116.44920631349669 40.740391900371193 0 0 0 0 10.822295619072975 30.076058800999817 0 30.076058800999817 15.238113060848264 0 0 0 0 8.6793032213754486 27.694280275718484 0 27.694280275718484 25.642448371620048 0 0 0 0 1437.9852108020423 -332.5549031234209 0 -332.5549031234209 -197.72757486570117 0 0 0 0 451.47691199775727 28.485982526228327 0 28.485982526228327 -85.558212105319399 0 0 0 0 27.486344254226424 62.595059511062573 0 62.595059511062573 50.20763410859945 0 0 0 0 16.802812676709436 43.223582431278828 0 43.223582431278828 35.546212950608606 0 0 0 0 41.238986001175363 55.60039586761377 0 55.60039586761377 18.741407863954009 0 0 0 0 39.155595195799833 60.403704061756798 0 60.403704061756798 13.106555667845896 0 0 0 0 52.529883569761296 45.232810597442949 0 45.232810597442949 -7.3651746144896606 0 0 0 0 1.1618281089740918 -0.14379568086140893 0 -0.14379568086140893 -1.9666114036307576 0 0 0 0 28.832408802831196 40.890037149142699 0 40.890037149142699 1.6052854779663903 0 0 0 0 26.311810759725631 39.096730835195558 0 39.096730835195558 15.997497020661854 0 0 0 0 15.241872584680095 19.384743890676873 0 19.384743890676873 4.5763570223507486 0 0 0 0 36.588002380347461 12.67801003200475 0 12.67801003200475 11.413166690658272 0 0 0 0 54.831949468112725 39.638235749707746 0 39.638235749707746 -0.36876434025725757 0 0 0 0 -127.93042596355372 -22.938610066390993 0 -22.938610066390993 20.6400605719748 0 0 0 0 -78.179425205220468 -48.677431587460887 0 -48.677431587460887 12.947798223231075 0 0 0 0 -40.66372302133459 -31.614439447253972 0 -31.614439447253972 29.509846191293036 0 0 0 0 -46.787997023709977 36.808412700075564 0 36.808412700075564 163.17966213993532 0 0 0 0 -25.011229522892791 -28.189312215595578 0 -28.189312215595578 27.446109439367319 0 0 0 0 -0.3374761859426485 -0.34685078195622765 0 -0.34685078195622765 1.0351676108729393 0 0 0 0 -163.25189010441682 -79.24753794676235 0 -79.24753794676235 -51.820800553798676 0 0 0 0 -214.05837662347767 -59.326670944551552 0 -59.326670944551552 129.2603428884313 0 0 0 0 -212.2953107462381 -66.955310375912177 0 -66.955310375912177 19.924644646503111 0 0 0 0 -286.95100607626955 13.492048971436816 0 13.492048971436816 -66.609965971805195 0 0 0 0 -157.56658959659399 -150.19797832528639 0 -150.19797832528639 -22.794759799492795 0 0 0 0 -307.39563744335828 -115.38052267173225 0 -115.38052267173225 47.742475226852548 0 0 0 0 -188.85111063034856 -89.480224118254228 0 -89.480224118254228 49.377468513945132 0 0 0 0 -186.37847005101503 -45.309002205379329 0 -45.309002205379329 28.444310923634475 0 0 0 0 -217.15327070149942 -29.638439836568978 0 -29.638439836568978 29.910890357199605 0 0 0 0 -207.53647323731275 -58.435839880196909 0 -58.435839880196909 36.638847372849341 0 0 0 0 -255.07275953315548 -75.793164935770619 0 -75.793164935770619 48.994435168895507 0 0 0 0 -275.2258255132474 -59.792479010785428 0 -59.792479010785428 54.911482211669863 0 0 0 0 -253.70166128083656 -54.258463114170809 0 -54.258463114170809 55.514343145497151 0 0 0 0 -255.73740745740361 -42.37083121179603 0 -42.37083121179603 31.521454290684233 0 0 0 0 -202.38190277883405 -22.804380406403652 0 -22.804380406403652 37.419165623643494 0 0 0 0 -267.64400381883024 -33.1514088804106 0 -33.1514088804106 70.450818083205377 0 0 0 0 -174.10524974825057 -68.912252364080018 0 -68.912252364080018 -9.8886288310004602 0 0 0 0 -238.42837819433771 -58.770904952525598 0 -58.770904952525598 11.246620363717739 0 0 0 0 -254.70942845856189 -67.288242135594373 0 -67.288242135594373 7.478594875356066 0 0 0 0 -255.8265083591541 -58.570037603676155 0 -58.570037603676155 0.92729037779599821 0 0 0 0 -233.60021893706107 -123.63475227780452 0 -123.63475227780452 -62.626934554617037 0 0 0 0 -279.3873628784786 -18.580660527572945 0 -18.580660527572945 17.108564203740571 0 0 0 0 -232.78605119252461 -35.008056306766093 0 -35.008056306766093 21.702326581053057 0 0 0 0 -276.92957986403781 -49.993123428888794 0 -49.993123428888794 25.409637195508367 0 0 0 0 -247.78349084882939 -37.316539052952976 0 -37.316539052952976 30.227835575584322 0 0 0 0 -263.5868139783488 -32.929104767757053 0 -32.929104767757053 16.113522246698267 0 0 0 0 -288.54332307560253 -32.412093273806931 0 -32.412093273806931 17.153897434324335 0 0 0 0 -292.54925623492454 -1.7132798391667166 0 -1.7132798391667166 3.2482813251444895 0 0 0 0 -287.98232849547639 2.6726828711289272 0 2.6726828711289272 -8.1406128106887081 0 0 0 0 -339.83234433047619 -20.511670533513552 0 -20.511670533513552 20.152700127338903 0 0 0 0 -286.34001194086886 -80.782572585921116 0 -80.782572585921116 -13.785210200032452 0 0 0 0 -455.18657315224846 -120.96191997032065 0 -120.96191997032065 -10.783219904523321 0 0 0 0 -339.84197316560312 -2.4807690661696142 0 -2.4807690661696142 -14.191166393520689 0 0 0 0 -303.84931775205769 -27.547914944359945 0 -27.547914944359945 -4.1663149104010699 0 0 0 0 -106.7327335310838 -96.765613474080965 0 -96.765613474080965 -104.89154186146243 0 0 0 0 -226.06949870384415 -177.54171855333743 0 -177.54171855333743 -180.63887917095462 0 0 0 0 -221.53522990385318 -163.14586296314485 0 -163.14586296314485 -142.88301394253358 0 0 0 0 -7.2436812232990633 -49.707602024195694 0 -49.707602024195694 -183.34090221946371 0 0 0 0 -102.9362766941922 -76.454873857966504 0 -76.454873857966504 -100.40473485729854 0 0 0 0 -85.189955798297888 -72.021717997990891 0 -72.021717997990891 -100.02732367356612 0 0 0 0 -149.94314177325577 -53.275115996305885 0 -53.275115996305885 -10.32115363493358 0 0 0 0 -42.756387605008058 -50.231607463688761 0 -50.231607463688761 -52.363855591284846 0 0 0 0 -69.203693349811147 -37.216020926446959 0 -37.216020926446959 -43.962278890866401 0 0 0 0 -18.295826828114514 -13.213184839059977 0 -13.213184839059977 -112.3008903014611 0 0 0 0 -8.0868313495011535 -1.9948022831163144 0 -1.9948022831163144 -100.46833847786183 0 0 0 0 -18.939433596269737 -11.798580196003002 0 -11.798580196003002 -40.818936746105464 0 0 0 0 -24.325465955567779 -14.286565087036251 0 -14.286565087036251 -40.058418856845492 0 0 0 0 1.6997937279556936 -32.026996619728834 0 -32.026996619728834 -57.81701815149745 0 0 0 0 -12.343852419384348 -40.800594142215232 0 -40.800594142215232 -48.240514567033188 0 0 0 0 10.250597396523517 -22.274492314340932 0 -22.274492314340932 -33.712539968295005 0 0 0 0 -14.91899726066913 -41.018776677091864 0 -41.018776677091864 -32.688022005356402 0 0 0 0 -20.383235043387685 -39.807035234706063 0 -39.807035234706063 13.060692666885188 0 0 0 0 9.7941852813310106 -29.278264831343222 0 -29.278264831343222 16.699092103987141 0 0 0 0 -19.567881484545069 -32.10760815278536 0 -32.10760815278536 43.616744101896074 0 0 0 0 -22.192969486153743 -17.969465737841801 0 -17.969465737841801 50.517484213247371 0 0 0 0 -54.035827647186579 5.9450967825470542 0 5.9450967825470542 14.597620807040585 0 0 0 0 -53.67550617280358 -1.344837941429887 0 -1.344837941429887 2.6613856981095392 0 0 0 0 -6.2689313045210184 -4.6744972756500616 0 -4.6744972756500616 -3.5386468325188627 0 0 0 0 24.345749856955081 -3.9107202364339173 0 -3.9107202364339173 5.2541769279068831 0 0 0 0 3.4275477232686171 -57.223579502963617 0 -57.223579502963617 56.417781399092746 0 0 0 0 -1.9274950175095427 -1.6487728920208227 0 -1.6487728920208227 -1.5421869230665415 0 0 0 0 -181.04113000971847 112.35744364281436 0 112.35744364281436 -12.707266305369558 0 0 0 0 -75.93441461162729 53.296746232158057 0 53.296746232158057 -41.437632661952193 0 0 0 0 -40.428700779535575 -99.731658192691498 0 -99.731658192691498 -59.380879203459699 0 0 0 0 37.755826217209687 -67.666015370266933 0 -67.666015370266933 -58.815261297979305 0 0 0 0 7.642467390659931 -44.434394767330701 0 -44.434394767330701 -38.814771340091283 0 0 0 0 11.770355932749226 -37.949073984387724 0 -37.949073984387724 -52.764100557522852 0 0 0 0 -13.364170627697604 -48.0524472764846 0 -48.0524472764846 -54.968854858460872 0 0 0 0 -38.92645612732872 -31.016760139023091 0 -31.016760139023091 -6.8999316714216548 0 0 0 0 -149.87254468033643 61.26130154026805 0 61.26130154026805 -12.070680488487596 0 0 0 0 -161.18634297138487 -65.843134497157735 0 -65.843134497157735 -14.392004757639825 0 0 0 0 -33.892039840851794 -1.4010295764019247 0 -1.4010295764019247 -6.5851047199064396 0 0 0 0 -38.683960278083759 -5.8937682724562137 0 -5.8937682724562137 13.164647785063607 0 0 0 0 -32.694174152688696 -27.584052690938066 0 -27.584052690938066 -10.220160232352644 0 0 0 0 -97.746589446702274 93.173015795780429 0 93.173015795780429 -83.355652693031971 0 0 0 0 102.6466333765934 -85.337844988804221 0 -85.337844988804221 -53.649259996323963 0 0 0 0 78.43475304081494 69.975740116423196 0 69.975740116423196 -189.9919554988619 0 0 0 0 -37.575209556849586 8.1231739811886428 0 8.1231739811886428 -77.417167576197784 0 0 0 0 -59.217228846988291 -12.258091906424625 0 -12.258091906424625 -28.497730134313997 0 0 0 0 -41.418662830621543 -4.0655421250182258 0 -4.0655421250182258 -25.1077819306729 0 0 0 0 68.070530552635319 -91.898769501620791 0 -91.898769501620791 22.319595072736774 0 0 0 0 -23.231486479920932 41.676017665536619 0 41.676017665536619 54.386150738047945 0 0 0 0 39.309351085936214 -104.38077035679089 0 -104.38077035679089 55.915980297983239 0 0 0 0 -40.168627458555022 -49.055965773743715 0 -49.055965773743715 39.247657458011417 0 0 0 0 -48.032160060443857 1.760139527696083 0 1.760139527696083 49.889786175923746 0 0 0 0 -4.5329216685697631 -2.2324413224216073 0 -2.2324413224216073 1.0301014302813218 0 0 0 0 -51.892206061264005 -73.074943040556377 0 -73.074943040556377 102.3121832762522 0 0 0 0 -26.944285583529563 6.2621295624849154 0 6.2621295624849154 26.642365567491652 0 0 0 0 76.635132594608876 -42.018069546116749 0 -42.018069546116749 16.061765882670443 0 0 0 0 -346.79566538559448 -107.18613752600049 0 -107.18613752600049 109.0162287861931 0 0 0 0 -33.698356700919845 -26.519183748434067 0 -26.519183748434067 -6.4973000522667785 0 0 0 0 -25.956000011741708 -133.08021452455205 0 -133.08021452455205 26.169741762448666 0 0 0 0 -180.17988001288177 97.154741821128823 0 97.154741821128823 -22.701313458494496 0 0 0 0 -66.781207489650114 -21.823866556083203 0 -21.823866556083203 -37.218980841299867 0 0 0 0 -39.785551747401769 -2.0944110194177483 0 -2.0944110194177483 -7.8410256276456494 0 0 0 0 -27.2150038125219 -11.722624158571307 0 -11.722624158571307 -51.814465347689747 0 0 0 0 -163.4962335060045 48.563214349257009 0 48.563214349257009 15.646517753871649 0 0 0 0 -50.042252386490873 -45.358444620714181 0 -45.358444620714181 -13.951695541731624 0 0 0 0 -54.498600349435947 -44.731048508182994 0 -44.731048508182994 55.636896989779416 0 0 0 0 -17.277646381433442 -16.257830126506633 0 -16.257830126506633 77.282019718555148 0 0 0 0 -32.588135963480454 -149.32875870718112 0 -149.32875870718112 26.091801829206815 0 0 0 0 -77.377915033048339 -78.703524857946832 0 -78.703524857946832 105.52001085907068 0 0 0 0 -13.254366452874393 -7.5563626865552997 0 -7.5563626865552997 -4.0033400575622302 0 0 0 0 29.614821460139865 -12.1655887991094 0 -12.1655887991094 13.504733518683224 0 0 0 0 -22.54645729828917 4.0178601163775056 0 4.0178601163775056 29.16630313755013 0 0 0 0 -1.8378068783654271 -17.322700925227991 0 -17.322700925227991 37.153071998956875 0 0 0 0 -16.223966305624344 -5.7121621900587343 0 -5.7121621900587343 40.316867698986584 0 0 0 0 17.511727365819752 -32.284505525896407 0 -32.284505525896407 11.013372262942539 0 0 0 0 23.138020297366893 -18.793375515302159 0 -18.793375515302159 -20.896421913620998 0 0 0 0 -3.5763335553483557 1.4175548590034168 0 1.4175548590034168 -4.0390769463883771 0 0 0 0 -15.479781850917419 3.9046760296271863 0 3.9046760296271863 9.5743215736811145 0 0 0 0 -50.129357021018222 -11.030635425524451 0 -11.030635425524451 0.34781403178749315 0 0 0 0 -47.586782422843726 -30.199960671814111 0 -30.199960671814111 -17.76469840908976 0 0 0 0 -47.416952505045629 -11.759382572036884 0 -11.759382572036884 -5.0831487439027114 0 0 0 0 47.486499119775544 -57.559553712721026 0 -57.559553712721026 20.880296315106989 0 0 0 0 -19.816560106579246 -9.8396965958317075 0 -9.8396965958317075 -3.3084958493774703 0 0 0 0 -32.867385027489945 -32.86559122611186 0 -32.86559122611186 96.167301362253511 0 0 0 0 23.112696097661683 -71.447048369836011 0 -71.447048369836011 34.535383832364687 0 0 0 0 -58.419467498315498 10.065095097429548 0 10.065095097429548 116.59854879211821 0 0 0 0 -13.10232250108038 123.9534944984492 0 123.9534944984492 -9.6080805763231183 0 0 0 0 11.642890802249894 36.780515733184075 0 36.780515733184075 -106.5194829663227 0 0 0 0 18.090388381700905 -2.8439535576835624 0 -2.8439535576835624 -111.92604624086232 0 0 0 0 -12.378969321187469 -5.5807291123237519 0 -5.5807291123237519 -32.759341240235699 0 0 0 0 -19.513477920903824 25.973449592615452 0 25.973449592615452 5.5001272027311643 0 0 0 0 -4.3407997227895976 44.472201711931575 0 44.472201711931575 -0.66742368558152521 0 0 0 0 -56.942889959747845 62.269725117140297 0 62.269725117140297 100.47989785791697 0 0 0 0 -17.73596268340043 -6.0732676031361734 0 -6.0732676031361734 42.870657000228675 0 0 0 0 -20.43243698223614 4.6963016829977278 0 4.6963016829977278 28.858846758568689 0 0 0 0 -25.623890116403345 14.552367200322806 0 14.552367200322806 43.318986872483251 0 0 0 0 -26.263090713124257 10.933956547479283 0 10.933956547479283 2.4765839565425267 0 0 0 0 -17.006276568201429 14.171703071425782 0 14.171703071425782 6.9696273581575952 0 0 0 0 -22.580610304430593 6.9296767969162829 0 6.9296767969162829 5.8134586700850832 0 0 0 0 -17.208907696982351 11.087008787854302 0 11.087008787854302 -1.1843579611504538 0 0 0 0 -20.003981802568887 3.255125671686983 0 3.255125671686983 27.660728117567487 0 0 0 0 -18.677795291623625 -15.358912153561505 0 -15.358912153561505 -0.69075157576844504 0 0 0 0 3.2242602803889895 -3.1716791398903297 0 -3.1716791398903297 -3.5172150651678749 0 0 0 0 -10.294205354485825 -8.7567396345941777 0 -8.7567396345941777 3.4723338000767452 0 0 0 0 -14.389831715161563 -1.9582006778664436 0 -1.9582006778664436 -0.15187554495423683 0 0 0 0 -16.328610119235236 4.8885422867601847 0 4.8885422867601847 -4.5882837517128792 0 0 0 0 -17.035141922693583 7.1376588522689417 0 7.1376588522689417 0.66603152157858858 0 0 0 0 -18.35451385199849 11.982486534673626 0 11.982486534673626 -11.220939229198848 0 0 0 0 -14.723661489686492 -0.02963449982541988 0 -0.02963449982541988 -11.273805164222722 0 0 0 0 -4.1908469705412656 -1.6723600159838483 0 -1.6723600159838483 1.7740820184207369 0 0 0 0 -21.197583917542943 0.81889968227005738 0 0.81889968227005738 -13.575494608498957 0 0 0 0 -20.286403256002814 -9.9083268834347109 0 -9.9083268834347109 -5.4460160611388346 0 0 0 0 -5.1368017097574494 -1.6760901040871494 0 -1.6760901040871494 0.059531170623373875 0 0 0 0 -12.137068436320988 -0.8743654506963594 0 -0.8743654506963594 -13.815313901240188 0 0 0 0 -27.022948959638597 -27.648138804003793 0 -27.648138804003793 -16.582469909521933 0 0 0 0 -13.754072309515323 -9.0804117460456837 0 -9.0804117460456837 -15.546548928856367 0 0 0 0 -22.740067015181921 -25.335202785821593 0 -25.335202785821593 -27.973864615010825 0 0 0 0 -1.9931254640200393 -0.79296634426055146 0 -0.79296634426055146 0.66842949592431022 0 0 0 0 -68.128901100717485 -61.957979403942772 0 -61.957979403942772 -51.608188689570852 0 0 0 0 -70.061337749284576 -35.119664112929058 0 -35.119664112929058 -13.939534453504166 0 0 0 0 -25.568706415611814 -23.78086148809416 0 -23.78086148809416 -12.495520923883305 0 0 0 0 -45.016203300732741 -15.822210374349652 0 -15.822210374349652 -7.3044011614740612 0 0 0 0 -37.412926195622276 -20.73583629129007 0 -20.73583629129007 -12.408531854567627 0 0 0 0 -38.782817707361801 -9.0785648662370591 0 -9.0785648662370591 25.844980472555108 0 0 0 0 -25.603554330045881 -25.260650669007646 0 -25.260650669007646 -7.9055637313122133 0 0 0 0 -22.15576527839324 -14.783744175053307 0 -14.783744175053307 -3.7413262801619336 0 0 0 0 3.6805735488633218 28.469212983929083 0 28.469212983929083 -7.7505182300610613 0 0 0 0 45.160864553086867 -19.349551876180612 0 -19.349551876180612 -65.028632555217882 0 0 0 0 -36.787766895562527 -2.40771893681449 0 -2.40771893681449 -18.723185988578734 0 0 0 0 -50.137617738924746 19.970261759272489 0 19.970261759272489 26.541733088972606 0 0 0 0 -107.49874722136155 -24.035333026612761 0 -24.035333026612761 2.639853768665489 0 0 0 0 -60.497384498674364 -2.9903056271133437 0 -2.9903056271133437 4.1475733659917751 0 0 0 0 -48.958089126446794 -23.002390803067328 0 -23.002390803067328 -19.264893002127792 0 0 0 0 -48.963563400211569 -42.952920931079802 0 -42.952920931079802 -20.636135116503283 0 0 0 0 -60.381809877922933 -64.606754080945393 0 -64.606754080945393 -43.596725757331569 0 0 0 0 -102.90583948617859 -47.450940847728816 0 -47.450940847728816 3.2489878273809154 0 0 0 0 -90.83897006557072 -7.0316613369959668 0 -7.0316613369959668 31.329285838521173 0 0 0 0 -122.53801252617632 -61.333663100102967 0 -61.333663100102967 78.05495900574897 0 0 0 0 -148.41234000954864 -124.16792527851248 0 -124.16792527851248 -30.454517536639287 0 0 0 0 -61.058190450889015 -64.117097569335442 0 -64.117097569335442 6.9501293299690587 0 0 0 0 -50.461140411636734 -125.53634134360573 0 -125.53634134360573 -139.06444624882533 0 0 0 0 15.829623481011367 -75.593699114006313 0 -75.593699114006313 -106.95126793873351 0 0 0 0 -4.3867616943949486 -3.238465087453072 0 -3.238465087453072 -1.9592666093199416 0 0 0 0 -363.4683710384852 -228.2832990158231 0 -228.2832990158231 -32.741223379837265 0 0 0 0 -199.84897909827123 -149.51876207980354 0 -149.51876207980354 -7.486367807967099 0 0 0 0 -463.41800671604142 136.37358330781626 0 136.37358330781626 360.59329497898034 0 0 0 0 416.51612652699987 360.08186026087787 0 360.08186026087787 -201.740345114923 0 0 0 0 -17.379583870520435 -8.5903920978604766 0 -8.5903920978604766 5.9087833811135617 0 0 0 0 -8.2774975291270039 -7.9518104288503224 0 -7.9518104288503224 -0.64037509230820433 0 0 0 0 -17.555842794929049 118.26924906425393 0 118.26924906425393 65.094574705684863 0 0 0 0 -168.01220341437147 -10.980735880412794 0 -10.980735880412794 36.444129275301748 0 0 0 0 -40.962301591775031 -41.776912241495666 0 -41.776912241495666 -8.5316730778267811 0 0 0 0 -31.367318487477291 -25.53083743269643 0 -25.53083743269643 -6.8969088024471432 0 0 0 0 -45.450056227064124 -23.467943984010162 0 -23.467943984010162 -3.5064660087055017 0 0 0 0 -42.244103876844747 -50.070288095520937 0 -50.070288095520937 72.337432255239037 0 0 0 0 -111.83274548296868 -103.0745555557686 0 -103.0745555557686 61.769399143242481 0 0 0 0 -5.8694121665903367 -74.286943822457943 0 -74.286943822457943 7.7689661881918255 0 0 0 0 -16.322005347090922 -3.1171768113508307 0 -3.1171768113508307 2.3832006181023253 0 0 0 0 -22.88596133817191 -40.24258326279687 0 -40.24258326279687 -2.5685906081439498 0 0 0 0 -5.1924565209010325 -92.138374689821831 0 -92.138374689821831 -35.685294528535451 0 0 0 0 -4.7002677464697626 -54.185923071754132 0 -54.185923071754132 -88.491944902723844 0 0 0 0 -5.3570935170064331 -51.229257173231417 0 -51.229257173231417 -14.100935959506614 0 0 0 0 -4.2823997989426061 -7.0397659504570385 0 -7.0397659504570385 -5.2992346358244102 0 0 0 0 -14.054405409384344 -8.84152882198714 0 -8.84152882198714 -10.828374422696925 0 0 0 0 -35.853801596167614 -20.317391163137245 0 -20.317391163137245 -9.8230392896848571 0 0 0 0 1.2085135842644377 -9.1344822945052329 0 -9.1344822945052329 -39.803207622270293 0 0 0 0 1.1696180338549311 -30.083839761449781 0 -30.083839761449781 -166.80609427846002 0 0 0 0 8.3776690095886721 -3.44703100631137 0 -3.44703100631137 -5.8591688537703739 0 0 0 0 -4.0215289082261734 -7.8790555720538578 0 -7.8790555720538578 54.303604909578553 0 0 0 0 -8.2396726177976234 -25.013898231229632 0 -25.013898231229632 43.983256202046135 0 0 0 0 -8.1594667801122398 -8.1082611511408444 0 -8.1082611511408444 -5.8996801636005696 0 0 0 0 -10.060504846165713 -25.899603741803276 0 -25.899603741803276 -11.07565339868097 0 0 0 0 -22.488040505995741 5.4604512658429485 0 5.4604512658429485 2.6896674586916269 0 0 0 0 -57.790613953126012 -20.902358303277197 0 -20.902358303277197 -14.373949290728888 0 0 0 0 -60.145224863452313 2.830986098647827 0 2.830986098647827 13.216326693798692 0 0 0 0 -33.365110488448337 -24.818688387220206 0 -24.818688387220206 -2.6839917830676896 0 0 0 0 -142.08158604732307 10.711416321201114 0 10.711416321201114 64.270121597874777 0 0 0 0 -30.631733908215821 -23.403443905336857 0 -23.403443905336857 -0.89013159831032418 0 0 0 0 -40.784702097014815 6.4963906892463683 0 6.4963906892463683 -14.582560212520548 0 0 0 0 
</DataArray>
<DataArray type="Float64" Name="cross_section_updated" format="ascii">
1 1 0.0095462505257364726 1 1 1 1 0.0094702728432726063 1 1 1 0.009868397512973465 0.0098668143726272414 0.0092815942690568278 1 1 1 0.0089680079746662939 1 1 1 1 1 0.0099159358412322096 1 1 1 1 1 1 1 1 1 1 0.0090797053155874247 1 0.0099868866050121467 1 1 1 1 0.0070638849291411003 1 1 1 1 1 1 0.0087313139945449873 1 1 1 1 1 1 1 1 1 1 0.010212775859186911 1 1 1 1 1 1 1 1 1 1 1 1 1 1 1 1 1 1 1 1 1 0.0097241253745120274 1 1 1 1 0.0091451122657406573 1 0.010791193471392619 1 1 0.0081448930464536624 1 0.0088813436410653049 1 1 0.0095669963135858772 1 1 1 1 1 1 1 1 1 1 1 1 0.0079793363161010048 1 1 1 1 1 1 1 0.0079410138675647824 1 1 1 1 1 1 1 1 1 1 1 1 1 0.0098318587284355052 1 1 1 1 1 1 0.0098513433037196382 1 1 0.0059258353351422655 0.0063238169905023376 1 1 1 1 1 0.01015348347324266 1 1 1 1 0.0060090891556350522 1 1 1 1 1 1 1 1 1 1 1 1 1 1 1 1 1 1 0.0084996514295469228 1 1 1 1 1 1 1 1 0.0097563746379359002 1 1 1 1 1 1 1 1 1 1 1 1 1 1 1 1 1 1 1 1 1 1 1 1 1 1 1 1 1 1 1 1 1 1 1 1 1 1 1 1 1 1 1 1 1 1 1 1 1 0.0099783813400962547 1 1 1 1 1 1 1 1 1 1 1 1 1 1 1 1 1 1 1 1 1 1 0.010013657310480586 1 1 1 0.0099745368783230696 1 1 1 0.0099938388762081855 1 0.0099754207869260821 1 0.0099839231773709812 1 0.009988517889008312 1 1 1 0.0099919524598704665 1 1 0.0098007764814934551 0.010005422000388091 1 1 0.0096721214376056849 1 0.0099972421829318207 1 1 0.0093447871253517154 0.0096382938265010334 0.0087792890384734614 1 0.0098678407168516554 1 0.0093754982913260634 1 1 0.0099962224359278172 1 1 1 1 1 1 1 1 0.0090215264078251731 1 1 1 0.0085747456371407221 1 0.0095510272839740337 1 1 0.01063799344468817 0.0094222715250082082 1 0.0095173968651346696 0.0081461760295939729 1 1 1 0.0095490195893278354 1 1 0.0099970312099105455 1 1 0.0078810449569176357 1 0.0081491693208152836 0.0095429358534832968 1 1 1 0.0096533876473871693 1 1 1 0.0098392845761445368 1 1 1 1 0.0091648196362902751 1 0.0090686146982607435 0.010177125213755672 1 1 1 1 1 1 1 0.0098671595811057767 1 1 1 1 1 0.0079431476769390216 1 1 1 1 1 1 0.0092581420389230059 1 1 1 1 1 0.0097931309904587937 1 1 1 1 1 1 1 1 1 1 1 1 1 1 1 1 1 1 1 1 1 1 1 1 1 1 1 1 1 0.0095124009918490272 1 1 1 1 0.0098799461943640827 1 1 0.010391436840446616 1 1 1 1 1 1 1 1 1 1 1 1 1 1 1 0.0069227584157690938 1 0.0071164711979887392 1 1 0.0080194762981850402 1 0.010310266030911532 1 0.0099995558898314501 1 1 0.0099817971382086187 1 1 1 1 1 1 1 1 1 0.0047230795090014606 1 1 1 1 1 1 1 1 0.0099598627709838634 1 1 1 0.009488187308913279 0.0058508699060543512 1 1 1 1 1 0.009858775654959984 1 1 1 0.0099334503090295206 1 1 1 0.0039195317130514204 0.0086394645078655755 1 0.010019359875528549 1 1 1 1 0.0086867632065022269 0.0069591866425180709 1 1 0.0087982869997620533 0.0040780750113413276 1 1 1 0.010045895205387895 1 1 1 1 0.00362093499621002 1 0.010111607794299336 1 1 1 1 0.010510359084443912 1 0.0082875089611457453 1 1 0.0081207818546213863 1 1 1 1 1 1 0.0058658892565550905 1 0.0095268931582883961 0.0072117567560094006 1 0.0076541830841456906 1 1 1 0.0094593792987067507 1 1 0.0093036221533992127 1 1 1 1 1 1 1 0.0094161935766769629 1 1 1 1 1 1 1 1 0.009657012188330252 1 0.008428513216691141 0.0064837055900881235 1 0.0097529847275087053 1 1 1 0.0060953980361818875 1 1 0.0093256212794563184 1 1 1 1 1 1 1 1 1 1 1 1 1 1 1 1 1 1 0.0096896093543343016 1 1 1 1 0.0068649098530357642 1 1 1 1 1 1 1 1 1 1 1 0.008701515192028891 1 1 1 1 1 1 1 1 0.0092516675069413308 1 1 1 1 1 1 1 0.0087541542293054844 1 1 1 0.010106694643598441 1 1 1 1 1 1 1 1 1 1 1 1 1 1 1 1 1 1 1 1 1 1 1 1 1 1 1 1 0.009837621696987698 1 1 1 1 1 1 1 1 1 1 1 1 1 1 1 1 1 0.010341789076878657 1 1 1 1 1 1 1 0.01005570905546703 1 1 0.00905121220452095 1 1 1 1 1 1 0.0090535230323985135 1 1 1 1 1 1 1 1 1 1 1 1 1 0.0095074694766837265 1 1 1 1 1 1 1 1 0.0062517010292987424 1 1 0.008534725489113543 1 1 1 1 1 1 1 1 1 1 1 1 1 1 1 1 1 1 1 1 1 1 1 1 1 1 0.010267739341095053 1 1 1 0.0099768516886361656 1 1 1 0.0084055064320625091 1 0.011157924168285479 1 0.010015342273828765 1 1 1 1 1 1 1 1 1 1 1 1 1 1 1 1 1 1 0.009034047837283822 1 1 1 1 0.0058449184571013387 1 1 1 0.0072098372501232834 0.007952295131173617 1 1 1 1 1 1 1 1 0.0099930524206422768 0.0049977821644979267 1 1 1 1 1 1 1 1 0.0082024185799705815 1 0.010796236270232502 1 0.010429404302443535 0.0085908192208764278 0.010763474711269724 0.010866976272592362 1 1 1 0.010377805593574596 1 0.010390807709997368 1 1 1 1 1 1 1 1 1 1 1 1 0.010008592754461337 1 1 1 1 1 1 1 1 1 1 1 1 1 1 1 0.0059096495892178753 1 1 1 1 1 1 1 1 1 0.0108472104285858 1 1 1 0.0099701103693811272 1 1 1 1 1 1 1 1 0.0094568082192687652 1 1 1 1 1 1 1 1 1 0.010574122602831372 1 1 1 1 1 1 0.011845547506698717 1 0.0072556326366521179 1 1 1 1 1 1 1 1 0.0095297454865711836 1 0.010108165870964823 1 1 1 1 1 1 1 1 1 1 1 1 1 1 1 1 0.007660529120079332 1 1 1 1 1 1 1 1 1 1 1 1 1 0.0087694044681269484 1 1 1 1 0.0096926706804433271 1 1 1 1 1 1 1 1 1 0.0082025286943327898 1 1 1 1 1 1 0.0093114040423804036 1 1 1 1 1 1 1 0.0093595178670405656 1 1 0.0076375312793802667 1 1 0.0082983826504820501 1 1 1 1 1 1 1 1 1 1 1 1 1 1 1 1 1 1 1 1 1 1 1 1 1 1 1 0.010026245886025277 1 1 0.0094068164721249244 1 1 1 1 1 0.0081667689517037397 1 1 1 1 1 1 1 1 1 1 0.0073430471551143555 1 1 1 1 0.0072515566786410949 1 1 1 1 1 1 1 1 1 1 1 1 1 1 0.0096798375039656662 1 1 1 1 0.009842215806977965 1 1 1 1 1 1 1 1 1 1 0.010006007366263408 1 1 0.010573682843924409 1 1 1 1 1 1 1 0.007754479612690806 1 1 1 1 1 1 0.0091373865022908278 1 1 1 1 1 1 1 1 1 1 1 1 1 1 1 1 1 1 1 1 1 1 1 1 1 1 1 1 1 1 1 1 1 1 1 0.0085628677801470529 1 1 1 1 0.0062232652647553968 1 1 1 1 1 1 1 1 1 1 1 1 1 1 1 0.0096325084227776147 1 1 1 1 0.009629118334333402 1 1 1 1 1 1 0.0096641168541674125 1 1 1 1 1 0.0099700413208128995 1 1 1 1 1 1 1 1 1 1 1 1 1 1 1 1 1 1 1 1 1 1 1 1 1 1 1 1 1 1 1 1 0.0095227700949184254 1 1 1 0.0098875790297653365 1 1 0.009839494148141701 1 1 1 1 1 1 0.0099808409073906881 1 1 1 1 1 1 1 1 1 0.0098327275188661058 1 1 1 1 1 1 1 0.010163191178234455 1 1 1 1 1 1 0.010870993069866263 0.012015046201122244 1 1 1 1 0.0066411532930385851 1 1 1 1 0.010445506186136846 0.0076447069395583584 1 0.010046714188667668 1 1 1 1 1 1 1 0.010112175774322949 1 1 0.010003247586843716 1 1 1 1 1 1 0.0078449044188133414 1 1 1 1 1 0.011306677295124214 0.010020419287961164 1 1 1 0.0099947703150662787 1 1 1 1 1 1 1 1 1 1 1 0.0099151898099136687 1 1 1 1 1 1 1 1 1 1 1 1 1 1 1 1 1 1 1 0.0096874895560562294 1 1 1 1 1 1 1 1 1 1 1 1 1 1 1 1 1 1 1 1 1 1 1 1 1 1 1 1 1 1 1 1 1 1 1 1 1 1 1 1 1 0.010162866401686531 1 1 1 1 1 1 0.010437582940424822 1 1 1 1 1 1 1 1 1 1 1 1 1 1 1 1 1 1 1 1 1 1 1 1 1 1 1 0.0070030653836992375 1 1 1 1 0.0088304292535626369 1 1 1 1 1 1 1 1 1 1 1 1 1 1 1 1 1 0.0096691093504493748 1 1 1 1 1 1 1 1 1 1 0.0092495185887227598 1 0.010042959670443536 1 1 0.008553096140153784 1 0.009103401190618355 1 1 0.0093898166280877143 1 1 1 1 0.0087514189478505519 1 1 1 1 1 0.010121302787502945 1 0.0097900168018536203 0.0087526860200494855 1 1 1 0.0093276822799226201 0.010431294863736638 1 1 1 1 1 1 1 1 1 1 1 1 1 0.0091302177036058259 1 1 1 1 1 1 1 1 1 1 1 1 1 1 1 1 1 1 1 1 1 1 1 1 1 1 1 1 1 1 1 1 1 1 1 1 1 1 1 1 0.0097490829265110927 1 1 1 0.0095583922774934542 1 1 1 1 0.010090463760330029 1 1 1 1 1 1 1 1 1 1 1 1 0.010015984143882212 1 0.0090940788582755585 1 1 1 1 1 1 0.0093351482105034043 1 1 0.01022032381021698 1 1 1 1 0.0099571846447373772 1 1 1 1 1 1 1 1 1 1 1 1 1 1 1 1 1 1 1 1 1 1 1 1 0.0084408995634343773 1 1 0.0084601021153742628 1 1 1 1 1 1 0.0057737851291757552 1 1 1 1 1 1 1 1 1 1 1 1 1 1 1 1 1 1 1 1 1 0.0099145377145378639 1 1 1 1 1 1 1 1 1 0.0050858567705355196 1 1 1 0.012183452737762503 1 1 1 0.0053582412198878247 1 1 1 0.0099016978845721786 1 1 1 1 0.011673513243246118 1 0.0097991716670280532 1 1 1 1 0.0099996882673875943 0.0074867471717239191 1 1 1 1 1 1 1 1 1 1 1 1 1 1 1 0.0081796592580687475 0.010028479556602478 1 1 1 0.0085856547655853831 1 1 1 1 1 1 1 1 1 1 1 1 0.010251386712694209 1 1 1 0.0106695779235207 0.0064737226694603816 1 1 1 1 1 0.0076385088417234145 1 1 1 1 1 1 1 1 1 1 1 1 1 1 1 1 1 1 1 1 0.010725442602048293 1 1 0.010051377228900944 0.0071269354893074557 1 1 1 1 1 1 1 0.0095376705727231084 0.0097032619532875265 0.0069078002093680502 1 1 1 0.0095837132172327394 0.0056542956375126383 1 1 1 1 0.0084156240719493094 1 0.0098356078360612512 1 1 1 1 1 1 1 1 1 1 1 1 0.010519590676439101 1 1 1 0.011492902835561966 1 1 1 1 1 0.0071856081003130057 1 1 0.0080581614271451451 1 0.0092643125844280878 1 1 1 1 1 1 1 1 1 1 1 1 1 1 1 1 1 1 1 1 1 1 1 0.010193111966020029 1 0.010065964663218824 1 1 0.0092529763658338472 1 1 0.010564524361980299 1 1 1 1 1 1 1 1 1 1 1 1 1 1 1 1 1 1 1 1 1 1 1 1 1 1 1 1 0.01014633539724422 1 1 1 1 1 1 1 1 1 1 1 1 1 1 1 1 0.0098828514216570303 1 1 1 1 1 0.0090036309267167887 1 1 1 1 0.0099657958579423399 1 1 0.0090643384991160644 1 1 1 0.0087139312103209458 1 1 1 1 1 1 1 0.010462770388916813 1 1 1 1 1 1 0.0098093868633372036 1 1 0.0093096216098025805 1 0.010923731404531976 0.0037001573482099339 1 1 1 1 1 1 1 1 0.0096136773914976496 1 1 0.010710046286092206 1 0.009982354421391863 1 1 1 0.0095252632709692288 1 1 1 0.0096045163568770527 1 1 1 0.0090293329889606609 0.0096138619861767492 1 0.0099920277159238381 1 0.0088451208907583782 1 1 0.010912802137187068 1 0.010156385656524445 1 0.0075965142775383894 0.0081989280388028735 1 1 1 1 1 0.0046500115721587656 1 1 1 1 1 1 1 0.0036660349310491044 1 1 1 1 1 1 1 1 1 1 1 1 1 1 1 1 1 1 1 1 1 1 1 1 1 1 1 1 1 1 1 1 1 1 1 1 0.01008145400339565 1 1 1 1 1 1 0.01032693212438358 1 1 1 1 1 1 1 1 1 1 1 1 1 1 1 1 1 1 1 1 0.0099538239923953661 1 1 1 1 1 1 1 1 1 1 1 1 1 0.0098136857249306684 1 1 1 1 1 1 1 1 1 1 1 1 1 1 1 1 1 0.0096894962985730314 1 1 0.0092864527551626431 1 1 1 1 1 1 1 1 0.009904110182803294 1 1 1 1 1 1 1 1 1 1 1 1 1 1 1 1 0.0098484991772955569 1 1 1 1 1 0.009727761836139685 1 0.0097281244323036802 1 0.0099406356330559616 1 1 0.009934171927760126 1 0.0086088819079763405 0.010010789666821573 1 1 1 0.0090481761746818226 1 1 1 1 1 1 1 1 0.0096642018649481694 1 1 1 1 1 1 1 0.0084406330518445802 1 0.0073591521458038871 1 1 1 1 1 1 1 1 1 1 0.0073925257248328513 0.009889150858201412 1 1 1 0.0079205856529935767 1 1 1 0.0095719588114090287 1 0.0089900123296606169 1 1 0.0098390190114375532 1 1 1 1 0.0062867925647571554 1 1 0.0095761508362419215 1 1 1 1 1 1 0.0096639401787227477 0.009784430228416666 1 1 1 1 1 1 1 1 0.0088639612374284259 1 1 1 1 1 0.0096943905781223909 1 0.0093931677786565186 1 1 1 1 1 1 0.0085242628746919676 1 1 1 1 1 1 0.0096264092772989692 1 1 1 1 1 1 0.0098419790488823034 1 1 1 1 1 1 0.0063338769943352552 1 0.0067958656721475996 1 1 1 1 1 0.0076495420850188995 1 0.0071707585984780928 1 1 1 1 1 1 1 1 1 0.0097764843235579428 1 1 1 1 1 1 1 1 0.0077666716953201315 1 0.0095804040416043769 1 0.009511987908825275 1 1 0.008671458171196255 0.009193946316715166 1 0.0078206948180584261 1 1 1 1 1 0.0088253101990761612 1 0.0082620714350839959 1 1 1 1 1 1 1 1 1 1 1 1 1 1 1 1 1 1 1 1 0.010001887135592103 1 1 0.010012778371599864 1 1 1 1 1 1 1 1 1 1 1 1 1 1 1 1 1 1 1 0.0081628098720335964 1 1 0.0074952887612283487 1 1 1 1 1 1 1 0.0068456451676422499 0.0077392555398487512 1 1 0.0072909926057133922 1 0.0057288983797173197 1 1 1 1 0.0083877916594925252 0.0060093527303762689 1 0.0068442869129315791 1 1 1 1 1 1 1 0.0070220996097969286 1 1 1 1 1 0.0061742038255199489 0.0066879526732952638 1 0.0044802150852808632 0.0095853068488016176 1 0.0063560703411622253 0.0087361129576403098 1 1 1 1 1 1 1 1 1 1 1 0.0030217159152003924 1 1 1 1 1 0.001574088525911916 0.0088513012386683288 1 1 1 1 1 1 1 1 1 1 1 0.0063256063826883646 1 1 1 1 0.008258985239180585 1 1 1 1 0.0092298116176389583 1 1 1 1 1 1 1 1 0.0077524539252673674 1 0.0067879442746546486 1 1 1 1 0.0078460065366722388 1 1 1 1 1 1 1 1 1 1 1 1 0.0099269077553764962 1 1 0.0099144691365090666 1 1 1 1 1 1 1 1 1 1 1 1 1 0.010088889418802862 1 1 1 0.010011698413823138 1 1 1 1 0.010353611581420705 0.01002413703269057 1 1 1 1 1 1 1 1 1 1 1 1 1 0.0094514572069622424 1 1 1 1 1 1 1 1 1 1 1 1 1 1 1 0.0094971946028667778 0.0096223701403227446 1 1 1 1 1 1 1 1 1 1 1 1 1 1 1 1 1 1 1 1 1 1 1 1 0.0098594231208352055 1 0.0088735510794283601 1 1 1 1 1 1 1 1 1 1 1 1 1 1 1 1 1 1 1 1 1 1 1 0.0066922225394131195 0.0077075239152420687 1 0.011192386412674811 0.0075568627456888797 1 1 1 1 1 0.0097665456146978479 1 0.0069922398853374569 1 1 1 1 1 1 1 1 1 1 1 1 1 1 1 1 0.0036563879998771365 1 1 0.0093114069719749271 1 0.010762170038883748 1 0.0097882405322056061 1 1 1 1 1 1 1 0.0028914397145168892 1 1 1 1 1 1 1 1 1 1 1 1 1 1 1 0.0088624806070501487 1 1 1 0.0066666061037353834 1 1 1 1 0.0046337979226070761 0.0096480797152838065 1 1 0.0025551018142353082 1 1 1 1 1 1 1 1 0.0097715667128647592 1 1 0.0099441063664955243 1 0.0054223770851145638 1 1 1 0.010030549751145049 1 1 0.0082370710759440569 1 0.0074209616594883929 1 1 0.010118088669696193 1 1 1 0.01000834976987596 1 1 1 1 0.0099870831399483471 0.0097564378495446635 1 1 1 1 1 1 1 1 1 1 1 1 0.0093837289184428817 1 1 1 1 1 0.0059289813988198607 1 1 1 1 1 1 0.0076179828336405478 1 0.0074424463738297711 1 1 1 1 1 1 1 1 1 1 0.0048655056642726742 1 1 0.0099918560882178188 1 1 1 1 1 1 1 1 1 0.0080701712815324372 0.005933403332206889 1 1 1 1 1 0.0071540802249011118 1 1 1 0.006418366729437441 1 0.0096918626428667918 1 1 1 1 1 1 0.009801369788134463 1 1 1 0.0099291234109573114 1 1 1 1 1 1 1 1 1 1 1 1 1 1 1 1 1 1 1 1 1 1 1 1 1 1 1 1 1 0.010013944322623782 1 1 1 1 1 1 0.010003165104798636 1 1 1 1 1 1 0.0086632527022747086 1 0.01004954546477735 1 1 0.0098697337001652421 0.00783173000647144 1 1 0.0095844588151674098 1 1 1 1 1 1 1 1 1 1 1 1 1 1 1 1 1 1 1 1 1 1 1 1 1 1 1 1 0.009598763927014994 1 1 1 1 1 1 1 1 1 1 1 1 1 1 1 1 1 1 1 1 1 1 1 1 1 1 1 1 1 1 1 1 0.0099918548277630817 1 1 1 0.0099561845235390176 1 1 1 1 1 1 0.0099643368038137003 1 1 1 1 1 1 1 1 1 1 1 1 1 1 1 1 1 1 0.010004063354278267 1 0.010026002479644028 1 1 1 1 1 1 1 1 1 1 1 1 1 1 1 1 1 1 1 1 1 1 1 1 1 0.0092634660279028325 0.009819064529791895 0.010150447814824411 0.0099999645094182906 0.0091532988463349264 0.0086925994261273561 1 1 1 1 0.0090983830645753397 1 1 0.0082891588662204127 1 1 1 1 1 1 1 1 1 0.0097853048421605755 1 1 1 0.010006819208271291 1 1 0.0095653422370058742 1 0.0096181342841639688 1 0.0095170916365057111 1 0.0098231021558447297 1 0.0093917592967254371 1 1 1 1 1 1 0.0083698090300154734 1 1 0.0092795698652944607 1 1 1 1 1 0.0097681684213610544 1 1 1 1 1 3.4694469519536142e-18 1 1 1 1 1 1 0.00037317335092656653 1 1 1 1 1 1 1 0.0011187272516906925 1 1 1 0.00036688264833496798 1 1 1 1 1 1 1 1 1 1 1 1 0.0099315396700029712 1 1 0.0022300117387680334 1 1 1 1 0.0061153389680934714 1 0.0097268880489901639 1 1 1 0.0069719568527390509 1 1 1 1 1 0.01005260802756679 1 0.009275618953083745 1 1 1 1 1 1 1 1 1 0.009692168585979679 1 1 0.0084475532742718813 1 1 0.0059131277659558914 1 1 0.0097955196350757341 0.0099219050949525441 1 1 1 1 1 0.0099610495853485661 0.0098608073515646689 0.0090195906962441692 1 1 1 1 1 1 0.0099996679489991087 1 1 1 1 1 1 1 1 1 1 1 1 1 1 1 1 1 1 1 1 1 1 1 1 1 1 1 1 1 1 1 1 1 1 1 1 1 1 0.009988095567341369 1 1 1 1 1 0.010009644213117714 0.0093759553948925354 1 1 1 0.0090404543447264469 1 1 1 0.010008287170232097 1 0.00999494346902359 1 0.0098029011604943532 1 0.0099623694705403745 0.009800890965770373 1 0.011093652348220896 1 1 1 1 0.010407101931477024 1 1 1 1 1 1 1 1 1 1 1 1 1 1 1 1 1 1 1 1 1 1 1 1 1 1 1 1 1 1 0.0095192860120505585 1 1 1 1 1 1 1 1 1 1 1 1 1 1 1 1 1 0.0093561802933327994 1 1 1 1 1 0.0097647468654893273 1 1 1 1 0.0036639613454272999 1 1 1 1 1 1 1 0.0097997552610671595 1 1 1 1 1 1 1 1 1 1 1 1 0.0076419771060273686 1 1 1 1 1 1 1 1 1 1 1 1 0.010250689229967119 1 1 1 1 0.0062781593635578559 0.0054814810660090366 1 0.0090685222466157199 1 1 1 1 0.0099391910838603839 1 1 0.0092177330363360024 1 1 1 1 1 1 1 0.0098020277870221953 1 1 1 1 1 1 1 1 1 1 1 1 0.0097719772866993893 1 1 1 0.00047111154229260467 0.0099072711155925794 1 1 1 0.0091212222952544476 1 1 1 1 1 1 1 0.010002943080679592 1 1 1 0.0022542608985760913 1 1 0.0018062297588377144 1 1 1 1 1 1 0.0084102715159702027 1 1 1 1 1 1 1 1 1 1 1 1 1 0.0079412753525002228 1 1 1 1 0.0084166377917824567 1 1 1 1 1 1 1 1 1 1 0.0073618428393644872 1 1 1 0.0067796398151980762 1 0.0078040311280250588 1 1 1 1 1 1 1 1 1 1 1 1 1 1 1 1 1 1 1 1 1 1 1 1 1 0.0093873819820653286 1 1 1 1 1 1 1 1 1 1 1 1 1 1 0.0099815340589624983 1 0.0073996980937207375 1 1 0.006549617323862925 1 1 1 1 1 1 0.0099855797823777057 0.0078298825431821137 1 1 1 1 1 0.0098219942152932959 1 1 1 0.0059309730459547747 0.010722152267651898 1 0.0099373475969998203 1 1 1 1 0.0019347080363416938 1 0.0099575529612210764 1 1 0.0099425237319111584 1 1 1 0.0069462597513911539 0.0072789415518707389 1 0.010030969580442802 1 0.0044468487573103063 1 0.010003995088629591 1 1 1 1 0.009763915473355993 1 1 1 1 0.0089704564541971225 1 1 1 1 1 1 1 1 1 1 1 1 1 1 1 1 1 1 1 0.0073907545489492899 1 1 1 1 1 0.0072525357263811836 1 0.0012480919416569705 1 1 0.0040056100975317324 1 1 1 1 1 1 0.00015884469526864821 1 1 1 -8.6736173798840355e-19 0.0084620686644380251 1 1 1 0.0095560393561914883 1 1 1 1 0.0093590747573709769 1 1 1 1 1 1 1 1 1 1 1 1 1 1 1 1 1 1 1 1 1 1 1 1 1 1 1 1 0.0099221650357299816 1 1 1 1 1 1 1 0.0097438522742061308 1 1 1 0.0095703159016652523 1 1 0.010144044632081056 1 1 0.0086484058717291607 1 0.010209223127469361 1 1 0.0065114399752721104 1 0.0061547928925283386 0.0060787869452535656 1 0.0097129166122053665 1 0.010304710597294792 1 1 1 1 1 0.0099443623616945719 1 0.0085957092511415745 1 1 1 0.0065775885201057958 1 1 1 1 0.0095576016269255069 1 1 1 1 1 0.0087886494295309203 1 1 1 1 1 1 1 1 1 1 1 1 1 1 1 1 1 1 1 1 1 1 1 1 1 1 1 1 1 1 1 1 1 1 1 1 1 1 1 1 1 1 1 1 1 1 1 0.010002435002171708 1 1 1 1 1 1 1 1 1 1 1 1 1 1 1 1 1 1 1 1 1 1 1 1 0.009579003093882852 1 1 1 1 1 1 1 1 1 1 1 1 1 1 1 0.009466471225594365 1 1 1 0.008519662293485341 1 1 1 1 1 1 1 1 1 1 1 1 1 0.0099204843961470078 1 1 1 1 1 1 1 1 1 1 1 1 1 1 1 1 1 1 1 1 1 1 1 1 1 1 1 1 1 0.0099366437982335819 1 1 1 1 0.0099599006131986748 1 0.0083595826984148025 1 1 1 1 0.010040809324754537 1 1 1 0.010213606216790551 1 1 1 0.0071451211039363811 1 1 1 1 0.010295539146200322 1 0.0057382082108252443 1 1 1 1 1 1 1 0.0077662088327086834 1 1 1 1 0.0093690468909486905 1 1 1 1 1 1 1 1 1 1 1 1 1 1 1 1 1 1 1 1 1 1 1 1 1 1 1 1 1 1 0.010014336363927847 1 1 1 1 1 1 0.0098613761093941186 1 1 0.009498719640464167 1 1 1 1 0.0093860475252701865 0.0091324503913689063 0.0099991645476777153 1 1 0.0096838692240824795 1 1 1 0.0087785504085139895 0.010030796286209162 1 0.010249293233160591 1 1 1 0.011363760339349797 1 1 1 1 1 1 1 1 1 0.0027544543047383994 1 0.010071930214648967 1 1 1 1 1 1 1 1 1 1 0.0044783022414393147 1 1 1 1 1 1 1 1 1 1 1 0.0089557639349166929 1 1 1 1 1 1 1 1 1 1 1 1 1 1 1 1 1 1 1 1 1 1 1 1 0.010236620200642362 1 1 1 1 1 1 1 1 1 0.010696900843306326 1 1 1 1 1 1 1 1 1 1 1 1 1 1 1 1 0.0068269458598704588 0.0064286302481168234 1 0.010555091442404692 1 0.0094560010892714447 1 1 0.0099987258906324723 1 1 1 0.006461523650155572 0.0099720597118993035 0.0079999801796464473 1 1 0.0079438703515933694 1 0.010281663575343811 0.0093887887805693057 1 1 1 1 0.0083415831549215821 1 0.007537080883123522 0.0095674003072315824 0.0099934782917260982 1 1 1 1 1 0.0086352528519853984 1 1 0.0077647959372119258 0.007729402266015201 1 1 1 1 0.0066890586568722904 1 0.0088133995852453084 1 1 0.0068392145337270414 1 1 1 1 1 1 1 1 1 1 1 1 1 1 1 1 1 1 1 1 1 1 0.01040776465783292 1 1 1 0.0047245898528149935 1 0.006003236962539564 0.0062671297124221662 1 1 0.010134308686459502 1 1 0.010001203735684231 1 1 1 1 0.0099047048186333038 1 0.0097397757887574665 1 1 1 1 1 1 1 1 1 0.0017932356973971823 1 1 1 1 1 1 1 1 0.0020875493091371787 1 0.0091914142058388409 1 1 1 1 1 1 1 1 1 1 1 1 1 1 0.0094124426339618501 1 1 1 0.0092372113423345448 1 0.010432367800597191 1 1 1 0.0099601892117624595 1 1 1 1 1 1 1 1 1 1 1 0.010077398984054676 1 1 1 1 1 1 1 1 1 1 1 1 1 1 1 1 1 1 0.0076233602684422121 1 0.007732906064782572 1 1 1 0.0099461060615807888 0.0096901106455293904 1 1 1 1 1 1 1 1 1 0.0099157095418403417 1 1 1 1 1 0.0070603723598277063 1 1 1 0.006925491329101913 1 0.0065081842485396751 1 0.0063376603098619592 1 0.0061404781965446655 1 1 1 1 1 1 1 1 0.0082626860492208999 1 1 1 0.0098583489752562814 0.0099295856738189844 1 1 1 1 1 0.0090581911962652958 0.0065226192540668278 1 1 1 0.0073168960806991468 1 0.0083542859704133221 1 1 1 1 1 1 1 1 0.0088802095881192599 0.0099208576589281915 1 1 1 1 0.0089768578195043858 1 1 1 1 0.010017527725148481 1 1 1 1 1 1 1 1 1 1 1 0.0099762522035739681 1 1 1 1 1 1 1 1 1 0.0068560537611152507 1 1 1 1 1 1 1 0.010389700510404188 1 1 0.0047461815979618956 1 1 0.0058336734376076421 0.010803920854661215 0.0074693946611297446 1 1 1 0.010474076226947361 1 1 1 0.0099867715597152934 1 1 1 1 1 1 1 1 1 1 1 0.0067397558088786187 1 0.010572954887312467 1 0.010685812976832555 1 1 0.0080476356590204468 1 1 1 1 1 1 1 1 1 1 0.0036820244275131715 1 1 0.0099384132507452597 1 1 0.003557972860375045 1 1 0.0098113608982212212 1 0.0098956513563808798 1 1 1 1 1 1 1 1 1 1 1 1 1 1 0.0097643159226822145 1 1 1 1 1 1 1 1 1 1 1 1 1 1 1 1 1 1 0.0095496909165430736 1 1 1 1 1 0.0093998252141767984 1 0.0098676928596503569 1 1 1 1 1 1 1 1 1 0.010200906341632536 1 1 1 1 0.010088126858515435 1 1 1 1 1 1 1 1 0.0068667223729234738 1 0.0071201624320841083 1 1 1 0.0070176078864018776 1 1 0.0067231411617281588 1 1 0.0090700132591014331 1 1 1 0.0097020156240527761 1 1 1 1 1 1 1 0.0097853749938608542 1 1 1 1 1 1 1 1 1 1 1 1 1 1 1 1 1 1 1 1 1 1 1 1 1 1 1 1 1 1 1 1 0.0090095983776285384 1 1 0.0080964716302451539 1 1 1 0.0086483369376781603 1 0.010701396476552681 1 1 1 1 1 1 1 1 0.010317487411939887 1 1 1 1 1 1 1 1 1 1 1 1 1 1 1 1 1 1 1 1 1 1 1 1 1 1 0.009604791173618973 1 1 0.0097411399726747838 1 1 1 1 1 1 1 1 1 1 1 1 1 1 1 1 1 1 1 1 1 1 0.0091308150436236191 1 1 1 1 1 1 1 1 1 1 1 1 1 0.0094114608756971398 1 1 1 1 1 1 1 1 1 1 1 1 0.0090329835163767847 1 0.0097145398938395869 1 1 0.0075053483816157514 0.010206141009604031 1 1 1 1 1 0.0077336575121522231 1 0.0095513993850431904 1 1 0.0087323974769417424 1 0.0087020504441875819 1 1 0.01007032684607315 0.0090826043801275937 0.0086157013136782031 1 1 0.0093225080862729213 1 1 1 0.0088362499296250896 0.007303773699834936 1 1 1 1 1 1 1 1 1 1 1 1 1 1 0.0084552185162936108 1 1 1 1 0.0099565142282845871 1 0.0083755706976293177 0.0075856710811855414 1 1 1 0.0087433005656994984 1 0.0084514403214800606 1 1 1 0.0078833544256476026 0.0099998713410743845 1 1 1 0.005879618640933941 1 0.007820552472700127 1 0.0091532087120764025 1 0.0071843914822564657 1 1 0.0097835542916239384 1 0.0095550197919819658 1 1 0.0099811755947859741 1 1 1 1 1 1 0.01000145868819265 1 1 1 1 1 1 1 1 1 1 1 1 1 1 1 1 1 1 1 0.01022840934927103 1 1 1 1 1 0.0099985301845434988 1 1 1 0.011067106466162695 0.0090588805254417232 1 1 0.006455588663692835 1 1 1 1 0.0068916067694703605 1 1 1 1 1 1 1 1 1 0.0058539634292310329 1 1 1 0.0051796792678333566 0.010009866797021944 1 0.0044094805401035785 1 1 1 1 1 1 1 0.010032794540805925 1 0.0065954825563120734 1 1 1 1 1 1 1 1 0.0098142393256284606 1 1 1 1 1 1 1 1 1 1 1 0.010049585895868247 1 1 1 1 1 1 1 1 1 0.0099046785898931188 1 1 0.0094868047344836802 1 1 1 1 1 1 1 1 1 1 1 1 1 1 1 1 1 1 1 1 1 1 1 1 1 1 1 1 1 1 1 1 1 1 1 1 1 1 1 1 1 1 1 1 1 1 1 1 1 1 0.0098266553681653976 1 1 1 1 1 1 1 1 1 1 1 1 1 1 1 1 1 1 0.0083900233996222102 1 1 1 1 1 1 1 1 1 1 1 0.0086806620539210955 1 1 1 1 1 0.0079009906792776707 1 1 1 1 1 1 1 1 1 1 1 1 1 1 1 1 1 0.0083617370925615081 1 1 0.0094433557419583529 1 1 1 1 1 1 1 1 1 1 0.0094669291259346991 1 1 0.010068521091091881 1 0.0091688097994108986 1 1 1 1 1 1 1 0.0092477748357757319 1 0.0092962837189202122 1 1 0.0097901142844999157 1 1 1 1 1 0.0074264298928548638 0.0092365875884863977 1 1 1 1 1 1 1 1 1 1 1 1 1 1 0.0099945301411157369 1 0.010217728458344611 1 1 0.0099591161500265559 1 1 1 1 1 1 1 1 0.0092713856050904535 1 1 0.0065868966093936953 1 1 1 1 1 0.0097181319463622226 1 1 1 0.01113702430694404 0.008942658033272358 1 1 1 0.0076012203782401646 1 0.009116778214514374 0.0094031322116586401 1 1 1 0.0098111281692201124 1 1 1 0.0078883727442342275 1 1 0.0086698636125432989 0.0089793197658380609 0.010179165973670282 1 0.0077123678770113502 0.008371806043913254 1 1 1 1 1 0.0099989599918747368 1 0.0083546415242279643 1 0.0094773277719573841 1 0.01032456142100904 1 1 0.010036438975674897 1 0.0095786948197004 1 1 0.007277769569643976 0.010007552360611096 1 1 1 0.0089617382502141432 1 1 0.0098587866474363402 1 1 1 1 1 1 1 1 1 1 1 1 0.010370822358303356 1 1 1 1 1 1 1 1 1 1 1 1 0.0095881787775802339 1 1 1 1 1 1 1 1 1 0.0088064074568007158 1 1 1 0.0081190533008667579 1 1 1 1 1 1 0.0099852068593102635 1 0.0099675341465017449 1 1 1 1 1 1 1 1 1 1 1 1 1 1 1 0.0099022913832549197 1 1 1 1 1 0.0079831964883712268 1 0.0099491556284675049 1 1 0.007261382663748958 1 1 1 1 1 1 1 1 1 1 1 1 1 1 1 1 1 1 1 1 1 1 1 1 1 1 1 1 1 1 1 1 1 1 1 1 1 1 1 1 1 1 1 1 1 1 1 1 1 1 1 1 1 1 1 1 1 1 1 1 1 1 1 1 1 1 1 1 1 1 1 1 1 1 1 1 0.0085426334890699677 1 1 1 1 1 1 1 1 1 1 1 1 1 1 1 1 1 1 1 0.0071906142973805365 1 1 1 1 1 0.0084928406158177421 1 1 1 1 1 1 1 1 1 1 1 1 1 1 1 0.0075488054299568457 1 1 1 1 1 0.0097522851283907922 1 1 0.0092994055324280671 1 1 1 1 1 1 1 1 1 1 1 1 1 1 1 1 1 1 1 1 1 1 1 1 1 1 1 1 1 0.010233436289728899 1 1 1 1 1 1 1 1 1 1 1 1 1 0.010848828760835543 1 0.0099997097024528032 1 0.0087732599525911469 0.011010620335680234 1 1 1 0.0063371590627086033 1 1 1 1 1 1 1 1 1 0.010063537844402056 1 1 1 1 1 1 1 1 1 1 1 1 1 1 1 1 1 1 1 0.0062076907250620417 0.0098044942169915883 1 1 0.0079748115599811691 1 1 1 1 1 1 1 1 1 1 1 1 1 1 1 0.0063514315286691062 1 1 0.0070910003798702118 1 1 1 1 0.0099705396634549616 1 0.008808050290841505 1 1 1 1 1 1 1 1 1 1 1 1 1 0.0097661922505089468 1 1 1 1 0.00947952129632652 1 0.009407883760250705 1 1 1 1 1 0.009454469018492357 1 1 1 1 1 1 1 1 1 1 1 1 1 1 0.0094066091970743202 1 1 1 0.011212695755874013 1 1 1 1 1 1 1 1 0.0089165823086922828 1 1 1 1 0.0089594845900860323 0.0091193898804164085 1 1 1 1 1 0.010076676180621882 1 1 1 1 1 1 1 1 1 1 1 0.010061960017607532 1 1 1 1 1 1 0.010176428651817509 1 0.01026379947943065 1 1 1 1 1 1 1 1 1 1 1 0.0060885646723607308 1 1 1 0.0060084716402222359 1 1 1 0.0085132998525210592 1 0.0094406656254581167 0.008532715545977421 0.0093095592938207943 1 0.0079544600836781061 1 0.010691682365621765 1 1 1 0.0094474577426434531 0.0093224597348769318 1 1 0.0099976151366344308 1 1 1 0.0078992921510128017 1 0.0070543217910407838 1 0.010421278945329441 1 1 0.0099944168812298433 0.0083902084074785766 0.010684725958068544 1 0.0091033518892019664 1 0.0095235473338430091 0.0064044996046386414 1 1 0.010239533096552849 1 0.0095418377216857277 1 1 1 1 1 0.010058651724202146 1 0.0092491387143164155 1 0.0077917930284056415 1 0.0091897257537172771 0.0056563477514879083 1 0.010663529685010699 1 1 0.0040441720532947084 1 1 1 0.0064882379047033313 1 1 0.0069793753782328768 1 1 0.0099885066632205075 1 1 1 1 0.010138416976114116 1 1 0.009461535002985997 1 0.010586055782732546 1 1 1 1 1 1 1 1 1 1 1 0.0089453613279399102 1 0.010034297277489083 1 1 1 1 1 0.01220224454402194 1 1 1 1 1 1 1 1 1 1 1 1 1 1 1 1 1 1 1 0.010023935178917589 1 1 1 1 0.01000372728029574 1 1 1 1 1 1 1 1 1 1 1 1 1 0.010044972896938714 1 1 1 1 1 1 1 1 1 1 0.0089128575345716575 1 1 0.0098951398143604808 1 1 1 0.01000069048623169 0.0045841867092632944 1 1 1 1 1 0.0052840483007637043 1 1 1 1 1 1 1 1 1 1 1 1 1 1 1 1 1 1 1 1 1 1 1 1 1 0.0095694865629207017 1 1 0.0058181341241523264 1 0.0097920013346746194 1 1 0.0098776632461767631 1 1 1 1 1 1 1 1 1 1 1 1 1 1 1 1 1 1 1 1 1 1 1 0.0099239166518441113 0.009972270330576561 1 1 1 1 0.010046091196914096 1 1 1 1 1 0.010021037718021125 1 1 1 1 1 1 1 1 1 1 1 1 1 1 1 1 0.0096158516563270534 1 1 1 1 1 1 1 1 1 1 1 1 1 1 1 1 1 1 1 1 1 1 1 0.0077432460679103428 1 0.0091134901841022561 1 1 1 1 1 1 1 1 1 1 1 1 1 1 0.010072075583652366 1 0.010303631229233662 1 1 1 1 1 1 1 1 1 0.0099860953949732229 1 1 0.0099684226821647026 1 1 1 1 1 1 1 1 1 1 1 1 1 1 1 1 1 1 1 1 1 1 0.009953135754787415 0.0086179144569291464 1 1 1 1 1 1 1 1 1 1 1 1 1 1 1 1 1 1 1 0.0094572816277946892 1 1 1 1 1 1 0.0097364399195153002 1 1 1 1 1 1 1 1 1 0.0096807542267132781 1 1 1 1 1 1 1 1 1 1 1 1 1 1 1 1 1 1 1 1 1 1 1 1 1 1 1 1 1 1 1 1 1 1 1 1 1 1 1 1 1 1 1 1 1 1 1 1 1 1 1 1 1 1 1 1 0.0095057693906788511 0.0087355663794629005 1 0.010000020199254608 1 0.0098641264266892525 0.0095516715468990619 1 1 1 1 1 1 1 0.010099849820762887 1 1 1 1 1 1 1 1 1 0.0091844193084044973 1 1 0.0096079613389516167 1 1 1 1 1 1 1 1 1 1 1 1 1 1 1 1 1 1 1 1 1 1 1 1 1 1 1 1 0.009990564141441392 1 1 1 1 1 1 1 0.0088176133799176149 1 1 1 1 1 1 1 1 1 1 1 1 1 1 1 0.0084072818806084325 1 0.0075317250053349421 1 1 0.0098581902141376219 0.0099997040488081709 0.0068422896349801185 1 0.0062795238419861522 1 1 1 0.0084544614365872663 1 1 1 1 1 1 1 0.010926564712124057 1 1 1 1 1 0.010322316909035349 1 1 1 1 1 1 1 1 1 1 1 1 1 1 1 1 1 1 1 1 1 0.0092873278712890788 1 1 1 1 1 1 1 1 1 1 0.0097305873630293832 1 1 1 1 1 1 1 1 1 1 1 1 1 0.010055288512101423 1 1 1 0.0094131284558626963 0.0059751842291437662 1 1 1 0.010762446192572422 1 1 0.0072424101449529033 1 1 1 0.010517324276796195 1 1 1 1 0.0044943939292017565 1 1 1 1 1 1 1 1 1 1 1 1 1 1 0.0092355904060740512 1 1 1 1 1 0.009103892230107798 1 1 0.0077566763621148655 1 1 1 1 1 1 1 1 0.0087193333369712349 1 1 1 1 0.0094320054656821563 1 1 1 1 1 1 0.0095764579694528791 1 1 1 1 0.010151280634368607 1 1 1 1 1 1 0.010465138500439997 1 1 1 1 1 1 1 1 1 1 1 1 1 1 1 1 1 1 1 1 1 1 1 1 1 1 1 1 1 1 0.0098847863390801646 1 1 1 1 1 1 1 1 1 1 1 1 1 1 1 1 1 1 1 0.0099981650035547657 1 0.0080916985311770655 0.0099902581737275498 0.010159341487561107 1 1 1 1 1 1 0.0093595453261910901 0.0063612029688635396 1 1 1 1 1 1 1 1 1 1 0.0054842698396658819 1 1 1 1 1 1 1 1 1 1 0.0098215366004483409 1 1 1 1 1 1 0.0095224628399091585 1 1 1 1 0.0098944160108740582 1 1 0.0097692855037938876 1 1 1 0.010180730830934391 0.009711457394892509 1 1 1 0.010013865323773827 1 1 1 1 1 1 1 1 0.0070818029371383156 1 1 1 1 1 1 0.010960008929358438 1 1 0.0099986785252316156 1 0.011754889953476403 0.010030672211329581 1 0.0067109323347636588 1 1 1 1 0.010068823597280275 1 1 1 1 1 1 1 1 1 1 1 1 1 1 1 1 1 0.0099408760541561374 1 1 1 1 1 1 1 1 1 1 1 1 1 1 1 1 1 1 1 1 0.0099807191747764146 1 0.0090084800507269185 1 0.010048899839772866 1 0.009941261732995187 0.0095804902786506239 1 1 1 1 1 1 1 1 0.0098486700597156494 1 1 1 1 1 1 1 1 1 1 1 1 1 1 1 1 1 1 0.010076172807002364 1 1 1 1 1 1 1 1 1 0.0098627833449219451 1 1 1 1 1 1 1 1 0.010359950357522945 1 1 1 1 1 1 0.0070016784649155981 1 1 1 0.010022242273368245 1 1 0.0066682270867018598 1 1 1 1 1 0.010770306618162345 1 1 1 0.0063540893698930349 1 1 1 1 1 1 1 1 0.0078169559515125879 1 1 1 1 1 1 0.010130680474072579 1 1 1 1 1 0.010335558897916179 1 0.0069553491102039254 1 0.0076289908795203962 1 1 0.010280860518147163 1 1 1 1 1 1 1 1 1 0.010300529452128483 1 1 1 1 1 0.008468648731487418 1 1 1 1 1 0.0093680313078188734 1 1 1 1 1 1 1 1 1 1 1 1 1 1 1 1 1 1 1 1 1 1 1 1 1 1 1 1 1 1 1 1 1 1 0.0069525377232847081 1 1 0.0087534611558796535 1 1 1 1 1 1 1 1 1 1 1 1 1 1 1 1 1 1 1 1 1 1 1 1 1 1 1 1 0.0098676113490738897 1 1 1 1 0.0099956686922213402 1 1 1 1 0.0093929922664217329 1 1 1 1 1 1 1 1 1 1 1 1 1 1 1 1 1 1 1 1 1 1 1 1 1 1 1 1 1 0.0093002382037719045 1 1 1 1 1 1 0.0096687210891571 1 1 1 1 1 1 1 1 0.0099155370987030287 1 0.010106118164021075 1 1 1 1 1 1 1 1 1 1 1 0.010189108134198849 1 1 1 1 1 0.0081427584821627749 1 1 1 0.009352451742708337 1 1 1 1 1 1 1 1 1 1 1 1 1 1 1 1 1 1 1 1 1 1 0.0097488022351261278 1 1 1 1 0.0086599015220202805 1 1 1 1 1 1 1 1 1 1 1 1 1 1 1 1 1 1 1 1 1 1 1 1 1 1 1 1 1 1 1 1 1 0.01002132966013186 1 1 1 1 0.009262737969374395 1 1 1 1 1 0.009223130394521448 1 1 1 0.0067974075951619363 1 1 1 1 1 1 1 1 1 1 1 1 0.0092208082549689145 1 1 1 1 1 1 1 1 1 0.0087951053032559994 0.0071171371026824259 1 1 1 1 1 1 1 1 1 1 1 1 0.0080126727105194508 1 0.010116823495999837 0.010045115162196076 1 1 1 1 1 0.0098565699247375356 1 1 1 1 1 1 0.0073766147436337918 1 1 0.0076290998973763255 1 0.010013259606375521 1 1 1 1 1 1 1 1 1 1 1 1 1 1 1 1 1 1 1 1 1 1 1 1 1 1 1 1 1 1 1 1 1 1 0.0097991093480665533 1 1 0.0081859995647354401 0.009406135005371706 1 1 1 0.0049457024933560693 1 1 1 1 1 1 1 0.0075527304310961541 0.0099937111774872842 0.0097016792430422299 0.0068326023656660158 1 1 0.0098541822377123146 1 1 0.0096454447674725555 1 0.0069079197902793864 1 1 1 1 1 1 1 1 1 1 1 1 1 1 1 1 1 1 1 1 1 1 1 1 1 1 1 1 1 1 1 1 1 1 1 0.010813231344285277 1 1 1 1 0.0081405816555973048 1 1 1 1 1 1 1 1 1 0.010065960573004035 1 1 1 1 1 0.0096493810966717143 1 1 1 1 0.010108565728633927 1 1 1 1 0.010121312071903768 1 1 1 1 0.010029175058660911 1 1 1 1 1 1 1 1 1 1 1 1 1 1 1 1 1 1 1 1 0.0047704015972839433 1 1 0.0094072594024525932 1 0.0050920626224330839 1 1 1 1 1 1 1 1 1 1 0.0057717163625949286 1 1 1 1 0.008303054355716849 1 1 0.01001026356093461 0.0073781946891516292 1 1 1 1 1 1 1 1 1 1 1 1 1 1 1 0.0065045020312746371 1 1 1 1 1 1 1 1 1 1 1 1 1 1 0.0083211497136454465 0.0085803352239504499 1 1 0.0083701973936728888 1 1 1 1 1 1 1 1 1 1 1 1 1 1 1 1 1 0.0099200226623866496 1 1 1 1 0.0097572578354482783 1 1 1 1 1 1 1 1 1 0.0091672468315241451 1 1 1 1 1 0.010108138253661532 0.0091855382199593286 1 1 1 0.010031751201889368 1 1 1 1 0.0095943508132364901 1 1 1 1 1 1 0.0099772402258288262 1 1 1 1 1 1 1 1 1 1 1 1 0.010279706697006168 1 0.010270102870810444 1 1 1 0.0098631656750302384 1 0.0099404938295743171 1 1 1 1 0.0098702102850226001 0.0088639795751236667 1 0.0099786541145488305 1 1 1 1 1 1 1 1 1 0.0095926797794132351 1 0.0066941704174805008 1 1 1 0.0096412941760144893 1 1 1 1 1 1 0.0099969212625598478 1 1 1 1 1 1 0.0068495850800288863 1 1 1 0.0065907582052374385 1 0.0064777137133529943 1 0.010087840261986149 1 0.0075941385005182018 0.0035680874486959304 1 1 0.010321148549080415 1 1 0.0081688480487864604 1 0.0073654960868141384 1 1 1 1 1 1 1 1 1 1 1 1 1 0.008496420134464687 1 1 1 1 0.0038344784733733584 1 1 1 1 1 1 1 1 1 1 1 0.0098002342265659792 1 0.0097007336739424917 1 1 0.0099835807830203627 0.0097648217844570912 0.010792312293207025 1 1 1 0.010400302790909931 1 1 0.010260462883997868 1 1 1 1 1 1 1 1 1 1 1 0.0099165943665038003 1 1 1 1 1 1 0.009889742218949912 0.010052379909523847 1 1 1 1 1 0.010715373329102947 1 0.0099752903992784258 1 1 1 1 1 1 1 1 1 1 1 1 1 1 1 1 1 1 1 1 1 1 1 1 1 1 1 0.0097823511089304323 1 1 1 1 1 0.0093101389500266328 1 1 1 1 1 1 1 1 1 0.010231928920839288 0.0095552046110296968 1 1 0.0097451637008351393 1 1 1 0.0041827539235990054 1 1 1 1 0.0096648143635385854 0.0093798781079073752 1 0.0067063648041610219 1 1 0.010022014380508173 1 1 1 1 1 1 1 1 1 1 1 1 1 1 1 1 1 1 1 1 1 1 1 1 1 1 1 0.009997165765751553 0.0054136424938956967 1 1 0.0058975016050072226 1 1 1 1 1 0.0064235680141178919 0.0099981605728779437 1 0.0083336981636126344 1 0.0075297157732381239 1 1 1 1 1 1 0.01097106583083588 1 0.010345825033832474 1 1 1 1 1 1 1 1 1 1 1 1 1 1 1 0.0088606828833535153 1 1 1 1 1 1 1 1 0.0092549491765681509 1 1 1 1 0.0094553182653313774 1 1 1 1 1 1 1 1 1 1 1 1 0.0087722309460715551 1 1 1 1 1 1 1 1 1 1 1 1 1 1 1 1 1 1 1 1 1 1 1 1 1 1 1 1 1 1 1 1 1 1 1 1 1 1 0.0087421680170235022 1 1 1 1 1 1 1 1 1 1 1 1 1 1 1 1 0.006768807320562141 1 1 1 1 0.0086915742214011167 1 1 1 1 1 1 1 1 1 1 1 0.0092304990762124596 1 1 1 1 1 1 1 1 0.010048200678717627 1 1 1 1 0.0087315109227950986 1 1 1 0.0095010118465826375 1 1 1 1 1 1 1 1 1 1 1 1 1 1 1 1 0.0098258107703509123 1 1 1 1 1 1 0.010026257816065405 1 1 1 1 1 0.0096682445913094904 1 1 1 1 0.0098540916747510247 0.0085395512083256027 1 0.0094929840264783225 0.010238820194825809 1 1 1 1 1 1 1 1 1 1 1 1 1 1 1 1 1 1 1 1 1 0.0099996230742196227 1 1 1 1 1 0.0057407268948981328 1 1 1 1 1 1 1 1 1 1 1 1 1 1 1 1 1 1 1 0.0074685070960029687 1 1 1 0.0099934835105692024 1 1 0.0051350636965144317 0.0099983822179056745 1 1 1 0.0098551570763460404 1 0.0077931023117161023 1 1 0.0047980950718056227 1 1 1 1 1 1 0.0052919655672017153 1 0.008081062764751545 1 1 1 0.0074949130526069021 1 1 0.010002099491924538 0.0081033841722182882 1 0.0092007832946612803 1 1 1 1 1 1 0.0097815086987066511 1 1 1 1 1 1 1 0.0099741652343446879 0.0078291972483796497 0.0098475834938015587 1 1 1 0.0083104502217198652 1 1 1 1 0.0086943210106815404 1 1 1 1 0.0095814283881212031 1 0.0088300962879849683 1 1 1 1 1 1 1 1 1 1 1 1 1 1 0.009696511511446208 1 1 0.0096732828873031182 1 1 1 1 0.0087839013316438046 1 1 1 1 1 1 0.0098824268193656462 1 1 1 1 1 1 1 1 0.0060405383100381113 1 1 0.010002588171198855 1 1 1 0.010553687671350931 0.0098542366414680373 1 1 1 1 1 1 1 0.0098881557858607576 0.009866889505491876 1 1 0.0041089425490119236 1 1 1 1 1 0.0044578133342490847 1 1 1 1 1 1 0.008579527284981266 1 1 0.0084116294338727037 1 1 1 0.0099943149867675034 1 1 1 1 1 0.0073370253655789565 1 1 1 1 1 1 1 1 1 1 1 1 1 1 1 1 1 1 1 1 1 1 0.0082421663768956037 1 1 1 1 1 0.0088498444193048816 0.009269722124240749 1 0.0098167536355143713 1 0.010081184316496843 0.0099998668789102619 1 0.010086379464084746 1 1 1 1 1 0.010020370735489602 1 1 1 1 1 0.0083639981795697021 1 0.010003697292720489 1 1 0.0078921563783185128 1 1 0.01028310701596615 0.0096509616033027667 1 1 1 1 0.0093626468477509984 0.010582066057780087 1 1 1 0.0092005675698583998 1 0.0089228262270138869 1 0.0097880548154911338 1 1 0.010122074029904974 1 1 1 0.010005237394210012 1 1 1 1 1 1 0.0094306785166655381 1 1 0.0097285802739129849 0.00964781939716647 1 0.010049899100060128 1 1 0.0099977133544612382 1 1 1 1 1 1 1 1 0.0099690941632557626 1 1 1 1 1 1 1 1 1 1 1 1 1 0.010074537581818747 1 1 1 0.009956353727813446 1 1 1 1 0.0099254762376613515 1 1 1 1 1 1 1 1 1 1 1 1 1 1 1 1 1 1 1 1 1 0.0099107873097277668 1 1 1 1 0.0097920487288633527 1 1 1 1 1 1 1 1 1 1 1 1 1 1 1 1 1 1 1 1 1 1 1 1 1 0.0098762502182202713 1 1 1 1 0.0046695606071551921 1 1 1 1 1 1 1 0.0050699430674927895 1 0.0090553597180143171 1 1 1 1 1 1 1 0.0096727241705555286 1 1 0.0098037713109363454 1 1 1 1 0.0099275210927160847 1 1 1 1 1 1 1 1 0.0097050125991160578 1 1 1 0.0092792610265425568 1 0.010017123546599525 1 1 1 1 1 0.010043438339953428 1 0.0095955051172027343 1 1 1 1 0.0096822348721340417 1 1 0.0097040016254278556 1 1 1 1 1 0.0095409657152819641 1 1 1 1 1 1 1 0.0095526387560580621 1 1 0.0097851414185360815 1 1 1 1 1 1 1 1 1 0.0095367394787803355 0.009259702638212167 1 1 0.0088337721119432604 1 1 1 1 1 1 1 0.0082749239712222467 0.010064478196798735 0.0085126379142329549 1 1 0.010059323577254095 1 1 1 0.0069798219156425746 1 1 1 0.0058349727961186024 1 1 1 1 1 1 1 1 0.009399745228722698 1 0.0088195526156968768 1 1 1 0.0090370079623223083 1 1 1 1 1 1 1 0.0098748769486176544 1 1 1 1 1 1 1 1 1 0.0092421478403315067 1 1 1 1 1 1 1 1 1 1 1 1 1 1 1 0.0080883669864061682 1 1 1 1 1 1 0.0078730823651224791 1 1 1 0.0086169126340879445 0.009665393571577861 1 1 1 1 1 1 1 1 1 0.0068202862680251577 1 1 1 1 1 1 0.00868064169089495 1 1 0.0024093110411737596 1 0.00049451182004416061 1 1 1 1 1 1 1 1 1 1 1 1 1 1 1 1 1 1 0 1 1 1 1 1 0.010737219916193027 1 0.010892961631632782 1 1 1 1 1 1 0.010352566814616403 1 0.004049265692311569 1 1 1 0.0046049954063480183 1 1 1 1 0.0082208156723381585 1 1 1 1 1 -6.9388939039072284e-18 1 1 1 1 1 1 1 1 1 0.0099154900429789718 1 0.010009789071082138 0.0071968560455872715 1 1 1 1 1 0.009963834000935692 1 1 1 1 1 1 1 0.010353260469072027 1 0.0043656497272308338 0.0082670817679105554 0.010080752289799893 1 1 1 1 1 0.0076798866786768009 1 1 0.0086589879468014653 1 1 1 1 1 0.0081267028739509667 1 1 0.0039364356653872404 1 1 1 1 1 1 1 1 1 1 1 0.0038922084887948322 0.009988836263931369 1 1 1 1 0.0093389039434899068 1 1 1 1 1 1 1 1 1 1 1 1 1 1 1 1 1 1 1 1 1 0.010021923405128867 1 1 1 1 1 1 1 0.0096172005753481331 1 1 1 1 1 0.0079516315223748645 0.0099191358453043915 0.0099838758634605944 1 1 1 1 1 1 0.0088063642365450879 1 0.011038051984503611 1 1 1 0.0084315630748943177 1 1 1 1 1 1 1 1 1 1 1 0.010781399631817644 0.0095044698163078284 1 1 1 1 1 0.0098070647078682648 1 1 1 1 1 1 1 0.010235998009572957 1 1 1 1 1 1 1 1 1 1 1 1 0.0094572478672134037 1 1 1 1 1 1 1 1 1 1 1 1 1 1 0.0099762978565995728 1 1 1 1 1 1 1 1 0.0099735977875519185 1 1 1 1 1 1 1 1 1 1 1 1 1 1 0.0085618565064941102 1 1 1 1 1 1 0.0080358930319207409 1 1 1 0.0098861515052177194 1 1 0.010030280834449918 1 1 1 0.01049227756060804 1 0.009041123814968504 0.010024472187761001 0.0096664432334094032 0.0097908067162737287 1 1 0.0099353715620202586 0.0096850403254117329 1 1 1 0.009693075231401227 1 1 0.0092047639761893302 1 0.010063674441229258 1 1 1 1 1 1 1 1 0.009994729332715618 0.0098018480328997092 1 1 0.0090656513755586442 1 1 0.0099270872389404935 1 1 1 1 0.010011850162014469 1 1 1 1 1 1 0.0098906750396097372 1 1 1 1 1 1 1 0.009797324844540628 1 1 1 1 1 0.010001681419735961 1 1 0.0093637317854129102 0.010005156887894058 1 1 1 1 1 1 1 1 1 1 1 1 1 1 1 1 1 1 0.0099211002164758116 1 1 1 1 1 1 1 1 1 1 1 1 1 1 1 1 1 1 1 1 0.0098851827698386522 1 1 1 1 1 1 1 1 1 1 1 1 1 0.0097098162228654861 1 1 1 1 0.0097201220440864943 1 1 1 1 1 0.0099974817258145117 1 1 1 1 1 1 1 1 1 1 1 1 1 1 1 1 1 1 1 1 1 1 1 1 1 1 1 1 1 1 1 1 1 1 1 1 1 1 1 1 1 1 1 1 1 1 1 1 1 0.010006546037762838 1 1 1 1 1 1 1 1 1 1 1 1 1 1 1 1 1 1 1 1 1 1 1 1 1 1 1 1 1 1 1 0.0090466614115820923 1 1 1 1 1 1 1 1 0.010031109221746489 1 1 1 1 1 1 0.0098041416652131837 1 1 1 1 1 1 0.0094208169840925126 1 1 0.0099119472187063611 1 1 1 1 0.0097005668890432668 1 1 0.0095260693509193143 1 1 1 1 1 1 1 1 1 1 1 1 1 1 1 1 1 1 1 1 0.0099613428405957438 1 1 1 1 1 1 1 1 1 1 1 1 0.010099587983450679 1 0.010004027763577355 1 1 1 1 1 1 1 1 1 1 1 1 1 1 1 0.010443157274948597 1 1 0.0099049673613370998 1 1 1 1 1 1 1 1 1 1 1 1 1 1 1 0.0098703919343600538 0.0091304719702233993 1 1 1 1 0.0098045210988408713 1 0.0092479636674303017 1 1 1 0.0095203373239260303 1 1 0.010164290977392753 1 1 1 0.010091763198653042 0.010731501363809291 1 0.0082537714227035666 1 1 0.0098308938178073048 1 1 0.010994375234481175 1 1 1 1 1 1 1 1 1 1 1 1 1 1 1 1 1 1 1 1 1 1 1 0.0046395637229628816 0.009250469879909887 1 1 1 0.0089268755496376435 1 1 0.010324460674898556 1 0.0093466003982952319 0.0094902923058175995 1 0.0080415531829949056 1 0.006877708152983367 1 0.011038968581874194 1 0.010251500995405158 1 0.010086000658508636 1 1 1 0.0086482456615090408 1 1 1 1 1 1 1 1 1 1 0.0100345183565377 1 1 1 1 1 1 1 1 0.0099016059153542134 1 1 1 1 1 1 1 1 1 1 1 1 1 1 1 1 1 1 1 1 1 1 1 1 1 1 0.0098575010078469499 1 1 0.0090821586302223915 1 1 1 1 1 1 1 0.0075796706678340955 1 0.0095084244001807875 1 1 1 1 1 1 1 1 1 0.0060833900343215501 1 0.010759105930759788 0.0067777816672943414 1 1 1 1 1 1 1 1 1 1 1 1 1 1 1 1 1 0.0094472738839560238 0.0099068118212407089 1 1 1 1 1 1 1 1 1 1 1 1 1 0.010027071816625457 0.0099867670042554681 0.010437580090679879 1 1 1 1 1 1 1 1 1 1 1 1 0.0098560995929772178 1 1 0.0064217508695161643 1 1 1 1 1 1 0.01006989634886259 1 1 1 0.009980763442191929 1 0.009908364014058724 1 1 1 1 0.0046880495439819685 1 1 1 0.0055056740594463492 1 1 1 1 1 1 1 1 1 1 1 1 1 1 1 1 1 1 1 1 1 1 1 0.0096098464109647223 1 0.008944538090460195 1 1 1 1 1 1 1 1 1 1 1 0.0084313086278723897 1 1 1 0.010123021543209017 1 1 1 1 1 1 0.0069514106608018818 1 0.0099819111201558675 1 1 0.005351208325770327 1 1 1 1 0.006163608181568565 0.0099180867002411251 1 1 1 1 1 0.00997232967909693 1 1 1 1 1 1 1 1 1 0.010251468909099603 1 1 1 1 1 1 1 1 1 0.010088301356322672 1 1 1 1 1 1 1 1 1 1 1 0.0099594114699810936 0.0066067463875204169 1 1 1 1 1 1 1 1 1 0.0091113609434932425 1 1 1 1 1 1 1 1 1 1 1 1 1 1 1 1 1 1 0.0099267543403493211 1 0.0098055549110401541 1 1 1 1 1 1 1 1 0.0099960415759777904 1 1 1 1 1 1 1 1 1 1 0.010016120628811322 1 1 1 0.010050970249451393 1 1 1 1 1 0.010034201968259993 1 1 1 1 0.00892739801426716 1 1 1 0.0068671125398072751 1 0.009610630935185601 1 0.0095938838965459409 1 1 0.0099103166389891296 1 1 1 1 1 1 0.0098703266755418659 1 1 1 1 1 1 1 0.0099412231213648547 1 1 1 1 1 1 1 0.0099437702865874424 1 1 1 1 1 1 1 1 1 1 1 1 1 1 1 1 0.0098076781727064657 1 1 0.0094427661088303388 1 0.010002203116446524 1 1 1 1 1 1 1 1 0.0066644573237483254 1 1 1 0.0095046964805306985 1 1 1 1 1 1 1 1 1 0.0089945969736843472 0.0099144004535244371 1 1 0.0091575223644190726 1 1 1 1 0.0099244573567257976 1 1 0.0097396313008579691 1 1 1 1 1 1 1 1 1 0.0077763784855249913 1 1 0.0085527310625230397 1 1 1 1 0.010354909708750873 1 0.0094999235454177062 1 1 1 1 1 1 1 1 1 1 1 0.0098910930114974992 1 0.010000008759946428 1 1 0.0098923528336891369 1 1 1 1 1 0.011314048475249255 1 0.0099855173727613402 1 1 1 0.0071649432298457726 0.009818014235342537 1 1 1 1 1 1 1 0.0098979684687683644 1 1 1 1 0.0083397596657156445 1 1 1 1 1 1 1 0.0078816468867140346 1 1 0.0099714120798139426 1 1 1 1 0.0076304122371938857 1 0.010000119825437005 0.0078226757717251398 1 1 0.010637232342965753 1 1 1 1 0.0068588046140393502 1 1 1 1 1 1 0.0074748430583533743 1 1 1 1 0.0056953316059828365 1 1 1 1 1 1 0.0046439384809258012 1 1 0.0093370717072388653 1 1 0.009382819994912743 1 1 1 1 1 0.008277935981688779 1 1 1 1 1 0.0099696240688550448 1 1 1 1 0.0098336044984642327 1 1 1 1 0.01001050151261474 1 1 1 0.010218063625636981 1 1 1 1 1 1 1 1 1 1 1 1 1 1 0.0079965811293714172 1 1 0.010119080821390888 1 0.0085756117985722625 0.010422425791515488 1 1 1 1 0.0090973347572820395 1 0.0099264530182552289 1 0.01023483872328961 1 1 0.0086582233304000993 0.0050573707392533133 1 1 1 1 0.0108062620386895 1 1 1 0.0030177490269787822 1 1 0.010321019949693023 1 1 1 0.0095037202826135786 1 1 0.010267057328153504 1 1 1 0.0099623744780847207 1 1 0.0098622212793598694 1 1 1 1 1 1 1 1 1 1 1 1 1 1 1 1 1 0.010002851052124171 1 1 1 1 1 1 1 1 1 1 1 1 1 1 1 1 1 1 1 1 1 1 1 1 1 1 1 1 1 1 0.0039062207684035372 1 1 1 1 1 1 1 1 1 1 0.0050626144239617477 0.012304979847440885 1 1 1 0.0091918141738619279 1 1 0.010367181187047042 1 1 1 1 1 1 1 1 1 0.0080791396781072534 1 1 1 1 1 1 1 1 1 1 1 1 1 1 1 1 1 1 1 0.0038743200680233358 1 1 1 1 0.0053232360754906401 1 1 0.0081234074274326926 1 1 1 1 1 1 1 1 1 1 1 1 1 1 1 1 1 1 0.0097557312691793283 1 1 1 0.0097512087863934459 1 1 1 1 1 0.010697783204627276 1 1 1 1 1 1 1 1 1 1 1 1 1 1 1 1 1 1 1 1 1 1 1 1 1 1 1 1 1 1 1 1 1 1 1 1 1 1 1 1 1 1 1 1 1 1 1 1 1 0.0081923823229912238 1 1 0.0097646936468706157 1 0.0083631941073365086 1 1 0.0080365323370610257 1 1 1 0.0092034502429640293 1 1 1 1 1 1 1 1 1 1 0.0096261881739250245 0.0067930149702170352 1 1 0.0062300123016188688 1 1 1 1 1 1 1 1 1 1 1 1 1 1 1 0.0096797117859377616 0.0078685514685135939 1 1 1 1 1 1 1 1 1 1 1 0.0090947441620873228 1 1 1 1 1 1 1 1 1 0.00984841007008142 1 1 1 1 1 1 1 1 0.0099241439173484818 1 1 0.0099420175647653413 1 1 1 1 0.0092756974063986017 1 1 1 1 1 0.0079426290358264248 1 0.0099889592552864677 1 1 1 1 0.010043526086686225 1 1 1 1 0.0095718535844682498 1 1 0.0088488538645808291 1 1 1 1 1 1 1 1 1 1 1 1 1 1 1 1 1 0.009831752409308947 1 0.0086631189235505078 1 0.0099319056080337947 1 1 1 1 1 1 1 1 1 1 1 1 1 1 1 1 1 1 1 1 1 0.0086508768653939076 1 1 1 1 1 1 1 1 1 0.0094923334703232182 1 1 1 1 1 1 1 1 1 1 1 1 1 1 1 1 0.0071608599916059747 0.01002342836372864 1 1 1 1 1 1 1 1 1 1 1 1 1 1 1 0.0042404318642149247 1 1 1 1 1 1 1 1 1 1 1 0.010123552290554002 1 1 0.0094553786619660813 1 1 1 1 1 1 1 1 1 1 1 0.0038560186648472806 1 0.003682792401427255 1 1 1 0.0099450763837214424 1 1 0.0028102554774854863 1 1 1 1 1 1 1 1 1 1 1 1 0.0032835261171303568 0.0099440415923456767 1 1 1 1 1 1 0.0087562178627731864 1 1 1 1 1 0.0092439963452768253 1 1 1 1 1 1 1 1 1 1 1 1 1 1 1 1 1 1 1 1 1 0.0099014730357764886 0.0098451483965290264 1 1 1 1 1 1 1 1 1 1 0.0098211466727810871 0.010006613149414405 1 1 1 1 0.009183672476199993 1 0.0088610445784159855 1 0.0088173975500568449 1 0.0099976283828512695 1 1 0.0083000422672500872 0.0090531774322436618 1 1 1 0.0088947162745338752 0.0097974374599021346 1 0.0099438057353136329 1 1 1 0.0097877915032066037 1 0.0095332409877660756 1 1 0.0098634548415891324 1 1 1 1 1 0.0097122025032639319 1 1 1 1 1 0.0080415531588612817 1 0.0099584988973150067 1 1 1 1 1 1 1 1 1 1 1 0.0081625189295378778 1 0.010105721700752102 0.0092930935364021923 1 0.010142067560892806 1 1 0.0077260618197447289 1 1 0.0098256839222867747 1 0.008309026541368671 1 1 0.0087899939347588097 1 1 1 1 1 0.008891419554625456 1 1 1 1 1 1 1 1 0.0098328427746075132 1 1 1 0.009628129261762269 1 1 1 1 0.0088943412578467804 1 0.0068895129046129926 1 0.0057191063858762943 1 1 0.0095192354527773738 1 1 0.0076754507727587705 0.0086188465121783825 1 0.0090733838672448375 1 1 0.0086422913251409696 0.009142296295899105 1 1 0.0093704586740900025 1 0.0089918504494706005 1 1 0.0094748072390774644 0.0099976353091583772 1 0.009934209840392675 1 1 0.0099711950708999408 1 1 1 0.0084122935072320215 1 1 0.0078033440963311525 1 1 1 1 1 1 1 1 1 1 1 1 1 1 1 1 0.0097758404912984646 1 1 1 1 1 1 1 1 0.010379566235198083 1 1 1 0.0069261265664112507 0.010001543898171756 1 1 1 1 0.010347535121314495 1 1 0.0099972519377196124 0.0062253731877395507 1 1 1 1 1 0.0083457503573515727 0.009234162648353585 1 1 0.0099841198295716367 0.0098231609146292483 1 0.00949224507865137 1 1 0.0098612149890544131 1 1 1 1 1 1 1 1 1 1 1 1 1 1 1 1 1 1 1 0.010002587707364763 1 1 1 1 1 1 0.0073687716467483585 1 1 0.0093121180229260563 1 0.0079743636853390441 1 1 1 1 1 1 0.0082621649157872349 1 1 1 0.0099020140749521667 1 1 1 1 1 1 0.01003331789177693 1 0.0078758546126388995 1 1 1 1 1 1 1 1 0.009011158936404938 1 1 1 1 1 1 1 1 1 1 0.0099018413624655955 1 1 0.0098259245672264409 1 1 1 1 1 1 1 0.0089336374625164153 1 1 1 1 1 1 1 1 1 1 1 1 1 1 0.0083466199044820687 1 1 1 1 1 1 0.0096870107799067306 1 1 1 1 1 1 1 1 1 1 1 1 1 0.010043900336391638 1 1 1 1 1 0.0074199244620430701 1 1 1 1 1 1 1 0.0094111157620348305 1 1 1 1 1 1 1 0.0091326095377861349 1 1 1 1 0.0065793799275501866 0.0072109319378346141 0.0096867983458963601 1 0.0091707316219245463 1 1 1 1 1 1 0.009992129218550588 1 1 1 1 0.0092135326422819429 1 0.0094775557638649959 0.0070249352513131105 0.0096304807672301911 0.0082538817323242683 1 0.0098352583364619672 1 0.010316884156514883 0.0076524015146741727 1 1 1 1 1 1 1 0.0099982113055006559 1 0.009959574650003921 1 1 1 1 1 1 1 0.0099224447452347549 1 1 1 1 0.0099727381103331299 1 1 1 1 1 1 0.0099896314607027803 1 1 1 1 1 1 0.0099832087115230544 0.011617144135587306 1 1 1 1 0.010997281846673833 1 0.010060703008970478 1 1 1 1 1 1 1 1 1 1 0.0072583416214745643 1 1 0.0052184660259910641 1 0.0072076414399937991 1 1 0.010356474156668384 1 0.0064416731431799282 1 0.0068625629916241162 1 1 1 1 1 1 1 1 1 1 0.010351971008477354 1 1 1 1 1 1 1 1 0.0039202177017483922 0.0098791127910844208 1 1 1 0.010024409805789157 1 1 1 1 1 1 0.0060203463030604138 1 0.0068926094562524838 1 1 1 1 1 0.0065400367183857727 1 1 1 1 1 1 1 1 1 0.0073425236877038827 1 1 0.0090311166399061928 1 1 1 0.00067520745582307345 1 1 1 1 1 1 0.0031071630111080277 1 1 1 1 1 1 1 0.0019050538582615793 1 1 1 1 1 1 1 1 1 1 1 1 0.010038140271521391 1 1 1 1 1 0.0087297268227725135 1 1 0.0095437960381117206 1 1 1 1 1 1 1 1 1 1 1 1 1 1 1 1 1 1 1 0.0099980547694607184 1 1 0.0004608559085744245 1 1 1 1 1 0.010176261156211709 1 1 -1.7347234759768071e-18 1 1 1 1 1 1 1 1 0.0099510928391544594 1 1 1 1.7347234759768071e-18 1 1 1 1 1 1 1 1 1 1 1 1 1 0.0099007994740560861 1 1 1 1 1 1 1 1 1 1 1 1 1 1 1 1 1 1 1 1 1 1 1 1 1 0.0096689091953075269 1 1 1 1 1 1 1 0.011664260937857624 1 0.011572019252192976 1 1 1 0.009139592973954086 1 0.010549483126967683 1 1 1 0.010341041352171086 0.0063512285958112809 1 1 0.0096371387412501688 1 0.0063059111476829067 1 1 1 1 1 0.0097359567190088252 1 1 1 1 1 0.0098965430094012236 1 1 1 1 1 1 1 1 1 1 0.010050787924505197 1 1 1 0.0098954653044898179 1 1 1 1 1 1 1 1 1 1 1 1 1 1 1 1 1 0.011739618408255466 1 1 0.009876029862032655 1 1 0.0097413095065490025 1 1 1 1 1 1 1 1 1 1 1 1 1 1 1 1 1 1 1 1 1 1 1 1 0.010082374244943541 0.0050924702439181261 1 1 1 1 1 1 0.0055910538849939257 1 1 1 1 1 1 0.010282591631255399 1 1 1 0.0046831847204414738 1 0.0055981379135035918 1 0.010908100170645463 1 1 1 1 1 1 0.0045880201386078873 1 1 1 0.004096236868383089 1 0.01092248054312908 1 1 1 0.010619493677505634 1 1 1 1 1 1 1 1 1 1 1 0.0093049723490882391 1 1 0.0083672040749291823 1 1 1 0.010277435892347433 1 1 1 1 1 1 1 1 1 0.0074966331128331273 1 1 0.0091279710465150803 1 1 1 1 0.007503318678488846 1 0.0094616207715355512 1 1 1 1 1 1 1 1 1 1 1 0.0084881821381612883 1 1 1 0.0076882244277002342 1 1 1 1 1 1 1 1 1 1 0.0092793270248402986 1 1 1 1 1 0.0089957798293339823 1 1 1 1 0.010002599658836688 1 1 1 1 1 1 1 1 1 1 1 1 1 1 1 1 1 1 1 1 1 1 0.010325639228050326 1 0.010346239684047845 1 1 1 1 1 1 1 1 0.01021528732284383 1 1 1 1 1 1 1 1 1 1 1 1 1 1 1 1 1 1 1 1 1 1 1 1 1 1 1 0.010047381345263874 0.010124880323941564 1 1 1 1 1 1 1 1 1 1 1 1 1 1 1 1 1 1 1 1 1 1 1 1 1 1 1 1 1 1 1 1 1 1 1 1 1 1 1 1 1 1 1 1 1 1 1 1 1 1 1 1 1 1 1 1 1 1 1 1 1 1 1 1 1 1 1 1 1 1 1 1 1 1 1 1 1 1 1 0.0099356603752184299 1 0.003209210462857541 1 1 1 1 1 1 1 1 1 0.0099982551913615023 0.011598101949273319 1 0.0068219071400530962 1 1 0.0099779329168303062 1 1 1 1 1 1 1 1 1 0.0023053870190241398 1 1 1 1 1 1 1 0.0033333666917454135 0.0081278363012724855 1 1 0.0095811153578991681 1 0.0073516839161606373 1 1 0.010892998292476686 0.0094887086779056867 1 1 1 1 1 0.010313010693866155 1 1 1 0.0088744696383971176 1 1 0.0094673835148400623 1 1 1 1 1 0.0098602173679279859 1 0.0034615970430061094 1 1 0.0083203204127008813 1 1 1 1 0.0084473569263200134 1 1 1 1 1 1 1 0.0038355268200443091 1 0.0066137573157518071 1 1 1 1 1 1 1 1 1 1 1 1 1 1 1 1 1 1 1 1 1 1 1 0.0098378591905643256 1 1 1 1 1 1 1 1 0.0102167673057 1 0.0098536296050657501 1 1 1 1 1 1 1 0.010671084582584291 1 1 1 1 1 1 1 0.0095694907022446755 1 1 1 1 1 0.0089897069667233542 1 1 1 1 1 1 1 0.0099718183075161206 1 1 1 1 0.0096104950973814017 1 1 1 1 1 1 1 0.009503046370492008 1 1 1 1 1 0.0093964578927450276 0.01013191847254153 1 1 0.011928342459253524 0.010187899907544385 1 0.010399399861939218 1 1 0.010001223721022702 1 1 0.0095657334963268788 1 1 1 1 0.010009616835625179 1 0.0099615319550416994 0.011757652634735511 1 1 1 0.0108406638876663 1 1 0.0099938201424360704 1 0.0089011407657098186 1 1 1 1 1 1 1 1 1 1 1 1 1 1 1 1 0.0097573581427259411 1 1 1 1 1 0.0096195356310441842 1 1 1 1 1 0.011248747678992433 1 1 0.012105579492628991 1 1 1 1 1 1 1 1 1 1 1 1 1 0.01000372201550595 1 1 1 0.010042737374324545 1 1 1 1 1 1 1 1 1 1 1 1 1 1 1 1 1 0.009891451593805143 1 1 1 0.0093831334557917517 1 1 1 1 1 0.0085327966118118152 1 1 1 0.010268072841900736 1 1 1 0.0087029359312859964 0.0085394499356769987 1 1 1 0.0090220152930135435 1 1 1 1 1 1 1 1 1 1 1 0.0099139297882160273 1 1 1 1 1 1 1 1 1 1 0.010062017083132988 1 1 1 1 1 1 1 1 1 1 1 1 1 1 1 1 1 1 1 1 1 1 1 1 1 1 1 1 1 1 1 1 1 1 1 1 1 1 1 1 1 1 1 1 1 1 1 1 1 1 1 1 1 1 1 1 1 0.0090284896434136928 1 1 0.0096605303418989454 1 1 1 1 1 1 1 1 1 1 1 1 0.0056754879577978774 1 1 1 1 1 1 1 1 1 1 1 0.010136851925038732 1 1 1 1 0.0059949708457785952 1 1 1 1 1 1 1 1 1 1 1 0.0082662434270500892 1 1 1 1 1 1 1 0.0098180458480606816 1 1 1 1 0.0075600926379449061 1 1 1 1 1 1 1 1 1 1 1 1 1 1 1 1 1 1 1 1 0.010411644447737373 1 1 1 1 1 0.0099959275780897843 1 1 0.0096544113123388439 1 1 1 1 0.0098825791689411621 1 1 1 1 1 1 1 0.0076037341997806348 1 1 1 1 1 1 1 1 1 1 1 1 1 1 1 1 0.0093609610806056603 1 1 1 1 0.010155804556025078 1 1 1 1 0.006135387857940577 1 1 1 1 0.010053711271560016 1 1 1 1 0.010226290044970004 1 1 1 1 0.010544907588290225 1 1 0.0084784180016477442 1 1 1 1 0.006423095176391825 1 0.0067650392045077307 1 
</DataArray>
</CellData>
</Piece>
</UnstructuredGrid>
</VTKFile>
